ITEM: TIMESTEP
0
ITEM: NUMBER OF ATOMS
2162
ITEM: BOX BOUNDS pp pp ff
0.0000000000000000e+00 5.2951974149999998e+01
0.0000000000000000e+00 6.1143673049999997e+01
0.0000000000000000e+00 6.0000000000000000e+01
ITEM: ATOMS id mol type q x y z
1 1 1 0.000694758891752 0.00000000 0.00000000 25.00000000
2 1 1 0.000701076081063 1.47088817 2.54765304 25.00000000
3 1 1 0.000715264829667 0.00000000 5.09530609 25.00000000
4 1 1 0.000742658035238 1.47088817 7.64295913 25.00000000
5 1 1 0.000775961861426 0.00000000 10.19061218 25.00000000
6 1 1 0.000823644610572 1.47088817 12.73826522 25.00000000
7 1 1 0.000871358932682 0.00000000 15.28591827 25.00000000
8 1 1 0.00093356627821 1.47088817 17.83357131 25.00000000
9 1 1 0.000699139712942 2.94177634 0.00000000 25.00000000
10 1 1 0.000710430213992 4.41266451 2.54765304 25.00000000
11 1 1 0.000721028007322 2.94177634 5.09530609 25.00000000
12 1 1 0.000757873861836 4.41266451 7.64295913 25.00000000
13 1 1 0.000786433509778 2.94177634 10.19061218 25.00000000
14 1 1 0.000852486893573 4.41266451 12.73826522 25.00000000
15 1 1 0.000890834464171 2.94177634 15.28591827 25.00000000
16 1 1 0.000986087693715 4.41266451 17.83357131 25.00000000
17 1 1 0.000711960528647 5.88355268 0.00000000 25.00000000
18 1 1 0.000728496878551 7.35444085 2.54765304 25.00000000
19 1 1 0.000738031564242 5.88355268 5.09530609 25.00000000
20 1 1 0.000787768315333 7.35444085 7.64295913 25.00000000
21 1 1 0.000817724598985 5.88355268 10.19061218 25.00000000
22 1 1 0.000910821586701 7.35444085 12.73826522 25.00000000
23 1 1 0.000950735715601 5.88355268 15.28591827 25.00000000
24 1 1 0.00110049851412 7.35444085 17.83357131 25.00000000
25 1 1 0.000732215604314 8.82532903 0.00000000 25.00000000
26 1 1 0.000753871026121 10.29621720 2.54765304 25.00000000
27 1 1 0.000765281143361 8.82532903 5.09530609 25.00000000
28 1 1 0.000830895388471 10.29621720 7.64295913 25.00000000
29 1 1 0.000869317571305 8.82532903 10.19061218 25.00000000
30 1 1 0.0010005135167 10.29621720 12.73826522 25.00000000
31 1 1 0.00105703612951 8.82532903 15.28591827 25.00000000
32 1 1 0.00129989249646 10.29621720 17.83357131 25.00000000
33 1 1 0.00075811561786 11.76710537 0.00000000 25.00000000
34 1 1 0.000784222102592 13.23799354 2.54765304 25.00000000
35 1 1 0.000800763942548 11.76710537 5.09530609 25.00000000
36 1 1 0.000884432268875 13.23799354 7.64295913 25.00000000
37 1 1 0.000939981824411 11.76710537 10.19061218 25.00000000
38 1 1 0.00112413391256 13.23799354 12.73826522 25.00000000
39 1 1 0.00122163584611 11.76710537 15.28591827 25.00000000
40 1 1 0.00161321396855 13.23799354 17.83357131 25.00000000
41 1 1 0.000787010757082 14.70888171 0.00000000 25.00000000
42 1 1 0.000816241270892 16.17976988 2.54765304 25.00000000
43 1 1 0.000841184008972 14.70888171 5.09530609 25.00000000
44 1 1 0.000943708709293 16.17976988 7.64295913 25.00000000
45 1 1 0.00102690520219 14.70888171 10.19061218 25.00000000
46 1 1 0.0012796873279 16.17976988 12.73826522 25.00000000
47 1 1 0.00145455831558 14.70888171 15.28591827 25.00000000
48 1 1 0.0020435879627 16.17976988 17.83357131 25.00000000
49 1 1 -0.000160095270891 1.47088817 0.84921768 27.40195032
50 1 1 -0.000163273630269 2.94177634 3.39687073 27.40195032
51 1 1 -0.000167182529439 1.47088817 5.94452377 27.40195032
52 1 1 -0.00017626116488 2.94177634 8.49217681 27.40195032
53 1 1 -0.000184582403431 1.47088817 11.03982986 27.40195032
54 1 1 -0.000200119312257 2.94177634 13.58748290 27.40195032
55 1 1 -0.000210977076882 1.47088817 16.13513595 27.40195032
56 1 1 -0.000233003520125 2.94177634 18.68278899 27.40195032
57 1 1 -0.000162345564635 4.41266451 0.84921768 27.40195032
58 1 1 -0.000167021261135 5.88355268 3.39687073 27.40195032
59 1 1 -0.000170376280909 4.41266451 5.94452377 27.40195032
60 1 1 -0.000182795727514 5.88355268 8.49217681 27.40195032
61 1 1 -0.000190749991163 4.41266451 11.03982986 27.40195032
62 1 1 -0.000214004509115 5.88355268 13.58748290 27.40195032
63 1 1 -0.000223893442408 4.41266451 16.13513595 27.40195032
64 1 1 -0.000260493590207 5.88355268 18.68278899 27.40195032
65 1 1 -0.000166667670091 7.35444085 0.84921768 27.40195032
66 1 1 -0.000172977035032 8.82532903 3.39687073 27.40195032
67 1 1 -0.000176648892124 7.35444085 5.94452377 27.40195032
68 1 1 -0.000193827484543 8.82532903 8.49217681 27.40195032
69 1 1 -0.000203655114332 7.35444085 11.03982986 27.40195032
70 1 1 -0.000238716020343 8.82532903 13.58748290 27.40195032
71 1 1 -0.000251479958207 7.35444085 16.13513595 27.40195032
72 1 1 -0.000308259941858 8.82532903 18.68278899 27.40195032
73 1 1 -0.000172693096821 10.29621720 0.84921768 27.40195032
74 1 1 -0.000180693138706 11.76710537 3.39687073 27.40195032
75 1 1 -0.000185761106455 10.29621720 5.94452377 27.40195032
76 1 1 -0.00020926590892 11.76710537 8.49217681 27.40195032
77 1 1 -0.000223863553706 10.29621720 11.03982986 27.40195032
78 1 1 -0.00027421109583 11.76710537 13.58748290 27.40195032
79 1 1 -0.000294538359088 10.29621720 16.13513595 27.40195032
80 1 1 -0.00037931712643 11.76710537 18.68278899 27.40195032
81 1 1 -0.000179852063734 13.23799354 0.84921768 27.40195032
82 1 1 -0.000189487563205 14.70888171 3.39687073 27.40195032
83 1 1 -0.000197220062092 13.23799354 5.94452377 27.40195032
84 1 1 -0.000228189924185 14.70888171 8.49217681 27.40195032
85 1 1 -0.000250748847421 13.23799354 11.03982986 27.40195032
86 1 1 -0.000318088354576 14.70888171 13.58748290 27.40195032
87 1 1 -0.000352680805341 13.23799354 16.13513595 27.40195032
88 1 1 -0.000496125817472 14.70888171 18.68278899 27.40195032
89 1 1 -0.000187375117329 16.17976988 0.84921768 27.40195032
90 1 1 -0.000161995361743 0.00000000 3.39687073 27.40195032
91 1 1 -0.000210018719648 16.17976988 5.94452377 27.40195032
92 1 1 -0.000174101143033 0.00000000 8.49217681 27.40195032
93 1 1 -0.000281601981663 16.17976988 11.03982986 27.40195032
94 1 1 -0.000195729518471 0.00000000 13.58748290 27.40195032
95 1 1 -0.0004309475018 16.17976988 16.13513595 27.40195032
96 1 1 -0.000224257582258 0.00000000 18.68278899 27.40195032
97 1 1 -2.3930535866e-06 2.94177634 1.69843536 29.80390065
98 1 1 -2.4657141098e-06 4.41266451 4.24608841 29.80390065
99 1 1 -2.52927971233e-06 2.94177634 6.79374145 29.80390065
100 1 1 -2.70301949595e-06 4.41266451 9.34139450 29.80390065
101 1 1 -2.82857341499e-06 2.94177634 11.88904754 29.80390065
102 1 1 -3.13536575963e-06 4.41266451 14.43670058 29.80390065
103 1 1 -3.27968724974e-06 2.94177634 16.98435363 29.80390065
104 1 1 -3.69735690384e-06 4.41266451 19.53200667 29.80390065
105 1 1 -2.44241807158e-06 5.88355268 1.69843536 29.80390065
106 1 1 -2.54220530234e-06 7.35444085 4.24608841 29.80390065
107 1 1 -2.60595352569e-06 5.88355268 6.79374145 29.80390065
108 1 1 -2.8507142342e-06 7.35444085 9.34139450 29.80390065
109 1 1 -2.98975345633e-06 5.88355268 11.88904754 29.80390065
110 1 1 -3.44249447497e-06 7.35444085 14.43670058 29.80390065
111 1 1 -3.58753169993e-06 5.88355268 16.98435363 29.80390065
112 1 1 -4.20596901602e-06 7.35444085 19.53200667 29.80390065
113 1 1 -2.52048078312e-06 8.82532903 1.69843536 29.80390065
114 1 1 -2.65204471016e-06 10.29621720 4.24608841 29.80390065
115 1 1 -2.73344997802e-06 8.82532903 6.79374145 29.80390065
116 1 1 -3.07228822921e-06 10.29621720 9.34139450 29.80390065
117 1 1 -3.26272527767e-06 8.82532903 11.88904754 29.80390065
118 1 1 -3.90031980319e-06 10.29621720 14.43670058 29.80390065
119 1 1 -4.09164648638e-06 8.82532903 16.98435363 29.80390065
120 1 1 -5.14196728757e-06 10.29621720 19.53200667 29.80390065
121 1 1 -2.62100859843e-06 11.76710537 1.69843536 29.80390065
122 1 1 -2.7867509006e-06 13.23799354 4.24608841 29.80390065
123 1 1 -2.90538592583e-06 11.76710537 6.79374145 29.80390065
124 1 1 -3.34842989797e-06 13.23799354 9.34139450 29.80390065
125 1 1 -3.63475388305e-06 11.76710537 11.88904754 29.80390065
126 1 1 -4.53445931629e-06 13.23799354 14.43670058 29.80390065
127 1 1 -4.89970432863e-06 11.76710537 16.98435363 29.80390065
128 1 1 -7.14777536845e-06 13.23799354 19.53200667 29.80390065
129 1 1 -2.73429465938e-06 14.70888171 1.69843536 29.80390065
130 1 1 -2.93045627563e-06 16.17976988 4.24608841 29.80390065
131 1 1 -3.10308280836e-06 14.70888171 6.79374145 29.80390065
132 1 1 -3.64955371463e-06 16.17976988 9.34139450 29.80390065
133 1 1 -4.08737857909e-06 14.70888171 11.88904754 29.80390065
134 1 1 -5.43830696447e-06 16.17976988 14.43670058 29.80390065
135 1 1 -6.26594415367e-06 14.70888171 16.98435363 29.80390065
136 1 1 -1.05292014872e-05 16.17976988 19.53200667 29.80390065
137 1 1 -2.37615712632e-06 0.00000000 1.69843536 29.80390065
138 1 1 -2.4265271122e-06 1.47088817 4.24608841 29.80390065
139 1 1 -2.50382166235e-06 0.00000000 6.79374145 29.80390065
140 1 1 -2.63110630824e-06 1.47088817 9.34139450 29.80390065
141 1 1 -2.77626367805e-06 0.00000000 11.88904754 29.80390065
142 1 1 -2.98174762434e-06 1.47088817 14.43670058 29.80390065
143 1 1 -3.17379548126e-06 0.00000000 16.98435363 29.80390065
144 1 1 -3.43150661963e-06 1.47088817 19.53200667 29.80390065
145 1 1 0.000170113469387 4.41266451 2.54765304 32.20585097
146 1 1 0.000177413698548 5.88355268 5.09530609 32.20585097
147 1 1 0.000182647862404 4.41266451 7.64295913 32.20585097
148 1 1 0.000198816908083 5.88355268 10.19061218 32.20585097
149 1 1 0.000208203223865 4.41266451 12.73826522 32.20585097
150 1 1 0.000236830470093 5.88355268 15.28591827 32.20585097
151 1 1 0.000246390882958 4.41266451 17.83357131 32.20585097
152 1 1 0.000170530880309 5.88355268 0.00000000 32.20585097
153 1 1 0.000174909612489 7.35444085 2.54765304 32.20585097
154 1 1 0.000184674684315 8.82532903 5.09530609 32.20585097
155 1 1 0.000190719527687 7.35444085 7.64295913 32.20585097
156 1 1 0.000213728469208 8.82532903 10.19061218 32.20585097
157 1 1 0.000225599345473 7.35444085 12.73826522 32.20585097
158 1 1 0.00026950537063 8.82532903 15.28591827 32.20585097
159 1 1 0.000281687161056 7.35444085 17.83357131 32.20585097
160 1 1 0.000175909119726 8.82532903 0.00000000 32.20585097
161 1 1 0.00018163612323 10.29621720 2.54765304 32.20585097
162 1 1 0.000194277189715 11.76710537 5.09530609 32.20585097
163 1 1 0.000202756530624 10.29621720 7.64295913 32.20585097
164 1 1 0.000235016614656 11.76710537 10.19061218 32.20585097
165 1 1 0.000253078174274 10.29621720 12.73826522 32.20585097
166 1 1 0.000316317726326 11.76710537 15.28591827 32.20585097
167 1 1 0.000336754263118 10.29621720 17.83357131 32.20585097
168 1 1 0.000182765946502 11.76710537 0.00000000 32.20585097
169 1 1 0.000189705185287 13.23799354 2.54765304 32.20585097
170 1 1 0.000205495459965 14.70888171 5.09530609 32.20585097
171 1 1 0.000218308297594 13.23799354 7.64295913 32.20585097
172 1 1 0.00026134917193 14.70888171 10.19061218 32.20585097
173 1 1 0.000289630131028 13.23799354 12.73826522 32.20585097
174 1 1 0.000376268885301 14.70888171 15.28591827 32.20585097
175 1 1 0.000416247678879 13.23799354 17.83357131 32.20585097
176 1 1 0.000190405605569 14.70888171 0.00000000 32.20585097
177 1 1 0.000198289448315 16.17976988 2.54765304 32.20585097
178 1 1 0.000171376332847 0.00000000 5.09530609 32.20585097
179 1 1 0.00023603351459 16.17976988 7.64295913 32.20585097
180 1 1 0.00018738710423 0.00000000 10.19061218 32.20585097
181 1 1 0.000331891580508 16.17976988 12.73826522 32.20585097
182 1 1 0.000212659357317 0.00000000 15.28591827 32.20585097
183 1 1 0.000544087488196 16.17976988 17.83357131 32.20585097
184 1 1 0.000165948862078 0.00000000 0.00000000 32.20585097
185 1 1 0.000167623580955 1.47088817 2.54765304 32.20585097
186 1 1 0.000172904968842 2.94177634 5.09530609 32.20585097
187 1 1 0.000178610966494 1.47088817 7.64295913 32.20585097
188 1 1 0.000190192761918 2.94177634 10.19061218 32.20585097
189 1 1 0.000200012048394 1.47088817 12.73826522 32.20585097
190 1 1 0.000218446704837 2.94177634 15.28591827 32.20585097
191 1 1 0.000229749128229 1.47088817 17.83357131 32.20585097
192 1 1 0.000167117119376 2.94177634 0.00000000 32.20585097
193 1 1 -0.000726227290296 5.88355268 3.39687073 34.60780130
194 1 1 -0.000764043205102 7.35444085 5.94452377 34.60780130
195 1 1 -0.000788052199728 5.88355268 8.49217681 34.60780130
196 1 1 -0.000865714730985 7.35444085 11.03982986 34.60780130
197 1 1 -0.000904255232956 5.88355268 13.58748290 34.60780130
198 1 1 -0.0010340801268 7.35444085 16.13513595 34.60780130
199 1 1 -0.00106837711254 5.88355268 18.68278899 34.60780130
200 1 1 -0.000724772368413 7.35444085 0.84921768 34.60780130
201 1 1 -0.000749614191275 8.82532903 3.39687073 34.60780130
202 1 1 -0.000799060972339 10.29621720 5.94452377 34.60780130
203 1 1 -0.000829262424768 8.82532903 8.49217681 34.60780130
204 1 1 -0.000935452614506 10.29621720 11.03982986 34.60780130
205 1 1 -0.000987826470668 8.82532903 13.58748290 34.60780130
206 1 1 -0.00118779569336 10.29621720 16.13513595 34.60780130
207 1 1 -0.0012415047401 8.82532903 18.68278899 34.60780130
208 1 1 -0.000748442928142 10.29621720 0.84921768 34.60780130
209 1 1 -0.000779789085011 11.76710537 3.39687073 34.60780130
210 1 1 -0.000841819144341 13.23799354 5.94452377 34.60780130
211 1 1 -0.000884428707296 11.76710537 8.49217681 34.60780130
212 1 1 -0.00102735206498 13.23799354 11.03982986 34.60780130
213 1 1 -0.00111124188113 11.76710537 13.58748290 34.60780130
214 1 1 -0.00142081876015 13.23799354 16.13513595 34.60780130
215 1 1 -0.00153292485768 11.76710537 18.68278899 34.60780130
216 1 1 -0.000776619886303 13.23799354 0.84921768 34.60780130
217 1 1 -0.000813783421456 14.70888171 3.39687073 34.60780130
218 1 1 -0.000888063304422 16.17976988 5.94452377 34.60780130
219 1 1 -0.000949911110449 14.70888171 8.49217681 34.60780130
220 1 1 -0.001137493656 16.17976988 11.03982986 34.60780130
221 1 1 -0.00127824127922 14.70888171 13.58748290 34.60780130
222 1 1 -0.00173566341279 16.17976988 16.13513595 34.60780130
223 1 1 -0.00196685013229 14.70888171 18.68278899 34.60780130
224 1 1 -0.000806198622015 16.17976988 0.84921768 34.60780130
225 1 1 -0.000706529737681 0.00000000 3.39687073 34.60780130
226 1 1 -0.00072695095193 1.47088817 5.94452377 34.60780130
227 1 1 -0.000754266799656 0.00000000 8.49217681 34.60780130
228 1 1 -0.000795643537025 1.47088817 11.03982986 34.60780130
229 1 1 -0.000839628763199 0.00000000 13.58748290 34.60780130
230 1 1 -0.000898357991082 1.47088817 16.13513595 34.60780130
231 1 1 -0.000949747303079 0.00000000 18.68278899 34.60780130
232 1 1 -0.000699055071311 1.47088817 0.84921768 34.60780130
233 1 1 -0.000711530835832 2.94177634 3.39687073 34.60780130
234 1 1 -0.000739512741726 4.41266451 5.94452377 34.60780130
235 1 1 -0.000762766805469 2.94177634 8.49217681 34.60780130
236 1 1 -0.000819028528686 4.41266451 11.03982986 34.60780130
237 1 1 -0.000855642873287 2.94177634 13.58748290 34.60780130
238 1 1 -0.000941933053179 4.41266451 16.13513595 34.60780130
239 1 1 -0.000978008383135 2.94177634 18.68278899 34.60780130
240 1 1 -0.000707845885577 4.41266451 0.84921768 34.60780130
241 1 1 0.000983660266012 0.00000000 20.38122435 25.00000000
242 1 1 0.00104602493422 1.47088817 22.92887739 25.00000000
243 1 1 0.0010787079583 0.00000000 25.47653044 25.00000000
244 1 1 0.00111995845809 1.47088817 28.02418348 25.00000000
245 1 1 0.00111667872656 0.00000000 30.57183653 25.00000000
246 1 1 0.00111995431355 1.47088817 33.11948957 25.00000000
247 1 1 0.00107869154815 0.00000000 35.66714262 25.00000000
248 1 1 0.00104601199853 1.47088817 38.21479566 25.00000000
249 1 1 0.00101682505225 2.94177634 20.38122435 25.00000000
250 1 1 0.00113202130567 4.41266451 22.92887739 25.00000000
251 1 1 0.00112733147654 2.94177634 25.47653044 25.00000000
252 1 1 0.00123481055309 4.41266451 28.02418348 25.00000000
253 1 1 0.00117275659588 2.94177634 30.57183653 25.00000000
254 1 1 0.00123484497884 4.41266451 33.11948957 25.00000000
255 1 1 0.00112734572603 2.94177634 35.66714262 25.00000000
256 1 1 0.00113206462583 4.41266451 38.21479566 25.00000000
257 1 1 0.00112526728813 5.88355268 20.38122435 25.00000000
258 1 1 0.00133671507602 7.35444085 22.92887739 25.00000000
259 1 1 0.00129547253365 5.88355268 25.47653044 25.00000000
260 1 1 0.00152092821979 7.35444085 28.02418348 25.00000000
261 1 1 0.00137047180761 5.88355268 30.57183653 25.00000000
262 1 1 0.00152099582763 7.35444085 33.11948957 25.00000000
263 1 1 0.00129555306074 5.88355268 35.66714262 25.00000000
264 1 1 0.00133679391787 7.35444085 38.21479566 25.00000000
265 1 1 0.00134071738852 8.82532903 20.38122435 25.00000000
266 1 1 0.00172710531986 10.29621720 22.92887739 25.00000000
267 1 1 0.00165346731228 8.82532903 25.47653044 25.00000000
268 1 1 0.00208176583476 10.29621720 28.02418348 25.00000000
269 1 1 0.00179898702843 8.82532903 30.57183653 25.00000000
270 1 1 0.00208172574101 10.29621720 33.11948957 25.00000000
271 1 1 0.00165347783946 8.82532903 35.66714262 25.00000000
272 1 1 0.00172692848205 10.29621720 38.21479566 25.00000000
273 1 1 0.00171363384214 11.76710537 20.38122435 25.00000000
274 1 1 0.00236855004509 13.23799354 22.92887739 25.00000000
275 1 1 0.0022946211061 11.76710537 25.47653044 25.00000000
276 1 1 0.00304158868055 13.23799354 28.02418348 25.00000000
277 1 1 0.00257547512657 11.76710537 30.57183653 25.00000000
278 1 1 0.00304127020086 13.23799354 33.11948957 25.00000000
279 1 1 0.00229413877303 11.76710537 35.66714262 25.00000000
280 1 1 0.00236769969885 13.23799354 38.21479566 25.00000000
281 1 1 0.00227523570812 14.70888171 20.38122435 25.00000000
282 1 1 0.00333404137622 16.17976988 22.92887739 25.00000000
283 1 1 0.00334094219818 14.70888171 25.47653044 25.00000000
284 1 1 0.00500161640845 16.17976988 28.02418348 25.00000000
285 1 1 0.00398432867381 14.70888171 30.57183653 25.00000000
286 1 1 0.00500138990482 16.17976988 33.11948957 25.00000000
287 1 1 0.00333985059157 14.70888171 35.66714262 25.00000000
288 1 1 0.00333295054171 16.17976988 38.21479566 25.00000000
289 1 1 -0.000242055886263 1.47088817 21.23044203 27.40195032
290 1 1 -0.000266967336446 2.94177634 23.77809508 27.40195032
291 1 1 -0.000267645450072 1.47088817 26.32574812 27.40195032
292 1 1 -0.000287362205495 2.94177634 28.87340116 27.40195032
293 1 1 -0.000275252565502 1.47088817 31.42105421 27.40195032
294 1 1 -0.000282971841508 2.94177634 33.96870725 27.40195032
295 1 1 -0.000260554928509 1.47088817 36.51636030 27.40195032
296 1 1 -0.000256355732057 2.94177634 39.06401334 27.40195032
297 1 1 -0.000265322303123 4.41266451 21.23044203 27.40195032
298 1 1 -0.000309988544295 5.88355268 23.77809508 27.40195032
299 1 1 -0.000300163965092 4.41266451 26.32574812 27.40195032
300 1 1 -0.00034030992892 5.88355268 28.87340116 27.40195032
301 1 1 -0.000310580781827 4.41266451 31.42105421 27.40195032
302 1 1 -0.000333741252046 5.88355268 33.96870725 27.40195032
303 1 1 -0.000290465819428 4.41266451 36.51636030 27.40195032
304 1 1 -0.000294464755632 5.88355268 39.06401334 27.40195032
305 1 1 -0.000313386406722 7.35444085 21.23044203 27.40195032
306 1 1 -0.000386822365328 8.82532903 23.77809508 27.40195032
307 1 1 -0.000367638347168 7.35444085 26.32574812 27.40195032
308 1 1 -0.000444148173114 8.82532903 28.87340116 27.40195032
309 1 1 -0.000385086068216 7.35444085 31.42105421 27.40195032
310 1 1 -0.00043092494728 8.82532903 33.96870725 27.40195032
311 1 1 -0.000352204170672 7.35444085 36.51636030 27.40195032
312 1 1 -0.000361090907813 8.82532903 39.06401334 27.40195032
313 1 1 -0.00039169425898 10.29621720 21.23044203 27.40195032
314 1 1 -0.000544264579294 11.76710537 23.77809508 27.40195032
315 1 1 -0.000504184245363 10.29621720 26.32574812 27.40195032
316 1 1 -0.000719637526296 11.76710537 28.87340116 27.40195032
317 1 1 -0.00055039304901 10.29621720 31.42105421 27.40195032
318 1 1 -0.00067500328819 11.76710537 33.96870725 27.40195032
319 1 1 -0.000467903182649 10.29621720 36.51636030 27.40195032
320 1 1 -0.00048080957472 11.76710537 39.06401334 27.40195032
321 1 1 -0.000541557317363 13.23799354 21.23044203 27.40195032
322 1 1 -0.000961402899352 14.70888171 23.77809508 27.40195032
323 1 1 -0.000888905091142 13.23799354 26.32574812 27.40195032
324 1 1 -0.00154302440922 14.70888171 28.87340116 27.40195032
325 1 1 -0.00105450225666 13.23799354 31.42105421 27.40195032
326 1 1 -0.00139289862089 14.70888171 33.96870725 27.40195032
327 1 1 -0.000764075976407 13.23799354 36.51636030 27.40195032
328 1 1 -0.00076191904133 14.70888171 39.06401334 27.40195032
329 1 1 -0.000885084119552 16.17976988 21.23044203 27.40195032
330 1 1 -0.000252872791917 0.00000000 23.77809508 27.40195032
331 1 1 -0.00189736011113 16.17976988 26.32574812 27.40195032
332 1 1 -0.000269916502427 0.00000000 28.87340116 27.40195032
333 1 1 -0.00235534272869 16.17976988 31.42105421 27.40195032
334 1 1 -0.000266261563879 0.00000000 33.96870725 27.40195032
335 1 1 -0.00153610150444 16.17976988 36.51636030 27.40195032
336 1 1 -0.000243994024904 0.00000000 39.06401334 27.40195032
337 1 1 -3.7803508817e-06 2.94177634 22.07965971 29.80390065
338 1 1 -4.23582462354e-06 4.41266451 24.62731276 29.80390065
339 1 1 -4.14758980653e-06 2.94177634 27.17496580 29.80390065
340 1 1 -4.50964301162e-06 4.41266451 29.72261885 29.80390065
341 1 1 -4.18245030046e-06 2.94177634 32.27027189 29.80390065
342 1 1 -4.34692893639e-06 4.41266451 34.81792493 29.80390065
343 1 1 -3.88930067245e-06 2.94177634 37.36557798 29.80390065
344 1 1 -3.85977100043e-06 4.41266451 39.91323102 29.80390065
345 1 1 -4.2570350749e-06 5.88355268 22.07965971 29.80390065
346 1 1 -5.08277083308e-06 7.35444085 24.62731276 29.80390065
347 1 1 -4.83764042918e-06 5.88355268 27.17496580 29.80390065
348 1 1 -5.69295603556e-06 7.35444085 29.72261885 29.80390065
349 1 1 -4.96136978112e-06 5.88355268 32.27027189 29.80390065
350 1 1 -5.49051220298e-06 7.35444085 34.81792493 29.80390065
351 1 1 -4.51593010475e-06 5.88355268 37.36557798 29.80390065
352 1 1 -4.60930347207e-06 7.35444085 39.91323102 29.80390065
353 1 1 -5.20346082701e-06 8.82532903 22.07965971 29.80390065
354 1 1 -7.23803882881e-06 10.29621720 24.62731276 29.80390065
355 1 1 -6.43989222588e-06 8.82532903 27.17496580 29.80390065
356 1 1 -8.59534766218e-06 10.29621720 29.72261885 29.80390065
357 1 1 -6.90053831396e-06 8.82532903 32.27027189 29.80390065
358 1 1 -8.00253876755e-06 10.29621720 34.81792493 29.80390065
359 1 1 -5.894891729e-06 8.82532903 37.36557798 29.80390065
360 1 1 -5.99243828598e-06 10.29621720 39.91323102 29.80390065
361 1 1 -7.67276770463e-06 11.76710537 22.07965971 29.80390065
362 1 1 -1.31396629622e-05 13.23799354 24.62731276 29.80390065
363 1 1 -1.0624485286e-05 11.76710537 27.17496580 29.80390065
364 1 1 -1.52232742452e-05 13.23799354 29.72261885 29.80390065
365 1 1 -1.1451728397e-05 11.76710537 32.27027189 29.80390065
366 1 1 -1.26613707727e-05 13.23799354 34.81792493 29.80390065
367 1 1 -8.23759351737e-06 11.76710537 37.36557798 29.80390065
368 1 1 -8.19734432185e-06 13.23799354 39.91323102 29.80390065
369 1 1 -1.3105385553e-05 14.70888171 22.07965971 29.80390065
370 1 1 -2.33439939596e-05 16.17976988 24.62731276 29.80390065
371 1 1 -1.97117106594e-05 14.70888171 27.17496580 29.80390065
372 1 1 -2.68774374236e-05 16.17976988 29.72261885 29.80390065
373 1 1 -2.05427472495e-05 14.70888171 32.27027189 29.80390065
374 1 1 -2.10533400676e-05 16.17976988 34.81792493 29.80390065
375 1 1 -1.20024856102e-05 14.70888171 37.36557798 29.80390065
376 1 1 -1.26016327058e-05 16.17976988 39.91323102 29.80390065
377 1 1 -3.61373745825e-06 0.00000000 22.07965971 29.80390065
378 1 1 -3.84948150081e-06 1.47088817 24.62731276 29.80390065
379 1 1 -3.93038255773e-06 0.00000000 27.17496580 29.80390065
380 1 1 -4.04220013111e-06 1.47088817 29.72261885 29.80390065
381 1 1 -3.96451726999e-06 0.00000000 32.27027189 29.80390065
382 1 1 -3.91789135589e-06 1.47088817 34.81792493 29.80390065
383 1 1 -3.71507213609e-06 0.00000000 37.36557798 29.80390065
384 1 1 -3.55496759024e-06 1.47088817 39.91323102 29.80390065
385 1 1 0.000289165525665 4.41266451 22.92887739 32.20585097
386 1 1 0.000335602534098 5.88355268 25.47653044 32.20585097
387 1 1 0.000318609377032 4.41266451 28.02418348 32.20585097
388 1 1 0.000355550194978 5.88355268 30.57183653 32.20585097
389 1 1 0.000318621268355 4.41266451 33.11948957 32.20585097
390 1 1 0.000335590511517 5.88355268 35.66714262 32.20585097
391 1 1 0.000289182144519 4.41266451 38.21479566 32.20585097
392 1 1 0.000288175555315 5.88355268 20.38122435 32.20585097
393 1 1 0.000346367034826 7.35444085 22.92887739 32.20585097
394 1 1 0.000426701460472 8.82532903 25.47653044 32.20585097
395 1 1 0.00039353139294 7.35444085 28.02418348 32.20585097
396 1 1 0.000466147484237 8.82532903 30.57183653 32.20585097
397 1 1 0.000393454867864 7.35444085 33.11948957 32.20585097
398 1 1 0.000426497778749 8.82532903 35.66714262 32.20585097
399 1 1 0.000346290015522 7.35444085 38.21479566 32.20585097
400 1 1 0.000347249905221 8.82532903 20.38122435 32.20585097
401 1 1 0.000445717785095 10.29621720 22.92887739 32.20585097
402 1 1 0.000634438080025 11.76710537 25.47653044 32.20585097
403 1 1 0.000553944345754 10.29621720 28.02418348 32.20585097
404 1 1 0.000762093706789 11.76710537 30.57183653 32.20585097
405 1 1 0.000553570751242 10.29621720 33.11948957 32.20585097
406 1 1 0.000634329263273 11.76710537 35.66714262 32.20585097
407 1 1 0.000445536054862 10.29621720 38.21479566 32.20585097
408 1 1 0.000442223310463 11.76710537 20.38122435 32.20585097
409 1 1 0.000666687883209 13.23799354 22.92887739 32.20585097
410 1 1 0.00121944481273 14.70888171 25.47653044 32.20585097
411 1 1 0.00102614607371 13.23799354 28.02418348 32.20585097
412 1 1 0.00164493057203 14.70888171 30.57183653 32.20585097
413 1 1 0.00102544001561 13.23799354 33.11948957 32.20585097
414 1 1 0.0012204319766 14.70888171 35.66714262 32.20585097
415 1 1 0.000667176220916 13.23799354 38.21479566 32.20585097
416 1 1 0.0006294465829 14.70888171 20.38122435 32.20585097
417 1 1 0.00121768200773 16.17976988 22.92887739 32.20585097
418 1 1 0.000270410639999 0.00000000 25.47653044 32.20585097
419 1 1 0.00225311299816 16.17976988 28.02418348 32.20585097
420 1 1 0.000281499282179 0.00000000 30.57183653 32.20585097
421 1 1 0.0022523043889 16.17976988 33.11948957 32.20585097
422 1 1 0.000270409712089 0.00000000 35.66714262 32.20585097
423 1 1 0.00121867248447 16.17976988 38.21479566 32.20585097
424 1 1 0.000243338926141 0.00000000 20.38122435 32.20585097
425 1 1 0.000261502898437 1.47088817 22.92887739 32.20585097
426 1 1 0.00028649307959 2.94177634 25.47653044 32.20585097
427 1 1 0.000283032101803 1.47088817 28.02418348 32.20585097
428 1 1 0.00029979276638 2.94177634 30.57183653 32.20585097
429 1 1 0.00028303504346 1.47088817 33.11948957 32.20585097
430 1 1 0.000286508816437 2.94177634 35.66714262 32.20585097
431 1 1 0.00026150508944 1.47088817 38.21479566 32.20585097
432 1 1 0.000254221473284 2.94177634 20.38122435 32.20585097
433 1 1 -0.00124934748954 5.88355268 23.77809508 34.60780130
434 1 1 -0.00148065962843 7.35444085 26.32574812 34.60780130
435 1 1 -0.00136701570336 5.88355268 28.87340116 34.60780130
436 1 1 -0.0015516616019 7.35444085 31.42105421 34.60780130
437 1 1 -0.00134103231649 5.88355268 33.96870725 34.60780130
438 1 1 -0.0014169347687 7.35444085 36.51636030 34.60780130
439 1 1 -0.00119101253261 5.88355268 39.06401334 34.60780130
440 1 1 -0.00126192857147 7.35444085 21.23044203 34.60780130
441 1 1 -0.00156296363229 8.82532903 23.77809508 34.60780130
442 1 1 -0.00199930882351 10.29621720 26.32574812 34.60780130
443 1 1 -0.00178875327688 8.82532903 28.87340116 34.60780130
444 1 1 -0.00213848331146 10.29621720 31.42105421 34.60780130
445 1 1 -0.00173810786448 8.82532903 33.96870725 34.60780130
446 1 1 -0.00187660746554 10.29621720 36.51636030 34.60780130
447 1 1 -0.00145545283044 8.82532903 39.06401334 34.60780130
448 1 1 -0.00158439650443 10.29621720 21.23044203 34.60780130
449 1 1 -0.00212007969351 11.76710537 23.77809508 34.60780130
450 1 1 -0.00287249928421 13.23799354 26.32574812 34.60780130
451 1 1 -0.00255114108149 11.76710537 28.87340116 34.60780130
452 1 1 -0.00315344491772 13.23799354 31.42105421 34.60780130
453 1 1 -0.00245290763625 11.76710537 33.96870725 34.60780130
454 1 1 -0.00263945108153 13.23799354 36.51636030 34.60780130
455 1 1 -0.00192087954295 11.76710537 39.06401334 34.60780130
456 1 1 -0.0021091702788 13.23799354 21.23044203 34.60780130
457 1 1 -0.00299204327728 14.70888171 23.77809508 34.60780130
458 1 1 -0.00449063815625 16.17976988 26.32574812 34.60780130
459 1 1 -0.00391497509726 14.70888171 28.87340116 34.60780130
460 1 1 -0.00535734941588 16.17976988 31.42105421 34.60780130
461 1 1 -0.00368019280169 14.70888171 33.96870725 34.60780130
462 1 1 -0.00390086912038 16.17976988 36.51636030 34.60780130
463 1 1 -0.00263071628922 14.70888171 39.06401334 34.60780130
464 1 1 -0.00285699296706 16.17976988 21.23044203 34.60780130
465 1 1 -0.00105555555447 0.00000000 23.77809508 34.60780130
466 1 1 -0.00110650786455 1.47088817 26.32574812 34.60780130
467 1 1 -0.00111656127478 0.00000000 28.87340116 34.60780130
468 1 1 -0.00113346563083 1.47088817 31.42105421 34.60780130
469 1 1 -0.00110359636621 0.00000000 33.96870725 34.60780130
470 1 1 -0.00108127758817 1.47088817 36.51636030 34.60780130
471 1 1 -0.00102322623452 0.00000000 39.06401334 34.60780130
472 1 1 -0.00101447429689 1.47088817 21.23044203 34.60780130
473 1 1 -0.00109954472253 2.94177634 23.77809508 34.60780130
474 1 1 -0.00121444192269 4.41266451 26.32574812 34.60780130
475 1 1 -0.00117199228533 2.94177634 28.87340116 34.60780130
476 1 1 -0.00125286148595 4.41266451 31.42105421 34.60780130
477 1 1 -0.00115640645929 2.94177634 33.96870725 34.60780130
478 1 1 -0.00117912149904 4.41266451 36.51636030 34.60780130
479 1 1 -0.00106186903043 2.94177634 39.06401334 34.60780130
480 1 1 -0.00108905856447 4.41266451 21.23044203 34.60780130
481 1 1 0.000983638909836 0.00000000 40.76244870 25.00000000
482 1 1 0.000933549973028 1.47088817 43.31010174 25.00000000
483 1 1 0.000871346359297 0.00000000 45.85775479 25.00000000
484 1 1 0.000823638099501 1.47088817 48.40540783 25.00000000
485 1 1 0.000775960835956 0.00000000 50.95306088 25.00000000
486 1 1 0.000742658140758 1.47088817 53.50071392 25.00000000
487 1 1 0.000715265133508 0.00000000 56.04836697 25.00000000
488 1 1 0.000701076173597 1.47088817 58.59602001 25.00000000
489 1 1 0.00101682551112 2.94177634 40.76244870 25.00000000
490 1 1 0.000986096069355 4.41266451 43.31010174 25.00000000
491 1 1 0.000890823186644 2.94177634 45.85775479 25.00000000
492 1 1 0.000852476579632 4.41266451 48.40540783 25.00000000
493 1 1 0.000786429571103 2.94177634 50.95306088 25.00000000
494 1 1 0.000757871557061 4.41266451 53.50071392 25.00000000
495 1 1 0.000721028179155 2.94177634 56.04836697 25.00000000
496 1 1 0.000710430489278 4.41266451 58.59602001 25.00000000
497 1 1 0.00112532709477 5.88355268 40.76244870 25.00000000
498 1 1 0.00110055822873 7.35444085 43.31010174 25.00000000
499 1 1 0.000950740525874 5.88355268 45.85775479 25.00000000
500 1 1 0.000910817389173 7.35444085 48.40540783 25.00000000
501 1 1 0.000817715347467 5.88355268 50.95306088 25.00000000
502 1 1 0.000787762750386 7.35444085 53.50071392 25.00000000
503 1 1 0.000738030964051 5.88355268 56.04836697 25.00000000
504 1 1 0.000728497058884 7.35444085 58.59602001 25.00000000
505 1 1 0.00134077723516 8.82532903 40.76244870 25.00000000
506 1 1 0.00129997008242 10.29621720 43.31010174 25.00000000
507 1 1 0.00105708093333 8.82532903 45.85775479 25.00000000
508 1 1 0.00100053260678 10.29621720 48.40540783 25.00000000
509 1 1 0.000869308907515 8.82532903 50.95306088 25.00000000
510 1 1 0.000830889996479 10.29621720 53.50071392 25.00000000
511 1 1 0.000765279550582 8.82532903 56.04836697 25.00000000
512 1 1 0.00075387118057 10.29621720 58.59602001 25.00000000
513 1 1 0.00171345607397 11.76710537 40.76244870 25.00000000
514 1 1 0.00161322347215 13.23799354 43.31010174 25.00000000
515 1 1 0.00122171645147 11.76710537 45.85775479 25.00000000
516 1 1 0.0011241699759 13.23799354 48.40540783 25.00000000
517 1 1 0.000939982380348 11.76710537 50.95306088 25.00000000
518 1 1 0.000884431729754 13.23799354 53.50071392 25.00000000
519 1 1 0.00080076377322 11.76710537 56.04836697 25.00000000
520 1 1 0.000784223841771 13.23799354 58.59602001 25.00000000
521 1 1 0.00227475249788 14.70888171 40.76244870 25.00000000
522 1 1 0.00204354768281 16.17976988 43.31010174 25.00000000
523 1 1 0.0014546262062 14.70888171 45.85775479 25.00000000
524 1 1 0.00127968740842 16.17976988 48.40540783 25.00000000
525 1 1 0.00102690475905 14.70888171 50.95306088 25.00000000
526 1 1 0.000943707160095 16.17976988 53.50071392 25.00000000
527 1 1 0.000841188819739 14.70888171 56.04836697 25.00000000
528 1 1 0.000816246785364 16.17976988 58.59602001 25.00000000
529 1 1 -0.000231679676689 1.47088817 41.61166638 27.40195032
530 1 1 -0.000221350301898 2.94177634 44.15931943 27.40195032
531 1 1 -0.000201351939838 1.47088817 46.70697247 27.40195032
532 1 1 -0.000191005780445 2.94177634 49.25462551 27.40195032
533 1 1 -0.000177687553392 1.47088817 51.80227856 27.40195032
534 1 1 -0.000170705420589 2.94177634 54.34993160 27.40195032
535 1 1 -0.000163646032937 1.47088817 56.89758465 27.40195032
536 1 1 -0.000161411480508 2.94177634 59.44523769 27.40195032
537 1 1 -0.000251302936465 4.41266451 41.61166638 27.40195032
538 1 1 -0.000243729698915 5.88355268 44.15931943 27.40195032
539 1 1 -0.000211503220757 4.41266451 46.70697247 27.40195032
540 1 1 -0.000201740754434 5.88355268 49.25462551 27.40195032
541 1 1 -0.000182544825393 4.41266451 51.80227856 27.40195032
542 1 1 -0.000175954671394 5.88355268 54.34993160 27.40195032
543 1 1 -0.000166355717726 4.41266451 56.89758465 27.40195032
544 1 1 -0.000164815749371 5.88355268 59.44523769 27.40195032
545 1 1 -0.000292363406925 7.35444085 41.61166638 27.40195032
546 1 1 -0.000283101333798 8.82532903 44.15931943 27.40195032
547 1 1 -0.000233240977716 7.35444085 46.70697247 27.40195032
548 1 1 -0.000220680503689 8.82532903 49.25462551 27.40195032
549 1 1 -0.000192483259404 7.35444085 51.80227856 27.40195032
550 1 1 -0.000184587581466 8.82532903 54.34993160 27.40195032
551 1 1 -0.000171610574583 7.35444085 56.89758465 27.40195032
552 1 1 -0.000170188884164 8.82532903 59.44523769 27.40195032
553 1 1 -0.000356919413066 10.29621720 41.61166638 27.40195032
554 1 1 -0.000339684999506 11.76710537 44.15931943 27.40195032
555 1 1 -0.000267494820029 10.29621720 46.70697247 27.40195032
556 1 1 -0.000247968832648 11.76710537 49.25462551 27.40195032
557 1 1 -0.000207728520908 10.29621720 51.80227856 27.40195032
558 1 1 -0.000196332156962 11.76710537 54.34993160 27.40195032
559 1 1 -0.000179079333553 10.29621720 56.89758465 27.40195032
560 1 1 -0.000177064344984 11.76710537 59.44523769 27.40195032
561 1 1 -0.000461869726483 13.23799354 41.61166638 27.40195032
562 1 1 -0.000418964838657 14.70888171 44.15931943 27.40195032
563 1 1 -0.000312908833914 13.23799354 46.70697247 27.40195032
564 1 1 -0.000281650980909 14.70888171 49.25462551 27.40195032
565 1 1 -0.000227852763022 13.23799354 51.80227856 27.40195032
566 1 1 -0.000210442749272 14.70888171 54.34993160 27.40195032
567 1 1 -0.000188218074793 13.23799354 56.89758465 27.40195032
568 1 1 -0.000184767973963 14.70888171 59.44523769 27.40195032
569 1 1 -0.000668606988908 16.17976988 41.61166638 27.40195032
570 1 1 -0.00021429207117 0.00000000 44.15931943 27.40195032
571 1 1 -0.000367488362824 16.17976988 46.70697247 27.40195032
572 1 1 -0.000187571657826 0.00000000 49.25462551 27.40195032
573 1 1 -0.000250989228661 16.17976988 51.80227856 27.40195032
574 1 1 -0.000168944163234 0.00000000 54.34993160 27.40195032
575 1 1 -0.000198165805388 16.17976988 56.89758465 27.40195032
576 1 1 -0.00016024722894 0.00000000 59.44523769 27.40195032
577 1 1 -3.41820514063e-06 2.94177634 42.46088406 29.80390065
578 1 1 -3.28472119696e-06 4.41266451 45.00853711 29.80390065
579 1 1 -2.95392495138e-06 2.94177634 47.55619015 29.80390065
580 1 1 -2.81891578125e-06 4.41266451 50.10384320 29.80390065
581 1 1 -2.60732297159e-06 2.94177634 52.65149624 29.80390065
582 1 1 -2.5223310475e-06 4.41266451 55.19914928 29.80390065
583 1 1 -2.41868534698e-06 2.94177634 57.74680233 29.80390065
584 1 1 -2.40561050305e-06 4.41266451 60.29445537 29.80390065
585 1 1 -3.79203456236e-06 5.88355268 42.46088406 29.80390065
586 1 1 -3.658378847e-06 7.35444085 45.00853711 29.80390065
587 1 1 -3.14454514329e-06 5.88355268 47.55619015 29.80390065
588 1 1 -3.00161605047e-06 7.35444085 50.10384320 29.80390065
589 1 1 -2.7048812142e-06 5.88355268 52.65149624 29.80390065
590 1 1 -2.61545075617e-06 7.35444085 55.19914928 29.80390065
591 1 1 -2.473417945e-06 5.88355268 57.74680233 29.80390065
592 1 1 -2.46839667101e-06 7.35444085 60.29445537 29.80390065
593 1 1 -4.53566736769e-06 8.82532903 42.46088406 29.80390065
594 1 1 -4.29140450697e-06 10.29621720 45.00853711 29.80390065
595 1 1 -3.47510738303e-06 8.82532903 47.55619015 29.80390065
596 1 1 -3.27689069748e-06 10.29621720 50.10384320 29.80390065
597 1 1 -2.8655387402e-06 8.82532903 52.65149624 29.80390065
598 1 1 -2.74992679388e-06 10.29621720 55.19914928 29.80390065
599 1 1 -2.56084642773e-06 8.82532903 57.74680233 29.80390065
600 1 1 -2.55608483931e-06 10.29621720 60.29445537 29.80390065
601 1 1 -5.78631898138e-06 11.76710537 42.46088406 29.80390065
602 1 1 -5.27249350093e-06 13.23799354 45.00853711 29.80390065
603 1 1 -3.9661687493e-06 11.76710537 47.55619015 29.80390065
604 1 1 -3.6450632198e-06 13.23799354 50.10384320 29.80390065
605 1 1 -3.08483149099e-06 11.76710537 52.65149624 29.80390065
606 1 1 -2.91770791837e-06 13.23799354 55.19914928 29.80390065
607 1 1 -2.67418723197e-06 11.76710537 57.74680233 29.80390065
608 1 1 -2.66052306436e-06 13.23799354 60.29445537 29.80390065
609 1 1 -7.88454610428e-06 14.70888171 42.46088406 29.80390065
610 1 1 -6.70865885402e-06 16.17976988 45.00853711 29.80390065
611 1 1 -4.63626712554e-06 14.70888171 47.55619015 29.80390065
612 1 1 -4.08539405413e-06 16.17976988 50.10384320 29.80390065
613 1 1 -3.35308881981e-06 14.70888171 52.65149624 29.80390065
614 1 1 -3.10544151701e-06 16.17976988 55.19914928 29.80390065
615 1 1 -2.80344817592e-06 14.70888171 57.74680233 29.80390065
616 1 1 -2.7707386195e-06 16.17976988 60.29445537 29.80390065
617 1 1 -3.30640098105e-06 0.00000000 42.46088406 29.80390065
618 1 1 -3.11292430489e-06 1.47088817 45.00853711 29.80390065
619 1 1 -2.89153526586e-06 0.00000000 47.55619015 29.80390065
620 1 1 -2.72783593532e-06 1.47088817 50.10384320 29.80390065
621 1 1 -2.57471774649e-06 0.00000000 52.65149624 29.80390065
622 1 1 -2.47502633042e-06 1.47088817 55.19914928 29.80390065
623 1 1 -2.40011756736e-06 0.00000000 57.74680233 29.80390065
624 1 1 -2.37296346031e-06 1.47088817 60.29445537 29.80390065
625 1 1 0.000246400087015 4.41266451 43.31010174 32.20585097
626 1 1 0.000236841068972 5.88355268 45.85775479 32.20585097
627 1 1 0.000208200447743 4.41266451 48.40540783 32.20585097
628 1 1 0.000198811493858 5.88355268 50.95306088 32.20585097
629 1 1 0.000182644464098 4.41266451 53.50071392 32.20585097
630 1 1 0.000177412736183 5.88355268 56.04836697 32.20585097
631 1 1 0.000170114376491 4.41266451 58.59602001 32.20585097
632 1 1 0.000288176673169 5.88355268 40.76244870 32.20585097
633 1 1 0.000281687453297 7.35444085 43.31010174 32.20585097
634 1 1 0.000269522757798 8.82532903 45.85775479 32.20585097
635 1 1 0.000225606179865 7.35444085 48.40540783 32.20585097
636 1 1 0.00021372743874 8.82532903 50.95306088 32.20585097
637 1 1 0.000190714262361 7.35444085 53.50071392 32.20585097
638 1 1 0.000184673108981 8.82532903 56.04836697 32.20585097
639 1 1 0.000174910397465 7.35444085 58.59602001 32.20585097
640 1 1 0.000347135386615 8.82532903 40.76244870 32.20585097
641 1 1 0.000336673529324 10.29621720 43.31010174 32.20585097
642 1 1 0.000316306518837 11.76710537 45.85775479 32.20585097
643 1 1 0.000253098722228 10.29621720 48.40540783 32.20585097
644 1 1 0.000235022805918 11.76710537 50.95306088 32.20585097
645 1 1 0.000202752795251 10.29621720 53.50071392 32.20585097
646 1 1 0.000194277127897 11.76710537 56.04836697 32.20585097
647 1 1 0.000181637078034 10.29621720 58.59602001 32.20585097
648 1 1 0.000442038401241 11.76710537 40.76244870 32.20585097
649 1 1 0.000416041231563 13.23799354 43.31010174 32.20585097
650 1 1 0.00037619508042 14.70888171 45.85775479 32.20585097
651 1 1 0.000289646344856 13.23799354 48.40540783 32.20585097
652 1 1 0.000261348493517 14.70888171 50.95306088 32.20585097
653 1 1 0.000218306845442 13.23799354 53.50071392 32.20585097
654 1 1 0.000205497860301 14.70888171 56.04836697 32.20585097
655 1 1 0.000189707718115 13.23799354 58.59602001 32.20585097
656 1 1 0.000629335612357 14.70888171 40.76244870 32.20585097
657 1 1 0.000543713765098 16.17976988 43.31010174 32.20585097
658 1 1 0.000212651309038 0.00000000 45.85775479 32.20585097
659 1 1 0.000331893138422 16.17976988 48.40540783 32.20585097
660 1 1 0.000187385142548 0.00000000 50.95306088 32.20585097
661 1 1 0.000236025193044 16.17976988 53.50071392 32.20585097
662 1 1 0.000171376441463 0.00000000 56.04836697 32.20585097
663 1 1 0.000198294419538 16.17976988 58.59602001 32.20585097
664 1 1 0.000243331275145 0.00000000 40.76244870 32.20585097
665 1 1 0.000229741880742 1.47088817 43.31010174 32.20585097
666 1 1 0.00021844356056 2.94177634 45.85775479 32.20585097
667 1 1 0.00020000782455 1.47088817 48.40540783 32.20585097
668 1 1 0.000190189084537 2.94177634 50.95306088 32.20585097
669 1 1 0.000178609589658 1.47088817 53.50071392 32.20585097
670 1 1 0.000172904838966 2.94177634 56.04836697 32.20585097
671 1 1 0.000167624399456 1.47088817 58.59602001 32.20585097
672 1 1 0.000254228328979 2.94177634 40.76244870 32.20585097
673 1 1 -0.00100939617056 5.88355268 44.15931943 34.60780130
674 1 1 -0.000970420650716 7.35444085 46.70697247 34.60780130
675 1 1 -0.000859624824896 5.88355268 49.25462551 34.60780130
676 1 1 -0.000824587549198 7.35444085 51.80227856 34.60780130
677 1 1 -0.000761397441379 5.88355268 54.34993160 34.60780130
678 1 1 -0.000744276542974 7.35444085 56.89758465 34.60780130
679 1 1 -0.000717527513576 5.88355268 59.44523769 34.60780130
680 1 1 -0.00118149624352 7.35444085 41.61166638 34.60780130
681 1 1 -0.00114578629191 8.82532903 44.15931943 34.60780130
682 1 1 -0.00108782645124 10.29621720 46.70697247 34.60780130
683 1 1 -0.000925237206181 8.82532903 49.25462551 34.60780130
684 1 1 -0.00087916894243 10.29621720 51.80227856 34.60780130
685 1 1 -0.000794601955127 8.82532903 54.34993160 34.60780130
686 1 1 -0.000773465041076 10.29621720 56.89758465 34.60780130
687 1 1 -0.000738615392335 8.82532903 59.44523769 34.60780130
688 1 1 -0.00143878381161 10.29621720 41.61166638 34.60780130
689 1 1 -0.00136691752428 11.76710537 44.15931943 34.60780130
690 1 1 -0.001257877165 13.23799354 46.70697247 34.60780130
691 1 1 -0.00101811445753 11.76710537 49.25462551 34.60780130
692 1 1 -0.000948613297445 13.23799354 51.80227856 34.60780130
693 1 1 -0.000838347010715 11.76710537 54.34993160 34.60780130
694 1 1 -0.000808680823634 13.23799354 56.89758465 34.60780130
695 1 1 -0.000765645889628 11.76710537 59.44523769 34.60780130
696 1 1 -0.00185234965323 13.23799354 41.61166638 34.60780130
697 1 1 -0.00169007310013 14.70888171 44.15931943 34.60780130
698 1 1 -0.00148111081311 16.17976988 46.70697247 34.60780130
699 1 1 -0.00113773403309 14.70888171 49.25462551 34.60780130
700 1 1 -0.00102821776843 16.17976988 51.80227856 34.60780130
701 1 1 -0.000889005726555 14.70888171 54.34993160 34.60780130
702 1 1 -0.00084619258119 16.17976988 56.89758465 34.60780130
703 1 1 -0.000795878909165 14.70888171 59.44523769 34.60780130
704 1 1 -0.00242701355728 16.17976988 41.61166638 34.60780130
705 1 1 -0.000911748857075 0.00000000 44.15931943 34.60780130
706 1 1 -0.000861257987334 1.47088817 46.70697247 34.60780130
707 1 1 -0.000807496196626 0.00000000 49.25462551 34.60780130
708 1 1 -0.000768427021234 1.47088817 51.80227856 34.60780130
709 1 1 -0.000733900139714 0.00000000 54.34993160 34.60780130
710 1 1 -0.000713017145762 1.47088817 56.89758465 34.60780130
711 1 1 -0.000699659432364 0.00000000 59.44523769 34.60780130
712 1 1 -0.0009763155338 1.47088817 41.61166638 34.60780130
713 1 1 -0.00093538718921 2.94177634 44.15931943 34.60780130
714 1 1 -0.000896913207033 4.41266451 46.70697247 34.60780130
715 1 1 -0.000820505927723 2.94177634 49.25462551 34.60780130
716 1 1 -0.000787284754199 4.41266451 51.80227856 34.60780130
717 1 1 -0.000740839420537 2.94177634 54.34993160 34.60780130
718 1 1 -0.000723644877374 4.41266451 56.89758465 34.60780130
719 1 1 -0.000704206116188 2.94177634 59.44523769 34.60780130
720 1 1 -0.00103946433029 4.41266451 41.61166638 34.60780130
721 1 1 0.000815471874397 17.65065805 0.00000000 25.00000000
722 1 1 0.000845851283784 19.12154622 2.54765304 25.00000000
723 1 1 0.000881924436175 17.65065805 5.09530609 25.00000000
724 1 1 0.00100168267911 19.12154622 7.64295913 25.00000000
725 1 1 0.00112326805804 17.65065805 10.19061218 25.00000000
726 1 1 0.00145079343804 19.12154622 12.73826522 25.00000000
727 1 1 0.00174344646492 17.65065805 15.28591827 25.00000000
728 1 1 0.00254255538229 19.12154622 17.83357131 25.00000000
729 1 1 0.000839649442277 20.59243439 0.00000000 25.00000000
730 1 1 0.000868756065014 22.06332256 2.54765304 25.00000000
731 1 1 0.000917358546617 20.59243439 5.09530609 25.00000000
732 1 1 0.00104899785163 22.06332256 7.64295913 25.00000000
733 1 1 0.00121528668184 20.59243439 10.19061218 25.00000000
734 1 1 0.00160248085722 22.06332256 12.73826522 25.00000000
735 1 1 0.00203819925275 20.59243439 15.28591827 25.00000000
736 1 1 0.00301512986751 22.06332256 17.83357131 25.00000000
737 1 1 0.000855918424352 23.53421073 0.00000000 25.00000000
738 1 1 0.000881280370297 25.00509890 2.54765304 25.00000000
739 1 1 0.000941688194722 23.53421073 5.09530609 25.00000000
740 1 1 0.00107588601491 25.00509890 7.64295913 25.00000000
741 1 1 0.00128311799051 23.53421073 10.19061218 25.00000000
742 1 1 0.00169255544029 25.00509890 12.73826522 25.00000000
743 1 1 0.002262330184 23.53421073 15.28591827 25.00000000
744 1 1 0.00332088657321 25.00509890 17.83357131 25.00000000
745 1 1 0.000861660749179 26.47598708 0.00000000 25.00000000
746 1 1 0.000881280370134 27.94687525 2.54765304 25.00000000
747 1 1 0.000950377684343 26.47598708 5.09530609 25.00000000
748 1 1 0.00107588601469 27.94687525 7.64295913 25.00000000
749 1 1 0.00130826030428 26.47598708 10.19061218 25.00000000
750 1 1 0.00169255543985 27.94687525 12.73826522 25.00000000
751 1 1 0.0023464105451 26.47598708 15.28591827 25.00000000
752 1 1 0.00332088657196 27.94687525 17.83357131 25.00000000
753 1 1 0.000855918424104 29.41776342 0.00000000 25.00000000
754 1 1 0.000868756064752 30.88865159 2.54765304 25.00000000
755 1 1 0.000941688194429 29.41776342 5.09530609 25.00000000
756 1 1 0.00104899785124 30.88865159 7.64295913 25.00000000
757 1 1 0.00128311799 29.41776342 10.19061218 25.00000000
758 1 1 0.00160248085639 30.88865159 12.73826522 25.00000000
759 1 1 0.00226233018284 29.41776342 15.28591827 25.00000000
760 1 1 0.00301512986523 30.88865159 17.83357131 25.00000000
761 1 1 0.000839649442073 32.35953976 0.00000000 25.00000000
762 1 1 0.000845851283629 33.83042793 2.54765304 25.00000000
763 1 1 0.000917358546363 32.35953976 5.09530609 25.00000000
764 1 1 0.00100168267884 33.83042793 7.64295913 25.00000000
765 1 1 0.00121528668135 32.35953976 10.19061218 25.00000000
766 1 1 0.00145079343734 33.83042793 12.73826522 25.00000000
767 1 1 0.00203819925149 32.35953976 15.28591827 25.00000000
768 1 1 0.00254255538033 33.83042793 17.83357131 25.00000000
769 1 1 -0.000194327721042 19.12154622 0.84921768 27.40195032
770 1 1 -0.000206147446627 20.59243439 3.39687073 27.40195032
771 1 1 -0.000222481668864 19.12154622 5.94452377 27.40195032
772 1 1 -0.000266480834672 20.59243439 8.49217681 27.40195032
773 1 1 -0.000312041755268 19.12154622 11.03982986 27.40195032
774 1 1 -0.000417376348978 20.59243439 13.58748290 27.40195032
775 1 1 -0.000539571395181 19.12154622 16.13513595 27.40195032
776 1 1 -0.00104820035136 20.59243439 18.68278899 27.40195032
777 1 1 -0.000199713339823 22.06332256 0.84921768 27.40195032
778 1 1 -0.000211480094406 23.53421073 3.39687073 27.40195032
779 1 1 -0.000232495184899 22.06332256 5.94452377 27.40195032
780 1 1 -0.000279099201258 23.53421073 8.49217681 27.40195032
781 1 1 -0.000336956385823 22.06332256 11.03982986 27.40195032
782 1 1 -0.000458321249326 23.53421073 13.58748290 27.40195032
783 1 1 -0.000666730077372 22.06332256 16.13513595 27.40195032
784 1 1 -0.00138804996973 23.53421073 18.68278899 27.40195032
785 1 1 -0.000202663038344 25.00509890 0.84921768 27.40195032
786 1 1 -0.000213383530532 26.47598708 3.39687073 27.40195032
787 1 1 -0.000238092934345 25.00509890 5.94452377 27.40195032
788 1 1 -0.000283627375511 26.47598708 8.49217681 27.40195032
789 1 1 -0.000351210062104 25.00509890 11.03982986 27.40195032
790 1 1 -0.000474594738286 26.47598708 13.58748290 27.40195032
791 1 1 -0.000758237965852 25.00509890 16.13513595 27.40195032
792 1 1 -0.00153277861292 26.47598708 18.68278899 27.40195032
793 1 1 -0.000202663038411 27.94687525 0.84921768 27.40195032
794 1 1 -0.000211480094509 29.41776342 3.39687073 27.40195032
795 1 1 -0.00023809293442 27.94687525 5.94452377 27.40195032
796 1 1 -0.000279099201379 29.41776342 8.49217681 27.40195032
797 1 1 -0.0003512100622 27.94687525 11.03982986 27.40195032
798 1 1 -0.000458321249445 29.41776342 13.58748290 27.40195032
799 1 1 -0.000758237965883 27.94687525 16.13513595 27.40195032
800 1 1 -0.0013880499694 29.41776342 18.68278899 27.40195032
801 1 1 -0.000199713339911 30.88865159 0.84921768 27.40195032
802 1 1 -0.000206147446668 32.35953976 3.39687073 27.40195032
803 1 1 -0.000232495184992 30.88865159 5.94452377 27.40195032
804 1 1 -0.000266480834703 32.35953976 8.49217681 27.40195032
805 1 1 -0.000336956385931 30.88865159 11.03982986 27.40195032
806 1 1 -0.000417376348926 32.35953976 13.58748290 27.40195032
807 1 1 -0.000666730077257 30.88865159 16.13513595 27.40195032
808 1 1 -0.00104820035029 32.35953976 18.68278899 27.40195032
809 1 1 -0.000194327721033 33.83042793 0.84921768 27.40195032
810 1 1 -0.000198385262576 17.65065805 3.39687073 27.40195032
811 1 1 -0.000222481668841 33.83042793 5.94452377 27.40195032
812 1 1 -0.000248361548047 17.65065805 8.49217681 27.40195032
813 1 1 -0.000312041755194 33.83042793 11.03982986 27.40195032
814 1 1 -0.000367196413717 17.65065805 13.58748290 27.40195032
815 1 1 -0.000539571394729 33.83042793 16.13513595 27.40195032
816 1 1 -0.000712151007445 17.65065805 18.68278899 27.40195032
817 1 1 -2.94147200267e-06 20.59243439 1.69843536 29.80390065
818 1 1 -3.16502732419e-06 22.06332256 4.24608841 29.80390065
819 1 1 -3.47737299173e-06 20.59243439 6.79374145 29.80390065
820 1 1 -4.25394431108e-06 22.06332256 9.34139450 29.80390065
821 1 1 -5.24692997035e-06 20.59243439 11.88904754 29.80390065
822 1 1 -7.85174590784e-06 22.06332256 14.43670058 29.80390065
823 1 1 -1.13311649604e-05 20.59243439 16.98435363 29.80390065
824 1 1 -2.04687088347e-05 22.06332256 19.53200667 29.80390065
825 1 1 -3.00500465489e-06 23.53421073 1.69843536 29.80390065
826 1 1 -3.22182276369e-06 25.00509890 4.24608841 29.80390065
827 1 1 -3.61011996766e-06 23.53421073 6.79374145 29.80390065
828 1 1 -4.44724267736e-06 25.00509890 9.34139450 29.80390065
829 1 1 -5.7280451419e-06 23.53421073 11.88904754 29.80390065
830 1 1 -8.1354543413e-06 25.00509890 14.43670058 29.80390065
831 1 1 -1.2570787683e-05 23.53421073 16.98435363 29.80390065
832 1 1 -2.09938813525e-05 25.00509890 19.53200667 29.80390065
833 1 1 -3.0273462841e-06 26.47598708 1.69843536 29.80390065
834 1 1 -3.22182276232e-06 27.94687525 4.24608841 29.80390065
835 1 1 -3.66171520634e-06 26.47598708 6.79374145 29.80390065
836 1 1 -4.44724267646e-06 27.94687525 9.34139450 29.80390065
837 1 1 -5.88808950297e-06 26.47598708 11.88904754 29.80390065
838 1 1 -8.13545433841e-06 27.94687525 14.43670058 29.80390065
839 1 1 -1.19447143615e-05 26.47598708 16.98435363 29.80390065
840 1 1 -2.0993881343e-05 27.94687525 19.53200667 29.80390065
841 1 1 -3.00500465215e-06 29.41776342 1.69843536 29.80390065
842 1 1 -3.16502731836e-06 30.88865159 4.24608841 29.80390065
843 1 1 -3.61011996795e-06 29.41776342 6.79374145 29.80390065
844 1 1 -4.25394430475e-06 30.88865159 9.34139450 29.80390065
845 1 1 -5.72804514871e-06 29.41776342 11.88904754 29.80390065
846 1 1 -7.85174589253e-06 30.88865159 14.43670058 29.80390065
847 1 1 -1.25707877388e-05 29.41776342 16.98435363 29.80390065
848 1 1 -2.04687088069e-05 30.88865159 19.53200667 29.80390065
849 1 1 -2.94147199475e-06 32.35953976 1.69843536 29.80390065
850 1 1 -3.06274283027e-06 33.83042793 4.24608841 29.80390065
851 1 1 -3.47737298424e-06 32.35953976 6.79374145 29.80390065
852 1 1 -3.95980160785e-06 33.83042793 9.34139450 29.80390065
853 1 1 -5.24692996439e-06 32.35953976 11.88904754 29.80390065
854 1 1 -6.69846231386e-06 33.83042793 14.43670058 29.80390065
855 1 1 -1.13311649346e-05 32.35953976 16.98435363 29.80390065
856 1 1 -1.51376677433e-05 33.83042793 19.53200667 29.80390065
857 1 1 -2.84646345711e-06 17.65065805 1.69843536 29.80390065
858 1 1 -3.06274283814e-06 19.12154622 4.24608841 29.80390065
859 1 1 -3.3006576526e-06 17.65065805 6.79374145 29.80390065
860 1 1 -3.95980161067e-06 19.12154622 9.34139450 29.80390065
861 1 1 -4.63143028628e-06 17.65065805 11.88904754 29.80390065
862 1 1 -6.69846231148e-06 19.12154622 14.43670058 29.80390065
863 1 1 -8.44601998704e-06 17.65065805 16.98435363 29.80390065
864 1 1 -1.51376676833e-05 19.12154622 19.53200667 29.80390065
865 1 1 0.000212614214715 22.06332256 2.54765304 32.20585097
866 1 1 0.000234597361841 23.53421073 5.09530609 32.20585097
867 1 1 0.000267516033042 22.06332256 7.64295913 32.20585097
868 1 1 0.000332387873931 23.53421073 10.19061218 32.20585097
869 1 1 0.00041332806796 22.06332256 12.73826522 32.20585097
870 1 1 0.000626188491318 23.53421073 15.28591827 32.20585097
871 1 1 0.00101877294865 22.06332256 17.83357131 32.20585097
872 1 1 0.000208719342176 23.53421073 0.00000000 32.20585097
873 1 1 0.00021608255071 25.00509890 2.54765304 32.20585097
874 1 1 0.000237165885201 26.47598708 5.09530609 32.20585097
875 1 1 0.000275354901915 25.00509890 7.64295913 32.20585097
876 1 1 0.000338771284576 26.47598708 10.19061218 32.20585097
877 1 1 0.000436712058622 25.00509890 12.73826522 32.20585097
878 1 1 0.000661755350868 26.47598708 15.28591827 32.20585097
879 1 1 0.00121561831986 25.00509890 17.83357131 32.20585097
880 1 1 0.000210258559724 26.47598708 0.00000000 32.20585097
881 1 1 0.000216082550787 27.94687525 2.54765304 32.20585097
882 1 1 0.000234597361959 29.41776342 5.09530609 32.20585097
883 1 1 0.000275354902004 27.94687525 7.64295913 32.20585097
884 1 1 0.000332387874073 29.41776342 10.19061218 32.20585097
885 1 1 0.000436712058733 27.94687525 12.73826522 32.20585097
886 1 1 0.00062618849138 29.41776342 15.28591827 32.20585097
887 1 1 0.00121561831981 27.94687525 17.83357131 32.20585097
888 1 1 0.000208719342288 29.41776342 0.00000000 32.20585097
889 1 1 0.000212614214816 30.88865159 2.54765304 32.20585097
890 1 1 0.000227433528458 32.35953976 5.09530609 32.20585097
891 1 1 0.000267516033147 30.88865159 7.64295913 32.20585097
892 1 1 0.000314706462064 32.35953976 10.19061218 32.20585097
893 1 1 0.00041332806805 30.88865159 12.73826522 32.20585097
894 1 1 0.000542366552572 32.35953976 15.28591827 32.20585097
895 1 1 0.00101877294815 30.88865159 17.83357131 32.20585097
896 1 1 0.000204372122404 32.35953976 0.00000000 32.20585097
897 1 1 0.000206324198599 33.83042793 2.54765304 32.20585097
898 1 1 0.000217115166399 17.65065805 5.09530609 32.20585097
899 1 1 0.000253472990375 33.83042793 7.64295913 32.20585097
900 1 1 0.000289447078341 17.65065805 10.19061218 32.20585097
901 1 1 0.000375237261852 33.83042793 12.73826522 32.20585097
902 1 1 0.000451770216963 17.65065805 15.28591827 32.20585097
903 1 1 0.000753645372821 33.83042793 17.83357131 32.20585097
904 1 1 0.000197942646983 17.65065805 0.00000000 32.20585097
905 1 1 0.000206324198593 19.12154622 2.54765304 32.20585097
906 1 1 0.000227433528405 20.59243439 5.09530609 32.20585097
907 1 1 0.000253472990398 19.12154622 7.64295913 32.20585097
908 1 1 0.000314706462031 20.59243439 10.19061218 32.20585097
909 1 1 0.000375237261971 19.12154622 12.73826522 32.20585097
910 1 1 0.000542366552749 20.59243439 15.28591827 32.20585097
911 1 1 0.000753645373743 19.12154622 17.83357131 32.20585097
912 1 1 0.000204372122346 20.59243439 0.00000000 32.20585097
913 1 1 -0.000896285799256 23.53421073 3.39687073 34.60780130
914 1 1 -0.000986495346384 25.00509890 5.94452377 34.60780130
915 1 1 -0.00112940168994 23.53421073 8.49217681 34.60780130
916 1 1 -0.0014155211911 25.00509890 11.03982986 34.60780130
917 1 1 -0.00183776448166 23.53421073 13.58748290 34.60780130
918 1 1 -0.00261555732137 25.00509890 16.13513595 34.60780130
919 1 1 -0.00366032857095 23.53421073 18.68278899 34.60780130
920 1 1 -0.000865806315089 25.00509890 0.84921768 34.60780130
921 1 1 -0.000903262604984 26.47598708 3.39687073 34.60780130
922 1 1 -0.000986495346195 27.94687525 5.94452377 34.60780130
923 1 1 -0.00114622792636 26.47598708 8.49217681 34.60780130
924 1 1 -0.00141552119076 27.94687525 11.03982986 34.60780130
925 1 1 -0.00189551124783 26.47598708 13.58748290 34.60780130
926 1 1 -0.00261555732058 27.94687525 16.13513595 34.60780130
927 1 1 -0.00388719580032 26.47598708 18.68278899 34.60780130
928 1 1 -0.000865806314935 27.94687525 0.84921768 34.60780130
929 1 1 -0.000896285798991 29.41776342 3.39687073 34.60780130
930 1 1 -0.000966996337646 30.88865159 5.94452377 34.60780130
931 1 1 -0.00112940168954 29.41776342 8.49217681 34.60780130
932 1 1 -0.00135567304383 30.88865159 11.03982986 34.60780130
933 1 1 -0.00183776448081 29.41776342 13.58748290 34.60780130
934 1 1 -0.00241924844205 30.88865159 16.13513595 34.60780130
935 1 1 -0.00366032856825 29.41776342 18.68278899 34.60780130
936 1 1 -0.000854381064746 30.88865159 0.84921768 34.60780130
937 1 1 -0.000876610528248 32.35953976 3.39687073 34.60780130
938 1 1 -0.000932042152239 33.83042793 5.94452377 34.60780130
939 1 1 -0.00108345375644 32.35953976 8.49217681 34.60780130
940 1 1 -0.0012542221667 33.83042793 11.03982986 34.60780130
941 1 1 -0.0016835018115 32.35953976 13.58748290 34.60780130
942 1 1 -0.00209470838315 33.83042793 16.13513595 34.60780130
943 1 1 -0.00312773141916 32.35953976 18.68278899 34.60780130
944 1 1 -0.000833418496399 33.83042793 0.84921768 34.60780130
945 1 1 -0.000847603238598 17.65065805 3.39687073 34.60780130
946 1 1 -0.000932042152466 19.12154622 5.94452377 34.60780130
947 1 1 -0.00101949220906 17.65065805 8.49217681 34.60780130
948 1 1 -0.00125422216721 19.12154622 11.03982986 34.60780130
949 1 1 -0.00147989137639 17.65065805 13.58748290 34.60780130
950 1 1 -0.00209470838454 19.12154622 16.13513595 34.60780130
951 1 1 -0.00252077656729 17.65065805 18.68278899 34.60780130
952 1 1 -0.000833418496561 19.12154622 0.84921768 34.60780130
953 1 1 -0.000876610528487 20.59243439 3.39687073 34.60780130
954 1 1 -0.000966996337976 22.06332256 5.94452377 34.60780130
955 1 1 -0.00108345375683 20.59243439 8.49217681 34.60780130
956 1 1 -0.00135567304446 22.06332256 11.03982986 34.60780130
957 1 1 -0.00168350181244 20.59243439 13.58748290 34.60780130
958 1 1 -0.00241924844358 22.06332256 16.13513595 34.60780130
959 1 1 -0.00312773142189 20.59243439 18.68278899 34.60780130
960 1 1 -0.000854381065006 22.06332256 0.84921768 34.60780130
961 1 1 0.00302118365678 17.65065805 20.38122435 25.00000000
962 1 1 0.00499212613787 19.12154622 22.92887739 25.00000000
963 1 1 0.00549436564278 17.65065805 25.47653044 25.00000000
964 1 1 0.0111522117961 19.12154622 28.02418348 25.00000000
965 1 1 0.00797950656428 17.65065805 30.57183653 25.00000000
966 1 1 0.0111532100422 19.12154622 33.11948957 25.00000000
967 1 1 0.00549390363917 17.65065805 35.66714262 25.00000000
968 1 1 0.00499190387435 19.12154622 38.21479566 25.00000000
969 1 1 0.00396590750926 20.59243439 20.38122435 25.00000000
970 1 1 0.00797020407783 22.06332256 22.92887739 25.00000000
971 1 1 0.0111490188563 20.59243439 25.47653044 25.00000000
972 1 1 0.0282112250158 22.06332256 28.02418348 25.00000000
973 1 1 0.0216463956238 20.59243439 30.57183653 25.00000000
974 1 1 0.0282132355787 22.06332256 33.11948957 25.00000000
975 1 1 0.0111500212329 20.59243439 35.66714262 25.00000000
976 1 1 0.00797020658128 22.06332256 38.21479566 25.00000000
977 1 1 0.00498665618087 23.53421073 20.38122435 25.00000000
978 1 1 0.0111458890838 25.00509890 22.92887739 25.00000000
979 1 1 0.0216425207177 23.53421073 25.47653044 25.00000000
980 1 1 0.0511461914974 25.00509890 28.02418348 25.00000000
981 1 1 0.051147113681 23.53421073 30.57183653 25.00000000
982 1 1 0.0511461882062 25.00509890 33.11948957 25.00000000
983 1 1 0.0216425205415 23.53421073 35.66714262 25.00000000
984 1 1 0.0111448901641 25.00509890 38.21479566 25.00000000
985 1 1 0.00548371469159 26.47598708 20.38122435 25.00000000
986 1 1 0.0111458890737 27.94687525 22.92887739 25.00000000
987 1 1 0.0282105792931 26.47598708 25.47653044 25.00000000
988 1 1 0.0511461914338 27.94687525 28.02418348 25.00000000
989 1 1 0.0710847267981 26.47598708 30.57183653 25.00000000
990 1 1 0.0511461881426 27.94687525 33.11948957 25.00000000
991 1 1 0.0282085642416 26.47598708 35.66714262 25.00000000
992 1 1 0.0111448901539 27.94687525 38.21479566 25.00000000
993 1 1 0.00498665617566 29.41776342 20.38122435 25.00000000
994 1 1 0.00797020406159 30.88865159 22.92887739 25.00000000
995 1 1 0.021642520672 29.41776342 25.47653044 25.00000000
996 1 1 0.0282112249247 30.88865159 28.02418348 25.00000000
997 1 1 0.0511471135559 29.41776342 30.57183653 25.00000000
998 1 1 0.0282132354876 30.88865159 33.11948957 25.00000000
999 1 1 0.0216425204959 29.41776342 35.66714262 25.00000000
1000 1 1 0.00797020656503 30.88865159 38.21479566 25.00000000
1001 1 1 0.00396590750454 32.35953976 20.38122435 25.00000000
1002 1 1 0.00499212612893 33.83042793 22.92887739 25.00000000
1003 1 1 0.0111490188225 32.35953976 25.47653044 25.00000000
1004 1 1 0.0111522117564 33.83042793 28.02418348 25.00000000
1005 1 1 0.0216463955397 32.35953976 30.57183653 25.00000000
1006 1 1 0.0111532100026 33.83042793 33.11948957 25.00000000
1007 1 1 0.0111500211991 32.35953976 35.66714262 25.00000000
1008 1 1 0.0049919038654 33.83042793 38.21479566 25.00000000
1009 1 1 -0.00153909739751 19.12154622 21.23044203 27.40195032
1010 1 1 -0.00321067877649 20.59243439 23.77809508 27.40195032
1011 1 1 -0.0035295630158 19.12154622 26.32574812 27.40195032
1012 1 1 -0.00451693325026 20.59243439 28.87340116 27.40195032
1013 1 1 -0.00415170659137 19.12154622 31.42105421 27.40195032
1014 1 1 -0.00438931751994 20.59243439 33.96870725 27.40195032
1015 1 1 -0.0029008753606 19.12154622 36.51636030 27.40195032
1016 1 1 -0.00235232043653 20.59243439 39.06401334 27.40195032
1017 1 1 -0.00235190468979 22.06332256 21.23044203 27.40195032
1018 1 1 -0.00415006700209 23.53421073 23.77809508 27.40195032
1019 1 1 -0.00451641625666 22.06332256 26.32574812 27.40195032
1020 1 1 -0.00311791493994 23.53421073 28.87340116 27.40195032
1021 1 1 -0.00405971598936 22.06332256 31.42105421 27.40195032
1022 1 1 -0.00405938345985 23.53421073 33.96870725 27.40195032
1023 1 1 -0.00415039819954 22.06332256 36.51636030 27.40195032
1024 1 1 -0.0032099074865 23.53421073 39.06401334 27.40195032
1025 1 1 -0.00289929322561 25.00509890 21.23044203 27.40195032
1026 1 1 -0.00438816468055 26.47598708 23.77809508 27.40195032
1027 1 1 -0.00405918741853 25.00509890 26.32574812 27.40195032
1028 1 1 -0.00129217230865 26.47598708 28.87340116 27.40195032
1029 1 1 -0.00129225526936 25.00509890 31.42105421 27.40195032
1030 1 1 -0.00311768825154 26.47598708 33.96870725 27.40195032
1031 1 1 -0.00451583786957 25.00509890 36.51636030 27.40195032
1032 1 1 -0.00352778917412 26.47598708 39.06401334 27.40195032
1033 1 1 -0.00289929322555 27.94687525 21.23044203 27.40195032
1034 1 1 -0.00415006700341 29.41776342 23.77809508 27.40195032
1035 1 1 -0.00405918742442 27.94687525 26.32574812 27.40195032
1036 1 1 -0.00311791495698 29.41776342 28.87340116 27.40195032
1037 1 1 -0.00129225528321 27.94687525 31.42105421 27.40195032
1038 1 1 -0.00405938347072 29.41776342 33.96870725 27.40195032
1039 1 1 -0.00451583787203 27.94687525 36.51636030 27.40195032
1040 1 1 -0.00320990748629 29.41776342 39.06401334 27.40195032
1041 1 1 -0.00235190468855 30.88865159 21.23044203 27.40195032
1042 1 1 -0.00321067877374 32.35953976 23.77809508 27.40195032
1043 1 1 -0.00451641626154 30.88865159 26.32574812 27.40195032
1044 1 1 -0.00451693325454 32.35953976 28.87340116 27.40195032
1045 1 1 -0.00405971600378 30.88865159 31.42105421 27.40195032
1046 1 1 -0.00438931752115 32.35953976 33.96870725 27.40195032
1047 1 1 -0.0041503982003 30.88865159 36.51636030 27.40195032
1048 1 1 -0.00235232043408 32.35953976 39.06401334 27.40195032
1049 1 1 -0.00153909739485 33.83042793 21.23044203 27.40195032
1050 1 1 -0.00189602541688 17.65065805 23.77809508 27.40195032
1051 1 1 -0.00352956301137 33.83042793 26.32574812 27.40195032
1052 1 1 -0.00321244722577 17.65065805 28.87340116 27.40195032
1053 1 1 -0.00415170658862 33.83042793 31.42105421 27.40195032
1054 1 1 -0.00290191009784 17.65065805 33.96870725 27.40195032
1055 1 1 -0.00290087535607 33.83042793 36.51636030 27.40195032
1056 1 1 -0.00138989308434 17.65065805 39.06401334 27.40195032
1057 1 1 -2.68333831543e-05 20.59243439 22.07965971 29.80390065
1058 1 1 -4.30383291625e-05 22.06332256 24.62731276 29.80390065
1059 1 1 -4.73947276769e-05 20.59243439 27.17496580 29.80390065
1060 1 1 -9.32610789652e-05 22.06332256 29.72261885 29.80390065
1061 1 1 -5.70384908229e-05 20.59243439 32.27027189 29.80390065
1062 1 1 -5.70385736067e-05 22.06332256 34.81792493 29.80390065
1063 1 1 -3.46471703991e-05 20.59243439 37.36557798 29.80390065
1064 1 1 -2.68267872591e-05 22.06332256 39.91323102 29.80390065
1065 1 1 -3.46343066031e-05 23.53421073 22.07965971 29.80390065
1066 1 1 -5.7029723934e-05 25.00509890 24.62731276 29.80390065
1067 1 1 -9.32711365299e-05 23.53421073 27.17496580 29.80390065
1068 1 1 -0.000275578500258 25.00509890 29.72261885 29.80390065
1069 1 1 -0.000149447969817 23.53421073 32.27027189 29.80390065
1070 1 1 -9.32767711307e-05 25.00509890 34.81792493 29.80390065
1071 1 1 -4.30201611588e-05 23.53421073 37.36557798 29.80390065
1072 1 1 -3.23091268574e-05 25.00509890 39.91323102 29.80390065
1073 1 1 -3.61928623076e-05 26.47598708 22.07965971 29.80390065
1074 1 1 -5.70297238774e-05 27.94687525 24.62731276 29.80390065
1075 1 1 -0.000149447765253 26.47598708 27.17496580 29.80390065
1076 1 1 -0.000275578499694 27.94687525 29.72261885 29.80390065
1077 1 1 -0.000275596327248 26.47598708 32.27027189 29.80390065
1078 1 1 -9.32767710528e-05 27.94687525 34.81792493 29.80390065
1079 1 1 -4.73684639607e-05 26.47598708 37.36557798 29.80390065
1080 1 1 -3.23091268915e-05 27.94687525 39.91323102 29.80390065
1081 1 1 -3.4634306753e-05 29.41776342 22.07965971 29.80390065
1082 1 1 -4.30383290855e-05 30.88865159 24.62731276 29.80390065
1083 1 1 -9.32711363158e-05 29.41776342 27.17496580 29.80390065
1084 1 1 -9.3261078705e-05 30.88865159 29.72261885 29.80390065
1085 1 1 -0.000149447969397 29.41776342 32.27027189 29.80390065
1086 1 1 -5.70385735456e-05 30.88865159 34.81792493 29.80390065
1087 1 1 -4.30201610111e-05 29.41776342 37.36557798 29.80390065
1088 1 1 -2.68267873066e-05 30.88865159 39.91323102 29.80390065
1089 1 1 -2.68333829956e-05 32.35953976 22.07965971 29.80390065
1090 1 1 -3.23427700259e-05 33.83042793 24.62731276 29.80390065
1091 1 1 -4.73947274646e-05 32.35953976 27.17496580 29.80390065
1092 1 1 -4.30423648217e-05 33.83042793 29.72261885 29.80390065
1093 1 1 -5.70384908585e-05 32.35953976 32.27027189 29.80390065
1094 1 1 -3.62315872758e-05 33.83042793 34.81792493 29.80390065
1095 1 1 -3.46471705487e-05 32.35953976 37.36557798 29.80390065
1096 1 1 -2.0481674335e-05 33.83042793 39.91323102 29.80390065
1097 1 1 -1.96647459059e-05 17.65065805 22.07965971 29.80390065
1098 1 1 -3.23427698529e-05 19.12154622 24.62731276 29.80390065
1099 1 1 -3.23546089292e-05 17.65065805 27.17496580 29.80390065
1100 1 1 -4.30423648039e-05 19.12154622 29.72261885 29.80390065
1101 1 1 -3.46781383596e-05 17.65065805 32.27027189 29.80390065
1102 1 1 -3.62315874983e-05 19.12154622 34.81792493 29.80390065
1103 1 1 -2.10278984936e-05 17.65065805 37.36557798 29.80390065
1104 1 1 -2.04816744599e-05 19.12154622 39.91323102 29.80390065
1105 1 1 0.00341905401101 22.06332256 22.92887739 32.20585097
1106 1 1 0.00475580080059 23.53421073 25.47653044 32.20585097
1107 1 1 0.00467173626524 22.06332256 28.02418348 32.20585097
1108 1 1 0.00323760300717 23.53421073 30.57183653 32.20585097
1109 1 1 0.00467085945785 22.06332256 33.11948957 32.20585097
1110 1 1 0.00475582149916 23.53421073 35.66714262 32.20585097
1111 1 1 0.00341906751067 22.06332256 38.21479566 32.20585097
1112 1 1 0.00224858032617 23.53421073 20.38122435 32.20585097
1113 1 1 0.00408789476471 25.00509890 22.92887739 32.20585097
1114 1 1 0.00467020374571 26.47598708 25.47653044 32.20585097
1115 1 1 0.00323733826791 25.00509890 28.02418348 32.20585097
1116 1 1 0.00140514048318 26.47598708 30.57183653 32.20585097
1117 1 1 0.00323729191454 25.00509890 33.11948957 32.20585097
1118 1 1 0.00467107370665 26.47598708 35.66714262 32.20585097
1119 1 1 0.00408894971024 25.00509890 38.21479566 32.20585097
1120 1 1 0.0025006795497 26.47598708 20.38122435 32.20585097
1121 1 1 0.00408789476533 27.94687525 22.92887739 32.20585097
1122 1 1 0.00475580080557 29.41776342 25.47653044 32.20585097
1123 1 1 0.00323733827771 27.94687525 28.02418348 32.20585097
1124 1 1 0.00323760302504 29.41776342 30.57183653 32.20585097
1125 1 1 0.00323729192413 27.94687525 33.11948957 32.20585097
1126 1 1 0.0047558215041 29.41776342 35.66714262 32.20585097
1127 1 1 0.00408894971089 27.94687525 38.21479566 32.20585097
1128 1 1 0.00224858032562 29.41776342 20.38122435 32.20585097
1129 1 1 0.00341905400981 30.88865159 22.92887739 32.20585097
1130 1 1 0.00408996625363 32.35953976 25.47653044 32.20585097
1131 1 1 0.00467173627487 30.88865159 28.02418348 32.20585097
1132 1 1 0.00475680120937 32.35953976 30.57183653 32.20585097
1133 1 1 0.00467085946721 30.88865159 33.11948957 32.20585097
1134 1 1 0.0040889399548 32.35953976 35.66714262 32.20585097
1135 1 1 0.00341906750965 30.88865159 38.21479566 32.20585097
1136 1 1 0.00164024115868 32.35953976 20.38122435 32.20585097
1137 1 1 0.00225069463082 33.83042793 22.92887739 32.20585097
1138 1 1 0.00250248583792 17.65065805 25.47653044 32.20585097
1139 1 1 0.00409078445007 33.83042793 28.02418348 32.20585097
1140 1 1 0.00342142174022 17.65065805 30.57183653 32.20585097
1141 1 1 0.00408973022102 33.83042793 33.11948957 32.20585097
1142 1 1 0.00250324567907 17.65065805 35.66714262 32.20585097
1143 1 1 0.00224990222885 33.83042793 38.21479566 32.20585097
1144 1 1 0.00102092457539 17.65065805 20.38122435 32.20585097
1145 1 1 0.00225069463477 19.12154622 22.92887739 32.20585097
1146 1 1 0.00408996625525 20.59243439 25.47653044 32.20585097
1147 1 1 0.004090784454 19.12154622 28.02418348 32.20585097
1148 1 1 0.00475680120458 20.59243439 30.57183653 32.20585097
1149 1 1 0.00408973022506 19.12154622 33.11948957 32.20585097
1150 1 1 0.00408893995655 20.59243439 35.66714262 32.20585097
1151 1 1 0.00224990223273 19.12154622 38.21479566 32.20585097
1152 1 1 0.00164024116048 20.59243439 20.38122435 32.20585097
1153 1 1 -0.0128037007085 23.53421073 23.77809508 34.60780130
1154 1 1 -0.0343993803739 25.00509890 26.32574812 34.60780130
1155 1 1 -0.0465228382388 23.53421073 28.87340116 34.60780130
1156 1 1 -0.0642927687185 25.00509890 31.42105421 34.60780130
1157 1 1 -0.0344002599185 23.53421073 33.96870725 34.60780130
1158 1 1 -0.0200818602274 25.00509890 36.51636030 34.60780130
1159 1 1 -0.00763917347382 23.53421073 39.06401334 34.60780130
1160 1 1 -0.00667170184464 25.00509890 21.23044203 34.60780130
1161 1 1 -0.0158563858647 26.47598708 23.77809508 34.60780130
1162 1 1 -0.0343993803335 27.94687525 26.32574812 34.60780130
1163 1 1 -0.0642924741462 26.47598708 28.87340116 34.60780130
1164 1 1 -0.0642927686368 27.94687525 31.42105421 34.60780130
1165 1 1 -0.0465217289446 26.47598708 33.96870725 34.60780130
1166 1 1 -0.0200818602061 27.94687525 36.51636030 34.60780130
1167 1 1 -0.00889460634927 26.47598708 39.06401334 34.60780130
1168 1 1 -0.00667170184006 27.94687525 21.23044203 34.60780130
1169 1 1 -0.0128037006852 29.41776342 23.77809508 34.60780130
1170 1 1 -0.0200841237185 30.88865159 26.32574812 34.60780130
1171 1 1 -0.046522838127 29.41776342 28.87340116 34.60780130
1172 1 1 -0.0344018395 30.88865159 31.42105421 34.60780130
1173 1 1 -0.0344002598397 29.41776342 33.96870725 34.60780130
1174 1 1 -0.0128050389568 30.88865159 36.51636030 34.60780130
1175 1 1 -0.00763917346282 29.41776342 39.06401334 34.60780130
1176 1 1 -0.00534324697662 30.88865159 21.23044203 34.60780130
1177 1 1 -0.00764235154782 32.35953976 23.77809508 34.60780130
1178 1 1 -0.00890185544207 33.83042793 26.32574812 34.60780130
1179 1 1 -0.0200864509562 32.35953976 28.87340116 34.60780130
1180 1 1 -0.0128104675895 33.83042793 31.42105421 34.60780130
1181 1 1 -0.0158610541018 32.35953976 33.96870725 34.60780130
1182 1 1 -0.00667821097023 33.83042793 36.51636030 34.60780130
1183 1 1 -0.00534496623479 32.35953976 39.06401334 34.60780130
1184 1 1 -0.00389893238482 33.83042793 21.23044203 34.60780130
1185 1 1 -0.00448519866296 17.65065805 23.77809508 34.60780130
1186 1 1 -0.0089018554698 19.12154622 26.32574812 34.60780130
1187 1 1 -0.0076496245804 17.65065805 28.87340116 34.60780130
1188 1 1 -0.0128104676381 19.12154622 31.42105421 34.60780130
1189 1 1 -0.00668243253915 17.65065805 33.96870725 34.60780130
1190 1 1 -0.00667821098674 19.12154622 36.51636030 34.60780130
1191 1 1 -0.00366795185272 17.65065805 39.06401334 34.60780130
1192 1 1 -0.00389893238977 19.12154622 21.23044203 34.60780130
1193 1 1 -0.00764235156622 20.59243439 23.77809508 34.60780130
1194 1 1 -0.0200841237785 22.06332256 26.32574812 34.60780130
1195 1 1 -0.0200864510325 20.59243439 28.87340116 34.60780130
1196 1 1 -0.034401839615 22.06332256 31.42105421 34.60780130
1197 1 1 -0.0158610541575 20.59243439 33.96870725 34.60780130
1198 1 1 -0.0128050389899 22.06332256 36.51636030 34.60780130
1199 1 1 -0.00534496624405 20.59243439 39.06401334 34.60780130
1200 1 1 -0.00534324698437 22.06332256 21.23044203 34.60780130
1201 1 1 0.00302086518193 17.65065805 40.76244870 25.00000000
1202 1 1 0.00254255441075 19.12154622 43.31010174 25.00000000
1203 1 1 0.00174344676994 17.65065805 45.85775479 25.00000000
1204 1 1 0.00145072569305 19.12154622 48.40540783 25.00000000
1205 1 1 0.00112323142974 17.65065805 50.95306088 25.00000000
1206 1 1 0.0010016628622 19.12154622 53.50071392 25.00000000
1207 1 1 0.000881932766205 17.65065805 56.04836697 25.00000000
1208 1 1 0.000845860523053 19.12154622 58.59602001 25.00000000
1209 1 1 0.00396590561173 20.59243439 40.76244870 25.00000000
1210 1 1 0.0030154458016 22.06332256 43.31010174 25.00000000
1211 1 1 0.00203823933158 20.59243439 45.85775479 25.00000000
1212 1 1 0.00160247075381 22.06332256 48.40540783 25.00000000
1213 1 1 0.00121520519971 20.59243439 50.95306088 25.00000000
1214 1 1 0.00104895231285 22.06332256 53.50071392 25.00000000
1215 1 1 0.000917362945387 20.59243439 56.04836697 25.00000000
1216 1 1 0.000868766410573 22.06332256 58.59602001 25.00000000
1217 1 1 0.00498687803234 23.53421073 40.76244870 25.00000000
1218 1 1 0.00332197704335 25.00509890 43.31010174 25.00000000
1219 1 1 0.00226281334397 23.53421073 45.85775479 25.00000000
1220 1 1 0.00169273278709 25.00509890 48.40540783 25.00000000
1221 1 1 0.00128303905295 23.53421073 50.95306088 25.00000000
1222 1 1 0.00107582564897 25.00509890 53.50071392 25.00000000
1223 1 1 0.000941683830318 23.53421073 56.04836697 25.00000000
1224 1 1 0.000881289959854 25.00509890 58.59602001 25.00000000
1225 1 1 0.00548417504051 26.47598708 40.76244870 25.00000000
1226 1 1 0.0033219770421 27.94687525 43.31010174 25.00000000
1227 1 1 0.00234726219151 26.47598708 45.85775479 25.00000000
1228 1 1 0.00169273278665 27.94687525 48.40540783 25.00000000
1229 1 1 0.00130819964566 26.47598708 50.95306088 25.00000000
1230 1 1 0.00107582564874 27.94687525 53.50071392 25.00000000
1231 1 1 0.000950368786617 26.47598708 56.04836697 25.00000000
1232 1 1 0.000881289959691 27.94687525 58.59602001 25.00000000
1233 1 1 0.00498687802713 29.41776342 40.76244870 25.00000000
1234 1 1 0.00301544579931 30.88865159 43.31010174 25.00000000
1235 1 1 0.00226281334281 29.41776342 45.85775479 25.00000000
1236 1 1 0.00160247075298 30.88865159 48.40540783 25.00000000
1237 1 1 0.00128303905245 29.41776342 50.95306088 25.00000000
1238 1 1 0.00104895231246 30.88865159 53.50071392 25.00000000
1239 1 1 0.000941683830025 29.41776342 56.04836697 25.00000000
1240 1 1 0.000868766410311 30.88865159 58.59602001 25.00000000
1241 1 1 0.003965905607 32.35953976 40.76244870 25.00000000
1242 1 1 0.0025425544088 33.83042793 43.31010174 25.00000000
1243 1 1 0.0020382393303 32.35953976 45.85775479 25.00000000
1244 1 1 0.00145072569234 33.83042793 48.40540783 25.00000000
1245 1 1 0.00121520519921 32.35953976 50.95306088 25.00000000
1246 1 1 0.00100166286193 33.83042793 53.50071392 25.00000000
1247 1 1 0.000917362945132 32.35953976 56.04836697 25.00000000
1248 1 1 0.000845860522898 33.83042793 58.59602001 25.00000000
1249 1 1 -0.00104865292653 19.12154622 41.61166638 27.40195032
1250 1 1 -0.000711255624441 20.59243439 44.15931943 27.40195032
1251 1 1 -0.000430197839545 19.12154622 46.70697247 27.40195032
1252 1 1 -0.000350980147656 20.59243439 49.25462551 27.40195032
1253 1 1 -0.000273734027522 19.12154622 51.80227856 27.40195032
1254 1 1 -0.000238748817883 20.59243439 54.34993160 27.40195032
1255 1 1 -0.000207674306407 19.12154622 56.89758465 27.40195032
1256 1 1 -0.000198991520591 20.59243439 59.44523769 27.40195032
1257 1 1 -0.00153821156849 22.06332256 41.61166638 27.40195032
1258 1 1 -0.00088264862162 23.53421073 44.15931943 27.40195032
1259 1 1 -0.000493817751204 22.06332256 46.70697247 27.40195032
1260 1 1 -0.000375371134528 23.53421073 49.25462551 27.40195032
1261 1 1 -0.000291997471779 22.06332256 51.80227856 27.40195032
1262 1 1 -0.000248075016868 23.53421073 54.34993160 27.40195032
1263 1 1 -0.000215233101549 22.06332256 56.89758465 27.40195032
1264 1 1 -0.000203457259857 23.53421073 59.44523769 27.40195032
1265 1 1 -0.00189379982287 25.00509890 41.61166638 27.40195032
1266 1 1 -0.000957166200686 26.47598708 44.15931943 27.40195032
1267 1 1 -0.000537123269879 25.00509890 46.70697247 27.40195032
1268 1 1 -0.000384505461904 26.47598708 49.25462551 27.40195032
1269 1 1 -0.000302187537214 25.00509890 51.80227856 27.40195032
1270 1 1 -0.00025141978892 26.47598708 54.34993160 27.40195032
1271 1 1 -0.000219437396456 25.00509890 56.89758465 27.40195032
1272 1 1 -0.000205042700498 26.47598708 59.44523769 27.40195032
1273 1 1 -0.00189379982273 27.94687525 41.61166638 27.40195032
1274 1 1 -0.000882648621518 29.41776342 44.15931943 27.40195032
1275 1 1 -0.000537123269966 27.94687525 46.70697247 27.40195032
1276 1 1 -0.000375371134666 29.41776342 49.25462551 27.40195032
1277 1 1 -0.000302187537303 27.94687525 51.80227856 27.40195032
1278 1 1 -0.000248075016981 29.41776342 54.34993160 27.40195032
1279 1 1 -0.000219437396527 27.94687525 56.89758465 27.40195032
1280 1 1 -0.000203457259958 29.41776342 59.44523769 27.40195032
1281 1 1 -0.00153821156754 30.88865159 41.61166638 27.40195032
1282 1 1 -0.000711255623982 32.35953976 44.15931943 27.40195032
1283 1 1 -0.000493817751222 30.88865159 46.70697247 27.40195032
1284 1 1 -0.000350980147668 32.35953976 49.25462551 27.40195032
1285 1 1 -0.000291997471879 30.88865159 51.80227856 27.40195032
1286 1 1 -0.000238748817921 32.35953976 54.34993160 27.40195032
1287 1 1 -0.000215233101638 30.88865159 56.89758465 27.40195032
1288 1 1 -0.000198991520634 32.35953976 59.44523769 27.40195032
1289 1 1 -0.00104865292489 33.83042793 41.61166638 27.40195032
1290 1 1 -0.00053998959095 17.65065805 44.15931943 27.40195032
1291 1 1 -0.000430197839322 33.83042793 46.70697247 27.40195032
1292 1 1 -0.000317701638519 17.65065805 49.25462551 27.40195032
1293 1 1 -0.000273734027473 33.83042793 51.80227856 27.40195032
1294 1 1 -0.000225360519507 17.65065805 54.34993160 27.40195032
1295 1 1 -0.000207674306392 33.83042793 56.89758465 27.40195032
1296 1 1 -0.000192420241353 17.65065805 59.44523769 27.40195032
1297 1 1 -1.51353987826e-05 20.59243439 42.46088406 29.80390065
1298 1 1 -1.05040586666e-05 22.06332256 45.00853711 29.80390065
1299 1 1 -6.24010407198e-06 20.59243439 47.55619015 29.80390065
1300 1 1 -4.85738458137e-06 22.06332256 50.10384320 29.80390065
1301 1 1 -3.88382207126e-06 20.59243439 52.65149624 29.80390065
1302 1 1 -3.42929692831e-06 22.06332256 55.19914928 29.80390065
1303 1 1 -3.05145471541e-06 20.59243439 57.74680233 29.80390065
1304 1 1 -2.95332229287e-06 22.06332256 60.29445537 29.80390065
1305 1 1 -1.96430658412e-05 23.53421073 42.46088406 29.80390065
1306 1 1 -1.30536135833e-05 25.00509890 45.00853711 29.80390065
1307 1 1 -7.09454326469e-06 23.53421073 47.55619015 29.80390065
1308 1 1 -5.05690902479e-06 25.00509890 50.10384320 29.80390065
1309 1 1 -4.03153667864e-06 23.53421073 52.65149624 29.80390065
1310 1 1 -3.50304993748e-06 25.00509890 55.19914928 29.80390065
1311 1 1 -3.13148434285e-06 23.53421073 57.74680233 29.80390065
1312 1 1 -2.99738327115e-06 25.00509890 60.29445537 29.80390065
1313 1 1 -2.32960150223e-05 26.47598708 42.46088406 29.80390065
1314 1 1 -1.30536135927e-05 27.94687525 45.00853711 29.80390065
1315 1 1 -7.57976970262e-06 26.47598708 47.55619015 29.80390065
1316 1 1 -5.05690902618e-06 27.94687525 50.10384320 29.80390065
1317 1 1 -4.07744737815e-06 26.47598708 52.65149624 29.80390065
1318 1 1 -3.5030499373e-06 27.94687525 55.19914928 29.80390065
1319 1 1 -3.15990879486e-06 26.47598708 57.74680233 29.80390065
1320 1 1 -2.99738326997e-06 27.94687525 60.29445537 29.80390065
1321 1 1 -1.96430657588e-05 29.41776342 42.46088406 29.80390065
1322 1 1 -1.05040586846e-05 30.88865159 45.00853711 29.80390065
1323 1 1 -7.09454325007e-06 29.41776342 47.55619015 29.80390065
1324 1 1 -4.85738458445e-06 30.88865159 50.10384320 29.80390065
1325 1 1 -4.03153667381e-06 29.41776342 52.65149624 29.80390065
1326 1 1 -3.42929692545e-06 30.88865159 55.19914928 29.80390065
1327 1 1 -3.13148433889e-06 29.41776342 57.74680233 29.80390065
1328 1 1 -2.95332228753e-06 30.88865159 60.29445537 29.80390065
1329 1 1 -1.5135398838e-05 32.35953976 42.46088406 29.80390065
1330 1 1 -8.43924635282e-06 33.83042793 45.00853711 29.80390065
1331 1 1 -6.24010407072e-06 32.35953976 47.55619015 29.80390065
1332 1 1 -4.51933030862e-06 33.83042793 50.10384320 29.80390065
1333 1 1 -3.88382206857e-06 32.35953976 52.65149624 29.80390065
1334 1 1 -3.28792414869e-06 33.83042793 55.19914928 29.80390065
1335 1 1 -3.05145470891e-06 32.35953976 57.74680233 29.80390065
1336 1 1 -2.87328853826e-06 33.83042793 60.29445537 29.80390065
1337 1 1 -1.13433659099e-05 17.65065805 42.46088406 29.80390065
1338 1 1 -8.43924637258e-06 19.12154622 45.00853711 29.80390065
1339 1 1 -5.43165064547e-06 17.65065805 47.55619015 29.80390065
1340 1 1 -4.51933031806e-06 19.12154622 50.10384320 29.80390065
1341 1 1 -3.6398502407e-06 17.65065805 52.65149624 29.80390065
1342 1 1 -3.28792415815e-06 19.12154622 55.19914928 29.80390065
1343 1 1 -2.93524354808e-06 17.65065805 57.74680233 29.80390065
1344 1 1 -2.87328854801e-06 19.12154622 60.29445537 29.80390065
1345 1 1 0.00101947010211 22.06332256 43.31010174 32.20585097
1346 1 1 0.00062630040465 23.53421073 45.85775479 32.20585097
1347 1 1 0.000413534225378 22.06332256 48.40540783 32.20585097
1348 1 1 0.000332465357559 23.53421073 50.95306088 32.20585097
1349 1 1 0.000267496938133 22.06332256 53.50071392 32.20585097
1350 1 1 0.000234587013665 23.53421073 56.04836697 32.20585097
1351 1 1 0.000212618195347 22.06332256 58.59602001 32.20585097
1352 1 1 0.00224937180775 23.53421073 40.76244870 32.20585097
1353 1 1 0.00121462736481 25.00509890 43.31010174 32.20585097
1354 1 1 0.000661272823584 26.47598708 45.85775479 32.20585097
1355 1 1 0.000436898256407 25.00509890 48.40540783 32.20585097
1356 1 1 0.000338884047802 26.47598708 50.95306088 32.20585097
1357 1 1 0.000275351324712 25.00509890 53.50071392 32.20585097
1358 1 1 0.000237154585434 26.47598708 56.04836697 32.20585097
1359 1 1 0.000216084473306 25.00509890 58.59602001 32.20585097
1360 1 1 0.00249991308881 26.47598708 40.76244870 32.20585097
1361 1 1 0.00121462736475 27.94687525 43.31010174 32.20585097
1362 1 1 0.000626300404708 29.41776342 45.85775479 32.20585097
1363 1 1 0.000436898256516 27.94687525 48.40540783 32.20585097
1364 1 1 0.000332465357699 29.41776342 50.95306088 32.20585097
1365 1 1 0.0002753513248 27.94687525 53.50071392 32.20585097
1366 1 1 0.000234587013783 29.41776342 56.04836697 32.20585097
1367 1 1 0.000216084473382 27.94687525 58.59602001 32.20585097
1368 1 1 0.00224937180723 29.41776342 40.76244870 32.20585097
1369 1 1 0.00101947010166 30.88865159 43.31010174 32.20585097
1370 1 1 0.00054273931731 32.35953976 45.85775479 32.20585097
1371 1 1 0.000413534225479 30.88865159 48.40540783 32.20585097
1372 1 1 0.000314716751107 32.35953976 50.95306088 32.20585097
1373 1 1 0.00026749693824 30.88865159 53.50071392 32.20585097
1374 1 1 0.000227427833013 32.35953976 56.04836697 32.20585097
1375 1 1 0.000212618195449 30.88865159 58.59602001 32.20585097
1376 1 1 0.00164023543623 32.35953976 40.76244870 32.20585097
1377 1 1 0.000753641716062 33.83042793 43.31010174 32.20585097
1378 1 1 0.00045177144797 17.65065805 45.85775479 32.20585097
1379 1 1 0.000375313552105 33.83042793 48.40540783 32.20585097
1380 1 1 0.000289431238275 17.65065805 50.95306088 32.20585097
1381 1 1 0.000253451760013 33.83042793 53.50071392 32.20585097
1382 1 1 0.000217115823184 17.65065805 56.04836697 32.20585097
1383 1 1 0.000206329949191 33.83042793 58.59602001 32.20585097
1384 1 1 0.0010202198586 17.65065805 40.76244870 32.20585097
1385 1 1 0.000753641716991 19.12154622 43.31010174 32.20585097
1386 1 1 0.000542739317515 20.59243439 45.85775479 32.20585097
1387 1 1 0.000375313552226 19.12154622 48.40540783 32.20585097
1388 1 1 0.000314716751079 20.59243439 50.95306088 32.20585097
1389 1 1 0.000253451760036 19.12154622 53.50071392 32.20585097
1390 1 1 0.000227427832961 20.59243439 56.04836697 32.20585097
1391 1 1 0.000206329949185 19.12154622 58.59602001 32.20585097
1392 1 1 0.00164023543816 20.59243439 40.76244870 32.20585097
1393 1 1 -0.00284692184034 23.53421073 44.15931943 34.60780130
1394 1 1 -0.00209097768553 25.00509890 46.70697247 34.60780130
1395 1 1 -0.00151674390072 23.53421073 49.25462551 34.60780130
1396 1 1 -0.00121682657349 25.00509890 51.80227856 34.60780130
1397 1 1 -0.0010200667947 23.53421073 54.34993160 34.60780130
1398 1 1 -0.000923711311092 25.00509890 56.89758465 34.60780130
1399 1 1 -0.000868288456988 23.53421073 59.44523769 34.60780130
1400 1 1 -0.00447602661474 25.00509890 41.61166638 34.60780130
1401 1 1 -0.00297462771002 26.47598708 44.15931943 34.60780130
1402 1 1 -0.00209097768497 27.94687525 46.70697247 34.60780130
1403 1 1 -0.00155517324614 26.47598708 49.25462551 34.60780130
1404 1 1 -0.00121682657322 27.94687525 51.80227856 34.60780130
1405 1 1 -0.00103180301492 26.47598708 54.34993160 34.60780130
1406 1 1 -0.000923711310922 27.94687525 56.89758465 34.60780130
1407 1 1 -0.000874343935404 26.47598708 59.44523769 34.60780130
1408 1 1 -0.00447602661254 27.94687525 41.61166638 34.60780130
1409 1 1 -0.00284692183869 29.41776342 44.15931943 34.60780130
1410 1 1 -0.00195732485162 30.88865159 46.70697247 34.60780130
1411 1 1 -0.00151674390008 29.41776342 49.25462551 34.60780130
1412 1 1 -0.00117728313668 30.88865159 51.80227856 34.60780130
1413 1 1 -0.00102006679437 29.41776342 54.34993160 34.60780130
1414 1 1 -0.000908627508926 30.88865159 56.89758465 34.60780130
1415 1 1 -0.000868288456736 29.41776342 59.44523769 34.60780130
1416 1 1 -0.00389526067551 30.88865159 41.61166638 34.60780130
1417 1 1 -0.00251705869993 32.35953976 44.15931943 34.60780130
1418 1 1 -0.00173255816276 33.83042793 46.70697247 34.60780130
1419 1 1 -0.00141376825137 32.35953976 49.25462551 34.60780130
1420 1 1 -0.00110910157473 33.83042793 51.80227856 34.60780130
1421 1 1 -0.000987570486935 32.35953976 54.34993160 34.60780130
1422 1 1 -0.000881243720957 33.83042793 56.89758465 34.60780130
1423 1 1 -0.00085115125984 32.35953976 59.44523769 34.60780130
1424 1 1 -0.00312960516078 33.83042793 41.61166638 34.60780130
1425 1 1 -0.00209644206875 17.65065805 44.15931943 34.60780130
1426 1 1 -0.00173255816377 19.12154622 46.70697247 34.60780130
1427 1 1 -0.00127660144998 17.65065805 49.25462551 34.60780130
1428 1 1 -0.00110910157511 19.12154622 51.80227856 34.60780130
1429 1 1 -0.000941157803054 17.65065805 54.34993160 34.60780130
1430 1 1 -0.000881243721149 19.12154622 56.89758465 34.60780130
1431 1 1 -0.000825732068923 17.65065805 59.44523769 34.60780130
1432 1 1 -0.00312960516373 19.12154622 41.61166638 34.60780130
1433 1 1 -0.00251705870172 20.59243439 44.15931943 34.60780130
1434 1 1 -0.00195732485273 22.06332256 46.70697247 34.60780130
1435 1 1 -0.00141376825205 20.59243439 49.25462551 34.60780130
1436 1 1 -0.00117728313717 22.06332256 51.80227856 34.60780130
1437 1 1 -0.00098757048725 20.59243439 54.34993160 34.60780130
1438 1 1 -0.000908627509218 22.06332256 56.89758465 34.60780130
1439 1 1 -0.000851151260063 20.59243439 59.44523769 34.60780130
1440 1 1 -0.00389526067943 22.06332256 41.61166638 34.60780130
1441 1 1 0.00081547187431 35.30131610 0.00000000 25.00000000
1442 1 1 0.000816241270852 36.77220427 2.54765304 25.00000000
1443 1 1 0.000881924436043 35.30131610 5.09530609 25.00000000
1444 1 1 0.000943708709158 36.77220427 7.64295913 25.00000000
1445 1 1 0.0011232680577 35.30131610 10.19061218 25.00000000
1446 1 1 0.0012796873274 36.77220427 12.73826522 25.00000000
1447 1 1 0.00174344646389 35.30131610 15.28591827 25.00000000
1448 1 1 0.00204358796126 36.77220427 17.83357131 25.00000000
1449 1 1 0.000787010757113 38.24309244 0.00000000 25.00000000
1450 1 1 0.000784222102667 39.71398061 2.54765304 25.00000000
1451 1 1 0.000841184008966 38.24309244 5.09530609 25.00000000
1452 1 1 0.000884432268878 39.71398061 7.64295913 25.00000000
1453 1 1 0.00102690520202 38.24309244 10.19061218 25.00000000
1454 1 1 0.00112413391231 39.71398061 12.73826522 25.00000000
1455 1 1 0.00145455831486 38.24309244 15.28591827 25.00000000
1456 1 1 0.00161321396758 39.71398061 17.83357131 25.00000000
1457 1 1 0.000758115617958 41.18486878 0.00000000 25.00000000
1458 1 1 0.00075387102616 42.65575695 2.54765304 25.00000000
1459 1 1 0.000800763942618 41.18486878 5.09530609 25.00000000
1460 1 1 0.000830895388453 42.65575695 7.64295913 25.00000000
1461 1 1 0.000939981824369 41.18486878 10.19061218 25.00000000
1462 1 1 0.00100051351652 42.65575695 12.73826522 25.00000000
1463 1 1 0.00122163584571 41.18486878 15.28591827 25.00000000
1464 1 1 0.00129989249583 42.65575695 17.83357131 25.00000000
1465 1 1 0.000732215604177 44.12664513 0.00000000 25.00000000
1466 1 1 0.000728496878376 45.59753330 2.54765304 25.00000000
1467 1 1 0.000765281143171 44.12664513 5.09530609 25.00000000
1468 1 1 0.000787768315101 45.59753330 7.64295913 25.00000000
1469 1 1 0.000869317570927 44.12664513 10.19061218 25.00000000
1470 1 1 0.000910821586334 45.59753330 12.73826522 25.00000000
1471 1 1 0.00105703612868 44.12664513 15.28591827 25.00000000
1472 1 1 0.00110049851348 45.59753330 17.83357131 25.00000000
1473 1 1 0.000711960528426 47.06842147 0.00000000 25.00000000
1474 1 1 0.000710430213783 48.53930964 2.54765304 25.00000000
1475 1 1 0.000738031563995 47.06842147 5.09530609 25.00000000
1476 1 1 0.000757873861584 48.53930964 7.64295913 25.00000000
1477 1 1 0.000817724598653 47.06842147 10.19061218 25.00000000
1478 1 1 0.000852486893223 48.53930964 12.73826522 25.00000000
1479 1 1 0.000950735715104 47.06842147 15.28591827 25.00000000
1480 1 1 0.0009860876932 48.53930964 17.83357131 25.00000000
1481 1 1 0.000699139712799 50.01019781 0.00000000 25.00000000
1482 1 1 0.000701076080992 51.48108598 2.54765304 25.00000000
1483 1 1 0.000721028007165 50.01019781 5.09530609 25.00000000
1484 1 1 0.000742658035151 51.48108598 7.64295913 25.00000000
1485 1 1 0.000786433509572 50.01019781 10.19061218 25.00000000
1486 1 1 0.000823644610451 51.48108598 12.73826522 25.00000000
1487 1 1 0.000890834463878 50.01019781 15.28591827 25.00000000
1488 1 1 0.000933566278035 51.48108598 17.83357131 25.00000000
1489 1 1 -0.00018737511727 36.77220427 0.84921768 27.40195032
1490 1 1 -0.000189487563098 38.24309244 3.39687073 27.40195032
1491 1 1 -0.000210018719568 36.77220427 5.94452377 27.40195032
1492 1 1 -0.000228189924035 38.24309244 8.49217681 27.40195032
1493 1 1 -0.000281601981519 36.77220427 11.03982986 27.40195032
1494 1 1 -0.000318088354322 38.24309244 13.58748290 27.40195032
1495 1 1 -0.000430947501399 36.77220427 16.13513595 27.40195032
1496 1 1 -0.00049612581675 38.24309244 18.68278899 27.40195032
1497 1 1 -0.000179852063601 39.71398061 0.84921768 27.40195032
1498 1 1 -0.000180693138564 41.18486878 3.39687073 27.40195032
1499 1 1 -0.000197220061938 39.71398061 5.94452377 27.40195032
1500 1 1 -0.000209265908738 41.18486878 8.49217681 27.40195032
1501 1 1 -0.000250748847197 39.71398061 11.03982986 27.40195032
1502 1 1 -0.000274211095554 41.18486878 13.58748290 27.40195032
1503 1 1 -0.000352680804962 39.71398061 16.13513595 27.40195032
1504 1 1 -0.000379317125954 41.18486878 18.68278899 27.40195032
1505 1 1 -0.00017269309672 42.65575695 0.84921768 27.40195032
1506 1 1 -0.00017297703497 44.12664513 3.39687073 27.40195032
1507 1 1 -0.000185761106338 42.65575695 5.94452377 27.40195032
1508 1 1 -0.000193827484436 44.12664513 8.49217681 27.40195032
1509 1 1 -0.000223863553533 42.65575695 11.03982986 27.40195032
1510 1 1 -0.000238716020116 44.12664513 13.58748290 27.40195032
1511 1 1 -0.000294538358809 42.65575695 16.13513595 27.40195032
1512 1 1 -0.000308259941436 44.12664513 18.68278899 27.40195032
1513 1 1 -0.000166667670124 45.59753330 0.84921768 27.40195032
1514 1 1 -0.000167021261207 47.06842147 3.39687073 27.40195032
1515 1 1 -0.000176648892151 45.59753330 5.94452377 27.40195032
1516 1 1 -0.000182795727583 47.06842147 8.49217681 27.40195032
1517 1 1 -0.000203655114336 45.59753330 11.03982986 27.40195032
1518 1 1 -0.000214004509165 47.06842147 13.58748290 27.40195032
1519 1 1 -0.000251479958156 45.59753330 16.13513595 27.40195032
1520 1 1 -0.000260493590217 47.06842147 18.68278899 27.40195032
1521 1 1 -0.000162345564709 48.53930964 0.84921768 27.40195032
1522 1 1 -0.000163273630319 50.01019781 3.39687073 27.40195032
1523 1 1 -0.000170376280985 48.53930964 5.94452377 27.40195032
1524 1 1 -0.000176261164931 50.01019781 8.49217681 27.40195032
1525 1 1 -0.000190749991237 48.53930964 11.03982986 27.40195032
1526 1 1 -0.000200119312304 50.01019781 13.58748290 27.40195032
1527 1 1 -0.000223893442468 48.53930964 16.13513595 27.40195032
1528 1 1 -0.000233003520161 50.01019781 18.68278899 27.40195032
1529 1 1 -0.000160095270907 51.48108598 0.84921768 27.40195032
1530 1 1 -0.000198385262535 35.30131610 3.39687073 27.40195032
1531 1 1 -0.000167182529455 51.48108598 5.94452377 27.40195032
1532 1 1 -0.000248361547969 35.30131610 8.49217681 27.40195032
1533 1 1 -0.000184582403446 51.48108598 11.03982986 27.40195032
1534 1 1 -0.000367196413518 35.30131610 13.58748290 27.40195032
1535 1 1 -0.000210977076893 51.48108598 16.13513595 27.40195032
1536 1 1 -0.000712151006339 35.30131610 18.68278899 27.40195032
1537 1 1 -2.73429464645e-06 38.24309244 1.69843536 29.80390065
1538 1 1 -2.78675088801e-06 39.71398061 4.24608841 29.80390065
1539 1 1 -3.10308279793e-06 38.24309244 6.79374145 29.80390065
1540 1 1 -3.34842988918e-06 39.71398061 9.34139450 29.80390065
1541 1 1 -4.08737857329e-06 38.24309244 11.88904754 29.80390065
1542 1 1 -4.5344593116e-06 39.71398061 14.43670058 29.80390065
1543 1 1 -6.26594414752e-06 38.24309244 16.98435363 29.80390065
1544 1 1 -7.1477753602e-06 39.71398061 19.53200667 29.80390065
1545 1 1 -2.62100858473e-06 41.18486878 1.69843536 29.80390065
1546 1 1 -2.65204469819e-06 42.65575695 4.24608841 29.80390065
1547 1 1 -2.90538591362e-06 41.18486878 6.79374145 29.80390065
1548 1 1 -3.07228822064e-06 42.65575695 9.34139450 29.80390065
1549 1 1 -3.63475387454e-06 41.18486878 11.88904754 29.80390065
1550 1 1 -3.9003197994e-06 42.65575695 14.43670058 29.80390065
1551 1 1 -4.89970432189e-06 41.18486878 16.98435363 29.80390065
1552 1 1 -5.14196728576e-06 42.65575695 19.53200667 29.80390065
1553 1 1 -2.52048077176e-06 44.12664513 1.69843536 29.80390065
1554 1 1 -2.54220529401e-06 45.59753330 4.24608841 29.80390065
1555 1 1 -2.73344996828e-06 44.12664513 6.79374145 29.80390065
1556 1 1 -2.85071422863e-06 45.59753330 9.34139450 29.80390065
1557 1 1 -3.26272527104e-06 44.12664513 11.88904754 29.80390065
1558 1 1 -3.44249447362e-06 45.59753330 14.43670058 29.80390065
1559 1 1 -4.09164648331e-06 44.12664513 16.98435363 29.80390065
1560 1 1 -4.20596901889e-06 45.59753330 19.53200667 29.80390065
1561 1 1 -2.44241806449e-06 47.06842147 1.69843536 29.80390065
1562 1 1 -2.46571410451e-06 48.53930964 4.24608841 29.80390065
1563 1 1 -2.60595352041e-06 47.06842147 6.79374145 29.80390065
1564 1 1 -2.70301949235e-06 48.53930964 9.34139450 29.80390065
1565 1 1 -2.98975345434e-06 47.06842147 11.88904754 29.80390065
1566 1 1 -3.13536575862e-06 48.53930964 14.43670058 29.80390065
1567 1 1 -3.58753170184e-06 47.06842147 16.98435363 29.80390065
1568 1 1 -3.69735690577e-06 48.53930964 19.53200667 29.80390065
1569 1 1 -2.39305358251e-06 50.01019781 1.69843536 29.80390065
1570 1 1 -2.42652711067e-06 51.48108598 4.24608841 29.80390065
1571 1 1 -2.52927970895e-06 50.01019781 6.79374145 29.80390065
1572 1 1 -2.63110630775e-06 51.48108598 9.34139450 29.80390065
1573 1 1 -2.82857341293e-06 50.01019781 11.88904754 29.80390065
1574 1 1 -2.98174762516e-06 51.48108598 14.43670058 29.80390065
1575 1 1 -3.27968724935e-06 50.01019781 16.98435363 29.80390065
1576 1 1 -3.43150662167e-06 51.48108598 19.53200667 29.80390065
1577 1 1 -2.84646344603e-06 35.30131610 1.69843536 29.80390065
1578 1 1 -2.93045626358e-06 36.77220427 4.24608841 29.80390065
1579 1 1 -3.30065764334e-06 35.30131610 6.79374145 29.80390065
1580 1 1 -3.64955370553e-06 36.77220427 9.34139450 29.80390065
1581 1 1 -4.63143027937e-06 35.30131610 11.88904754 29.80390065
1582 1 1 -5.43830695623e-06 36.77220427 14.43670058 29.80390065
1583 1 1 -8.44601997322e-06 35.30131610 16.98435363 29.80390065
1584 1 1 -1.05292014748e-05 36.77220427 19.53200667 29.80390065
1585 1 1 0.000189705185172 39.71398061 2.54765304 32.20585097
1586 1 1 0.00019427718958 41.18486878 5.09530609 32.20585097
1587 1 1 0.000218308297436 39.71398061 7.64295913 32.20585097
1588 1 1 0.000235016614454 41.18486878 10.19061218 32.20585097
1589 1 1 0.000289630130768 39.71398061 12.73826522 32.20585097
1590 1 1 0.000316317725992 41.18486878 15.28591827 32.20585097
1591 1 1 0.000416247678366 39.71398061 17.83357131 32.20585097
1592 1 1 0.000182765946384 41.18486878 0.00000000 32.20585097
1593 1 1 0.000181636123144 42.65575695 2.54765304 32.20585097
1594 1 1 0.00018467468426 44.12664513 5.09530609 32.20585097
1595 1 1 0.000202756530504 42.65575695 7.64295913 32.20585097
1596 1 1 0.000213728469077 44.12664513 10.19061218 32.20585097
1597 1 1 0.000253078174068 42.65575695 12.73826522 32.20585097
1598 1 1 0.000269505370336 44.12664513 15.28591827 32.20585097
1599 1 1 0.000336754262766 42.65575695 17.83357131 32.20585097
1600 1 1 0.000175909119689 44.12664513 0.00000000 32.20585097
1601 1 1 0.000174909612541 45.59753330 2.54765304 32.20585097
1602 1 1 0.000177413698636 47.06842147 5.09530609 32.20585097
1603 1 1 0.000190719527725 45.59753330 7.64295913 32.20585097
1604 1 1 0.000198816908159 47.06842147 10.19061218 32.20585097
1605 1 1 0.00022559934547 45.59753330 12.73826522 32.20585097
1606 1 1 0.000236830470134 47.06842147 15.28591827 32.20585097
1607 1 1 0.000281687160977 45.59753330 17.83357131 32.20585097
1608 1 1 0.000170530880399 47.06842147 0.00000000 32.20585097
1609 1 1 0.000170113469474 48.53930964 2.54765304 32.20585097
1610 1 1 0.000172904968899 50.01019781 5.09530609 32.20585097
1611 1 1 0.000182647862489 48.53930964 7.64295913 32.20585097
1612 1 1 0.000190192761973 50.01019781 10.19061218 32.20585097
1613 1 1 0.000208203223939 48.53930964 12.73826522 32.20585097
1614 1 1 0.000218446704882 50.01019781 15.28591827 32.20585097
1615 1 1 0.000246390883006 48.53930964 17.83357131 32.20585097
1616 1 1 0.000167117119433 50.01019781 0.00000000 32.20585097
1617 1 1 0.000167623580974 51.48108598 2.54765304 32.20585097
1618 1 1 0.000217115166366 35.30131610 5.09530609 32.20585097
1619 1 1 0.000178610966512 51.48108598 7.64295913 32.20585097
1620 1 1 0.000289447078246 35.30131610 10.19061218 32.20585097
1621 1 1 0.000200012048408 51.48108598 12.73826522 32.20585097
1622 1 1 0.000451770216619 35.30131610 15.28591827 32.20585097
1623 1 1 0.000229749128235 51.48108598 17.83357131 32.20585097
1624 1 1 0.000197942646967 35.30131610 0.00000000 32.20585097
1625 1 1 0.000198289448273 36.77220427 2.54765304 32.20585097
1626 1 1 0.000205495459868 38.24309244 5.09530609 32.20585097
1627 1 1 0.000236033514509 36.77220427 7.64295913 32.20585097
1628 1 1 0.000261349171763 38.24309244 10.19061218 32.20585097
1629 1 1 0.000331891580324 36.77220427 12.73826522 32.20585097
1630 1 1 0.000376268884964 38.24309244 15.28591827 32.20585097
1631 1 1 0.000544087487494 36.77220427 17.83357131 32.20585097
1632 1 1 0.000190405605491 38.24309244 0.00000000 32.20585097
1633 1 1 -0.000779789085071 41.18486878 3.39687073 34.60780130
1634 1 1 -0.000799060972324 42.65575695 5.94452377 34.60780130
1635 1 1 -0.000884428707285 41.18486878 8.49217681 34.60780130
1636 1 1 -0.00093545261438 42.65575695 11.03982986 34.60780130
1637 1 1 -0.00111124188088 41.18486878 13.58748290 34.60780130
1638 1 1 -0.00118779569291 42.65575695 16.13513595 34.60780130
1639 1 1 -0.00153292485677 41.18486878 18.68278899 34.60780130
1640 1 1 -0.00074844292816 42.65575695 0.84921768 34.60780130
1641 1 1 -0.000749614191097 44.12664513 3.39687073 34.60780130
1642 1 1 -0.000764043204888 45.59753330 5.94452377 34.60780130
1643 1 1 -0.000829262424458 44.12664513 8.49217681 34.60780130
1644 1 1 -0.000865714730674 45.59753330 11.03982986 34.60780130
1645 1 1 -0.000987826470024 44.12664513 13.58748290 34.60780130
1646 1 1 -0.00103408012628 45.59753330 16.13513595 34.60780130
1647 1 1 -0.00124150473867 44.12664513 18.68278899 34.60780130
1648 1 1 -0.000724772368234 45.59753330 0.84921768 34.60780130
1649 1 1 -0.000726227290057 47.06842147 3.39687073 34.60780130
1650 1 1 -0.000739512741487 48.53930964 5.94452377 34.60780130
1651 1 1 -0.00078805219943 47.06842147 8.49217681 34.60780130
1652 1 1 -0.000819028528373 48.53930964 11.03982986 34.60780130
1653 1 1 -0.000904255232531 47.06842147 13.58748290 34.60780130
1654 1 1 -0.00094193305273 48.53930964 16.13513595 34.60780130
1655 1 1 -0.00106837711189 47.06842147 18.68278899 34.60780130
1656 1 1 -0.000707845885365 48.53930964 0.84921768 34.60780130
1657 1 1 -0.000711530835675 50.01019781 3.39687073 34.60780130
1658 1 1 -0.000726950951846 51.48108598 5.94452377 34.60780130
1659 1 1 -0.000762766805278 50.01019781 8.49217681 34.60780130
1660 1 1 -0.000795643536915 51.48108598 11.03982986 34.60780130
1661 1 1 -0.000855642873025 50.01019781 13.58748290 34.60780130
1662 1 1 -0.000898357990926 51.48108598 16.13513595 34.60780130
1663 1 1 -0.00097800838276 50.01019781 18.68278899 34.60780130
1664 1 1 -0.000699055071236 51.48108598 0.84921768 34.60780130
1665 1 1 -0.000847603238475 35.30131610 3.39687073 34.60780130
1666 1 1 -0.000888063304319 36.77220427 5.94452377 34.60780130
1667 1 1 -0.00101949220881 35.30131610 8.49217681 34.60780130
1668 1 1 -0.00113749365567 36.77220427 11.03982986 34.60780130
1669 1 1 -0.00147989137565 35.30131610 13.58748290 34.60780130
1670 1 1 -0.00173566341173 36.77220427 16.13513595 34.60780130
1671 1 1 -0.00252077656529 35.30131610 18.68278899 34.60780130
1672 1 1 -0.000806198621965 36.77220427 0.84921768 34.60780130
1673 1 1 -0.000813783421452 38.24309244 3.39687073 34.60780130
1674 1 1 -0.000841819144359 39.71398061 5.94452377 34.60780130
1675 1 1 -0.000949911110345 38.24309244 8.49217681 34.60780130
1676 1 1 -0.00102735206483 39.71398061 11.03982986 34.60780130
1677 1 1 -0.00127824127874 38.24309244 13.58748290 34.60780130
1678 1 1 -0.00142081875947 39.71398061 16.13513595 34.60780130
1679 1 1 -0.00196685013088 38.24309244 18.68278899 34.60780130
1680 1 1 -0.000776619886362 39.71398061 0.84921768 34.60780130
1681 1 1 0.00302118365388 35.30131610 20.38122435 25.00000000
1682 1 1 0.00333404137248 36.77220427 22.92887739 25.00000000
1683 1 1 0.00549436563061 35.30131610 25.47653044 25.00000000
1684 1 1 0.00500161639788 36.77220427 28.02418348 25.00000000
1685 1 1 0.00797950653861 35.30131610 30.57183653 25.00000000
1686 1 1 0.00500138989427 36.77220427 33.11948957 25.00000000
1687 1 1 0.00549390362698 35.30131610 35.66714262 25.00000000
1688 1 1 0.00333295053796 36.77220427 38.21479566 25.00000000
1689 1 1 0.00227523570628 38.24309244 20.38122435 25.00000000
1690 1 1 0.00236855004298 39.71398061 22.92887739 25.00000000
1691 1 1 0.00334094219425 38.24309244 25.47653044 25.00000000
1692 1 1 0.00304158867714 39.71398061 28.02418348 25.00000000
1693 1 1 0.00398432866763 38.24309244 30.57183653 25.00000000
1694 1 1 0.00304127019745 39.71398061 33.11948957 25.00000000
1695 1 1 0.00333985058764 38.24309244 35.66714262 25.00000000
1696 1 1 0.00236769969674 39.71398061 38.21479566 25.00000000
1697 1 1 0.00171363384093 41.18486878 20.38122435 25.00000000
1698 1 1 0.00172710531846 42.65575695 22.92887739 25.00000000
1699 1 1 0.00229462110393 41.18486878 25.47653044 25.00000000
1700 1 1 0.00208176583269 42.65575695 28.02418348 25.00000000
1701 1 1 0.00257547512389 41.18486878 30.57183653 25.00000000
1702 1 1 0.00208172573894 42.65575695 33.11948957 25.00000000
1703 1 1 0.00229413877086 41.18486878 35.66714262 25.00000000
1704 1 1 0.00172692848065 42.65575695 38.21479566 25.00000000
1705 1 1 0.0013407173867 44.12664513 20.38122435 25.00000000
1706 1 1 0.00133671507492 45.59753330 22.92887739 25.00000000
1707 1 1 0.00165346730919 44.12664513 25.47653044 25.00000000
1708 1 1 0.00152092821827 45.59753330 28.02418348 25.00000000
1709 1 1 0.00179898702472 44.12664513 30.57183653 25.00000000
1710 1 1 0.00152099582611 45.59753330 33.11948957 25.00000000
1711 1 1 0.00165347783637 44.12664513 35.66714262 25.00000000
1712 1 1 0.00133679391677 45.59753330 38.21479566 25.00000000
1713 1 1 0.00112526728735 47.06842147 20.38122435 25.00000000
1714 1 1 0.00113202130492 48.53930964 22.92887739 25.00000000
1715 1 1 0.00129547253251 47.06842147 25.47653044 25.00000000
1716 1 1 0.00123481055214 48.53930964 28.02418348 25.00000000
1717 1 1 0.0013704718063 47.06842147 30.57183653 25.00000000
1718 1 1 0.00123484497788 48.53930964 33.11948957 25.00000000
1719 1 1 0.0012955530596 47.06842147 35.66714262 25.00000000
1720 1 1 0.00113206462508 48.53930964 38.21479566 25.00000000
1721 1 1 0.00101682505182 50.01019781 20.38122435 25.00000000
1722 1 1 0.00104602493397 51.48108598 22.92887739 25.00000000
1723 1 1 0.00112733147597 50.01019781 25.47653044 25.00000000
1724 1 1 0.00111995845779 51.48108598 28.02418348 25.00000000
1725 1 1 0.00117275659524 50.01019781 30.57183653 25.00000000
1726 1 1 0.00111995431326 51.48108598 33.11948957 25.00000000
1727 1 1 0.00112734572546 50.01019781 35.66714262 25.00000000
1728 1 1 0.00104601199829 51.48108598 38.21479566 25.00000000
1729 1 1 -0.00088508411759 36.77220427 21.23044203 27.40195032
1730 1 1 -0.000961402896703 38.24309244 23.77809508 27.40195032
1731 1 1 -0.00189736010594 36.77220427 26.32574812 27.40195032
1732 1 1 -0.00154302440426 38.24309244 28.87340116 27.40195032
1733 1 1 -0.00235534272241 36.77220427 31.42105421 27.40195032
1734 1 1 -0.0013928986165 38.24309244 33.96870725 27.40195032
1735 1 1 -0.0015361015003 36.77220427 36.51636030 27.40195032
1736 1 1 -0.000761919039531 38.24309244 39.06401334 27.40195032
1737 1 1 -0.000541557316338 39.71398061 21.23044203 27.40195032
1738 1 1 -0.000544264578177 41.18486878 23.77809508 27.40195032
1739 1 1 -0.000888905088489 39.71398061 26.32574812 27.40195032
1740 1 1 -0.000719637524304 41.18486878 28.87340116 27.40195032
1741 1 1 -0.00105450225323 39.71398061 31.42105421 27.40195032
1742 1 1 -0.000675003286429 41.18486878 33.96870725 27.40195032
1743 1 1 -0.00076407597436 39.71398061 36.51636030 27.40195032
1744 1 1 -0.000480809573892 41.18486878 39.06401334 27.40195032
1745 1 1 -0.000391694258491 42.65575695 21.23044203 27.40195032
1746 1 1 -0.000386822364595 44.12664513 23.77809508 27.40195032
1747 1 1 -0.000504184244438 42.65575695 26.32574812 27.40195032
1748 1 1 -0.000444148172011 44.12664513 28.87340116 27.40195032
1749 1 1 -0.000550393047863 42.65575695 31.42105421 27.40195032
1750 1 1 -0.000430924946274 44.12664513 33.96870725 27.40195032
1751 1 1 -0.000467903181886 42.65575695 36.51636030 27.40195032
1752 1 1 -0.000361090907205 44.12664513 39.06401334 27.40195032
1753 1 1 -0.000313386406595 45.59753330 21.23044203 27.40195032
1754 1 1 -0.000309988544261 47.06842147 23.77809508 27.40195032
1755 1 1 -0.000367638346956 45.59753330 26.32574812 27.40195032
1756 1 1 -0.000340309928858 47.06842147 28.87340116 27.40195032
1757 1 1 -0.000385086067967 45.59753330 31.42105421 27.40195032
1758 1 1 -0.00033374125199 47.06842147 33.96870725 27.40195032
1759 1 1 -0.000352204170488 45.59753330 36.51636030 27.40195032
1760 1 1 -0.000294464755612 47.06842147 39.06401334 27.40195032
1761 1 1 -0.000265322303157 48.53930964 21.23044203 27.40195032
1762 1 1 -0.000266967336467 50.01019781 23.77809508 27.40195032
1763 1 1 -0.000300163965107 48.53930964 26.32574812 27.40195032
1764 1 1 -0.000287362205509 50.01019781 28.87340116 27.40195032
1765 1 1 -0.000310580781837 48.53930964 31.42105421 27.40195032
1766 1 1 -0.000282971841524 50.01019781 33.96870725 27.40195032
1767 1 1 -0.000290465819448 48.53930964 36.51636030 27.40195032
1768 1 1 -0.000256355732084 50.01019781 39.06401334 27.40195032
1769 1 1 -0.000242055886265 51.48108598 21.23044203 27.40195032
1770 1 1 -0.00189602541259 35.30131610 23.77809508 27.40195032
1771 1 1 -0.000267645450065 51.48108598 26.32574812 27.40195032
1772 1 1 -0.00321244721945 35.30131610 28.87340116 27.40195032
1773 1 1 -0.000275252565493 51.48108598 31.42105421 27.40195032
1774 1 1 -0.00290191009171 35.30131610 33.96870725 27.40195032
1775 1 1 -0.000260554928504 51.48108598 36.51636030 27.40195032
1776 1 1 -0.00138989308125 35.30131610 39.06401334 27.40195032
1777 1 1 -1.31053855376e-05 38.24309244 22.07965971 29.80390065
1778 1 1 -1.313966294e-05 39.71398061 24.62731276 29.80390065
1779 1 1 -1.9711710628e-05 38.24309244 27.17496580 29.80390065
1780 1 1 -1.52232742212e-05 39.71398061 29.72261885 29.80390065
1781 1 1 -2.05427472198e-05 38.24309244 32.27027189 29.80390065
1782 1 1 -1.26613707627e-05 39.71398061 34.81792493 29.80390065
1783 1 1 -1.20024856053e-05 38.24309244 37.36557798 29.80390065
1784 1 1 -8.19734432098e-06 39.71398061 39.91323102 29.80390065
1785 1 1 -7.67276769231e-06 41.18486878 22.07965971 29.80390065
1786 1 1 -7.23803882383e-06 42.65575695 24.62731276 29.80390065
1787 1 1 -1.06244852708e-05 41.18486878 27.17496580 29.80390065
1788 1 1 -8.59534765503e-06 42.65575695 29.72261885 29.80390065
1789 1 1 -1.14517283827e-05 41.18486878 32.27027189 29.80390065
1790 1 1 -8.00253876309e-06 42.65575695 34.81792493 29.80390065
1791 1 1 -8.23759351915e-06 41.18486878 37.36557798 29.80390065
1792 1 1 -5.99243828378e-06 42.65575695 39.91323102 29.80390065
1793 1 1 -5.20346082292e-06 44.12664513 22.07965971 29.80390065
1794 1 1 -5.08277083771e-06 45.59753330 24.62731276 29.80390065
1795 1 1 -6.43989221856e-06 44.12664513 27.17496580 29.80390065
1796 1 1 -5.6929560399e-06 45.59753330 29.72261885 29.80390065
1797 1 1 -6.90053830305e-06 44.12664513 32.27027189 29.80390065
1798 1 1 -5.49051220689e-06 45.59753330 34.81792493 29.80390065
1799 1 1 -5.8948917239e-06 44.12664513 37.36557798 29.80390065
1800 1 1 -4.60930347465e-06 45.59753330 39.91323102 29.80390065
1801 1 1 -4.25703507989e-06 47.06842147 22.07965971 29.80390065
1802 1 1 -4.23582462762e-06 48.53930964 24.62731276 29.80390065
1803 1 1 -4.83764043533e-06 47.06842147 27.17496580 29.80390065
1804 1 1 -4.50964301665e-06 48.53930964 29.72261885 29.80390065
1805 1 1 -4.96136978637e-06 47.06842147 32.27027189 29.80390065
1806 1 1 -4.34692894131e-06 48.53930964 34.81792493 29.80390065
1807 1 1 -4.51593010857e-06 47.06842147 37.36557798 29.80390065
1808 1 1 -3.85977100405e-06 48.53930964 39.91323102 29.80390065
1809 1 1 -3.78035088302e-06 50.01019781 22.07965971 29.80390065
1810 1 1 -3.84948150336e-06 51.48108598 24.62731276 29.80390065
1811 1 1 -4.14758980936e-06 50.01019781 27.17496580 29.80390065
1812 1 1 -4.0422001331e-06 51.48108598 29.72261885 29.80390065
1813 1 1 -4.18245030434e-06 50.01019781 32.27027189 29.80390065
1814 1 1 -3.91789135677e-06 51.48108598 34.81792493 29.80390065
1815 1 1 -3.88930067634e-06 50.01019781 37.36557798 29.80390065
1816 1 1 -3.55496759011e-06 51.48108598 39.91323102 29.80390065
1817 1 1 -1.96647459049e-05 35.30131610 22.07965971 29.80390065
1818 1 1 -2.33439939344e-05 36.77220427 24.62731276 29.80390065
1819 1 1 -3.2354608861e-05 35.30131610 27.17496580 29.80390065
1820 1 1 -2.68774373939e-05 36.77220427 29.72261885 29.80390065
1821 1 1 -3.46781383578e-05 35.30131610 32.27027189 29.80390065
1822 1 1 -2.10533400386e-05 36.77220427 34.81792493 29.80390065
1823 1 1 -2.10278984531e-05 35.30131610 37.36557798 29.80390065
1824 1 1 -1.2601632703e-05 36.77220427 39.91323102 29.80390065
1825 1 1 0.000666687881674 39.71398061 22.92887739 32.20585097
1826 1 1 0.000634438078519 41.18486878 25.47653044 32.20585097
1827 1 1 0.00102614607048 39.71398061 28.02418348 32.20585097
1828 1 1 0.000762093704634 41.18486878 30.57183653 32.20585097
1829 1 1 0.00102544001237 39.71398061 33.11948957 32.20585097
1830 1 1 0.000634329261766 41.18486878 35.66714262 32.20585097
1831 1 1 0.000667176219372 39.71398061 38.21479566 32.20585097
1832 1 1 0.000442223309812 41.18486878 20.38122435 32.20585097
1833 1 1 0.000445717784441 42.65575695 22.92887739 32.20585097
1834 1 1 0.000426701459549 44.12664513 25.47653044 32.20585097
1835 1 1 0.000553944344628 42.65575695 28.02418348 32.20585097
1836 1 1 0.000466147483034 44.12664513 30.57183653 32.20585097
1837 1 1 0.000553570750119 42.65575695 33.11948957 32.20585097
1838 1 1 0.000426497777826 44.12664513 35.66714262 32.20585097
1839 1 1 0.000445536054208 42.65575695 38.21479566 32.20585097
1840 1 1 0.000347249904686 44.12664513 20.38122435 32.20585097
1841 1 1 0.000346367034655 45.59753330 22.92887739 32.20585097
1842 1 1 0.000335602534037 47.06842147 25.47653044 32.20585097
1843 1 1 0.000393531392679 45.59753330 28.02418348 32.20585097
1844 1 1 0.000355550194896 47.06842147 30.57183653 32.20585097
1845 1 1 0.000393454867604 45.59753330 33.11948957 32.20585097
1846 1 1 0.000335590511457 47.06842147 35.66714262 32.20585097
1847 1 1 0.00034629001535 45.59753330 38.21479566 32.20585097
1848 1 1 0.000288175555302 47.06842147 20.38122435 32.20585097
1849 1 1 0.000289165525681 48.53930964 22.92887739 32.20585097
1850 1 1 0.000286493079599 50.01019781 25.47653044 32.20585097
1851 1 1 0.000318609377029 48.53930964 28.02418348 32.20585097
1852 1 1 0.000299792766383 50.01019781 30.57183653 32.20585097
1853 1 1 0.000318621268352 48.53930964 33.11948957 32.20585097
1854 1 1 0.000286508816446 50.01019781 35.66714262 32.20585097
1855 1 1 0.000289182144536 48.53930964 38.21479566 32.20585097
1856 1 1 0.00025422147331 50.01019781 20.38122435 32.20585097
1857 1 1 0.000261502898431 51.48108598 22.92887739 32.20585097
1858 1 1 0.00250248583229 35.30131610 25.47653044 32.20585097
1859 1 1 0.000283032101789 51.48108598 28.02418348 32.20585097
1860 1 1 0.00342142173351 35.30131610 30.57183653 32.20585097
1861 1 1 0.000283035043446 51.48108598 33.11948957 32.20585097
1862 1 1 0.00250324567351 35.30131610 35.66714262 32.20585097
1863 1 1 0.000261505089434 51.48108598 38.21479566 32.20585097
1864 1 1 0.00102092457336 35.30131610 20.38122435 32.20585097
1865 1 1 0.00121768200464 36.77220427 22.92887739 32.20585097
1866 1 1 0.00121944480907 38.24309244 25.47653044 32.20585097
1867 1 1 0.00225311299208 36.77220427 28.02418348 32.20585097
1868 1 1 0.00164493056672 38.24309244 30.57183653 32.20585097
1869 1 1 0.00225230438278 36.77220427 33.11948957 32.20585097
1870 1 1 0.00122043197294 38.24309244 35.66714262 32.20585097
1871 1 1 0.00121867248139 36.77220427 38.21479566 32.20585097
1872 1 1 0.000629446581705 38.24309244 20.38122435 32.20585097
1873 1 1 -0.00212007969165 41.18486878 23.77809508 34.60780130
1874 1 1 -0.00199930882161 42.65575695 26.32574812 34.60780130
1875 1 1 -0.00255114107886 41.18486878 28.87340116 34.60780130
1876 1 1 -0.00213848330929 42.65575695 31.42105421 34.60780130
1877 1 1 -0.0024529076338 41.18486878 33.96870725 34.60780130
1878 1 1 -0.00187660746386 42.65575695 36.51636030 34.60780130
1879 1 1 -0.0019208795414 41.18486878 39.06401334 34.60780130
1880 1 1 -0.00158439650329 42.65575695 21.23044203 34.60780130
1881 1 1 -0.0015629636296 44.12664513 23.77809508 34.60780130
1882 1 1 -0.00148065962704 45.59753330 26.32574812 34.60780130
1883 1 1 -0.00178875327324 44.12664513 28.87340116 34.60780130
1884 1 1 -0.00155166160034 45.59753330 31.42105421 34.60780130
1885 1 1 -0.00173810786105 44.12664513 33.96870725 34.60780130
1886 1 1 -0.00141693476745 45.59753330 36.51636030 34.60780130
1887 1 1 -0.00145545282819 44.12664513 39.06401334 34.60780130
1888 1 1 -0.00126192857055 45.59753330 21.23044203 34.60780130
1889 1 1 -0.00124934748854 47.06842147 23.77809508 34.60780130
1890 1 1 -0.0012144419218 48.53930964 26.32574812 34.60780130
1891 1 1 -0.0013670157021 47.06842147 28.87340116 34.60780130
1892 1 1 -0.00125286148498 48.53930964 31.42105421 34.60780130
1893 1 1 -0.00134103231529 47.06842147 33.96870725 34.60780130
1894 1 1 -0.00117912149822 48.53930964 36.51636030 34.60780130
1895 1 1 -0.00119101253173 47.06842147 39.06401334 34.60780130
1896 1 1 -0.00108905856381 48.53930964 21.23044203 34.60780130
1897 1 1 -0.00109954472201 50.01019781 23.77809508 34.60780130
1898 1 1 -0.00110650786427 51.48108598 26.32574812 34.60780130
1899 1 1 -0.00117199228471 50.01019781 28.87340116 34.60780130
1900 1 1 -0.00113346563052 51.48108598 31.42105421 34.60780130
1901 1 1 -0.00115640645868 50.01019781 33.96870725 34.60780130
1902 1 1 -0.00108127758791 51.48108598 36.51636030 34.60780130
1903 1 1 -0.00106186902995 50.01019781 39.06401334 34.60780130
1904 1 1 -0.00101447429667 51.48108598 21.23044203 34.60780130
1905 1 1 -0.00448519865538 35.30131610 23.77809508 34.60780130
1906 1 1 -0.0044906381482 36.77220427 26.32574812 34.60780130
1907 1 1 -0.00764962455666 35.30131610 28.87340116 34.60780130
1908 1 1 -0.00535734940349 36.77220427 31.42105421 34.60780130
1909 1 1 -0.00668243252083 35.30131610 33.96870725 34.60780130
1910 1 1 -0.00390086911482 36.77220427 36.51636030 34.60780130
1911 1 1 -0.00366795184813 35.30131610 39.06401334 34.60780130
1912 1 1 -0.00285699296443 36.77220427 21.23044203 34.60780130
1913 1 1 -0.00299204327424 38.24309244 23.77809508 34.60780130
1914 1 1 -0.00287249928121 39.71398061 26.32574812 34.60780130
1915 1 1 -0.00391497509139 38.24309244 28.87340116 34.60780130
1916 1 1 -0.00315344491405 39.71398061 31.42105421 34.60780130
1917 1 1 -0.00368019279671 38.24309244 33.96870725 34.60780130
1918 1 1 -0.00263945107899 39.71398061 36.51636030 34.60780130
1919 1 1 -0.00263071628686 38.24309244 39.06401334 34.60780130
1920 1 1 -0.0021091702771 39.71398061 21.23044203 34.60780130
1921 1 1 0.00302086517903 35.30131610 40.76244870 25.00000000
1922 1 1 0.00204354768137 36.77220427 43.31010174 25.00000000
1923 1 1 0.00174344676891 35.30131610 45.85775479 25.00000000
1924 1 1 0.00127968740793 36.77220427 48.40540783 25.00000000
1925 1 1 0.00112323142939 35.30131610 50.95306088 25.00000000
1926 1 1 0.00094370715996 36.77220427 53.50071392 25.00000000
1927 1 1 0.000881932766074 35.30131610 56.04836697 25.00000000
1928 1 1 0.000816246785324 36.77220427 58.59602001 25.00000000
1929 1 1 0.00227475249604 38.24309244 40.76244870 25.00000000
1930 1 1 0.00161322347118 39.71398061 43.31010174 25.00000000
1931 1 1 0.00145462620549 38.24309244 45.85775479 25.00000000
1932 1 1 0.00112416997564 39.71398061 48.40540783 25.00000000
1933 1 1 0.00102690475888 38.24309244 50.95306088 25.00000000
1934 1 1 0.000884431729757 39.71398061 53.50071392 25.00000000
1935 1 1 0.000841188819734 38.24309244 56.04836697 25.00000000
1936 1 1 0.000784223841846 39.71398061 58.59602001 25.00000000
1937 1 1 0.00171345607276 41.18486878 40.76244870 25.00000000
1938 1 1 0.00129997008178 42.65575695 43.31010174 25.00000000
1939 1 1 0.00122171645107 41.18486878 45.85775479 25.00000000
1940 1 1 0.0010005326066 42.65575695 48.40540783 25.00000000
1941 1 1 0.000939982380304 41.18486878 50.95306088 25.00000000
1942 1 1 0.00083088999646 42.65575695 53.50071392 25.00000000
1943 1 1 0.00080076377329 41.18486878 56.04836697 25.00000000
1944 1 1 0.000753871180608 42.65575695 58.59602001 25.00000000
1945 1 1 0.00134077723334 44.12664513 40.76244870 25.00000000
1946 1 1 0.00110055822809 45.59753330 43.31010174 25.00000000
1947 1 1 0.00105708093249 44.12664513 45.85775479 25.00000000
1948 1 1 0.000910817388806 45.59753330 48.40540783 25.00000000
1949 1 1 0.000869308907136 44.12664513 50.95306088 25.00000000
1950 1 1 0.000787762750153 45.59753330 53.50071392 25.00000000
1951 1 1 0.00076527955039 44.12664513 56.04836697 25.00000000
1952 1 1 0.000728497058708 45.59753330 58.59602001 25.00000000
1953 1 1 0.00112532709399 47.06842147 40.76244870 25.00000000
1954 1 1 0.000986096068839 48.53930964 43.31010174 25.00000000
1955 1 1 0.000950740525377 47.06842147 45.85775479 25.00000000
1956 1 1 0.000852476579281 48.53930964 48.40540783 25.00000000
1957 1 1 0.000817715347135 47.06842147 50.95306088 25.00000000
1958 1 1 0.000757871556809 48.53930964 53.50071392 25.00000000
1959 1 1 0.000738030963803 47.06842147 56.04836697 25.00000000
1960 1 1 0.00071043048907 48.53930964 58.59602001 25.00000000
1961 1 1 0.0010168255107 50.01019781 40.76244870 25.00000000
1962 1 1 0.000933549972854 51.48108598 43.31010174 25.00000000
1963 1 1 0.00089082318635 50.01019781 45.85775479 25.00000000
1964 1 1 0.00082363809938 51.48108598 48.40540783 25.00000000
1965 1 1 0.000786429570897 50.01019781 50.95306088 25.00000000
1966 1 1 0.000742658140671 51.48108598 53.50071392 25.00000000
1967 1 1 0.000721028178997 50.01019781 56.04836697 25.00000000
1968 1 1 0.000701076173525 51.48108598 58.59602001 25.00000000
1969 1 1 -0.000668606987729 36.77220427 41.61166638 27.40195032
1970 1 1 -0.000418964838191 38.24309244 44.15931943 27.40195032
1971 1 1 -0.000367488362568 36.77220427 46.70697247 27.40195032
1972 1 1 -0.000281650980701 38.24309244 49.25462551 27.40195032
1973 1 1 -0.000250989228546 36.77220427 51.80227856 27.40195032
1974 1 1 -0.000210442749142 38.24309244 54.34993160 27.40195032
1975 1 1 -0.00019816580532 36.77220427 56.89758465 27.40195032
1976 1 1 -0.000184767973861 38.24309244 59.44523769 27.40195032
1977 1 1 -0.000461869725789 39.71398061 41.61166638 27.40195032
1978 1 1 -0.000339684999122 41.18486878 44.15931943 27.40195032
1979 1 1 -0.000312908833608 39.71398061 46.70697247 27.40195032
1980 1 1 -0.00024796883241 41.18486878 49.25462551 27.40195032
1981 1 1 -0.000227852762829 39.71398061 51.80227856 27.40195032
1982 1 1 -0.000196332156799 41.18486878 54.34993160 27.40195032
1983 1 1 -0.000188218074651 39.71398061 56.89758465 27.40195032
1984 1 1 -0.000177064344846 41.18486878 59.44523769 27.40195032
1985 1 1 -0.000356919412668 42.65575695 41.61166638 27.40195032
1986 1 1 -0.000283101333449 44.12664513 44.15931943 27.40195032
1987 1 1 -0.000267494819791 42.65575695 46.70697247 27.40195032
1988 1 1 -0.000220680503513 44.12664513 49.25462551 27.40195032
1989 1 1 -0.00020772852076 42.65575695 51.80227856 27.40195032
1990 1 1 -0.00018458758138 44.12664513 54.34993160 27.40195032
1991 1 1 -0.000179079333445 42.65575695 56.89758465 27.40195032
1992 1 1 -0.000170188884107 44.12664513 59.44523769 27.40195032
1993 1 1 -0.000292363406824 45.59753330 41.61166638 27.40195032
1994 1 1 -0.00024372969894 47.06842147 44.15931943 27.40195032
1995 1 1 -0.000233240977688 45.59753330 46.70697247 27.40195032
1996 1 1 -0.000201740754494 47.06842147 49.25462551 27.40195032
1997 1 1 -0.000192483259419 45.59753330 51.80227856 27.40195032
1998 1 1 -0.000175954671465 47.06842147 54.34993160 27.40195032
1999 1 1 -0.000171610574613 45.59753330 56.89758465 27.40195032
2000 1 1 -0.000164815749443 47.06842147 59.44523769 27.40195032
2001 1 1 -0.000251302936508 48.53930964 41.61166638 27.40195032
2002 1 1 -0.000221350301941 50.01019781 44.15931943 27.40195032
2003 1 1 -0.000211503220823 48.53930964 46.70697247 27.40195032
2004 1 1 -0.000191005780496 50.01019781 49.25462551 27.40195032
2005 1 1 -0.000182544825468 48.53930964 51.80227856 27.40195032
2006 1 1 -0.000170705420639 50.01019781 54.34993160 27.40195032
2007 1 1 -0.000166355717801 48.53930964 56.89758465 27.40195032
2008 1 1 -0.000161411480557 50.01019781 59.44523769 27.40195032
2009 1 1 -0.000231679676693 51.48108598 41.61166638 27.40195032
2010 1 1 -0.00053998959034 35.30131610 44.15931943 27.40195032
2011 1 1 -0.00020135193985 51.48108598 46.70697247 27.40195032
2012 1 1 -0.000317701638383 35.30131610 49.25462551 27.40195032
2013 1 1 -0.000177687553408 51.48108598 51.80227856 27.40195032
2014 1 1 -0.000225360519446 35.30131610 54.34993160 27.40195032
2015 1 1 -0.000163646032953 51.48108598 56.89758465 27.40195032
2016 1 1 -0.000192420241316 35.30131610 59.44523769 27.40195032
2017 1 1 -7.88454609965e-06 38.24309244 42.46088406 29.80390065
2018 1 1 -5.2724934955e-06 39.71398061 45.00853711 29.80390065
2019 1 1 -4.63626711884e-06 38.24309244 47.55619015 29.80390065
2020 1 1 -3.64506321186e-06 39.71398061 50.10384320 29.80390065
2021 1 1 -3.35308881024e-06 38.24309244 52.65149624 29.80390065
2022 1 1 -2.91770790661e-06 39.71398061 55.19914928 29.80390065
2023 1 1 -2.80344816333e-06 38.24309244 57.74680233 29.80390065
2024 1 1 -2.66052305076e-06 39.71398061 60.29445537 29.80390065
2025 1 1 -5.7863189809e-06 41.18486878 42.46088406 29.80390065
2026 1 1 -4.29140450284e-06 42.65575695 45.00853711 29.80390065
2027 1 1 -3.96616874569e-06 41.18486878 47.55619015 29.80390065
2028 1 1 -3.27689069018e-06 42.65575695 50.10384320 29.80390065
2029 1 1 -3.08483148249e-06 41.18486878 52.65149624 29.80390065
2030 1 1 -2.74992678282e-06 42.65575695 55.19914928 29.80390065
2031 1 1 -2.67418721949e-06 41.18486878 57.74680233 29.80390065
2032 1 1 -2.55608482646e-06 42.65575695 60.29445537 29.80390065
2033 1 1 -4.53566736435e-06 44.12664513 42.46088406 29.80390065
2034 1 1 -3.6583788472e-06 45.59753330 45.00853711 29.80390065
2035 1 1 -3.47510737886e-06 44.12664513 47.55619015 29.80390065
2036 1 1 -3.00161604684e-06 45.59753330 50.10384320 29.80390065
2037 1 1 -2.8655387323e-06 44.12664513 52.65149624 29.80390065
2038 1 1 -2.61545074897e-06 45.59753330 55.19914928 29.80390065
2039 1 1 -2.56084641702e-06 44.12664513 57.74680233 29.80390065
2040 1 1 -2.46839666208e-06 45.59753330 60.29445537 29.80390065
2041 1 1 -3.792034564e-06 47.06842147 42.46088406 29.80390065
2042 1 1 -3.28472119836e-06 48.53930964 45.00853711 29.80390065
2043 1 1 -3.14454514181e-06 47.06842147 47.55619015 29.80390065
2044 1 1 -2.81891577963e-06 48.53930964 50.10384320 29.80390065
2045 1 1 -2.70488120935e-06 47.06842147 52.65149624 29.80390065
2046 1 1 -2.52233104328e-06 48.53930964 55.19914928 29.80390065
2047 1 1 -2.47341793806e-06 47.06842147 57.74680233 29.80390065
2048 1 1 -2.40561049751e-06 48.53930964 60.29445537 29.80390065
2049 1 1 -3.41820514323e-06 50.01019781 42.46088406 29.80390065
2050 1 1 -3.11292430401e-06 51.48108598 45.00853711 29.80390065
2051 1 1 -2.95392495175e-06 50.01019781 47.55619015 29.80390065
2052 1 1 -2.72783593376e-06 51.48108598 50.10384320 29.80390065
2053 1 1 -2.60732296975e-06 50.01019781 52.65149624 29.80390065
2054 1 1 -2.47502632841e-06 51.48108598 55.19914928 29.80390065
2055 1 1 -2.41868534359e-06 50.01019781 57.74680233 29.80390065
2056 1 1 -2.37296345829e-06 51.48108598 60.29445537 29.80390065
2057 1 1 -1.13433659111e-05 35.30131610 42.46088406 29.80390065
2058 1 1 -6.70865885132e-06 36.77220427 45.00853711 29.80390065
2059 1 1 -5.43165064193e-06 35.30131610 47.55619015 29.80390065
2060 1 1 -4.08539404889e-06 36.77220427 50.10384320 29.80390065
2061 1 1 -3.63985023357e-06 35.30131610 52.65149624 29.80390065
2062 1 1 -3.10544150742e-06 36.77220427 55.19914928 29.80390065
2063 1 1 -2.93524353773e-06 35.30131610 57.74680233 29.80390065
2064 1 1 -2.77073860735e-06 36.77220427 60.29445537 29.80390065
2065 1 1 0.000416041231044 39.71398061 43.31010174 32.20585097
2066 1 1 0.000316306518503 41.18486878 45.85775479 32.20585097
2067 1 1 0.000289646344594 39.71398061 48.40540783 32.20585097
2068 1 1 0.000235022805715 41.18486878 50.95306088 32.20585097
2069 1 1 0.000218306845283 39.71398061 53.50071392 32.20585097
2070 1 1 0.000194277127762 41.18486878 56.04836697 32.20585097
2071 1 1 0.000189707717999 39.71398061 58.59602001 32.20585097
2072 1 1 0.000442038400587 41.18486878 40.76244870 32.20585097
2073 1 1 0.000336673528973 42.65575695 43.31010174 32.20585097
2074 1 1 0.000269522757503 44.12664513 45.85775479 32.20585097
2075 1 1 0.000253098722022 42.65575695 48.40540783 32.20585097
2076 1 1 0.000213727438608 44.12664513 50.95306088 32.20585097
2077 1 1 0.00020275279513 42.65575695 53.50071392 32.20585097
2078 1 1 0.000184673108925 44.12664513 56.04836697 32.20585097
2079 1 1 0.000181637077948 42.65575695 58.59602001 32.20585097
2080 1 1 0.000347135386079 44.12664513 40.76244870 32.20585097
2081 1 1 0.000281687453218 45.59753330 43.31010174 32.20585097
2082 1 1 0.000236841069012 47.06842147 45.85775479 32.20585097
2083 1 1 0.000225606179861 45.59753330 48.40540783 32.20585097
2084 1 1 0.000198811493934 47.06842147 50.95306088 32.20585097
2085 1 1 0.000190714262398 45.59753330 53.50071392 32.20585097
2086 1 1 0.000177412736271 47.06842147 56.04836697 32.20585097
2087 1 1 0.000174910397516 45.59753330 58.59602001 32.20585097
2088 1 1 0.000288176673157 47.06842147 40.76244870 32.20585097
2089 1 1 0.000246400087064 48.53930964 43.31010174 32.20585097
2090 1 1 0.000218443560604 50.01019781 45.85775479 32.20585097
2091 1 1 0.000208200447818 48.53930964 48.40540783 32.20585097
2092 1 1 0.000190189084591 50.01019781 50.95306088 32.20585097
2093 1 1 0.000182644464184 48.53930964 53.50071392 32.20585097
2094 1 1 0.000172904839022 50.01019781 56.04836697 32.20585097
2095 1 1 0.000170114376579 48.53930964 58.59602001 32.20585097
2096 1 1 0.000254228329004 50.01019781 40.76244870 32.20585097
2097 1 1 0.000229741880748 51.48108598 43.31010174 32.20585097
2098 1 1 0.000451771447628 35.30131610 45.85775479 32.20585097
2099 1 1 0.000200007824564 51.48108598 48.40540783 32.20585097
2100 1 1 0.000289431238181 35.30131610 50.95306088 32.20585097
2101 1 1 0.000178609589676 51.48108598 53.50071392 32.20585097
2102 1 1 0.000217115823151 35.30131610 56.04836697 32.20585097
2103 1 1 0.000167624399475 51.48108598 58.59602001 32.20585097
2104 1 1 0.00102021985661 35.30131610 40.76244870 32.20585097
2105 1 1 0.00054371376439 36.77220427 43.31010174 32.20585097
2106 1 1 0.000376195080083 38.24309244 45.85775479 32.20585097
2107 1 1 0.000331893138238 36.77220427 48.40540783 32.20585097
2108 1 1 0.00026134849335 38.24309244 50.95306088 32.20585097
2109 1 1 0.000236025192962 36.77220427 53.50071392 32.20585097
2110 1 1 0.000205497860203 38.24309244 56.04836697 32.20585097
2111 1 1 0.000198294419496 36.77220427 58.59602001 32.20585097
2112 1 1 0.000629335611157 38.24309244 40.76244870 32.20585097
2113 1 1 -0.00136691752365 41.18486878 44.15931943 34.60780130
2114 1 1 -0.00108782645093 42.65575695 46.70697247 34.60780130
2115 1 1 -0.00101811445739 41.18486878 49.25462551 34.60780130
2116 1 1 -0.000879168942355 42.65575695 51.80227856 34.60780130
2117 1 1 -0.000838347010738 41.18486878 54.34993160 34.60780130
2118 1 1 -0.000773465041078 42.65575695 56.89758465 34.60780130
2119 1 1 -0.000765645889696 41.18486878 59.44523769 34.60780130
2120 1 1 -0.00143878381073 42.65575695 41.61166638 34.60780130
2121 1 1 -0.00114578629081 44.12664513 44.15931943 34.60780130
2122 1 1 -0.000970420650283 45.59753330 46.70697247 34.60780130
2123 1 1 -0.000925237205684 44.12664513 49.25462551 34.60780130
2124 1 1 -0.000824587548929 45.59753330 51.80227856 34.60780130
2125 1 1 -0.000794601954877 44.12664513 54.34993160 34.60780130
2126 1 1 -0.000744276542778 45.59753330 56.89758465 34.60780130
2127 1 1 -0.000738615392174 44.12664513 59.44523769 34.60780130
2128 1 1 -0.00118149624276 45.59753330 41.61166638 34.60780130
2129 1 1 -0.00100939616999 47.06842147 44.15931943 34.60780130
2130 1 1 -0.000896913206638 48.53930964 46.70697247 34.60780130
2131 1 1 -0.000859624824522 47.06842147 49.25462551 34.60780130
2132 1 1 -0.000787284753917 48.53930964 51.80227856 34.60780130
2133 1 1 -0.000761397441107 47.06842147 54.34993160 34.60780130
2134 1 1 -0.000723644877148 48.53930964 56.89758465 34.60780130
2135 1 1 -0.000717527513344 47.06842147 59.44523769 34.60780130
2136 1 1 -0.00103946432971 48.53930964 41.61166638 34.60780130
2137 1 1 -0.000935387188878 50.01019781 44.15931943 34.60780130
2138 1 1 -0.000861257987196 51.48108598 46.70697247 34.60780130
2139 1 1 -0.000820505927489 50.01019781 49.25462551 34.60780130
2140 1 1 -0.000768427021135 51.48108598 51.80227856 34.60780130
2141 1 1 -0.000740839420362 50.01019781 54.34993160 34.60780130
2142 1 1 -0.000713017145683 51.48108598 56.89758465 34.60780130
2143 1 1 -0.000704206116036 50.01019781 59.44523769 34.60780130
2144 1 1 -0.000976315533603 51.48108598 41.61166638 34.60780130
2145 1 1 -0.00209644206731 35.30131610 44.15931943 34.60780130
2146 1 1 -0.00148111081237 36.77220427 46.70697247 34.60780130
2147 1 1 -0.00127660144947 35.30131610 49.25462551 34.60780130
2148 1 1 -0.00102821776821 36.77220427 51.80227856 34.60780130
2149 1 1 -0.000941157802866 35.30131610 54.34993160 34.60780130
2150 1 1 -0.000846192581115 36.77220427 56.89758465 34.60780130
2151 1 1 -0.000825732068814 35.30131610 59.44523769 34.60780130
2152 1 1 -0.00242701355535 36.77220427 41.61166638 34.60780130
2153 1 1 -0.00169007309909 38.24309244 44.15931943 34.60780130
2154 1 1 -0.00125787716456 39.71398061 46.70697247 34.60780130
2155 1 1 -0.00113773403279 38.24309244 49.25462551 34.60780130
2156 1 1 -0.00094861329738 39.71398061 51.80227856 34.60780130
2157 1 1 -0.000889005726501 38.24309244 54.34993160 34.60780130
2158 1 1 -0.000808680823674 39.71398061 56.89758465 34.60780130
2159 1 1 -0.000795878909172 38.24309244 59.44523769 34.60780130
2160 1 1 -0.00185234965191 39.71398061 41.61166638 34.60780130
2161 2 2 1 26.47598707 30.57183653 40.60780130
2162 3 2 -1 26.47598707 30.57183653 19.00000000
