ITEM: TIMESTEP
0
ITEM: NUMBER OF ATOMS
2162
ITEM: BOX BOUNDS pp pp ff
0.0000000000000000e+00 5.2951974149999998e+01
0.0000000000000000e+00 6.1143673049999997e+01
0.0000000000000000e+00 6.0000000000000000e+01
ITEM: ATOMS id mol type q x y z
1 1 1 0.000189281515611 0.00000000 0.00000000 25.00000000
2 1 1 0.000191140929141 1.47088817 2.54765304 25.00000000
3 1 1 0.000195483234947 0.00000000 5.09530609 25.00000000
4 1 1 0.000204244458322 1.47088817 7.64295913 25.00000000
5 1 1 0.000214468839083 0.00000000 10.19061218 25.00000000
6 1 1 0.000225413396063 1.47088817 12.73826522 25.00000000
7 1 1 0.000235842766111 0.00000000 15.28591827 25.00000000
8 1 1 0.000249029581067 1.47088817 17.83357131 25.00000000
9 1 1 0.000190536422489 2.94177634 0.00000000 25.00000000
10 1 1 0.000194250736498 4.41266451 2.54765304 25.00000000
11 1 1 0.000197599268517 2.94177634 5.09530609 25.00000000
12 1 1 0.000207564674519 4.41266451 7.64295913 25.00000000
13 1 1 0.000215045740005 2.94177634 10.19061218 25.00000000
14 1 1 0.000228020390519 4.41266451 12.73826522 25.00000000
15 1 1 0.000239438810925 2.94177634 15.28591827 25.00000000
16 1 1 0.000282408359946 4.41266451 17.83357131 25.00000000
17 1 1 0.0001944928074 5.88355268 0.00000000 25.00000000
18 1 1 0.000199958008356 7.35444085 2.54765304 25.00000000
19 1 1 0.000202694848794 5.88355268 5.09530609 25.00000000
20 1 1 0.000212306217344 7.35444085 7.64295913 25.00000000
21 1 1 0.000218579985447 5.88355268 10.19061218 25.00000000
22 1 1 0.000252010603986 7.35444085 12.73826522 25.00000000
23 1 1 0.000269475848278 5.88355268 15.28591827 25.00000000
24 1 1 0.000350892133083 7.35444085 17.83357131 25.00000000
25 1 1 0.000201125508037 8.82532903 0.00000000 25.00000000
26 1 1 0.000207061272478 10.29621720 2.54765304 25.00000000
27 1 1 0.000208501239784 8.82532903 5.09530609 25.00000000
28 1 1 0.000221255835916 10.29621720 7.64295913 25.00000000
29 1 1 0.000234399073445 8.82532903 10.19061218 25.00000000
30 1 1 0.000308461324322 10.29621720 12.73826522 25.00000000
31 1 1 0.000335188077253 8.82532903 15.28591827 25.00000000
32 1 1 0.000346045462126 10.29621720 17.83357131 25.00000000
33 1 1 0.000209376970374 11.76710537 0.00000000 25.00000000
34 1 1 0.000214316381456 13.23799354 2.54765304 25.00000000
35 1 1 0.000214830915368 11.76710537 5.09530609 25.00000000
36 1 1 0.000241611439304 13.23799354 7.64295913 25.00000000
37 1 1 0.00027332895981 11.76710537 10.19061218 25.00000000
38 1 1 0.000358437735421 13.23799354 12.73826522 25.00000000
39 1 1 0.00035968173166 11.76710537 15.28591827 25.00000000
40 1 1 0.000213491722927 13.23799354 17.83357131 25.00000000
41 1 1 0.000217516396128 14.70888171 0.00000000 25.00000000
42 1 1 0.00022128707647 16.17976988 2.54765304 25.00000000
43 1 1 0.000224240060123 14.70888171 5.09530609 25.00000000
44 1 1 0.000273949693377 16.17976988 7.64295913 25.00000000
45 1 1 0.000324606536242 14.70888171 10.19061218 25.00000000
46 1 1 0.000340926284097 16.17976988 12.73826522 25.00000000
47 1 1 0.000268083958018 14.70888171 15.28591827 25.00000000
48 1 1 0.000332586232695 16.17976988 17.83357131 25.00000000
49 1 1 -0.0001261742064 1.47088817 0.84921768 27.40195032
50 1 1 -0.000128265357925 2.94177634 3.39687073 27.40195032
51 1 1 -0.000130940482555 1.47088817 5.94452377 27.40195032
52 1 1 -0.000137480283971 2.94177634 8.49217681 27.40195032
53 1 1 -0.000143433465159 1.47088817 11.03982986 27.40195032
54 1 1 -0.000159165745866 2.94177634 13.58748290 27.40195032
55 1 1 -0.000168150719764 1.47088817 16.13513595 27.40195032
56 1 1 -0.000181661235267 2.94177634 18.68278899 27.40195032
57 1 1 -0.000127784621516 4.41266451 0.84921768 27.40195032
58 1 1 -0.000130541753232 5.88355268 3.39687073 27.40195032
59 1 1 -0.000132932266461 4.41266451 5.94452377 27.40195032
60 1 1 -0.000144827113054 5.88355268 8.49217681 27.40195032
61 1 1 -0.000152036004017 4.41266451 11.03982986 27.40195032
62 1 1 -0.000169217820059 5.88355268 13.58748290 27.40195032
63 1 1 -0.000174443068126 4.41266451 16.13513595 27.40195032
64 1 1 -0.000176035805756 5.88355268 18.68278899 27.40195032
65 1 1 -0.000130582088408 7.35444085 0.84921768 27.40195032
66 1 1 -0.000134998835697 8.82532903 3.39687073 27.40195032
67 1 1 -0.000138611022206 7.35444085 5.94452377 27.40195032
68 1 1 -0.00015632278356 8.82532903 8.49217681 27.40195032
69 1 1 -0.000163484518169 7.35444085 11.03982986 27.40195032
70 1 1 -0.000168005295784 8.82532903 13.58748290 27.40195032
71 1 1 -0.000171455988323 7.35444085 16.13513595 27.40195032
72 1 1 -0.000221889797969 8.82532903 18.68278899 27.40195032
73 1 1 -0.000134358770301 10.29621720 0.84921768 27.40195032
74 1 1 -0.00014197698526 11.76710537 3.39687073 27.40195032
75 1 1 -0.0001483957435 10.29621720 5.94452377 27.40195032
76 1 1 -0.000165269764233 11.76710537 8.49217681 27.40195032
77 1 1 -0.000166986184029 10.29621720 11.03982986 27.40195032
78 1 1 -0.000175209775983 11.76710537 13.58748290 27.40195032
79 1 1 -0.000199867648118 10.29621720 16.13513595 27.40195032
80 1 1 -0.000425103986922 11.76710537 18.68278899 27.40195032
81 1 1 -0.000139323120514 13.23799354 0.84921768 27.40195032
82 1 1 -0.0001505956084 14.70888171 3.39687073 27.40195032
83 1 1 -0.000159221637514 13.23799354 5.94452377 27.40195032
84 1 1 -0.000166821094026 14.70888171 8.49217681 27.40195032
85 1 1 -0.000164651027525 13.23799354 11.03982986 27.40195032
86 1 1 -0.000249098407273 14.70888171 13.58748290 27.40195032
87 1 1 -0.000349665934883 13.23799354 16.13513595 27.40195032
88 1 1 -0.000587958822332 14.70888171 18.68278899 27.40195032
89 1 1 -0.000145452733747 16.17976988 0.84921768 27.40195032
90 1 1 -0.00012757923424 0.00000000 3.39687073 27.40195032
91 1 1 -0.000166831731433 16.17976988 5.94452377 27.40195032
92 1 1 -0.000135365249117 0.00000000 8.49217681 27.40195032
93 1 1 -0.000181285020659 16.17976988 11.03982986 27.40195032
94 1 1 -0.000152645394665 0.00000000 13.58748290 27.40195032
95 1 1 -0.000560776800362 16.17976988 16.13513595 27.40195032
96 1 1 -0.000181788038053 0.00000000 18.68278899 27.40195032
97 1 1 -4.45101415205e-06 2.94177634 1.69843536 29.80390065
98 1 1 -4.57746229983e-06 4.41266451 4.24608841 29.80390065
99 1 1 -4.70707967593e-06 2.94177634 6.79374145 29.80390065
100 1 1 -5.11209135506e-06 4.41266451 9.34139450 29.80390065
101 1 1 -5.29709847597e-06 2.94177634 11.88904754 29.80390065
102 1 1 -5.44961224733e-06 4.41266451 14.43670058 29.80390065
103 1 1 -5.75953737535e-06 2.94177634 16.98435363 29.80390065
104 1 1 -6.83738678478e-06 4.41266451 19.53200667 29.80390065
105 1 1 -4.53043301063e-06 5.88355268 1.69843536 29.80390065
106 1 1 -4.75582309586e-06 7.35444085 4.24608841 29.80390065
107 1 1 -4.92924871178e-06 5.88355268 6.79374145 29.80390065
108 1 1 -5.25610617562e-06 7.35444085 9.34139450 29.80390065
109 1 1 -5.28843672324e-06 5.88355268 11.88904754 29.80390065
110 1 1 -5.8621917376e-06 7.35444085 14.43670058 29.80390065
111 1 1 -6.59098906513e-06 5.88355268 16.98435363 29.80390065
112 1 1 -1.03787202431e-05 7.35444085 19.53200667 29.80390065
113 1 1 -4.67584844609e-06 8.82532903 1.69843536 29.80390065
114 1 1 -4.97687849303e-06 10.29621720 4.24608841 29.80390065
115 1 1 -5.16148738405e-06 8.82532903 6.79374145 29.80390065
116 1 1 -5.28584849038e-06 10.29621720 9.34139450 29.80390065
117 1 1 -5.30359217963e-06 8.82532903 11.88904754 29.80390065
118 1 1 -8.25581017557e-06 10.29621720 14.43670058 29.80390065
119 1 1 -9.94373367054e-06 8.82532903 16.98435363 29.80390065
120 1 1 -9.08550617703e-06 10.29621720 19.53200667 29.80390065
121 1 1 -4.8562287018e-06 11.76710537 1.69843536 29.80390065
122 1 1 -5.18270157795e-06 13.23799354 4.24608841 29.80390065
123 1 1 -5.34140938856e-06 11.76710537 6.79374145 29.80390065
124 1 1 -5.76663213334e-06 13.23799354 9.34139450 29.80390065
125 1 1 -6.36049771746e-06 11.76710537 11.88904754 29.80390065
126 1 1 -1.248892525e-05 13.23799354 14.43670058 29.80390065
127 1 1 -1.34467722237e-05 11.76710537 16.98435363 29.80390065
128 1 1 2.07838556492e-06 13.23799354 19.53200667 29.80390065
129 1 1 -5.04524321333e-06 14.70888171 1.69843536 29.80390065
130 1 1 -5.46021857113e-06 16.17976988 4.24608841 29.80390065
131 1 1 -5.71144952915e-06 14.70888171 6.79374145 29.80390065
132 1 1 -6.75889165066e-06 16.17976988 9.34139450 29.80390065
133 1 1 -8.53260844174e-06 14.70888171 11.88904754 29.80390065
134 1 1 -1.3177490848e-05 16.17976988 14.43670058 29.80390065
135 1 1 -1.16189595226e-05 14.70888171 16.98435363 29.80390065
136 1 1 2.08735869914e-05 16.17976988 19.53200667 29.80390065
137 1 1 -4.42886600449e-06 0.00000000 1.69843536 29.80390065
138 1 1 -4.49965095029e-06 1.47088817 4.24608841 29.80390065
139 1 1 -4.623419133e-06 0.00000000 6.79374145 29.80390065
140 1 1 -4.90931242556e-06 1.47088817 9.34139450 29.80390065
141 1 1 -5.24031248309e-06 0.00000000 11.88904754 29.80390065
142 1 1 -5.5868751175e-06 1.47088817 14.43670058 29.80390065
143 1 1 -5.90745705458e-06 0.00000000 16.98435363 29.80390065
144 1 1 -6.0565670309e-06 1.47088817 19.53200667 29.80390065
145 1 1 0.000133183878554 4.41266451 2.54765304 32.20585097
146 1 1 0.000137995571904 5.88355268 5.09530609 32.20585097
147 1 1 0.000142339669537 4.41266451 7.64295913 32.20585097
148 1 1 0.000158812547548 5.88355268 10.19061218 32.20585097
149 1 1 0.000166491025609 4.41266451 12.73826522 32.20585097
150 1 1 0.000180124494202 5.88355268 15.28591827 32.20585097
151 1 1 0.000185152281352 4.41266451 17.83357131 32.20585097
152 1 1 0.000133659277601 5.88355268 0.00000000 32.20585097
153 1 1 0.000136295301365 7.35444085 2.54765304 32.20585097
154 1 1 0.000144603373313 8.82532903 5.09530609 32.20585097
155 1 1 0.000150937360539 7.35444085 7.64295913 32.20585097
156 1 1 0.00017035611459 8.82532903 10.19061218 32.20585097
157 1 1 0.000175752699482 7.35444085 12.73826522 32.20585097
158 1 1 0.000177537455091 8.82532903 15.28591827 32.20585097
159 1 1 0.000183748553726 7.35444085 17.83357131 32.20585097
160 1 1 0.000137028007 8.82532903 0.00000000 32.20585097
161 1 1 0.000141235556375 10.29621720 2.54765304 32.20585097
162 1 1 0.000154673131094 11.76710537 5.09530609 32.20585097
163 1 1 0.000162999494843 10.29621720 7.64295913 32.20585097
164 1 1 0.000173565785445 11.76710537 10.19061218 32.20585097
165 1 1 0.000173831972508 10.29621720 12.73826522 32.20585097
166 1 1 0.00022303408077 11.76710537 15.28591827 32.20585097
167 1 1 0.000265560086073 10.29621720 17.83357131 32.20585097
168 1 1 0.00014135721744 11.76710537 0.00000000 32.20585097
169 1 1 0.000148179483564 13.23799354 2.54765304 32.20585097
170 1 1 0.000165207737083 14.70888171 5.09530609 32.20585097
171 1 1 0.000171967958735 13.23799354 7.64295913 32.20585097
172 1 1 0.000171982078414 14.70888171 10.19061218 32.20585097
173 1 1 0.000185939353185 13.23799354 12.73826522 32.20585097
174 1 1 0.000385724943042 14.70888171 15.28591827 32.20585097
175 1 1 0.000495654792147 13.23799354 17.83357131 32.20585097
176 1 1 0.00014688249235 14.70888171 0.00000000 32.20585097
177 1 1 0.000156269623887 16.17976988 2.54765304 32.20585097
178 1 1 0.000134266980783 0.00000000 5.09530609 32.20585097
179 1 1 0.000173950664477 16.17976988 7.64295913 32.20585097
180 1 1 0.00014474525164 0.00000000 10.19061218 32.20585097
181 1 1 0.000259901419968 16.17976988 12.73826522 32.20585097
182 1 1 0.000167091615721 0.00000000 15.28591827 32.20585097
183 1 1 0.000601163947593 16.17976988 17.83357131 32.20585097
184 1 1 0.000130383586987 0.00000000 0.00000000 32.20585097
185 1 1 0.000131616250143 1.47088817 2.54765304 32.20585097
186 1 1 0.000135013569573 2.94177634 5.09530609 32.20585097
187 1 1 0.000138921361039 1.47088817 7.64295913 32.20585097
188 1 1 0.000148382281914 2.94177634 10.19061218 32.20585097
189 1 1 0.000155680254915 1.47088817 12.73826522 32.20585097
190 1 1 0.000173840780797 2.94177634 15.28591827 32.20585097
191 1 1 0.000183828921421 1.47088817 17.83357131 32.20585097
192 1 1 0.000131280569483 2.94177634 0.00000000 32.20585097
193 1 1 -0.000195408738791 5.88355268 3.39687073 34.60780130
194 1 1 -0.000204489541557 7.35444085 5.94452377 34.60780130
195 1 1 -0.000209115974454 5.88355268 8.49217681 34.60780130
196 1 1 -0.000227714207819 7.35444085 11.03982986 34.60780130
197 1 1 -0.000241392154118 5.88355268 13.58748290 34.60780130
198 1 1 -0.000312903720224 7.35444085 16.13513595 34.60780130
199 1 1 -0.000325850633718 5.88355268 18.68278899 34.60780130
200 1 1 -0.000194740955542 7.35444085 0.84921768 34.60780130
201 1 1 -0.000201758450895 8.82532903 3.39687073 34.60780130
202 1 1 -0.000210326785467 10.29621720 5.94452377 34.60780130
203 1 1 -0.000216786324946 8.82532903 8.49217681 34.60780130
204 1 1 -0.000263526520944 10.29621720 11.03982986 34.60780130
205 1 1 -0.000291323016346 8.82532903 13.58748290 34.60780130
206 1 1 -0.000357209116347 10.29621720 16.13513595 34.60780130
207 1 1 -0.000359363808193 8.82532903 18.68278899 34.60780130
208 1 1 -0.000202219573418 10.29621720 0.84921768 34.60780130
209 1 1 -0.000208334976681 11.76710537 3.39687073 34.60780130
210 1 1 -0.000219795028663 13.23799354 5.94452377 34.60780130
211 1 1 -0.000236783472615 11.76710537 8.49217681 34.60780130
212 1 1 -0.00031804770182 13.23799354 11.03982986 34.60780130
213 1 1 -0.000347861379468 11.76710537 13.58748290 34.60780130
214 1 1 -0.000281279494519 13.23799354 16.13513595 34.60780130
215 1 1 -0.00024385304692 11.76710537 18.68278899 34.60780130
216 1 1 -0.00021032137412 13.23799354 0.84921768 34.60780130
217 1 1 -0.000214959996741 14.70888171 3.39687073 34.60780130
218 1 1 -0.000236450804054 16.17976988 5.94452377 34.60780130
219 1 1 -0.000273012471455 14.70888171 8.49217681 34.60780130
220 1 1 -0.000353767888392 16.17976988 11.03982986 34.60780130
221 1 1 -0.00033560179001 14.70888171 13.58748290 34.60780130
222 1 1 -0.000186033733518 16.17976988 16.13513595 34.60780130
223 1 1 -0.000269639768012 14.70888171 18.68278899 34.60780130
224 1 1 -0.000217548287592 16.17976988 0.84921768 34.60780130
225 1 1 -0.000188973124638 0.00000000 3.39687073 34.60780130
226 1 1 -0.000195321686675 1.47088817 5.94452377 34.60780130
227 1 1 -0.000203828403929 0.00000000 8.49217681 34.60780130
228 1 1 -0.000214817138352 1.47088817 11.03982986 34.60780130
229 1 1 -0.000225667208448 0.00000000 13.58748290 34.60780130
230 1 1 -0.000236705389318 1.47088817 16.13513595 34.60780130
231 1 1 -0.000246244034995 0.00000000 18.68278899 34.60780130
232 1 1 -0.000186819408783 1.47088817 0.84921768 34.60780130
233 1 1 -0.000190699390782 2.94177634 3.39687073 34.60780130
234 1 1 -0.000199171500216 4.41266451 5.94452377 34.60780130
235 1 1 -0.00020541181285 2.94177634 8.49217681 34.60780130
236 1 1 -0.000216196957207 4.41266451 11.03982986 34.60780130
237 1 1 -0.000226179747933 2.94177634 13.58748290 34.60780130
238 1 1 -0.000254842496244 4.41266451 16.13513595 34.60780130
239 1 1 -0.000264154020259 2.94177634 18.68278899 34.60780130
240 1 1 -0.000189412470649 4.41266451 0.84921768 34.60780130
241 1 1 0.000258262417778 0.00000000 20.38122435 25.00000000
242 1 1 0.000284636960495 1.47088817 22.92887739 25.00000000
243 1 1 0.000288954397808 0.00000000 25.47653044 25.00000000
244 1 1 0.000317136299175 1.47088817 28.02418348 25.00000000
245 1 1 0.000305597045985 0.00000000 30.57183653 25.00000000
246 1 1 0.000317082093184 1.47088817 33.11948957 25.00000000
247 1 1 0.000289422672313 0.00000000 35.66714262 25.00000000
248 1 1 0.000284861359646 1.47088817 38.21479566 25.00000000
249 1 1 0.000287096929915 2.94177634 20.38122435 25.00000000
250 1 1 0.000356720659141 4.41266451 22.92887739 25.00000000
251 1 1 0.000340662581938 2.94177634 25.47653044 25.00000000
252 1 1 0.00038856905287 4.41266451 28.02418348 25.00000000
253 1 1 0.000361038519015 2.94177634 30.57183653 25.00000000
254 1 1 0.000387218601659 4.41266451 33.11948957 25.00000000
255 1 1 0.000339670523144 2.94177634 35.66714262 25.00000000
256 1 1 0.000355014030917 4.41266451 38.21479566 25.00000000
257 1 1 0.000358621288605 5.88355268 20.38122435 25.00000000
258 1 1 0.000357255131286 7.35444085 22.92887739 25.00000000
259 1 1 0.000381409757134 5.88355268 25.47653044 25.00000000
260 1 1 0.000287607761799 7.35444085 28.02418348 25.00000000
261 1 1 0.000367118745944 5.88355268 30.57183653 25.00000000
262 1 1 0.000288437514828 7.35444085 33.11948957 25.00000000
263 1 1 0.000379768518885 5.88355268 35.66714262 25.00000000
264 1 1 0.000357971532938 7.35444085 38.21479566 25.00000000
265 1 1 0.000341995557848 8.82532903 20.38122435 25.00000000
266 1 1 0.000208626889082 10.29621720 22.92887739 25.00000000
267 1 1 0.000225117275856 8.82532903 25.47653044 25.00000000
268 1 1 0.000343219556314 10.29621720 28.02418348 25.00000000
269 1 1 0.000208641945618 8.82532903 30.57183653 25.00000000
270 1 1 0.000353112682164 10.29621720 33.11948957 25.00000000
271 1 1 0.000230252467515 8.82532903 35.66714262 25.00000000
272 1 1 0.000215419920654 10.29621720 38.21479566 25.00000000
273 1 1 0.000204837597447 11.76710537 20.38122435 25.00000000
274 1 1 0.00074958191082 13.23799354 22.92887739 25.00000000
275 1 1 0.000616145256955 11.76710537 25.47653044 25.00000000
276 1 1 0.00212107665218 13.23799354 28.02418348 25.00000000
277 1 1 0.00114611689857 11.76710537 30.57183653 25.00000000
278 1 1 0.0021345503116 13.23799354 33.11948957 25.00000000
279 1 1 0.000620640346313 11.76710537 35.66714262 25.00000000
280 1 1 0.000739826470161 13.23799354 38.21479566 25.00000000
281 1 1 0.00061090327968 14.70888171 20.38122435 25.00000000
282 1 1 0.00255952238598 16.17976988 22.92887739 25.00000000
283 1 1 0.00256140179763 14.70888171 25.47653044 25.00000000
284 1 1 0.00203574119253 16.17976988 28.02418348 25.00000000
285 1 1 0.00315712961481 14.70888171 30.57183653 25.00000000
286 1 1 0.00203994898818 16.17976988 33.11948957 25.00000000
287 1 1 0.00253166290236 14.70888171 35.66714262 25.00000000
288 1 1 0.00252977561905 16.17976988 38.21479566 25.00000000
289 1 1 -0.000193433222306 1.47088817 21.23044203 27.40195032
290 1 1 -0.000190937551315 2.94177634 23.77809508 27.40195032
291 1 1 -0.000205058313011 1.47088817 26.32574812 27.40195032
292 1 1 -0.000195445297581 2.94177634 28.87340116 27.40195032
293 1 1 -0.000207552862907 1.47088817 31.42105421 27.40195032
294 1 1 -0.000194806666644 2.94177634 33.96870725 27.40195032
295 1 1 -0.000203151817292 1.47088817 36.51636030 27.40195032
296 1 1 -0.000189370700286 2.94177634 39.06401334 27.40195032
297 1 1 -0.000181249519931 4.41266451 21.23044203 27.40195032
298 1 1 -0.00021061909325 5.88355268 23.77809508 27.40195032
299 1 1 -0.000195023757246 4.41266451 26.32574812 27.40195032
300 1 1 -0.000265212503532 5.88355268 28.87340116 27.40195032
301 1 1 -0.000203722695335 4.41266451 31.42105421 27.40195032
302 1 1 -0.000249027660177 5.88355268 33.96870725 27.40195032
303 1 1 -0.000188797118062 4.41266451 36.51636030 27.40195032
304 1 1 -0.00019147652378 5.88355268 39.06401334 27.40195032
305 1 1 -0.000225307711395 7.35444085 21.23044203 27.40195032
306 1 1 -0.000430570940615 8.82532903 23.77809508 27.40195032
307 1 1 -0.00036032179153 7.35444085 26.32574812 27.40195032
308 1 1 -0.000570525036697 8.82532903 28.87340116 27.40195032
309 1 1 -0.000409402896359 7.35444085 31.42105421 27.40195032
310 1 1 -0.000539617556403 8.82532903 33.96870725 27.40195032
311 1 1 -0.000311768713513 7.35444085 36.51636030 27.40195032
312 1 1 -0.000354606667664 8.82532903 39.06401334 27.40195032
313 1 1 -0.000451358928589 10.29621720 21.23044203 27.40195032
314 1 1 -0.000532285546827 11.76710537 23.77809508 27.40195032
315 1 1 -0.000594156977747 10.29621720 26.32574812 27.40195032
316 1 1 -0.000186201762679 11.76710537 28.87340116 27.40195032
317 1 1 -0.00058280528464 10.29621720 31.42105421 27.40195032
318 1 1 -0.000299475424683 11.76710537 33.96870725 27.40195032
319 1 1 -0.000587358892526 10.29621720 36.51636030 27.40195032
320 1 1 -0.000588198100632 11.76710537 39.06401334 27.40195032
321 1 1 -0.000530139006375 13.23799354 21.23044203 27.40195032
322 1 1 0.000576783672483 14.70888171 23.77809508 27.40195032
323 1 1 0.000360175498484 13.23799354 26.32574812 27.40195032
324 1 1 0.00127916854825 14.70888171 28.87340116 27.40195032
325 1 1 0.000674043058438 13.23799354 31.42105421 27.40195032
326 1 1 0.00126165075798 14.70888171 33.96870725 27.40195032
327 1 1 2.19216340775e-05 13.23799354 36.51636030 27.40195032
328 1 1 2.36286616995e-05 14.70888171 39.06401334 27.40195032
329 1 1 0.000363180657182 16.17976988 21.23044203 27.40195032
330 1 1 -0.000205157442293 0.00000000 23.77809508 27.40195032
331 1 1 0.000976176233604 16.17976988 26.32574812 27.40195032
332 1 1 -0.000213396365499 0.00000000 28.87340116 27.40195032
333 1 1 -0.000645835601741 16.17976988 31.42105421 27.40195032
334 1 1 -0.00021236065425 0.00000000 33.96870725 27.40195032
335 1 1 0.0014256133449 16.17976988 36.51636030 27.40195032
336 1 1 -0.000199323718109 0.00000000 39.06401334 27.40195032
337 1 1 -6.58423201941e-06 2.94177634 22.07965971 29.80390065
338 1 1 -8.94984909967e-06 4.41266451 24.62731276 29.80390065
339 1 1 -7.38104385608e-06 2.94177634 27.17496580 29.80390065
340 1 1 -9.35766818858e-06 4.41266451 29.72261885 29.80390065
341 1 1 -7.74841276596e-06 2.94177634 32.27027189 29.80390065
342 1 1 -7.60369994537e-06 4.41266451 34.81792493 29.80390065
343 1 1 -7.16278938776e-06 2.94177634 37.36557798 29.80390065
344 1 1 -6.47658778911e-06 4.41266451 39.91323102 29.80390065
345 1 1 -1.02588495649e-05 5.88355268 22.07965971 29.80390065
346 1 1 -1.37649378962e-05 7.35444085 24.62731276 29.80390065
347 1 1 -1.30715515958e-05 5.88355268 27.17496580 29.80390065
348 1 1 -1.36417796532e-05 7.35444085 29.72261885 29.80390065
349 1 1 -9.3506871308e-06 5.88355268 32.27027189 29.80390065
350 1 1 -8.47828467062e-06 7.35444085 34.81792493 29.80390065
351 1 1 -7.06987993384e-06 5.88355268 37.36557798 29.80390065
352 1 1 -7.82209825956e-06 7.35444085 39.91323102 29.80390065
353 1 1 -9.18275226944e-06 8.82532903 22.07965971 29.80390065
354 1 1 1.92696863438e-06 10.29621720 24.62731276 29.80390065
355 1 1 -1.19234801763e-05 8.82532903 27.17496580 29.80390065
356 1 1 -1.10100669341e-06 10.29621720 29.72261885 29.80390065
357 1 1 -9.4487074893e-06 8.82532903 32.27027189 29.80390065
358 1 1 -1.3189683482e-05 10.29621720 34.81792493 29.80390065
359 1 1 -1.37878727976e-05 8.82532903 37.36557798 29.80390065
360 1 1 -1.86234327307e-05 10.29621720 39.91323102 29.80390065
361 1 1 9.67197059869e-06 11.76710537 22.07965971 29.80390065
362 1 1 -4.44560313679e-06 13.23799354 24.62731276 29.80390065
363 1 1 2.0706494541e-05 11.76710537 27.17496580 29.80390065
364 1 1 2.26061057409e-05 13.23799354 29.72261885 29.80390065
365 1 1 -1.24954851328e-05 11.76710537 32.27027189 29.80390065
366 1 1 2.1315875883e-06 13.23799354 34.81792493 29.80390065
367 1 1 -1.47680203667e-05 11.76710537 37.36557798 29.80390065
368 1 1 -1.46955807927e-05 13.23799354 39.91323102 29.80390065
369 1 1 -4.38207050802e-06 14.70888171 22.07965971 29.80390065
370 1 1 -0.000156896166521 16.17976988 24.62731276 29.80390065
371 1 1 -1.63011712931e-05 14.70888171 27.17496580 29.80390065
372 1 1 -0.000107243701447 16.17976988 29.72261885 29.80390065
373 1 1 -8.48538915499e-05 14.70888171 32.27027189 29.80390065
374 1 1 -6.18784385715e-06 16.17976988 34.81792493 29.80390065
375 1 1 5.92621160891e-05 14.70888171 37.36557798 29.80390065
376 1 1 2.22661716169e-06 16.17976988 39.91323102 29.80390065
377 1 1 -6.18656034779e-06 0.00000000 22.07965971 29.80390065
378 1 1 -6.33722135223e-06 1.47088817 24.62731276 29.80390065
379 1 1 -6.4422488444e-06 0.00000000 27.17496580 29.80390065
380 1 1 -6.98343760671e-06 1.47088817 29.72261885 29.80390065
381 1 1 -7.24371701418e-06 0.00000000 32.27027189 29.80390065
382 1 1 -7.45436891076e-06 1.47088817 34.81792493 29.80390065
383 1 1 -7.2154329689e-06 0.00000000 37.36557798 29.80390065
384 1 1 -6.82435422021e-06 1.47088817 39.91323102 29.80390065
385 1 1 0.000191760562712 4.41266451 22.92887739 32.20585097
386 1 1 0.000236756396644 5.88355268 25.47653044 32.20585097
387 1 1 0.000208159903899 4.41266451 28.02418348 32.20585097
388 1 1 0.000277068887167 5.88355268 30.57183653 32.20585097
389 1 1 0.00020844297977 4.41266451 33.11948957 32.20585097
390 1 1 0.000239114749517 5.88355268 35.66714262 32.20585097
391 1 1 0.00019198385549 4.41266451 38.21479566 32.20585097
392 1 1 0.0001880337424 5.88355268 20.38122435 32.20585097
393 1 1 0.000272236322469 7.35444085 22.92887739 32.20585097
394 1 1 0.000503385143987 8.82532903 25.47653044 32.20585097
395 1 1 0.000398105160733 7.35444085 28.02418348 32.20585097
396 1 1 0.000590361756268 8.82532903 30.57183653 32.20585097
397 1 1 0.000402420319808 7.35444085 33.11948957 32.20585097
398 1 1 0.00050543462311 8.82532903 35.66714262 32.20585097
399 1 1 0.00027490937476 7.35444085 38.21479566 32.20585097
400 1 1 0.000286540583956 8.82532903 20.38122435 32.20585097
401 1 1 0.000551702054849 10.29621720 22.92887739 32.20585097
402 1 1 0.000445174725243 11.76710537 25.47653044 32.20585097
403 1 1 0.00060871876743 10.29621720 28.02418348 32.20585097
404 1 1 0.00018558763181 11.76710537 30.57183653 32.20585097
405 1 1 0.000604195769226 10.29621720 33.11948957 32.20585097
406 1 1 0.000434879274152 11.76710537 35.66714262 32.20585097
407 1 1 0.000543774643719 10.29621720 38.21479566 32.20585097
408 1 1 0.000549031765683 11.76710537 20.38122435 32.20585097
409 1 1 0.000335259792754 13.23799354 22.92887739 32.20585097
410 1 1 -0.00108577528939 14.70888171 25.47653044 32.20585097
411 1 1 -0.000546698533411 13.23799354 28.02418348 32.20585097
412 1 1 -0.00119514700102 14.70888171 30.57183653 32.20585097
413 1 1 -0.000588202603609 13.23799354 33.11948957 32.20585097
414 1 1 -0.00104659334609 14.70888171 35.66714262 32.20585097
415 1 1 0.000333887159888 13.23799354 38.21479566 32.20585097
416 1 1 0.00044124440129 14.70888171 20.38122435 32.20585097
417 1 1 -0.00108712502212 16.17976988 22.92887739 32.20585097
418 1 1 0.00021730424013 0.00000000 25.47653044 32.20585097
419 1 1 -7.59902714369e-05 16.17976988 28.02418348 32.20585097
420 1 1 0.000221959154264 0.00000000 30.57183653 32.20585097
421 1 1 -0.000126708881348 16.17976988 33.11948957 32.20585097
422 1 1 0.000216873228503 0.00000000 35.66714262 32.20585097
423 1 1 -0.00104795516876 16.17976988 38.21479566 32.20585097
424 1 1 0.000197858505164 0.00000000 20.38122435 32.20585097
425 1 1 0.00020651070286 1.47088817 22.92887739 32.20585097
426 1 1 0.000201151485784 2.94177634 25.47653044 32.20585097
427 1 1 0.000214994881722 1.47088817 28.02418348 32.20585097
428 1 1 0.000204120372627 2.94177634 30.57183653 32.20585097
429 1 1 0.00021452482354 1.47088817 33.11948957 32.20585097
430 1 1 0.000200544837028 2.94177634 35.66714262 32.20585097
431 1 1 0.000206114834863 1.47088817 38.21479566 32.20585097
432 1 1 0.000193520194306 2.94177634 20.38122435 32.20585097
433 1 1 -0.000375244036133 5.88355268 23.77809508 34.60780130
434 1 1 -0.000298590096555 7.35444085 26.32574812 34.60780130
435 1 1 -0.000360748270939 5.88355268 28.87340116 34.60780130
436 1 1 -0.00026769181622 7.35444085 31.42105421 34.60780130
437 1 1 -0.000367615909238 5.88355268 33.96870725 34.60780130
438 1 1 -0.000323957436673 7.35444085 36.51636030 34.60780130
439 1 1 -0.000370644541456 5.88355268 39.06401334 34.60780130
440 1 1 -0.000365566547274 7.35444085 21.23044203 34.60780130
441 1 1 -0.000252428073017 8.82532903 23.77809508 34.60780130
442 1 1 -0.000278482609179 10.29621720 26.32574812 34.60780130
443 1 1 -0.000201010281631 8.82532903 28.87340116 34.60780130
444 1 1 -0.000392371586706 10.29621720 31.42105421 34.60780130
445 1 1 -0.000199412848954 8.82532903 33.96870725 34.60780130
446 1 1 -0.000214055036156 10.29621720 36.51636030 34.60780130
447 1 1 -0.000291652947378 8.82532903 39.06401334 34.60780130
448 1 1 -0.000236235960173 10.29621720 21.23044203 34.60780130
449 1 1 -0.000388280471547 11.76710537 23.77809508 34.60780130
450 1 1 -0.00173650559551 13.23799354 26.32574812 34.60780130
451 1 1 -0.00108626743032 11.76710537 28.87340116 34.60780130
452 1 1 -0.00236557086299 13.23799354 31.42105421 34.60780130
453 1 1 -0.000871751203571 11.76710537 33.96870725 34.60780130
454 1 1 -0.00124450091635 13.23799354 36.51636030 34.60780130
455 1 1 -0.000237144810708 11.76710537 39.06401334 34.60780130
456 1 1 -0.000385389153889 13.23799354 21.23044203 34.60780130
457 1 1 -0.0019355078628 14.70888171 23.77809508 34.60780130
458 1 1 -0.0025382380431 16.17976988 26.32574812 34.60780130
459 1 1 -0.00309797656512 14.70888171 28.87340116 34.60780130
460 1 1 -0.00147311053474 16.17976988 31.42105421 34.60780130
461 1 1 -0.00292143654319 14.70888171 33.96870725 34.60780130
462 1 1 -0.0028877220923 16.17976988 36.51636030 34.60780130
463 1 1 -0.00124221007167 14.70888171 39.06401334 34.60780130
464 1 1 -0.0017323862175 16.17976988 21.23044203 34.60780130
465 1 1 -0.000274858593252 0.00000000 23.77809508 34.60780130
466 1 1 -0.000304325105999 1.47088817 26.32574812 34.60780130
467 1 1 -0.000299175832155 0.00000000 28.87340116 34.60780130
468 1 1 -0.00031698636854 1.47088817 31.42105421 34.60780130
469 1 1 -0.000293221873731 0.00000000 33.96870725 34.60780130
470 1 1 -0.000293140085503 1.47088817 36.51636030 34.60780130
471 1 1 -0.000263760609818 0.00000000 39.06401334 34.60780130
472 1 1 -0.000267599590849 1.47088817 21.23044203 34.60780130
473 1 1 -0.00031974757843 2.94177634 23.77809508 34.60780130
474 1 1 -0.000375709726289 4.41266451 26.32574812 34.60780130
475 1 1 -0.000353463958328 2.94177634 28.87340116 34.60780130
476 1 1 -0.00038439703147 4.41266451 31.42105421 34.60780130
477 1 1 -0.000347267215278 2.94177634 33.96870725 34.60780130
478 1 1 -0.000367725026302 4.41266451 36.51636030 34.60780130
479 1 1 -0.000302350881217 2.94177634 39.06401334 34.60780130
480 1 1 -0.000328708196314 4.41266451 21.23044203 34.60780130
481 1 1 0.000258868855769 0.00000000 40.76244870 25.00000000
482 1 1 0.000249361124575 1.47088817 43.31010174 25.00000000
483 1 1 0.000236141881072 0.00000000 45.85775479 25.00000000
484 1 1 0.00022552500688 1.47088817 48.40540783 25.00000000
485 1 1 0.000214376894125 0.00000000 50.95306088 25.00000000
486 1 1 0.000204158342004 1.47088817 53.50071392 25.00000000
487 1 1 0.000195464007199 0.00000000 56.04836697 25.00000000
488 1 1 0.000191154260275 1.47088817 58.59602001 25.00000000
489 1 1 0.000286668878744 2.94177634 40.76244870 25.00000000
490 1 1 0.000281694853437 4.41266451 43.31010174 25.00000000
491 1 1 0.000239604827514 2.94177634 45.85775479 25.00000000
492 1 1 0.000228293230607 4.41266451 48.40540783 25.00000000
493 1 1 0.000215104103463 2.94177634 50.95306088 25.00000000
494 1 1 0.000207576903675 4.41266451 53.50071392 25.00000000
495 1 1 0.000197557322071 2.94177634 56.04836697 25.00000000
496 1 1 0.000194228018179 4.41266451 58.59602001 25.00000000
497 1 1 0.000357233388761 5.88355268 40.76244870 25.00000000
498 1 1 0.000349541543546 7.35444085 43.31010174 25.00000000
499 1 1 0.000268929362295 5.88355268 45.85775479 25.00000000
500 1 1 0.000251911441651 7.35444085 48.40540783 25.00000000
501 1 1 0.000218910471036 5.88355268 50.95306088 25.00000000
502 1 1 0.000212495360717 7.35444085 53.50071392 25.00000000
503 1 1 0.000202656669687 5.88355268 56.04836697 25.00000000
504 1 1 0.000199927894193 7.35444085 58.59602001 25.00000000
505 1 1 0.00034453941861 8.82532903 40.76244870 25.00000000
506 1 1 0.000346823501512 10.29621720 43.31010174 25.00000000
507 1 1 0.000333481614414 8.82532903 45.85775479 25.00000000
508 1 1 0.000307289919602 10.29621720 48.40540783 25.00000000
509 1 1 0.000234637431982 8.82532903 50.95306088 25.00000000
510 1 1 0.00022145121085 10.29621720 53.50071392 25.00000000
511 1 1 0.000208535101252 8.82532903 56.04836697 25.00000000
512 1 1 0.000207058264328 10.29621720 58.59602001 25.00000000
513 1 1 0.000211637930131 11.76710537 40.76244870 25.00000000
514 1 1 0.000218653315373 13.23799354 43.31010174 25.00000000
515 1 1 0.000358088375849 11.76710537 45.85775479 25.00000000
516 1 1 0.000357053857283 13.23799354 48.40540783 25.00000000
517 1 1 0.000273078628487 11.76710537 50.95306088 25.00000000
518 1 1 0.000241617314871 13.23799354 53.50071392 25.00000000
519 1 1 0.000214837804044 11.76710537 56.04836697 25.00000000
520 1 1 0.000214261597826 13.23799354 58.59602001 25.00000000
521 1 1 0.000615392605788 14.70888171 40.76244870 25.00000000
522 1 1 0.000342480714193 16.17976988 43.31010174 25.00000000
523 1 1 0.000268941746874 14.70888171 45.85775479 25.00000000
524 1 1 0.000340923411893 16.17976988 48.40540783 25.00000000
525 1 1 0.000324605609641 14.70888171 50.95306088 25.00000000
526 1 1 0.000274208409616 16.17976988 53.50071392 25.00000000
527 1 1 0.000224049159328 14.70888171 56.04836697 25.00000000
528 1 1 0.000221050131733 16.17976988 58.59602001 25.00000000
529 1 1 -0.000186389307848 1.47088817 41.61166638 27.40195032
530 1 1 -0.000175780015718 2.94177634 44.15931943 27.40195032
531 1 1 -0.000158705685259 1.47088817 46.70697247 27.40195032
532 1 1 -0.000150614147857 2.94177634 49.25462551 27.40195032
533 1 1 -0.000138048697318 1.47088817 51.80227856 27.40195032
534 1 1 -0.000133238404511 2.94177634 54.34993160 27.40195032
535 1 1 -0.000128655794852 1.47088817 56.89758465 27.40195032
536 1 1 -0.000127098710254 2.94177634 59.44523769 27.40195032
537 1 1 -0.000179757674296 4.41266451 41.61166638 27.40195032
538 1 1 -0.000174485465802 5.88355268 44.15931943 27.40195032
539 1 1 -0.000168939546864 4.41266451 46.70697247 27.40195032
540 1 1 -0.000162464541825 5.88355268 49.25462551 27.40195032
541 1 1 -0.000143787499239 4.41266451 51.80227856 27.40195032
542 1 1 -0.000137754234898 5.88355268 54.34993160 27.40195032
543 1 1 -0.000130126216739 4.41266451 56.89758465 27.40195032
544 1 1 -0.000129336542142 5.88355268 59.44523769 27.40195032
545 1 1 -0.000192379324848 7.35444085 41.61166638 27.40195032
546 1 1 -0.000183791145429 8.82532903 44.15931943 27.40195032
547 1 1 -0.000171164661899 7.35444085 46.70697247 27.40195032
548 1 1 -0.00016859625222 8.82532903 49.25462551 27.40195032
549 1 1 -0.000154895629732 7.35444085 51.80227856 27.40195032
550 1 1 -0.000147063899152 8.82532903 54.34993160 27.40195032
551 1 1 -0.000133893001015 7.35444085 56.89758465 27.40195032
552 1 1 -0.000132802444353 8.82532903 59.44523769 27.40195032
553 1 1 -0.000351618887075 10.29621720 41.61166638 27.40195032
554 1 1 -0.000302920786224 11.76710537 44.15931943 27.40195032
555 1 1 -0.000171673689498 10.29621720 46.70697247 27.40195032
556 1 1 -0.000165638950471 11.76710537 49.25462551 27.40195032
557 1 1 -0.000164959256848 10.29621720 51.80227856 27.40195032
558 1 1 -0.000158484409014 11.76710537 54.34993160 27.40195032
559 1 1 -0.000140830082168 10.29621720 56.89758465 27.40195032
560 1 1 -0.000137698801856 11.76710537 59.44523769 27.40195032
561 1 1 -0.000582708340114 13.23799354 41.61166638 27.40195032
562 1 1 -0.000530765788489 14.70888171 44.15931943 27.40195032
563 1 1 -0.000234022101743 13.23799354 46.70697247 27.40195032
564 1 1 -0.000181312267614 14.70888171 49.25462551 27.40195032
565 1 1 -0.000166512298328 13.23799354 51.80227856 27.40195032
566 1 1 -0.000166277043361 14.70888171 54.34993160 27.40195032
567 1 1 -0.000150263416581 13.23799354 56.89758465 27.40195032
568 1 1 -0.000144098283645 14.70888171 59.44523769 27.40195032
569 1 1 -0.000294471110467 16.17976988 41.61166638 27.40195032
570 1 1 -0.000171456931153 0.00000000 44.15931943 27.40195032
571 1 1 -0.000396777423136 16.17976988 46.70697247 27.40195032
572 1 1 -0.000145231124611 0.00000000 49.25462551 27.40195032
573 1 1 -0.000164888955012 16.17976988 51.80227856 27.40195032
574 1 1 -0.000132158284395 0.00000000 54.34993160 27.40195032
575 1 1 -0.000159541664571 16.17976988 56.89758465 27.40195032
576 1 1 -0.000126287072013 0.00000000 59.44523769 27.40195032
577 1 1 -6.41155588786e-06 2.94177634 42.46088406 29.80390065
578 1 1 -6.17706016613e-06 4.41266451 45.00853711 29.80390065
579 1 1 -5.57167935028e-06 2.94177634 47.55619015 29.80390065
580 1 1 -5.27740856909e-06 4.41266451 50.10384320 29.80390065
581 1 1 -4.82379010098e-06 2.94177634 52.65149624 29.80390065
582 1 1 -4.6787539098e-06 4.41266451 55.19914928 29.80390065
583 1 1 -4.50823229429e-06 2.94177634 57.74680233 29.80390065
584 1 1 -4.4799243394e-06 4.41266451 60.29445537 29.80390065
585 1 1 -6.06644648336e-06 5.88355268 42.46088406 29.80390065
586 1 1 -6.13816787717e-06 7.35444085 45.00853711 29.80390065
587 1 1 -6.03594417117e-06 5.88355268 47.55619015 29.80390065
588 1 1 -5.74271412675e-06 7.35444085 50.10384320 29.80390065
589 1 1 -5.00892699569e-06 5.88355268 52.65149624 29.80390065
590 1 1 -4.84386588142e-06 7.35444085 55.19914928 29.80390065
591 1 1 -4.60102157815e-06 5.88355268 57.74680233 29.80390065
592 1 1 -4.58344464893e-06 7.35444085 60.29445537 29.80390065
593 1 1 -7.68914566178e-06 8.82532903 42.46088406 29.80390065
594 1 1 -6.67478263011e-06 10.29621720 45.00853711 29.80390065
595 1 1 -6.42707017856e-06 8.82532903 47.55619015 29.80390065
596 1 1 -6.24410013768e-06 10.29621720 50.10384320 29.80390065
597 1 1 -5.35975494292e-06 8.82532903 52.65149624 29.80390065
598 1 1 -5.12491132841e-06 10.29621720 55.19914928 29.80390065
599 1 1 -4.76358547818e-06 8.82532903 57.74680233 29.80390065
600 1 1 -4.74313683688e-06 10.29621720 60.29445537 29.80390065
601 1 1 -1.35839183727e-05 11.76710537 42.46088406 29.80390065
602 1 1 -8.08228176383e-06 13.23799354 45.00853711 29.80390065
603 1 1 -6.92760876748e-06 11.76710537 47.55619015 29.80390065
604 1 1 -6.74976457004e-06 13.23799354 50.10384320 29.80390065
605 1 1 -5.67741039931e-06 11.76710537 52.65149624 29.80390065
606 1 1 -5.3623810572e-06 13.23799354 55.19914928 29.80390065
607 1 1 -5.02065354665e-06 11.76710537 57.74680233 29.80390065
608 1 1 -4.967275454e-06 13.23799354 60.29445537 29.80390065
609 1 1 -1.29708742591e-05 14.70888171 42.46088406 29.80390065
610 1 1 -9.09997529285e-06 16.17976988 45.00853711 29.80390065
611 1 1 -8.75603486681e-06 14.70888171 47.55619015 29.80390065
612 1 1 -8.53233277338e-06 16.17976988 50.10384320 29.80390065
613 1 1 -5.7739699085e-06 14.70888171 52.65149624 29.80390065
614 1 1 -5.34724724423e-06 16.17976988 55.19914928 29.80390065
615 1 1 -5.29100996845e-06 14.70888171 57.74680233 29.80390065
616 1 1 -5.21304103713e-06 16.17976988 60.29445537 29.80390065
617 1 1 -6.33620921685e-06 0.00000000 42.46088406 29.80390065
618 1 1 -5.88984904713e-06 1.47088817 45.00853711 29.80390065
619 1 1 -5.34684825941e-06 0.00000000 47.55619015 29.80390065
620 1 1 -5.03283166337e-06 1.47088817 50.10384320 29.80390065
621 1 1 -4.77524801352e-06 0.00000000 52.65149624 29.80390065
622 1 1 -4.61017788432e-06 1.47088817 55.19914928 29.80390065
623 1 1 -4.47460819855e-06 0.00000000 57.74680233 29.80390065
624 1 1 -4.42459541585e-06 1.47088817 60.29445537 29.80390065
625 1 1 0.000184791116407 4.41266451 43.31010174 32.20585097
626 1 1 0.000179640071452 5.88355268 45.85775479 32.20585097
627 1 1 0.000166446859175 4.41266451 48.40540783 32.20585097
628 1 1 0.000158921511736 5.88355268 50.95306088 32.20585097
629 1 1 0.000142397458972 4.41266451 53.50071392 32.20585097
630 1 1 0.000138001453598 5.88355268 56.04836697 32.20585097
631 1 1 0.00013316488701 4.41266451 58.59602001 32.20585097
632 1 1 0.000189199705773 5.88355268 40.76244870 32.20585097
633 1 1 0.000184918073949 7.35444085 43.31010174 32.20585097
634 1 1 0.000177705396298 8.82532903 45.85775479 32.20585097
635 1 1 0.000175247242579 7.35444085 48.40540783 32.20585097
636 1 1 0.000170143026217 8.82532903 50.95306088 32.20585097
637 1 1 0.000151078840155 7.35444085 53.50071392 32.20585097
638 1 1 0.000144657984112 8.82532903 56.04836697 32.20585097
639 1 1 0.000136280362778 7.35444085 58.59602001 32.20585097
640 1 1 0.000288110808002 8.82532903 40.76244870 32.20585097
641 1 1 0.000268268298761 10.29621720 43.31010174 32.20585097
642 1 1 0.000225393200097 11.76710537 45.85775479 32.20585097
643 1 1 0.000173090256813 10.29621720 48.40540783 32.20585097
644 1 1 0.0001730639906 11.76710537 50.95306088 32.20585097
645 1 1 0.000163031373696 10.29621720 53.50071392 32.20585097
646 1 1 0.000154676165711 11.76710537 56.04836697 32.20585097
647 1 1 0.00014123081131 10.29621720 58.59602001 32.20585097
648 1 1 0.000541112306106 11.76710537 40.76244870 32.20585097
649 1 1 0.000497726819661 13.23799354 43.31010174 32.20585097
650 1 1 0.000390053890985 14.70888171 45.85775479 32.20585097
651 1 1 0.000186168547842 13.23799354 48.40540783 32.20585097
652 1 1 0.000171981400818 14.70888171 50.95306088 32.20585097
653 1 1 0.000171971901921 13.23799354 53.50071392 32.20585097
654 1 1 0.000165174632669 14.70888171 56.04836697 32.20585097
655 1 1 0.000148106728273 13.23799354 58.59602001 32.20585097
656 1 1 0.000430941180517 14.70888171 40.76244870 32.20585097
657 1 1 0.000596646817011 16.17976988 43.31010174 32.20585097
658 1 1 0.000167238915696 0.00000000 45.85775479 32.20585097
659 1 1 0.000259898882413 16.17976988 48.40540783 32.20585097
660 1 1 0.000144738369649 0.00000000 50.95306088 32.20585097
661 1 1 0.000174457074441 16.17976988 53.50071392 32.20585097
662 1 1 0.000134244092785 0.00000000 56.04836697 32.20585097
663 1 1 0.000156099995216 16.17976988 58.59602001 32.20585097
664 1 1 0.000197803882094 0.00000000 40.76244870 32.20585097
665 1 1 0.000183783798679 1.47088817 43.31010174 32.20585097
666 1 1 0.000173720003414 2.94177634 45.85775479 32.20585097
667 1 1 0.00015577597981 1.47088817 48.40540783 32.20585097
668 1 1 0.000148456173665 2.94177634 50.95306088 32.20585097
669 1 1 0.000138880090702 1.47088817 53.50071392 32.20585097
670 1 1 0.000134987658845 2.94177634 56.04836697 32.20585097
671 1 1 0.000131619985859 1.47088817 58.59602001 32.20585097
672 1 1 0.000193146696533 2.94177634 40.76244870 32.20585097
673 1 1 -0.000295840004898 5.88355268 44.15931943 34.60780130
674 1 1 -0.000278746283087 7.35444085 46.70697247 34.60780130
675 1 1 -0.000224984386446 5.88355268 49.25462551 34.60780130
676 1 1 -0.000215455126849 7.35444085 51.80227856 34.60780130
677 1 1 -0.000204104516386 5.88355268 54.34993160 34.60780130
678 1 1 -0.000200393908004 7.35444085 56.89758465 34.60780130
679 1 1 -0.000192542690765 5.88355268 59.44523769 34.60780130
680 1 1 -0.000364671587914 7.35444085 41.61166638 34.60780130
681 1 1 -0.000357035147699 8.82532903 44.15931943 34.60780130
682 1 1 -0.000342660410088 10.29621720 46.70697247 34.60780130
683 1 1 -0.000256315308521 8.82532903 49.25462551 34.60780130
684 1 1 -0.000234157875645 10.29621720 51.80227856 34.60780130
685 1 1 -0.000209409096804 8.82532903 54.34993160 34.60780130
686 1 1 -0.000206472044314 10.29621720 56.89758465 34.60780130
687 1 1 -0.000199079103474 8.82532903 59.44523769 34.60780130
688 1 1 -0.000286775785344 10.29621720 41.61166638 34.60780130
689 1 1 -0.000309290609123 11.76710537 44.15931943 34.60780130
690 1 1 -0.000343904914625 13.23799354 46.70697247 34.60780130
691 1 1 -0.000313324619104 11.76710537 49.25462551 34.60780130
692 1 1 -0.000272722181725 13.23799354 51.80227856 34.60780130
693 1 1 -0.000218900311598 11.76710537 54.34993160 34.60780130
694 1 1 -0.000213002528485 13.23799354 56.89758465 34.60780130
695 1 1 -0.000206744889836 11.76710537 59.44523769 34.60780130
696 1 1 -0.000207435439959 13.23799354 41.61166638 34.60780130
697 1 1 -0.000185847629587 14.70888171 44.15931943 34.60780130
698 1 1 -0.000247379269268 16.17976988 46.70697247 34.60780130
699 1 1 -0.000353855565693 14.70888171 49.25462551 34.60780130
700 1 1 -0.000318203087631 16.17976988 51.80227856 34.60780130
701 1 1 -0.000237886753168 14.70888171 54.34993160 34.60780130
702 1 1 -0.000221603989051 16.17976988 56.89758465 34.60780130
703 1 1 -0.000214181441114 14.70888171 59.44523769 34.60780130
704 1 1 -0.000864838310145 16.17976988 41.61166638 34.60780130
705 1 1 -0.00023857811762 0.00000000 44.15931943 34.60780130
706 1 1 -0.00022890905837 1.47088817 46.70697247 34.60780130
707 1 1 -0.000218519705553 0.00000000 49.25462551 34.60780130
708 1 1 -0.000207762420877 1.47088817 51.80227856 34.60780130
709 1 1 -0.000197529583981 0.00000000 54.34993160 34.60780130
710 1 1 -0.000191013548746 1.47088817 56.89758465 34.60780130
711 1 1 -0.000186970630093 0.00000000 59.44523769 34.60780130
712 1 1 -0.000255332712366 1.47088817 41.61166638 34.60780130
713 1 1 -0.000248366917234 2.94177634 44.15931943 34.60780130
714 1 1 -0.000237037206679 4.41266451 46.70697247 34.60780130
715 1 1 -0.00021831412144 2.94177634 49.25462551 34.60780130
716 1 1 -0.000209729019044 4.41266451 51.80227856 34.60780130
717 1 1 -0.000199601224045 2.94177634 54.34993160 34.60780130
718 1 1 -0.000194668275745 4.41266451 56.89758465 34.60780130
719 1 1 -0.000188363361568 2.94177634 59.44523769 34.60780130
720 1 1 -0.000304511047633 4.41266451 41.61166638 34.60780130
721 1 1 0.000224262759762 17.65065805 0.00000000 25.00000000
722 1 1 0.000227944263843 19.12154622 2.54765304 25.00000000
723 1 1 0.000238258895098 17.65065805 5.09530609 25.00000000
724 1 1 0.000307518860641 19.12154622 7.64295913 25.00000000
725 1 1 0.000356750941071 17.65065805 10.19061218 25.00000000
726 1 1 0.000267883509753 19.12154622 12.73826522 25.00000000
727 1 1 0.000192661373359 17.65065805 15.28591827 25.00000000
728 1 1 0.00113707597254 19.12154622 17.83357131 25.00000000
729 1 1 0.000229198408229 20.59243439 0.00000000 25.00000000
730 1 1 0.000233624974458 22.06332256 2.54765304 25.00000000
731 1 1 0.000254111191135 20.59243439 5.09530609 25.00000000
732 1 1 0.000331248669348 22.06332256 7.64295913 25.00000000
733 1 1 0.000356306997869 20.59243439 10.19061218 25.00000000
734 1 1 0.000215721914239 22.06332256 12.73826522 25.00000000
735 1 1 0.000340973400492 20.59243439 15.28591827 25.00000000
736 1 1 0.00212736412164 22.06332256 17.83357131 25.00000000
737 1 1 0.000232262153812 23.53421073 0.00000000 25.00000000
738 1 1 0.000236999956787 25.00509890 2.54765304 25.00000000
739 1 1 0.000266465000881 23.53421073 5.09530609 25.00000000
740 1 1 0.00034235697276 25.00509890 7.64295913 25.00000000
741 1 1 0.000342233039504 23.53421073 10.19061218 25.00000000
742 1 1 0.000205981802484 25.00509890 12.73826522 25.00000000
743 1 1 0.000611930854274 23.53421073 15.28591827 25.00000000
744 1 1 0.00252640373589 25.00509890 17.83357131 25.00000000
745 1 1 0.000233317821597 26.47598708 0.00000000 25.00000000
746 1 1 0.000236999961325 27.94687525 2.54765304 25.00000000
747 1 1 0.000271078520594 26.47598708 5.09530609 25.00000000
748 1 1 0.00034235697411 27.94687525 7.64295913 25.00000000
749 1 1 0.000335390879096 26.47598708 10.19061218 25.00000000
750 1 1 0.000205981798911 27.94687525 12.73826522 25.00000000
751 1 1 0.000733979526844 26.47598708 15.28591827 25.00000000
752 1 1 0.00252640372697 27.94687525 17.83357131 25.00000000
753 1 1 0.000232262163223 29.41776342 0.00000000 25.00000000
754 1 1 0.00023362498438 30.88865159 2.54765304 25.00000000
755 1 1 0.00026646500651 29.41776342 5.09530609 25.00000000
756 1 1 0.000331248671199 30.88865159 7.64295913 25.00000000
757 1 1 0.000342233037423 29.41776342 10.19061218 25.00000000
758 1 1 0.000215721903828 30.88865159 12.73826522 25.00000000
759 1 1 0.000611930841073 29.41776342 15.28591827 25.00000000
760 1 1 0.00212736409586 30.88865159 17.83357131 25.00000000
761 1 1 0.000229198419491 32.35953976 0.00000000 25.00000000
762 1 1 0.000227944269802 33.83042793 2.54765304 25.00000000
763 1 1 0.00025411119661 32.35953976 5.09530609 25.00000000
764 1 1 0.000307518857385 33.83042793 7.64295913 25.00000000
765 1 1 0.000356306991535 32.35953976 10.19061218 25.00000000
766 1 1 0.000267883492878 33.83042793 12.73826522 25.00000000
767 1 1 0.00034097337795 32.35953976 15.28591827 25.00000000
768 1 1 0.00113707593632 33.83042793 17.83357131 25.00000000
769 1 1 -0.000151901305594 19.12154622 0.84921768 27.40195032
770 1 1 -0.000165102026539 20.59243439 3.39687073 27.40195032
771 1 1 -0.000169940350714 19.12154622 5.94452377 27.40195032
772 1 1 -0.000170914472356 20.59243439 8.49217681 27.40195032
773 1 1 -0.00023336435441 19.12154622 11.03982986 27.40195032
774 1 1 -0.000529542582054 20.59243439 13.58748290 27.40195032
775 1 1 -0.00057453518452 19.12154622 16.13513595 27.40195032
776 1 1 0.000678897183459 20.59243439 18.68278899 27.40195032
777 1 1 -0.000157246854231 22.06332256 0.84921768 27.40195032
778 1 1 -0.000168647293802 23.53421073 3.39687073 27.40195032
779 1 1 -0.000170480931392 22.06332256 5.94452377 27.40195032
780 1 1 -0.000180718884286 23.53421073 8.49217681 27.40195032
781 1 1 -0.000300781962587 22.06332256 11.03982986 27.40195032
782 1 1 -0.000579935939889 23.53421073 13.58748290 27.40195032
783 1 1 -0.000293053047536 22.06332256 16.13513595 27.40195032
784 1 1 0.00126534953463 23.53421073 18.68278899 27.40195032
785 1 1 -0.000160233907475 25.00509890 0.84921768 27.40195032
786 1 1 -0.000169755673646 26.47598708 3.39687073 27.40195032
787 1 1 -0.000170514694766 25.00509890 5.94452377 27.40195032
788 1 1 -0.000186058924121 26.47598708 8.49217681 27.40195032
789 1 1 -0.000347140291013 25.00509890 11.03982986 27.40195032
790 1 1 -0.000583302346566 26.47598708 13.58748290 27.40195032
791 1 1 2.64192696079e-05 25.00509890 16.13513595 27.40195032
792 1 1 0.00142813542193 26.47598708 18.68278899 27.40195032
793 1 1 -0.000160233898302 27.94687525 0.84921768 27.40195032
794 1 1 -0.000168647278903 29.41776342 3.39687073 27.40195032
795 1 1 -0.00017051468856 27.94687525 5.94452377 27.40195032
796 1 1 -0.000180718877496 29.41776342 8.49217681 27.40195032
797 1 1 -0.000347140290143 27.94687525 11.03982986 27.40195032
798 1 1 -0.000579935944738 29.41776342 13.58748290 27.40195032
799 1 1 2.64192631811e-05 27.94687525 16.13513595 27.40195032
800 1 1 0.00126534951837 29.41776342 18.68278899 27.40195032
801 1 1 -0.000157246832008 30.88865159 0.84921768 27.40195032
802 1 1 -0.000165102005704 32.35953976 3.39687073 27.40195032
803 1 1 -0.000170480916685 30.88865159 5.94452377 27.40195032
804 1 1 -0.000170914463971 32.35953976 8.49217681 27.40195032
805 1 1 -0.000300781961381 30.88865159 11.03982986 27.40195032
806 1 1 -0.000529542591168 32.35953976 13.58748290 27.40195032
807 1 1 -0.000293053064493 30.88865159 16.13513595 27.40195032
808 1 1 0.000678897153883 32.35953976 18.68278899 27.40195032
809 1 1 -0.00015190128365 33.83042793 0.84921768 27.40195032
810 1 1 -0.000158883299363 17.65065805 3.39687073 27.40195032
811 1 1 -0.000169940337314 33.83042793 5.94452377 27.40195032
812 1 1 -0.000166030396071 17.65065805 8.49217681 27.40195032
813 1 1 -0.000233364356376 33.83042793 11.03982986 27.40195032
814 1 1 -0.000396549552127 17.65065805 13.58748290 27.40195032
815 1 1 -0.000574535205816 33.83042793 16.13513595 27.40195032
816 1 1 -0.000180378045033 17.65065805 18.68278899 27.40195032
817 1 1 -5.52913175534e-06 20.59243439 1.69843536 29.80390065
818 1 1 -6.0556827841e-06 22.06332256 4.24608841 29.80390065
819 1 1 -6.42267170905e-06 20.59243439 6.79374145 29.80390065
820 1 1 -6.6086136615e-06 22.06332256 9.34139450 29.80390065
821 1 1 -8.03490306462e-06 20.59243439 11.88904754 29.80390065
822 1 1 -1.29031800631e-05 22.06332256 14.43670058 29.80390065
823 1 1 -1.22726925212e-05 20.59243439 16.98435363 29.80390065
824 1 1 -8.47301401819e-05 22.06332256 19.53200667 29.80390065
825 1 1 -5.72142872552e-06 23.53421073 1.69843536 29.80390065
826 1 1 -6.0642187309e-06 25.00509890 4.24608841 29.80390065
827 1 1 -6.0392432351e-06 23.53421073 6.79374145 29.80390065
828 1 1 -7.52652102683e-06 25.00509890 9.34139450 29.80390065
829 1 1 -1.34758654598e-05 23.53421073 11.88904754 29.80390065
830 1 1 -1.45662122884e-05 25.00509890 14.43670058 29.80390065
831 1 1 2.2883485733e-06 23.53421073 16.98435363 29.80390065
832 1 1 -6.09767030977e-06 25.00509890 19.53200667 29.80390065
833 1 1 -5.78689183266e-06 26.47598708 1.69843536 29.80390065
834 1 1 -6.06420752121e-06 27.94687525 4.24608841 29.80390065
835 1 1 -5.82660838936e-06 26.47598708 6.79374145 29.80390065
836 1 1 -7.52651488311e-06 27.94687525 9.34139450 29.80390065
837 1 1 -1.84262899038e-05 26.47598708 11.88904754 29.80390065
838 1 1 -1.45662129376e-05 27.94687525 14.43670058 29.80390065
839 1 1 5.93601768062e-05 26.47598708 16.98435363 29.80390065
840 1 1 -6.09767760026e-06 27.94687525 19.53200667 29.80390065
841 1 1 -5.72140490628e-06 29.41776342 1.69843536 29.80390065
842 1 1 -6.05565439759e-06 30.88865159 4.24608841 29.80390065
843 1 1 -6.03922635859e-06 29.41776342 6.79374145 29.80390065
844 1 1 -6.60859813008e-06 30.88865159 9.34139450 29.80390065
845 1 1 -1.34758600446e-05 29.41776342 11.88904754 29.80390065
846 1 1 -1.29031814144e-05 30.88865159 14.43670058 29.80390065
847 1 1 2.28834081584e-06 29.41776342 16.98435363 29.80390065
848 1 1 -8.47301575023e-05 30.88865159 19.53200667 29.80390065
849 1 1 -5.52909526686e-06 32.35953976 1.69843536 29.80390065
850 1 1 -5.8319088749e-06 33.83042793 4.24608841 29.80390065
851 1 1 -6.42264585412e-06 32.35953976 6.79374145 29.80390065
852 1 1 -6.91841789069e-06 33.83042793 9.34139450 29.80390065
853 1 1 -8.03489478691e-06 32.35953976 11.88904754 29.80390065
854 1 1 -9.07790289674e-06 33.83042793 14.43670058 29.80390065
855 1 1 -1.22727042246e-05 32.35953976 16.98435363 29.80390065
856 1 1 2.27561071323e-05 33.83042793 19.53200667 29.80390065
857 1 1 -5.27162330664e-06 17.65065805 1.69843536 29.80390065
858 1 1 -5.83194114241e-06 19.12154622 4.24608841 29.80390065
859 1 1 -6.28347559563e-06 17.65065805 6.79374145 29.80390065
860 1 1 -6.91843553547e-06 19.12154622 9.34139450 29.80390065
861 1 1 -8.74510935447e-06 17.65065805 11.88904754 29.80390065
862 1 1 -9.07790122001e-06 19.12154622 14.43670058 29.80390065
863 1 1 -8.27733695502e-07 17.65065805 16.98435363 29.80390065
864 1 1 2.27561275808e-05 19.12154622 19.53200667 29.80390065
865 1 1 0.000169152025653 22.06332256 2.54765304 32.20585097
866 1 1 0.000177923540456 23.53421073 5.09530609 32.20585097
867 1 1 0.000176149302183 22.06332256 7.64295913 32.20585097
868 1 1 0.000264900875466 23.53421073 10.19061218 32.20585097
869 1 1 0.000495616852485 22.06332256 12.73826522 32.20585097
870 1 1 0.000428552620071 23.53421073 15.28591827 32.20585097
871 1 1 -0.000593384146079 22.06332256 17.83357131 32.20585097
872 1 1 0.000163750494991 23.53421073 0.00000000 32.20585097
873 1 1 0.000171885907561 25.00509890 2.54765304 32.20585097
874 1 1 0.000178381668713 26.47598708 5.09530609 32.20585097
875 1 1 0.000180308467283 25.00509890 7.64295913 32.20585097
876 1 1 0.000281765357845 26.47598708 10.19061218 32.20585097
877 1 1 0.000536925866498 25.00509890 12.73826522 32.20585097
878 1 1 0.000329696685831 26.47598708 15.28591827 32.20585097
879 1 1 -0.00105033164113 25.00509890 17.83357131 32.20585097
880 1 1 0.000165314606651 26.47598708 0.00000000 32.20585097
881 1 1 0.000171885921976 27.94687525 2.54765304 32.20585097
882 1 1 0.000177923564771 29.41776342 5.09530609 32.20585097
883 1 1 0.000180308477777 27.94687525 7.64295913 32.20585097
884 1 1 0.000264900890038 29.41776342 10.19061218 32.20585097
885 1 1 0.000536925871075 27.94687525 12.73826522 32.20585097
886 1 1 0.000428552623776 29.41776342 15.28591827 32.20585097
887 1 1 -0.00105033164253 27.94687525 17.83357131 32.20585097
888 1 1 0.0001637505239 29.41776342 0.00000000 32.20585097
889 1 1 0.000169152063138 30.88865159 2.54765304 32.20585097
890 1 1 0.000176396052946 32.35953976 5.09530609 32.20585097
891 1 1 0.000176149329747 30.88865159 7.64295913 32.20585097
892 1 1 0.000224154990332 32.35953976 10.19061218 32.20585097
893 1 1 0.000495616864886 30.88865159 12.73826522 32.20585097
894 1 1 0.000595636952406 32.35953976 15.28591827 32.20585097
895 1 1 -0.000593384147649 30.88865159 17.83357131 32.20585097
896 1 1 0.000159396657363 32.35953976 0.00000000 32.20585097
897 1 1 0.000163750472433 33.83042793 2.54765304 32.20585097
898 1 1 0.000172687131472 17.65065805 5.09530609 32.20585097
899 1 1 0.000173436711766 33.83042793 7.64295913 32.20585097
900 1 1 0.000186047281908 17.65065805 10.19061218 32.20585097
901 1 1 0.000389318472776 33.83042793 12.73826522 32.20585097
902 1 1 0.000579745843937 17.65065805 15.28591827 32.20585097
903 1 1 0.000179026104136 33.83042793 17.83357131 32.20585097
904 1 1 0.000153286449946 17.65065805 0.00000000 32.20585097
905 1 1 0.000163750426512 19.12154622 2.54765304 32.20585097
906 1 1 0.00017639601373 20.59243439 5.09530609 32.20585097
907 1 1 0.000173436677094 19.12154622 7.64295913 32.20585097
908 1 1 0.000224154966012 20.59243439 10.19061218 32.20585097
909 1 1 0.000389318455677 19.12154622 12.73826522 32.20585097
910 1 1 0.000595636945483 20.59243439 15.28591827 32.20585097
911 1 1 0.000179026102466 19.12154622 17.83357131 32.20585097
912 1 1 0.000159396611101 20.59243439 0.00000000 32.20585097
913 1 1 -0.000237116757692 23.53421073 3.39687073 34.60780130
914 1 1 -0.000289090250616 25.00509890 5.94452377 34.60780130
915 1 1 -0.000352565398935 23.53421073 8.49217681 34.60780130
916 1 1 -0.00028056784425 25.00509890 11.03982986 34.60780130
917 1 1 -0.000203533981401 23.53421073 13.58748290 34.60780130
918 1 1 -0.00123806211862 25.00509890 16.13513595 34.60780130
919 1 1 -0.0029160796512 23.53421073 18.68278899 34.60780130
920 1 1 -0.000229448904846 25.00509890 0.84921768 34.60780130
921 1 1 -0.000239688688631 26.47598708 3.39687073 34.60780130
922 1 1 -0.00028909023841 27.94687525 5.94452377 34.60780130
923 1 1 -0.000354501449463 26.47598708 8.49217681 34.60780130
924 1 1 -0.000280567836495 27.94687525 11.03982986 34.60780130
925 1 1 -0.000230406434054 26.47598708 13.58748290 34.60780130
926 1 1 -0.00123806211502 27.94687525 16.13513595 34.60780130
927 1 1 -0.0028840560712 26.47598708 18.68278899 34.60780130
928 1 1 -0.000229448890257 27.94687525 0.84921768 34.60780130
929 1 1 -0.000237116731534 29.41776342 3.39687073 34.60780130
930 1 1 -0.000277948169862 30.88865159 5.94452377 34.60780130
931 1 1 -0.000352565379419 29.41776342 8.49217681 34.60780130
932 1 1 -0.000306299870554 30.88865159 11.03982986 34.60780130
933 1 1 -0.000203533970746 29.41776342 13.58748290 34.60780130
934 1 1 -0.000862696005074 30.88865159 16.13513595 34.60780130
935 1 1 -0.00291607965086 29.41776342 18.68278899 34.60780130
936 1 1 -0.000227279675866 30.88865159 0.84921768 34.60780130
937 1 1 -0.000230507665515 32.35953976 3.39687073 34.60780130
938 1 1 -0.000258242725468 33.83042793 5.94452377 34.60780130
939 1 1 -0.000341461036269 32.35953976 8.49217681 34.60780130
940 1 1 -0.000342896004687 33.83042793 11.03982986 34.60780130
941 1 1 -0.000184060047239 32.35953976 13.58748290 34.60780130
942 1 1 -0.00038037843779 33.83042793 16.13513595 34.60780130
943 1 1 -0.00235864769868 32.35953976 18.68278899 34.60780130
944 1 1 -0.000223242068244 33.83042793 0.84921768 34.60780130
945 1 1 -0.000222423367482 17.65065805 3.39687073 34.60780130
946 1 1 -0.000258242767718 19.12154622 5.94452377 34.60780130
947 1 1 -0.000313582250139 17.65065805 8.49217681 34.60780130
948 1 1 -0.000342896034037 19.12154622 11.03982986 34.60780130
949 1 1 -0.000247046410562 17.65065805 13.58748290 34.60780130
950 1 1 -0.000380378454092 19.12154622 16.13513595 34.60780130
951 1 1 -0.00107811427472 17.65065805 18.68278899 34.60780130
952 1 1 -0.000223242117351 19.12154622 0.84921768 34.60780130
953 1 1 -0.00023050770874 20.59243439 3.39687073 34.60780130
954 1 1 -0.000277948202349 22.06332256 5.94452377 34.60780130
955 1 1 -0.000341461069347 20.59243439 8.49217681 34.60780130
956 1 1 -0.000306299891712 22.06332256 11.03982986 34.60780130
957 1 1 -0.000184060066198 20.59243439 13.58748290 34.60780130
958 1 1 -0.000862696015299 22.06332256 16.13513595 34.60780130
959 1 1 -0.00235864770581 20.59243439 18.68278899 34.60780130
960 1 1 -0.000227279714386 22.06332256 0.84921768 34.60780130
961 1 1 0.00211548776177 17.65065805 20.38122435 25.00000000
962 1 1 0.00203321373921 19.12154622 22.92887739 25.00000000
963 1 1 0.000997983444686 17.65065805 25.47653044 25.00000000
964 1 1 -0.00687635207462 19.12154622 28.02418348 25.00000000
965 1 1 -0.00349542318645 17.65065805 30.57183653 25.00000000
966 1 1 -0.00684499434871 19.12154622 33.11948957 25.00000000
967 1 1 0.000964900974053 17.65065805 35.66714262 25.00000000
968 1 1 0.00203743518351 19.12154622 38.21479566 25.00000000
969 1 1 0.00315199465604 20.59243439 20.38122435 25.00000000
970 1 1 -0.00349760265996 22.06332256 22.92887739 25.00000000
971 1 1 -0.00687738175462 20.59243439 25.47653044 25.00000000
972 1 1 0.033917945937 22.06332256 28.02418348 25.00000000
973 1 1 0.00884118184565 20.59243439 30.57183653 25.00000000
974 1 1 0.034007832292 22.06332256 33.11948957 25.00000000
975 1 1 -0.00684594344387 20.59243439 35.66714262 25.00000000
976 1 1 -0.00349758196927 22.06332256 38.21479566 25.00000000
977 1 1 0.00203583556795 23.53421073 20.38122435 25.00000000
978 1 1 -0.00684658984189 25.00509890 22.92887739 25.00000000
979 1 1 0.00883893680866 23.53421073 25.47653044 25.00000000
980 1 1 0.179561132644 25.00509890 28.02418348 25.00000000
981 1 1 0.179560923338 23.53421073 30.57183653 25.00000000
982 1 1 0.179561033403 25.00509890 33.11948957 25.00000000
983 1 1 0.00883896766785 23.53421073 35.66714262 25.00000000
984 1 1 -0.00687794724737 25.00509890 38.21479566 25.00000000
985 1 1 0.000962003083348 26.47598708 20.38122435 25.00000000
986 1 1 -0.00684658985534 27.94687525 22.92887739 25.00000000
987 1 1 0.0340065291039 26.47598708 25.47653044 25.00000000
988 1 1 0.179561132134 27.94687525 28.02418348 25.00000000
989 1 1 0.354307943064 26.47598708 30.57183653 25.00000000
990 1 1 0.179561032897 27.94687525 33.11948957 25.00000000
991 1 1 0.0339165776393 26.47598708 35.66714262 25.00000000
992 1 1 -0.00687794725941 27.94687525 38.21479566 25.00000000
993 1 1 0.00203583555338 29.41776342 20.38122435 25.00000000
994 1 1 -0.00349760267445 30.88865159 22.92887739 25.00000000
995 1 1 0.0088389366336 29.41776342 25.47653044 25.00000000
996 1 1 0.033917945466 30.88865159 28.02418348 25.00000000
997 1 1 0.179560922328 29.41776342 30.57183653 25.00000000
998 1 1 0.0340078318252 30.88865159 33.11948957 25.00000000
999 1 1 0.00883896749706 29.41776342 35.66714262 25.00000000
1000 1 1 -0.00349758197979 30.88865159 38.21479566 25.00000000
1001 1 1 0.0031519946228 32.35953976 20.38122435 25.00000000
1002 1 1 0.00203321370872 33.83042793 22.92887739 25.00000000
1003 1 1 -0.00687738179808 32.35953976 25.47653044 25.00000000
1004 1 1 -0.00687635212007 33.83042793 28.02418348 25.00000000
1005 1 1 0.0088411815152 32.35953976 30.57183653 25.00000000
1006 1 1 -0.0068449943917 33.83042793 33.11948957 25.00000000
1007 1 1 -0.00684594348328 32.35953976 35.66714262 25.00000000
1008 1 1 0.00203743515765 33.83042793 38.21479566 25.00000000
1009 1 1 0.00128218882763 19.12154622 21.23044203 27.40195032
1010 1 1 -0.00664615134141 20.59243439 23.77809508 27.40195032
1011 1 1 -0.0101921925978 19.12154622 26.32574812 27.40195032
1012 1 1 -0.0327103260506 20.59243439 28.87340116 27.40195032
1013 1 1 -0.020336483983 19.12154622 31.42105421 27.40195032
1014 1 1 -0.0264177992547 20.59243439 33.96870725 27.40195032
1015 1 1 -0.0038644836778 19.12154622 36.51636030 27.40195032
1016 1 1 -0.000643428442744 20.59243439 39.06401334 27.40195032
1017 1 1 -0.000643167510813 22.06332256 21.23044203 27.40195032
1018 1 1 -0.0203349547358 23.53421073 23.77809508 27.40195032
1019 1 1 -0.0327102945444 22.06332256 26.32574812 27.40195032
1020 1 1 -0.0319717003531 23.53421073 28.87340116 27.40195032
1021 1 1 -0.0391193972722 22.06332256 31.42105421 27.40195032
1022 1 1 -0.0391195782776 23.53421073 33.96870725 27.40195032
1023 1 1 -0.0203353586356 22.06332256 36.51636030 27.40195032
1024 1 1 -0.00664552682867 23.53421073 39.06401334 27.40195032
1025 1 1 -0.00386330127819 25.00509890 21.23044203 27.40195032
1026 1 1 -0.0264166784007 26.47598708 23.77809508 27.40195032
1027 1 1 -0.0391198378691 25.00509890 26.32574812 27.40195032
1028 1 1 -0.00785719395362 26.47598708 28.87340116 27.40195032
1029 1 1 -0.0078577389152 25.00509890 31.42105421 27.40195032
1030 1 1 -0.0319719369868 26.47598708 33.96870725 27.40195032
1031 1 1 -0.0327096791265 25.00509890 36.51636030 27.40195032
1032 1 1 -0.0101907075636 26.47598708 39.06401334 27.40195032
1033 1 1 -0.00386330127981 27.94687525 21.23044203 27.40195032
1034 1 1 -0.0203349547234 29.41776342 23.77809508 27.40195032
1035 1 1 -0.0391198379082 27.94687525 26.32574812 27.40195032
1036 1 1 -0.0319717005313 29.41776342 28.87340116 27.40195032
1037 1 1 -0.00785773909783 27.94687525 31.42105421 27.40195032
1038 1 1 -0.0391195783499 29.41776342 33.96870725 27.40195032
1039 1 1 -0.0327096791236 27.94687525 36.51636030 27.40195032
1040 1 1 -0.00664552682415 29.41776342 39.06401334 27.40195032
1041 1 1 -0.000643167526061 30.88865159 21.23044203 27.40195032
1042 1 1 -0.0066461513323 32.35953976 23.77809508 27.40195032
1043 1 1 -0.0327102945394 30.88865159 26.32574812 27.40195032
1044 1 1 -0.0327103260367 32.35953976 28.87340116 27.40195032
1045 1 1 -0.0391193973806 30.88865159 31.42105421 27.40195032
1046 1 1 -0.0264177992169 32.35953976 33.96870725 27.40195032
1047 1 1 -0.0203353586086 30.88865159 36.51636030 27.40195032
1048 1 1 -0.000643428454604 32.35953976 39.06401334 27.40195032
1049 1 1 0.00128218879396 33.83042793 21.23044203 27.40195032
1050 1 1 0.000977187080724 17.65065805 23.77809508 27.40195032
1051 1 1 -0.0101921925677 33.83042793 26.32574812 27.40195032
1052 1 1 -0.00664764883135 17.65065805 28.87340116 27.40195032
1053 1 1 -0.0203364839286 33.83042793 31.42105421 27.40195032
1054 1 1 -0.00386531161449 17.65065805 33.96870725 27.40195032
1055 1 1 -0.00386448366861 33.83042793 36.51636030 27.40195032
1056 1 1 0.00126396939418 17.65065805 39.06401334 27.40195032
1057 1 1 -0.000107115260033 20.59243439 22.07965971 29.80390065
1058 1 1 -0.000582790252905 22.06332256 24.62731276 29.80390065
1059 1 1 -0.000691125649143 20.59243439 27.17496580 29.80390065
1060 1 1 -0.000914760007983 22.06332256 29.72261885 29.80390065
1061 1 1 -0.000906374898092 20.59243439 32.27027189 29.80390065
1062 1 1 -0.000906415381732 22.06332256 34.81792493 29.80390065
1063 1 1 -0.000396191811003 20.59243439 37.36557798 29.80390065
1064 1 1 -0.000107164108402 22.06332256 39.91323102 29.80390065
1065 1 1 -0.000396137329654 23.53421073 22.07965971 29.80390065
1066 1 1 -0.000906347787192 25.00509890 24.62731276 29.80390065
1067 1 1 -0.000914951834461 23.53421073 27.17496580 29.80390065
1068 1 1 -0.000190823096073 25.00509890 29.72261885 29.80390065
1069 1 1 -0.000790376299321 23.53421073 32.27027189 29.80390065
1070 1 1 -0.000914993932058 25.00509890 34.81792493 29.80390065
1071 1 1 -0.000582651746571 23.53421073 37.36557798 29.80390065
1072 1 1 -0.000286840808361 25.00509890 39.91323102 29.80390065
1073 1 1 -0.000399591274631 26.47598708 22.07965971 29.80390065
1074 1 1 -0.000906347798595 27.94687525 24.62731276 29.80390065
1075 1 1 -0.000790411774241 26.47598708 27.17496580 29.80390065
1076 1 1 -0.00019082311361 27.94687525 29.72261885 29.80390065
1077 1 1 -0.000191007636014 26.47598708 32.27027189 29.80390065
1078 1 1 -0.000914993944013 27.94687525 34.81792493 29.80390065
1079 1 1 -0.000690936320287 26.47598708 37.36557798 29.80390065
1080 1 1 -0.000286840814606 27.94687525 39.91323102 29.80390065
1081 1 1 -0.000396137350704 29.41776342 22.07965971 29.80390065
1082 1 1 -0.000582790281386 30.88865159 24.62731276 29.80390065
1083 1 1 -0.000914951858941 29.41776342 27.17496580 29.80390065
1084 1 1 -0.000914760043513 30.88865159 29.72261885 29.80390065
1085 1 1 -0.000790376327599 29.41776342 32.27027189 29.80390065
1086 1 1 -0.000906415409259 30.88865159 34.81792493 29.80390065
1087 1 1 -0.000582651761163 29.41776342 37.36557798 29.80390065
1088 1 1 -0.000107164125246 30.88865159 39.91323102 29.80390065
1089 1 1 -0.000107115285659 32.35953976 22.07965971 29.80390065
1090 1 1 -0.00028689376905 33.83042793 24.62731276 29.80390065
1091 1 1 -0.000691125683519 32.35953976 27.17496580 29.80390065
1092 1 1 -0.000582751850911 33.83042793 29.72261885 29.80390065
1093 1 1 -0.000906374934617 32.35953976 32.27027189 29.80390065
1094 1 1 -0.000399788492288 33.83042793 34.81792493 29.80390065
1095 1 1 -0.000396191839169 32.35953976 37.36557798 29.80390065
1096 1 1 -8.47496383758e-05 33.83042793 39.91323102 29.80390065
1097 1 1 -1.62015037502e-05 17.65065805 22.07965971 29.80390065
1098 1 1 -0.000286893731647 19.12154622 24.62731276 29.80390065
1099 1 1 -0.000286932032108 17.65065805 27.17496580 29.80390065
1100 1 1 -0.000582751813982 19.12154622 29.72261885 29.80390065
1101 1 1 -0.000396309072111 17.65065805 32.27027189 29.80390065
1102 1 1 -0.000399788465189 19.12154622 34.81792493 29.80390065
1103 1 1 -6.12541717704e-06 17.65065805 37.36557798 29.80390065
1104 1 1 -8.47496216643e-05 19.12154622 39.91323102 29.80390065
1105 1 1 0.00797552773824 22.06332256 22.92887739 32.20585097
1106 1 1 0.036079434597 23.53421073 25.47653044 32.20585097
1107 1 1 0.0408465321295 22.06332256 28.02418348 32.20585097
1108 1 1 0.0303887112421 23.53421073 30.57183653 32.20585097
1109 1 1 0.0408264653087 22.06332256 33.11948957 32.20585097
1110 1 1 0.0360797272885 23.53421073 35.66714262 32.20585097
1111 1 1 0.0079755219556 22.06332256 38.21479566 32.20585097
1112 1 1 -0.000129516338442 23.53421073 20.38122435 32.20585097
1113 1 1 0.0169052136334 25.00509890 22.92887739 32.20585097
1114 1 1 0.0408265116296 26.47598708 25.47653044 32.20585097
1115 1 1 0.0303875537373 25.00509890 28.02418348 32.20585097
1116 1 1 -0.000817471322656 26.47598708 30.57183653 32.20585097
1117 1 1 0.0303872346637 25.00509890 33.11948957 32.20585097
1118 1 1 0.040846822601 26.47598708 35.66714262 32.20585097
1119 1 1 0.0169365399019 25.00509890 38.21479566 32.20585097
1120 1 1 0.000899678785352 26.47598708 20.38122435 32.20585097
1121 1 1 0.0169052136073 27.94687525 22.92887739 32.20585097
1122 1 1 0.0360794345613 29.41776342 25.47653044 32.20585097
1123 1 1 0.0303875538294 27.94687525 28.02418348 32.20585097
1124 1 1 0.0303887114115 29.41776342 30.57183653 32.20585097
1125 1 1 0.0303872347491 27.94687525 33.11948957 32.20585097
1126 1 1 0.0360797272529 29.41776342 35.66714262 32.20585097
1127 1 1 0.0169365398802 27.94687525 38.21479566 32.20585097
1128 1 1 -0.000129516356485 29.41776342 20.38122435 32.20585097
1129 1 1 0.00797552768087 30.88865159 22.92887739 32.20585097
1130 1 1 0.0169374348307 32.35953976 25.47653044 32.20585097
1131 1 1 0.0408465321167 30.88865159 28.02418348 32.20585097
1132 1 1 0.0360802378692 32.35953976 30.57183653 32.20585097
1133 1 1 0.0408264652887 30.88865159 33.11948957 32.20585097
1134 1 1 0.0169061930454 32.35953976 35.66714262 32.20585097
1135 1 1 0.00797552190823 30.88865159 38.21479566 32.20585097
1136 1 1 -0.00119869884628 32.35953976 20.38122435 32.20585097
1137 1 1 -7.78627916707e-05 33.83042793 22.92887739 32.20585097
1138 1 1 0.000832394202411 17.65065805 25.47653044 32.20585097
1139 1 1 0.0169380653864 33.83042793 28.02418348 32.20585097
1140 1 1 0.00797755439905 17.65065805 30.57183653 32.20585097
1141 1 1 0.0169067087689 33.83042793 33.11948957 32.20585097
1142 1 1 0.000901577656794 17.65065805 35.66714262 32.20585097
1143 1 1 -0.000128596714474 33.83042793 38.21479566 32.20585097
1144 1 1 -0.000550738620817 17.65065805 20.38122435 32.20585097
1145 1 1 -7.7862754013e-05 19.12154622 22.92887739 32.20585097
1146 1 1 0.0169374349279 20.59243439 25.47653044 32.20585097
1147 1 1 0.0169380655068 19.12154622 28.02418348 32.20585097
1148 1 1 0.0360802379534 20.59243439 30.57183653 32.20585097
1149 1 1 0.0169067088897 19.12154622 33.11948957 32.20585097
1150 1 1 0.0169061931397 20.59243439 35.66714262 32.20585097
1151 1 1 -0.000128596685509 19.12154622 38.21479566 32.20585097
1152 1 1 -0.00119869883263 20.59243439 20.38122435 32.20585097
1153 1 1 0.00726451267709 23.53421073 23.77809508 34.60780130
1154 1 1 -0.064993766654 25.00509890 26.32574812 34.60780130
1155 1 1 -0.144542946564 23.53421073 28.87340116 34.60780130
1156 1 1 -0.292283983381 25.00509890 31.42105421 34.60780130
1157 1 1 -0.0649941187125 23.53421073 33.96870725 34.60780130
1158 1 1 -0.00375579239335 25.00509890 36.51636030 34.60780130
1159 1 1 0.00320347757765 23.53421073 39.06401334 34.60780130
1160 1 1 0.00149266577651 25.00509890 21.23044203 34.60780130
1161 1 1 0.00487620013862 26.47598708 23.77809508 34.60780130
1162 1 1 -0.0649937664279 27.94687525 26.32574812 34.60780130
1163 1 1 -0.292285268773 26.47598708 28.87340116 34.60780130
1164 1 1 -0.292283982652 27.94687525 31.42105421 34.60780130
1165 1 1 -0.144544388748 26.47598708 33.96870725 34.60780130
1166 1 1 -0.00375579233482 27.94687525 36.51636030 34.60780130
1167 1 1 0.00535362697244 26.47598708 39.06401334 34.60780130
1168 1 1 0.00149266576665 27.94687525 21.23044203 34.60780130
1169 1 1 0.00726451268857 29.41776342 23.77809508 34.60780130
1170 1 1 -0.00375647076528 30.88865159 26.32574812 34.60780130
1171 1 1 -0.144542945751 29.41776342 28.87340116 34.60780130
1172 1 1 -0.0649956140452 30.88865159 31.42105421 34.60780130
1173 1 1 -0.064994118275 29.41776342 33.96870725 34.60780130
1174 1 1 0.00726451555816 30.88865159 36.51636030 34.60780130
1175 1 1 0.00320347756708 29.41776342 39.06401334 34.60780130
1176 1 1 -0.00146926846925 30.88865159 21.23044203 34.60780130
1177 1 1 0.00320254873918 32.35953976 23.77809508 34.60780130
1178 1 1 0.0053516009962 33.83042793 26.32574812 34.60780130
1179 1 1 -0.00375759838074 32.35953976 28.87340116 34.60780130
1180 1 1 0.00726299904422 33.83042793 31.42105421 34.60780130
1181 1 1 0.00487509352578 32.35953976 33.96870725 34.60780130
1182 1 1 0.00149075124936 33.83042793 36.51636030 34.60780130
1183 1 1 -0.00146985892495 32.35953976 39.06401334 34.60780130
1184 1 1 -0.00309361911538 33.83042793 21.23044203 34.60780130
1185 1 1 -0.0025367403902 17.65065805 23.77809508 34.60780130
1186 1 1 0.00535160102973 19.12154622 26.32574812 34.60780130
1187 1 1 0.00320078450706 17.65065805 28.87340116 34.60780130
1188 1 1 0.00726299902919 19.12154622 31.42105421 34.60780130
1189 1 1 0.00148957269479 17.65065805 33.96870725 34.60780130
1190 1 1 0.00149075127788 19.12154622 36.51636030 34.60780130
1191 1 1 -0.0029181458267 17.65065805 39.06401334 34.60780130
1192 1 1 -0.00309361911594 19.12154622 21.23044203 34.60780130
1193 1 1 0.00320254877142 20.59243439 23.77809508 34.60780130
1194 1 1 -0.00375647093624 22.06332256 26.32574812 34.60780130
1195 1 1 -0.00375759859533 20.59243439 28.87340116 34.60780130
1196 1 1 -0.0649956146938 22.06332256 31.42105421 34.60780130
1197 1 1 0.00487509344255 20.59243439 33.96870725 34.60780130
1198 1 1 0.00726451553782 22.06332256 36.51636030 34.60780130
1199 1 1 -0.0014698589127 20.59243439 39.06401334 34.60780130
1200 1 1 -0.00146926845072 22.06332256 21.23044203 34.60780130
1201 1 1 0.00212894977445 17.65065805 40.76244870 25.00000000
1202 1 1 0.00113708077058 19.12154622 43.31010174 25.00000000
1203 1 1 0.000192660846853 17.65065805 45.85775479 25.00000000
1204 1 1 0.00026702229672 19.12154622 48.40540783 25.00000000
1205 1 1 0.000358134941818 17.65065805 50.95306088 25.00000000
1206 1 1 0.000308705355597 19.12154622 53.50071392 25.00000000
1207 1 1 0.000238013998664 17.65065805 56.04836697 25.00000000
1208 1 1 0.000227555184104 19.12154622 58.59602001 25.00000000
1209 1 1 0.00315197376941 20.59243439 40.76244870 25.00000000
1210 1 1 0.00211390356592 22.06332256 43.31010174 25.00000000
1211 1 1 0.000331079762206 20.59243439 45.85775479 25.00000000
1212 1 1 0.00021056078448 22.06332256 48.40540783 25.00000000
1213 1 1 0.000357909749684 20.59243439 50.95306088 25.00000000
1214 1 1 0.000332968515346 22.06332256 53.50071392 25.00000000
1215 1 1 0.000254190118804 20.59243439 56.04836697 25.00000000
1216 1 1 0.000233276013825 22.06332256 58.59602001 25.00000000
1217 1 1 0.00203157722324 23.53421073 40.76244870 25.00000000
1218 1 1 0.00255615633309 25.00509890 43.31010174 25.00000000
1219 1 1 0.000607445217599 23.53421073 45.85775479 25.00000000
1220 1 1 0.000199189496607 25.00509890 48.40540783 25.00000000
1221 1 1 0.00034146858587 23.53421073 50.95306088 25.00000000
1222 1 1 0.000343686460023 25.00509890 53.50071392 25.00000000
1223 1 1 0.000266951740789 23.53421073 56.04836697 25.00000000
1224 1 1 0.00023677951179 25.00509890 58.59602001 25.00000000
1225 1 1 0.000995056283502 26.47598708 40.76244870 25.00000000
1226 1 1 0.00255615632654 27.94687525 43.31010174 25.00000000
1227 1 1 0.000743744013768 26.47598708 45.85775479 25.00000000
1228 1 1 0.000199189495525 27.94687525 48.40540783 25.00000000
1229 1 1 0.000332839739745 26.47598708 50.95306088 25.00000000
1230 1 1 0.000343686463222 27.94687525 53.50071392 25.00000000
1231 1 1 0.000271715159396 26.47598708 56.04836697 25.00000000
1232 1 1 0.000236779517002 27.94687525 58.59602001 25.00000000
1233 1 1 0.00203157721201 29.41776342 40.76244870 25.00000000
1234 1 1 0.00211390354679 30.88865159 43.31010174 25.00000000
1235 1 1 0.000607445209423 29.41776342 45.85775479 25.00000000
1236 1 1 0.000210560780474 30.88865159 48.40540783 25.00000000
1237 1 1 0.000341468588018 29.41776342 50.95306088 25.00000000
1238 1 1 0.000332968521865 30.88865159 53.50071392 25.00000000
1239 1 1 0.000266951748872 29.41776342 56.04836697 25.00000000
1240 1 1 0.000233276025458 30.88865159 58.59602001 25.00000000
1241 1 1 0.00315197374229 32.35953976 40.76244870 25.00000000
1242 1 1 0.00113708074197 33.83042793 43.31010174 25.00000000
1243 1 1 0.000331079747159 32.35953976 45.85775479 25.00000000
1244 1 1 0.0002670222871 33.83042793 48.40540783 25.00000000
1245 1 1 0.000357909749839 32.35953976 50.95306088 25.00000000
1246 1 1 0.000308705357648 33.83042793 53.50071392 25.00000000
1247 1 1 0.000254190128034 32.35953976 56.04836697 25.00000000
1248 1 1 0.000227555192006 33.83042793 58.59602001 25.00000000
1249 1 1 0.00067853541035 19.12154622 41.61166638 27.40195032
1250 1 1 -0.000179686406609 20.59243439 44.15931943 27.40195032
1251 1 1 -0.000560209786777 19.12154622 46.70697247 27.40195032
1252 1 1 -0.000348348033972 20.59243439 49.25462551 27.40195032
1253 1 1 -0.000174879262672 19.12154622 51.80227856 27.40195032
1254 1 1 -0.000168004124226 20.59243439 54.34993160 27.40195032
1255 1 1 -0.00016617059282 19.12154622 56.89758465 27.40195032
1256 1 1 -0.000157437051141 20.59243439 59.44523769 27.40195032
1257 1 1 0.00128280141562 22.06332256 41.61166638 27.40195032
1258 1 1 0.000365023508388 23.53421073 44.15931943 27.40195032
1259 1 1 -0.000586183298333 22.06332256 46.70697247 27.40195032
1260 1 1 -0.000421988222619 23.53421073 49.25462551 27.40195032
1261 1 1 -0.000197875538818 22.06332256 51.80227856 27.40195032
1262 1 1 -0.000168922143905 23.53421073 54.34993160 27.40195032
1263 1 1 -0.000169773156034 22.06332256 56.89758465 27.40195032
1264 1 1 -0.000161605231152 23.53421073 59.44523769 27.40195032
1265 1 1 0.000978817919989 25.00509890 41.61166638 27.40195032
1266 1 1 0.000580030515455 26.47598708 44.15931943 27.40195032
1267 1 1 -0.00052668131365 25.00509890 46.70697247 27.40195032
1268 1 1 -0.00044573629815 26.47598708 49.25462551 27.40195032
1269 1 1 -0.000217254324578 25.00509890 51.80227856 27.40195032
1270 1 1 -0.000169789209125 26.47598708 54.34993160 27.40195032
1271 1 1 -0.000171264772911 25.00509890 56.89758465 27.40195032
1272 1 1 -0.000163045223358 26.47598708 59.44523769 27.40195032
1273 1 1 0.000978817915671 27.94687525 41.61166638 27.40195032
1274 1 1 0.000365023500428 29.41776342 44.15931943 27.40195032
1275 1 1 -0.000526681314205 27.94687525 46.70697247 27.40195032
1276 1 1 -0.000421988217587 29.41776342 49.25462551 27.40195032
1277 1 1 -0.000217254319118 27.94687525 51.80227856 27.40195032
1278 1 1 -0.000168922130049 29.41776342 54.34993160 27.40195032
1279 1 1 -0.000171264764031 27.94687525 56.89758465 27.40195032
1280 1 1 -0.00016160521365 29.41776342 59.44523769 27.40195032
1281 1 1 0.00128280139948 30.88865159 41.61166638 27.40195032
1282 1 1 -0.000179686421225 32.35953976 44.15931943 27.40195032
1283 1 1 -0.000586183300425 30.88865159 46.70697247 27.40195032
1284 1 1 -0.000348348028129 32.35953976 49.25462551 27.40195032
1285 1 1 -0.000197875526006 30.88865159 51.80227856 27.40195032
1286 1 1 -0.000168004105004 32.35953976 54.34993160 27.40195032
1287 1 1 -0.000169773134553 30.88865159 56.89758465 27.40195032
1288 1 1 -0.000157437026318 32.35953976 59.44523769 27.40195032
1289 1 1 0.000678535383972 33.83042793 41.61166638 27.40195032
1290 1 1 -0.00057484412745 17.65065805 44.15931943 27.40195032
1291 1 1 -0.000560209791769 33.83042793 46.70697247 27.40195032
1292 1 1 -0.000248807545548 17.65065805 49.25462551 27.40195032
1293 1 1 -0.000174879251481 33.83042793 51.80227856 27.40195032
1294 1 1 -0.000168237642017 17.65065805 54.34993160 27.40195032
1295 1 1 -0.000166170571715 33.83042793 56.89758465 27.40195032
1296 1 1 -0.000151175609851 17.65065805 59.44523769 27.40195032
1297 1 1 2.27679492667e-05 20.59243439 42.46088406 29.80390065
1298 1 1 2.09380351532e-05 22.06332256 45.00853711 29.80390065
1299 1 1 -1.15733915921e-05 20.59243439 47.55619015 29.80390065
1300 1 1 -1.33703252574e-05 22.06332256 50.10384320 29.80390065
1301 1 1 -8.22563244132e-06 20.59243439 52.65149624 29.80390065
1302 1 1 -5.84796166703e-06 22.06332256 55.19914928 29.80390065
1303 1 1 -5.40224444952e-06 20.59243439 57.74680233 29.80390065
1304 1 1 -5.51238645278e-06 22.06332256 60.29445537 29.80390065
1305 1 1 -1.6187374152e-05 23.53421073 42.46088406 29.80390065
1306 1 1 -4.26802303682e-06 25.00509890 45.00853711 29.80390065
1307 1 1 2.18239671499e-06 23.53421073 47.55619015 29.80390065
1308 1 1 -8.93427531926e-06 25.00509890 50.10384320 29.80390065
1309 1 1 -9.84183512052e-06 23.53421073 52.65149624 29.80390065
1310 1 1 -6.45148278516e-06 25.00509890 55.19914928 29.80390065
1311 1 1 -5.43975562698e-06 23.53421073 57.74680233 29.80390065
1312 1 1 -5.56322188413e-06 25.00509890 60.29445537 29.80390065
1313 1 1 -0.000156840921583 26.47598708 42.46088406 29.80390065
1314 1 1 -4.26802228652e-06 27.94687525 45.00853711 29.80390065
1315 1 1 9.84799948727e-06 26.47598708 47.55619015 29.80390065
1316 1 1 -8.93426822207e-06 27.94687525 50.10384320 29.80390065
1317 1 1 -1.01641588894e-05 26.47598708 52.65149624 29.80390065
1318 1 1 -6.45147101284e-06 27.94687525 55.19914928 29.80390065
1319 1 1 -5.48372646188e-06 26.47598708 57.74680233 29.80390065
1320 1 1 -5.5632086118e-06 27.94687525 60.29445537 29.80390065
1321 1 1 -1.6187378357e-05 29.41776342 42.46088406 29.80390065
1322 1 1 2.0938036417e-05 30.88865159 45.00853711 29.80390065
1323 1 1 2.18240409702e-06 29.41776342 47.55619015 29.80390065
1324 1 1 -1.33703072769e-05 30.88865159 50.10384320 29.80390065
1325 1 1 -9.84181674255e-06 29.41776342 52.65149624 29.80390065
1326 1 1 -5.84793185898e-06 30.88865159 55.19914928 29.80390065
1327 1 1 -5.43973126057e-06 29.41776342 57.74680233 29.80390065
1328 1 1 -5.51235284783e-06 30.88865159 60.29445537 29.80390065
1329 1 1 2.27679408328e-05 32.35953976 42.46088406 29.80390065
1330 1 1 -8.12509516576e-07 33.83042793 45.00853711 29.80390065
1331 1 1 -1.1573380147e-05 32.35953976 47.55619015 29.80390065
1332 1 1 -1.24646032976e-05 33.83042793 50.10384320 29.80390065
1333 1 1 -8.22560431042e-06 32.35953976 52.65149624 29.80390065
1334 1 1 -5.35127412343e-06 33.83042793 55.19914928 29.80390065
1335 1 1 -5.40220712341e-06 32.35953976 57.74680233 29.80390065
1336 1 1 -5.40284667238e-06 33.83042793 60.29445537 29.80390065
1337 1 1 -1.22936519174e-05 17.65065805 42.46088406 29.80390065
1338 1 1 -8.12510996447e-07 19.12154622 45.00853711 29.80390065
1339 1 1 -1.3169259353e-05 17.65065805 47.55619015 29.80390065
1340 1 1 -1.24646237685e-05 19.12154622 50.10384320 29.80390065
1341 1 1 -6.37014254926e-06 17.65065805 52.65149624 29.80390065
1342 1 1 -5.35130800733e-06 19.12154622 55.19914928 29.80390065
1343 1 1 -5.40996314581e-06 17.65065805 57.74680233 29.80390065
1344 1 1 -5.40288487683e-06 19.12154622 60.29445537 29.80390065
1345 1 1 -0.000551874918207 22.06332256 43.31010174 32.20585097
1346 1 1 0.000438863558776 23.53421073 45.85775479 32.20585097
1347 1 1 0.0004935443226 22.06332256 48.40540783 32.20585097
1348 1 1 0.000262199001521 23.53421073 50.95306088 32.20585097
1349 1 1 0.000175985185656 22.06332256 53.50071392 32.20585097
1350 1 1 0.000178371452894 23.53421073 56.04836697 32.20585097
1351 1 1 0.000169176292941 22.06332256 58.59602001 32.20585097
1352 1 1 -7.88417710365e-05 23.53421073 40.76244870 32.20585097
1353 1 1 -0.00108950043329 25.00509890 43.31010174 32.20585097
1354 1 1 0.000331088590174 26.47598708 45.85775479 32.20585097
1355 1 1 0.000544849196285 25.00509890 48.40540783 32.20585097
1356 1 1 0.000280184100482 26.47598708 50.95306088 32.20585097
1357 1 1 0.000179119309179 25.00509890 53.50071392 32.20585097
1358 1 1 0.000178721618074 26.47598708 56.04836697 32.20585097
1359 1 1 0.000172025886267 25.00509890 58.59602001 32.20585097
1360 1 1 0.00083044453486 26.47598708 40.76244870 32.20585097
1361 1 1 -0.00108950043167 27.94687525 43.31010174 32.20585097
1362 1 1 0.000438863568224 29.41776342 45.85775479 32.20585097
1363 1 1 0.000544849203987 27.94687525 48.40540783 32.20585097
1364 1 1 0.000262199021352 29.41776342 50.95306088 32.20585097
1365 1 1 0.000179119321938 27.94687525 53.50071392 32.20585097
1366 1 1 0.000178371480219 29.41776342 56.04836697 32.20585097
1367 1 1 0.000172025901514 27.94687525 58.59602001 32.20585097
1368 1 1 -7.88417823325e-05 29.41776342 40.76244870 32.20585097
1369 1 1 -0.000551874911788 30.88865159 43.31010174 32.20585097
1370 1 1 0.000600158103574 32.35953976 45.85775479 32.20585097
1371 1 1 0.000493544342871 30.88865159 48.40540783 32.20585097
1372 1 1 0.000221801825723 32.35953976 50.95306088 32.20585097
1373 1 1 0.000175985218968 30.88865159 53.50071392 32.20585097
1374 1 1 0.000176883942429 32.35953976 56.04836697 32.20585097
1375 1 1 0.000169176332529 30.88865159 58.59602001 32.20585097
1376 1 1 -0.00119872019928 32.35953976 40.76244870 32.20585097
1377 1 1 0.000179028507631 33.83042793 43.31010174 32.20585097
1378 1 1 0.000579746579146 17.65065805 45.85775479 32.20585097
1379 1 1 0.000384986026545 33.83042793 48.40540783 32.20585097
1380 1 1 0.000185818148934 17.65065805 50.95306088 32.20585097
1381 1 1 0.000174186709991 33.83042793 53.50071392 32.20585097
1382 1 1 0.000172890442023 17.65065805 56.04836697 32.20585097
1383 1 1 0.000163618644014 33.83042793 58.59602001 32.20585097
1384 1 1 -0.000592247012274 17.65065805 40.76244870 32.20585097
1385 1 1 0.000179028497649 19.12154622 43.31010174 32.20585097
1386 1 1 0.000600158087503 20.59243439 45.85775479 32.20585097
1387 1 1 0.000384986000431 19.12154622 48.40540783 32.20585097
1388 1 1 0.000221801793383 20.59243439 50.95306088 32.20585097
1389 1 1 0.000174186668799 19.12154622 53.50071392 32.20585097
1390 1 1 0.000176883898596 20.59243439 56.04836697 32.20585097
1391 1 1 0.000163618595701 19.12154622 58.59602001 32.20585097
1392 1 1 -0.00119872019197 20.59243439 40.76244870 32.20585097
1393 1 1 -0.00172961345966 23.53421073 44.15931943 34.60780130
1394 1 1 -0.000380498416292 25.00509890 46.70697247 34.60780130
1395 1 1 -0.000239558544484 23.53421073 49.25462551 34.60780130
1396 1 1 -0.000352584886498 25.00509890 51.80227856 34.60780130
1397 1 1 -0.000308990712173 23.53421073 54.34993160 34.60780130
1398 1 1 -0.000249667310725 25.00509890 56.89758465 34.60780130
1399 1 1 -0.000229589624687 23.53421073 59.44523769 34.60780130
1400 1 1 -0.00253427808308 25.00509890 41.61166638 34.60780130
1401 1 1 -0.0019307707232 26.47598708 44.15931943 34.60780130
1402 1 1 -0.00038049840897 27.94687525 46.70697247 34.60780130
1403 1 1 -0.000228399150533 26.47598708 49.25462551 34.60780130
1404 1 1 -0.000352584874961 27.94687525 51.80227856 34.60780130
1405 1 1 -0.000315023875518 26.47598708 54.34993160 34.60780130
1406 1 1 -0.000249667296359 27.94687525 56.89758465 34.60780130
1407 1 1 -0.000230898023592 26.47598708 59.44523769 34.60780130
1408 1 1 -0.00253427808421 27.94687525 41.61166638 34.60780130
1409 1 1 -0.00172961344971 29.41776342 44.15931943 34.60780130
1410 1 1 -0.000267044393241 30.88865159 46.70697247 34.60780130
1411 1 1 -0.000239558526376 29.41776342 49.25462551 34.60780130
1412 1 1 -0.000354383770813 30.88865159 51.80227856 34.60780130
1413 1 1 -0.000308990686855 29.41776342 54.34993160 34.60780130
1414 1 1 -0.000243131748707 30.88865159 56.89758465 34.60780130
1415 1 1 -0.000229589596432 29.41776342 59.44523769 34.60780130
1416 1 1 -0.00309263258473 30.88865159 41.61166638 34.60780130
1417 1 1 -0.00107709136879 32.35953976 44.15931943 34.60780130
1418 1 1 -0.000185176431654 33.83042793 46.70697247 34.60780130
1419 1 1 -0.000279377509375 32.35953976 49.25462551 34.60780130
1420 1 1 -0.00034721608991 33.83042793 51.80227856 34.60780130
1421 1 1 -0.000291292203315 32.35953976 54.34993160 34.60780130
1422 1 1 -0.000232524671577 33.83042793 56.89758465 34.60780130
1423 1 1 -0.00022597310527 32.35953976 59.44523769 34.60780130
1424 1 1 -0.00235913613666 33.83042793 41.61166638 34.60780130
1425 1 1 -0.000380862781148 17.65065805 44.15931943 34.60780130
1426 1 1 -0.000185176458918 19.12154622 46.70697247 34.60780130
1427 1 1 -0.000335147734046 17.65065805 49.25462551 34.60780130
1428 1 1 -0.000347216130256 19.12154622 51.80227856 34.60780130
1429 1 1 -0.000264945319546 17.65065805 54.34993160 34.60780130
1430 1 1 -0.000232524720033 19.12154622 56.89758465 34.60780130
1431 1 1 -0.000220683218895 17.65065805 59.44523769 34.60780130
1432 1 1 -0.00235913615351 19.12154622 41.61166638 34.60780130
1433 1 1 -0.00107709138747 20.59243439 44.15931943 34.60780130
1434 1 1 -0.000267044413131 22.06332256 46.70697247 34.60780130
1435 1 1 -0.000279377540072 20.59243439 49.25462551 34.60780130
1436 1 1 -0.000354383801594 22.06332256 51.80227856 34.60780130
1437 1 1 -0.000291292245264 20.59243439 54.34993160 34.60780130
1438 1 1 -0.000243131786662 22.06332256 56.89758465 34.60780130
1439 1 1 -0.00022597315171 20.59243439 59.44523769 34.60780130
1440 1 1 -0.00309263258806 22.06332256 41.61166638 34.60780130
1441 1 1 0.000224262761502 35.30131610 0.00000000 25.00000000
1442 1 1 0.000221287068409 36.77220427 2.54765304 25.00000000
1443 1 1 0.000238258891745 35.30131610 5.09530609 25.00000000
1444 1 1 0.000273949679246 36.77220427 7.64295913 25.00000000
1445 1 1 0.000356750927283 35.30131610 10.19061218 25.00000000
1446 1 1 0.000340926261259 36.77220427 12.73826522 25.00000000
1447 1 1 0.000192661346118 35.30131610 15.28591827 25.00000000
1448 1 1 0.000332586197862 36.77220427 17.83357131 25.00000000
1449 1 1 0.000217516379334 38.24309244 0.00000000 25.00000000
1450 1 1 0.000214316354263 39.71398061 2.54765304 25.00000000
1451 1 1 0.000224240041308 38.24309244 5.09530609 25.00000000
1452 1 1 0.000241611412024 39.71398061 7.64295913 25.00000000
1453 1 1 0.000324606513201 38.24309244 10.19061218 25.00000000
1454 1 1 0.000358437708255 39.71398061 12.73826522 25.00000000
1455 1 1 0.000268083930318 38.24309244 15.28591827 25.00000000
1456 1 1 0.000213491695915 39.71398061 17.83357131 25.00000000
1457 1 1 0.0002093769336 41.18486878 0.00000000 25.00000000
1458 1 1 0.000207061229394 42.65575695 2.54765304 25.00000000
1459 1 1 0.000214830880582 41.18486878 5.09530609 25.00000000
1460 1 1 0.000221255798767 42.65575695 7.64295913 25.00000000
1461 1 1 0.000273328929034 41.18486878 10.19061218 25.00000000
1462 1 1 0.000308461296121 42.65575695 12.73826522 25.00000000
1463 1 1 0.000359681706443 41.18486878 15.28591827 25.00000000
1464 1 1 0.000346045444147 42.65575695 17.83357131 25.00000000
1465 1 1 0.000201125459086 44.12664513 0.00000000 25.00000000
1466 1 1 0.000199957960588 45.59753330 2.54765304 25.00000000
1467 1 1 0.000208501195892 44.12664513 5.09530609 25.00000000
1468 1 1 0.000212306178714 45.59753330 7.64295913 25.00000000
1469 1 1 0.000234399039881 44.12664513 10.19061218 25.00000000
1470 1 1 0.000252010579107 45.59753330 12.73826522 25.00000000
1471 1 1 0.000335188056631 44.12664513 15.28591827 25.00000000
1472 1 1 0.000350892123025 45.59753330 17.83357131 25.00000000
1473 1 1 0.000194492761018 47.06842147 0.00000000 25.00000000
1474 1 1 0.000194250699208 48.53930964 2.54765304 25.00000000
1475 1 1 0.000202694808148 47.06842147 5.09530609 25.00000000
1476 1 1 0.000207564645266 48.53930964 7.64295913 25.00000000
1477 1 1 0.000218579956702 47.06842147 10.19061218 25.00000000
1478 1 1 0.000228020373437 48.53930964 12.73826522 25.00000000
1479 1 1 0.000269475834245 47.06842147 15.28591827 25.00000000
1480 1 1 0.000282408355775 48.53930964 17.83357131 25.00000000
1481 1 1 0.000190536394338 50.01019781 0.00000000 25.00000000
1482 1 1 0.000191140915068 51.48108598 2.54765304 25.00000000
1483 1 1 0.000197599244106 50.01019781 5.09530609 25.00000000
1484 1 1 0.000204244447421 51.48108598 7.64295913 25.00000000
1485 1 1 0.000215045723377 50.01019781 10.19061218 25.00000000
1486 1 1 0.000225413389989 51.48108598 12.73826522 25.00000000
1487 1 1 0.00023943880397 50.01019781 15.28591827 25.00000000
1488 1 1 0.000249029580115 51.48108598 17.83357131 25.00000000
1489 1 1 -0.000145452726897 36.77220427 0.84921768 27.40195032
1490 1 1 -0.000150595614075 38.24309244 3.39687073 27.40195032
1491 1 1 -0.000166831730167 36.77220427 5.94452377 27.40195032
1492 1 1 -0.00016682110408 38.24309244 8.49217681 27.40195032
1493 1 1 -0.000181285029439 36.77220427 11.03982986 27.40195032
1494 1 1 -0.000249098423012 38.24309244 13.58748290 27.40195032
1495 1 1 -0.000560776821069 36.77220427 16.13513595 27.40195032
1496 1 1 -0.000587958845324 38.24309244 18.68278899 27.40195032
1497 1 1 -0.000139323137467 39.71398061 0.84921768 27.40195032
1498 1 1 -0.00014197701297 41.18486878 3.39687073 27.40195032
1499 1 1 -0.000159221654468 39.71398061 5.94452377 27.40195032
1500 1 1 -0.000165269787629 41.18486878 8.49217681 27.40195032
1501 1 1 -0.000164651044478 39.71398061 11.03982986 27.40195032
1502 1 1 -0.000175209793103 41.18486878 13.58748290 27.40195032
1503 1 1 -0.000349665951153 39.71398061 16.13513595 27.40195032
1504 1 1 -0.000425103997187 41.18486878 18.68278899 27.40195032
1505 1 1 -0.000134358809027 42.65575695 0.84921768 27.40195032
1506 1 1 -0.000134998878275 44.12664513 3.39687073 27.40195032
1507 1 1 -0.000148395776645 42.65575695 5.94452377 27.40195032
1508 1 1 -0.000156322815133 44.12664513 8.49217681 27.40195032
1509 1 1 -0.000166986207029 42.65575695 11.03982986 27.40195032
1510 1 1 -0.000168005311921 44.12664513 13.58748290 27.40195032
1511 1 1 -0.000199867658745 42.65575695 16.13513595 27.40195032
1512 1 1 -0.000221889797331 44.12664513 18.68278899 27.40195032
1513 1 1 -0.000130582136336 45.59753330 0.84921768 27.40195032
1514 1 1 -0.000130541795887 47.06842147 3.39687073 27.40195032
1515 1 1 -0.000138611061592 45.59753330 5.94452377 27.40195032
1516 1 1 -0.0001448271432 47.06842147 8.49217681 27.40195032
1517 1 1 -0.000163484541957 45.59753330 11.03982986 27.40195032
1518 1 1 -0.000169217832591 47.06842147 13.58748290 27.40195032
1519 1 1 -0.000171455993674 45.59753330 16.13513595 27.40195032
1520 1 1 -0.000176035800239 47.06842147 18.68278899 27.40195032
1521 1 1 -0.000127784660716 48.53930964 0.84921768 27.40195032
1522 1 1 -0.000128265384444 50.01019781 3.39687073 27.40195032
1523 1 1 -0.000132932298158 48.53930964 5.94452377 27.40195032
1524 1 1 -0.000137480302327 50.01019781 8.49217681 27.40195032
1525 1 1 -0.000152036021974 48.53930964 11.03982986 27.40195032
1526 1 1 -0.000159165752687 50.01019781 13.58748290 27.40195032
1527 1 1 -0.000174443069877 48.53930964 16.13513595 27.40195032
1528 1 1 -0.000181661230348 50.01019781 18.68278899 27.40195032
1529 1 1 -0.000126174221466 51.48108598 0.84921768 27.40195032
1530 1 1 -0.000158883286138 35.30131610 3.39687073 27.40195032
1531 1 1 -0.000130940494657 51.48108598 5.94452377 27.40195032
1532 1 1 -0.000166030393831 35.30131610 8.49217681 27.40195032
1533 1 1 -0.00014343347183 51.48108598 11.03982986 27.40195032
1534 1 1 -0.000396549564971 35.30131610 13.58748290 27.40195032
1535 1 1 -0.000168150720009 51.48108598 16.13513595 27.40195032
1536 1 1 -0.000180378076609 35.30131610 18.68278899 27.40195032
1537 1 1 -5.04523058499e-06 38.24309244 1.69843536 29.80390065
1538 1 1 -5.18270163946e-06 39.71398061 4.24608841 29.80390065
1539 1 1 -5.71144059727e-06 38.24309244 6.79374145 29.80390065
1540 1 1 -5.76663219871e-06 39.71398061 9.34139450 29.80390065
1541 1 1 -8.53260563627e-06 38.24309244 11.88904754 29.80390065
1542 1 1 -1.24889253556e-05 39.71398061 14.43670058 29.80390065
1543 1 1 -1.16189636042e-05 38.24309244 16.98435363 29.80390065
1544 1 1 2.07838550874e-06 39.71398061 19.53200667 29.80390065
1545 1 1 -4.85624144466e-06 41.18486878 1.69843536 29.80390065
1546 1 1 -4.97689964288e-06 42.65575695 4.24608841 29.80390065
1547 1 1 -5.34141844608e-06 41.18486878 6.79374145 29.80390065
1548 1 1 -5.28586011884e-06 42.65575695 9.34139450 29.80390065
1549 1 1 -6.36050067818e-06 41.18486878 11.88904754 29.80390065
1550 1 1 -8.25580918383e-06 42.65575695 14.43670058 29.80390065
1551 1 1 -1.34467683485e-05 41.18486878 16.98435363 29.80390065
1552 1 1 -9.08549287999e-06 42.65575695 19.53200667 29.80390065
1553 1 1 -4.67588061982e-06 44.12664513 1.69843536 29.80390065
1554 1 1 -4.75585546027e-06 45.59753330 4.24608841 29.80390065
1555 1 1 -5.16151021747e-06 44.12664513 6.79374145 29.80390065
1556 1 1 -5.25612395031e-06 45.59753330 9.34139450 29.80390065
1557 1 1 -5.30359956831e-06 44.12664513 11.88904754 29.80390065
1558 1 1 -5.86219016917e-06 45.59753330 14.43670058 29.80390065
1559 1 1 -9.94372362519e-06 44.12664513 16.98435363 29.80390065
1560 1 1 -1.03786997589e-05 45.59753330 19.53200667 29.80390065
1561 1 1 -4.53046957964e-06 47.06842147 1.69843536 29.80390065
1562 1 1 -4.57749074972e-06 48.53930964 4.24608841 29.80390065
1563 1 1 -4.92927465644e-06 47.06842147 6.79374145 29.80390065
1564 1 1 -5.11210697361e-06 48.53930964 9.34139450 29.80390065
1565 1 1 -5.28844510639e-06 47.06842147 11.88904754 29.80390065
1566 1 1 -5.44961085666e-06 48.53930964 14.43670058 29.80390065
1567 1 1 -6.59097763868e-06 47.06842147 16.98435363 29.80390065
1568 1 1 -6.83736875137e-06 48.53930964 19.53200667 29.80390065
1569 1 1 -4.4510380165e-06 50.01019781 1.69843536 29.80390065
1570 1 1 -4.49966218506e-06 51.48108598 4.24608841 29.80390065
1571 1 1 -4.70709660405e-06 50.01019781 6.79374145 29.80390065
1572 1 1 -4.90931859279e-06 51.48108598 9.34139450 29.80390065
1573 1 1 -5.29710393861e-06 50.01019781 11.88904754 29.80390065
1574 1 1 -5.58687456869e-06 51.48108598 14.43670058 29.80390065
1575 1 1 -5.75952991388e-06 50.01019781 16.98435363 29.80390065
1576 1 1 -6.05655991025e-06 51.48108598 19.53200667 29.80390065
1577 1 1 -5.27159123649e-06 35.30131610 1.69843536 29.80390065
1578 1 1 -5.46019753622e-06 36.77220427 4.24608841 29.80390065
1579 1 1 -6.2834528715e-06 35.30131610 6.79374145 29.80390065
1580 1 1 -6.7588801493e-06 36.77220427 9.34139450 29.80390065
1581 1 1 -8.74510214552e-06 35.30131610 11.88904754 29.80390065
1582 1 1 -1.31774920289e-05 36.77220427 14.43670058 29.80390065
1583 1 1 -8.27743709665e-07 35.30131610 16.98435363 29.80390065
1584 1 1 2.0873573573e-05 36.77220427 19.53200667 29.80390065
1585 1 1 0.00014817950038 39.71398061 2.54765304 32.20585097
1586 1 1 0.000154673137778 41.18486878 5.09530609 32.20585097
1587 1 1 0.000171967975564 39.71398061 7.64295913 32.20585097
1588 1 1 0.000173565797248 41.18486878 10.19061218 32.20585097
1589 1 1 0.0001859393698 39.71398061 12.73826522 32.20585097
1590 1 1 0.000223034098487 41.18486878 15.28591827 32.20585097
1591 1 1 0.000495654808297 39.71398061 17.83357131 32.20585097
1592 1 1 0.00014135722169 41.18486878 0.00000000 32.20585097
1593 1 1 0.000141235550605 42.65575695 2.54765304 32.20585097
1594 1 1 0.000144603362878 44.12664513 5.09530609 32.20585097
1595 1 1 0.000162999496394 42.65575695 7.64295913 32.20585097
1596 1 1 0.000170356117059 44.12664513 10.19061218 32.20585097
1597 1 1 0.000173831985214 42.65575695 12.73826522 32.20585097
1598 1 1 0.000177537473633 44.12664513 15.28591827 32.20585097
1599 1 1 0.000265560110188 42.65575695 17.83357131 32.20585097
1600 1 1 0.00013702799039 44.12664513 0.00000000 32.20585097
1601 1 1 0.000136295281224 45.59753330 2.54765304 32.20585097
1602 1 1 0.00013799555434 47.06842147 5.09530609 32.20585097
1603 1 1 0.000150937351615 45.59753330 7.64295913 32.20585097
1604 1 1 0.000158812544622 47.06842147 10.19061218 32.20585097
1605 1 1 0.000175752707676 45.59753330 12.73826522 32.20585097
1606 1 1 0.000180124509692 47.06842147 15.28591827 32.20585097
1607 1 1 0.000183748580236 45.59753330 17.83357131 32.20585097
1608 1 1 0.000133659252984 47.06842147 0.00000000 32.20585097
1609 1 1 0.000133183857916 48.53930964 2.54765304 32.20585097
1610 1 1 0.000135013556796 50.01019781 5.09530609 32.20585097
1611 1 1 0.000142339658774 48.53930964 7.64295913 32.20585097
1612 1 1 0.000148382278688 50.01019781 10.19061218 32.20585097
1613 1 1 0.000166491029856 48.53930964 12.73826522 32.20585097
1614 1 1 0.000173840789546 50.01019781 15.28591827 32.20585097
1615 1 1 0.000185152301823 48.53930964 17.83357131 32.20585097
1616 1 1 0.000131280552098 50.01019781 0.00000000 32.20585097
1617 1 1 0.000131616241579 51.48108598 2.54765304 32.20585097
1618 1 1 0.000172687171015 35.30131610 5.09530609 32.20585097
1619 1 1 0.000138921356377 51.48108598 7.64295913 32.20585097
1620 1 1 0.000186047308396 35.30131610 10.19061218 32.20585097
1621 1 1 0.000155680256168 51.48108598 12.73826522 32.20585097
1622 1 1 0.000579745854176 35.30131610 15.28591827 32.20585097
1623 1 1 0.00018382892906 51.48108598 17.83357131 32.20585097
1624 1 1 0.000153286495691 35.30131610 0.00000000 32.20585097
1625 1 1 0.000156269661274 36.77220427 2.54765304 32.20585097
1626 1 1 0.000165207763511 38.24309244 5.09530609 32.20585097
1627 1 1 0.000173950694549 36.77220427 7.64295913 32.20585097
1628 1 1 0.000171982099727 38.24309244 10.19061218 32.20585097
1629 1 1 0.00025990143841 36.77220427 12.73826522 32.20585097
1630 1 1 0.000385724957296 38.24309244 15.28591827 32.20585097
1631 1 1 0.00060116395537 36.77220427 17.83357131 32.20585097
1632 1 1 0.000146882521237 38.24309244 0.00000000 32.20585097
1633 1 1 -0.000208334959017 41.18486878 3.39687073 34.60780130
1634 1 1 -0.000210326774042 42.65575695 5.94452377 34.60780130
1635 1 1 -0.000236783451356 41.18486878 8.49217681 34.60780130
1636 1 1 -0.000263526501141 42.65575695 11.03982986 34.60780130
1637 1 1 -0.00034786135334 41.18486878 13.58748290 34.60780130
1638 1 1 -0.00035720908701 42.65575695 16.13513595 34.60780130
1639 1 1 -0.000243853016047 41.18486878 18.68278899 34.60780130
1640 1 1 -0.000202219566506 42.65575695 0.84921768 34.60780130
1641 1 1 -0.000201758450084 44.12664513 3.39687073 34.60780130
1642 1 1 -0.000204489542206 45.59753330 5.94452377 34.60780130
1643 1 1 -0.000216786315181 44.12664513 8.49217681 34.60780130
1644 1 1 -0.000227714195752 45.59753330 11.03982986 34.60780130
1645 1 1 -0.000291322993681 44.12664513 13.58748290 34.60780130
1646 1 1 -0.000312903692959 45.59753330 16.13513595 34.60780130
1647 1 1 -0.000359363773411 44.12664513 18.68278899 34.60780130
1648 1 1 -0.000194740963108 45.59753330 0.84921768 34.60780130
1649 1 1 -0.000195408747093 47.06842147 3.39687073 34.60780130
1650 1 1 -0.000199171505469 48.53930964 5.94452377 34.60780130
1651 1 1 -0.000209115972624 47.06842147 8.49217681 34.60780130
1652 1 1 -0.000216196951321 48.53930964 11.03982986 34.60780130
1653 1 1 -0.000241392137846 47.06842147 13.58748290 34.60780130
1654 1 1 -0.000254842477001 48.53930964 16.13513595 34.60780130
1655 1 1 -0.000325850602599 47.06842147 18.68278899 34.60780130
1656 1 1 -0.00018941248199 48.53930964 0.84921768 34.60780130
1657 1 1 -0.000190699398304 50.01019781 3.39687073 34.60780130
1658 1 1 -0.000195321689396 51.48108598 5.94452377 34.60780130
1659 1 1 -0.000205411813758 50.01019781 8.49217681 34.60780130
1660 1 1 -0.00021481713668 51.48108598 11.03982986 34.60780130
1661 1 1 -0.000226179739474 50.01019781 13.58748290 34.60780130
1662 1 1 -0.000236705382407 51.48108598 16.13513595 34.60780130
1663 1 1 -0.000264154002073 50.01019781 18.68278899 34.60780130
1664 1 1 -0.000186819413911 51.48108598 0.84921768 34.60780130
1665 1 1 -0.000222423321361 35.30131610 3.39687073 34.60780130
1666 1 1 -0.000236450764583 36.77220427 5.94452377 34.60780130
1667 1 1 -0.000313582212875 35.30131610 8.49217681 34.60780130
1668 1 1 -0.000353767857311 36.77220427 11.03982986 34.60780130
1669 1 1 -0.000247046386212 35.30131610 13.58748290 34.60780130
1670 1 1 -0.00018603371182 36.77220427 16.13513595 34.60780130
1671 1 1 -0.00107811425893 35.30131610 18.68278899 34.60780130
1672 1 1 -0.000217548243661 36.77220427 0.84921768 34.60780130
1673 1 1 -0.000214959961154 38.24309244 3.39687073 34.60780130
1674 1 1 -0.000219795001603 39.71398061 5.94452377 34.60780130
1675 1 1 -0.00027301243928 38.24309244 8.49217681 34.60780130
1676 1 1 -0.000318047674693 39.71398061 11.03982986 34.60780130
1677 1 1 -0.000335601763255 38.24309244 13.58748290 34.60780130
1678 1 1 -0.000281279467978 39.71398061 16.13513595 34.60780130
1679 1 1 -0.000269639744394 38.24309244 18.68278899 34.60780130
1680 1 1 -0.000210321347086 39.71398061 0.84921768 34.60780130
1681 1 1 0.00211548771699 35.30131610 20.38122435 25.00000000
1682 1 1 0.00255952234189 36.77220427 22.92887739 25.00000000
1683 1 1 0.000997983420179 35.30131610 25.47653044 25.00000000
1684 1 1 0.00203574116911 36.77220427 28.02418348 25.00000000
1685 1 1 -0.00349542319154 35.30131610 30.57183653 25.00000000
1686 1 1 0.00203994896616 36.77220427 33.11948957 25.00000000
1687 1 1 0.000964900952462 35.30131610 35.66714262 25.00000000
1688 1 1 0.00252977557809 36.77220427 38.21479566 25.00000000
1689 1 1 0.000610903242855 38.24309244 20.38122435 25.00000000
1690 1 1 0.000749581878532 39.71398061 22.92887739 25.00000000
1691 1 1 0.00256140175761 38.24309244 25.47653044 25.00000000
1692 1 1 0.00212107661731 39.71398061 28.02418348 25.00000000
1693 1 1 0.00315712958259 38.24309244 30.57183653 25.00000000
1694 1 1 0.00213455027674 39.71398061 33.11948957 25.00000000
1695 1 1 0.00253166286361 38.24309244 35.66714262 25.00000000
1696 1 1 0.000739826437995 39.71398061 38.21479566 25.00000000
1697 1 1 0.00020483757652 41.18486878 20.38122435 25.00000000
1698 1 1 0.000208626878173 42.65575695 22.92887739 25.00000000
1699 1 1 0.000616145234382 41.18486878 25.47653044 25.00000000
1700 1 1 0.000343219546315 42.65575695 28.02418348 25.00000000
1701 1 1 0.00114611687389 41.18486878 30.57183653 25.00000000
1702 1 1 0.00035311267087 42.65575695 33.11948957 25.00000000
1703 1 1 0.000620640322541 41.18486878 35.66714262 25.00000000
1704 1 1 0.000215419906317 42.65575695 38.21479566 25.00000000
1705 1 1 0.00034199555066 44.12664513 20.38122435 25.00000000
1706 1 1 0.000357255133769 45.59753330 22.92887739 25.00000000
1707 1 1 0.000225117276326 44.12664513 25.47653044 25.00000000
1708 1 1 0.000287607770467 45.59753330 28.02418348 25.00000000
1709 1 1 0.000208641946389 44.12664513 30.57183653 25.00000000
1710 1 1 0.000288437521534 45.59753330 33.11948957 25.00000000
1711 1 1 0.00023025246465 44.12664513 35.66714262 25.00000000
1712 1 1 0.000357971530086 45.59753330 38.21479566 25.00000000
1713 1 1 0.000358621288454 47.06842147 20.38122435 25.00000000
1714 1 1 0.000356720665497 48.53930964 22.92887739 25.00000000
1715 1 1 0.000381409766726 47.06842147 25.47653044 25.00000000
1716 1 1 0.000388569064619 48.53930964 28.02418348 25.00000000
1717 1 1 0.000367118757865 47.06842147 30.57183653 25.00000000
1718 1 1 0.000387218611699 48.53930964 33.11948957 25.00000000
1719 1 1 0.00037976852471 47.06842147 35.66714262 25.00000000
1720 1 1 0.000355014032602 48.53930964 38.21479566 25.00000000
1721 1 1 0.00028709693187 50.01019781 20.38122435 25.00000000
1722 1 1 0.000284636963588 51.48108598 22.92887739 25.00000000
1723 1 1 0.000340662589863 50.01019781 25.47653044 25.00000000
1724 1 1 0.000317136304233 51.48108598 28.02418348 25.00000000
1725 1 1 0.000361038528295 50.01019781 30.57183653 25.00000000
1726 1 1 0.00031708209757 51.48108598 33.11948957 25.00000000
1727 1 1 0.000339670528623 50.01019781 35.66714262 25.00000000
1728 1 1 0.000284861360901 51.48108598 38.21479566 25.00000000
1729 1 1 0.000363180621275 36.77220427 21.23044203 27.40195032
1730 1 1 0.00057678364013 38.24309244 23.77809508 27.40195032
1731 1 1 0.000976176208759 36.77220427 26.32574812 27.40195032
1732 1 1 0.00127916852243 38.24309244 28.87340116 27.40195032
1733 1 1 -0.000645835609736 36.77220427 31.42105421 27.40195032
1734 1 1 0.00126165072978 38.24309244 33.96870725 27.40195032
1735 1 1 0.00142561331456 36.77220427 36.51636030 27.40195032
1736 1 1 2.36286335928e-05 38.24309244 39.06401334 27.40195032
1737 1 1 -0.000530139024909 39.71398061 21.23044203 27.40195032
1738 1 1 -0.000532285554998 41.18486878 23.77809508 27.40195032
1739 1 1 0.000360175475304 39.71398061 26.32574812 27.40195032
1740 1 1 -0.00018620177232 41.18486878 28.87340116 27.40195032
1741 1 1 0.000674043035717 39.71398061 31.42105421 27.40195032
1742 1 1 -0.000299475434913 41.18486878 33.96870725 27.40195032
1743 1 1 2.19216114855e-05 39.71398061 36.51636030 27.40195032
1744 1 1 -0.000588198111197 41.18486878 39.06401334 27.40195032
1745 1 1 -0.000451358928108 42.65575695 21.23044203 27.40195032
1746 1 1 -0.000430570927081 44.12664513 23.77809508 27.40195032
1747 1 1 -0.000594156972479 42.65575695 26.32574812 27.40195032
1748 1 1 -0.000570525018955 44.12664513 28.87340116 27.40195032
1749 1 1 -0.00058280527966 42.65575695 31.42105421 27.40195032
1750 1 1 -0.000539617541874 44.12664513 33.96870725 27.40195032
1751 1 1 -0.00058735889145 42.65575695 36.51636030 27.40195032
1752 1 1 -0.000354606663686 44.12664513 39.06401334 27.40195032
1753 1 1 -0.000225307699858 45.59753330 21.23044203 27.40195032
1754 1 1 -0.000210619073618 47.06842147 23.77809508 27.40195032
1755 1 1 -0.000360321769355 45.59753330 26.32574812 27.40195032
1756 1 1 -0.000265212477804 47.06842147 28.87340116 27.40195032
1757 1 1 -0.00040940287319 45.59753330 31.42105421 27.40195032
1758 1 1 -0.000249027638573 47.06842147 33.96870725 27.40195032
1759 1 1 -0.000311768699213 45.59753330 36.51636030 27.40195032
1760 1 1 -0.000191476515253 47.06842147 39.06401334 27.40195032
1761 1 1 -0.000181249507227 48.53930964 21.23044203 27.40195032
1762 1 1 -0.000190937537491 50.01019781 23.77809508 27.40195032
1763 1 1 -0.000195023735499 48.53930964 26.32574812 27.40195032
1764 1 1 -0.000195445280033 50.01019781 28.87340116 27.40195032
1765 1 1 -0.000203722672725 48.53930964 31.42105421 27.40195032
1766 1 1 -0.000194806651719 50.01019781 33.96870725 27.40195032
1767 1 1 -0.000188797103204 48.53930964 36.51636030 27.40195032
1768 1 1 -0.000189370693577 50.01019781 39.06401334 27.40195032
1769 1 1 -0.000193433216888 51.48108598 21.23044203 27.40195032
1770 1 1 0.00097718705093 35.30131610 23.77809508 27.40195032
1771 1 1 -0.000205058304164 51.48108598 26.32574812 27.40195032
1772 1 1 -0.0066476488038 35.30131610 28.87340116 27.40195032
1773 1 1 -0.000207552853775 51.48108598 31.42105421 27.40195032
1774 1 1 -0.00386531160055 35.30131610 33.96870725 27.40195032
1775 1 1 -0.000203151811114 51.48108598 36.51636030 27.40195032
1776 1 1 0.0012639693632 35.30131610 39.06401334 27.40195032
1777 1 1 -4.38208008874e-06 38.24309244 22.07965971 29.80390065
1778 1 1 -4.44560286555e-06 39.71398061 24.62731276 29.80390065
1779 1 1 -1.63011837948e-05 38.24309244 27.17496580 29.80390065
1780 1 1 2.26061057974e-05 39.71398061 29.72261885 29.80390065
1781 1 1 -8.48539035923e-05 38.24309244 32.27027189 29.80390065
1782 1 1 2.13158733314e-06 39.71398061 34.81792493 29.80390065
1783 1 1 5.92621065108e-05 38.24309244 37.36557798 29.80390065
1784 1 1 -1.46955809905e-05 39.71398061 39.91323102 29.80390065
1785 1 1 9.67198034416e-06 41.18486878 22.07965971 29.80390065
1786 1 1 1.92699063959e-06 42.65575695 24.62731276 29.80390065
1787 1 1 2.07065073253e-05 41.18486878 27.17496580 29.80390065
1788 1 1 -1.10098186066e-06 42.65575695 29.72261885 29.80390065
1789 1 1 -1.2495472376e-05 41.18486878 32.27027189 29.80390065
1790 1 1 -1.31896624141e-05 42.65575695 34.81792493 29.80390065
1791 1 1 -1.47680115751e-05 41.18486878 37.36557798 29.80390065
1792 1 1 -1.86234211488e-05 42.65575695 39.91323102 29.80390065
1793 1 1 -9.18272761711e-06 44.12664513 22.07965971 29.80390065
1794 1 1 -1.37649039959e-05 45.59753330 24.62731276 29.80390065
1795 1 1 -1.19234474557e-05 44.12664513 27.17496580 29.80390065
1796 1 1 -1.36417414266e-05 45.59753330 29.72261885 29.80390065
1797 1 1 -9.44867542873e-06 44.12664513 32.27027189 29.80390065
1798 1 1 -8.47825237694e-06 45.59753330 34.81792493 29.80390065
1799 1 1 -1.37878499719e-05 44.12664513 37.36557798 29.80390065
1800 1 1 -7.82208056546e-06 45.59753330 39.91323102 29.80390065
1801 1 1 -1.02588213876e-05 47.06842147 22.07965971 29.80390065
1802 1 1 -8.94981925499e-06 48.53930964 24.62731276 29.80390065
1803 1 1 -1.30715142236e-05 47.06842147 27.17496580 29.80390065
1804 1 1 -9.35763454862e-06 48.53930964 29.72261885 29.80390065
1805 1 1 -9.35065061866e-06 47.06842147 32.27027189 29.80390065
1806 1 1 -7.60367154735e-06 48.53930964 34.81792493 29.80390065
1807 1 1 -7.06985406296e-06 47.06842147 37.36557798 29.80390065
1808 1 1 -6.47657223954e-06 48.53930964 39.91323102 29.80390065
1809 1 1 -6.58421363125e-06 50.01019781 22.07965971 29.80390065
1810 1 1 -6.33720956784e-06 51.48108598 24.62731276 29.80390065
1811 1 1 -7.38101947019e-06 50.01019781 27.17496580 29.80390065
1812 1 1 -6.98342432329e-06 51.48108598 29.72261885 29.80390065
1813 1 1 -7.74838892715e-06 50.01019781 32.27027189 29.80390065
1814 1 1 -7.45435769513e-06 51.48108598 34.81792493 29.80390065
1815 1 1 -7.16277249438e-06 50.01019781 37.36557798 29.80390065
1816 1 1 -6.82434807642e-06 51.48108598 39.91323102 29.80390065
1817 1 1 -1.62015288716e-05 35.30131610 22.07965971 29.80390065
1818 1 1 -0.00015689618823 36.77220427 24.62731276 29.80390065
1819 1 1 -0.000286932062798 35.30131610 27.17496580 29.80390065
1820 1 1 -0.00010724372532 36.77220427 29.72261885 29.80390065
1821 1 1 -0.000396309103507 35.30131610 32.27027189 29.80390065
1822 1 1 -6.18786445602e-06 36.77220427 34.81792493 29.80390065
1823 1 1 -6.12543880695e-06 35.30131610 37.36557798 29.80390065
1824 1 1 2.22660544377e-06 36.77220427 39.91323102 29.80390065
1825 1 1 0.00033525981333 39.71398061 22.92887739 32.20585097
1826 1 1 0.000445174756672 41.18486878 25.47653044 32.20585097
1827 1 1 -0.00054669851042 39.71398061 28.02418348 32.20585097
1828 1 1 0.000185587666175 41.18486878 30.57183653 32.20585097
1829 1 1 -0.000588202580398 39.71398061 33.11948957 32.20585097
1830 1 1 0.000434879303973 41.18486878 35.66714262 32.20585097
1831 1 1 0.000333887180155 39.71398061 38.21479566 32.20585097
1832 1 1 0.000549031789392 41.18486878 20.38122435 32.20585097
1833 1 1 0.000551702088743 42.65575695 22.92887739 32.20585097
1834 1 1 0.000503385185964 44.12664513 25.47653044 32.20585097
1835 1 1 0.000608718807868 42.65575695 28.02418348 32.20585097
1836 1 1 0.000590361801041 44.12664513 30.57183653 32.20585097
1837 1 1 0.000604195808225 42.65575695 33.11948957 32.20585097
1838 1 1 0.000505434661072 44.12664513 35.66714262 32.20585097
1839 1 1 0.000543774673414 42.65575695 38.21479566 32.20585097
1840 1 1 0.000286540616262 44.12664513 20.38122435 32.20585097
1841 1 1 0.000272236363057 45.59753330 22.92887739 32.20585097
1842 1 1 0.000236756439928 47.06842147 25.47653044 32.20585097
1843 1 1 0.000398105207919 45.59753330 28.02418348 32.20585097
1844 1 1 0.000277068932544 47.06842147 30.57183653 32.20585097
1845 1 1 0.000402420364585 45.59753330 33.11948957 32.20585097
1846 1 1 0.000239114788154 47.06842147 35.66714262 32.20585097
1847 1 1 0.000274909408817 45.59753330 38.21479566 32.20585097
1848 1 1 0.000188033774926 47.06842147 20.38122435 32.20585097
1849 1 1 0.000191760596032 48.53930964 22.92887739 32.20585097
1850 1 1 0.000201151513122 50.01019781 25.47653044 32.20585097
1851 1 1 0.000208159943188 48.53930964 28.02418348 32.20585097
1852 1 1 0.000204120401505 50.01019781 30.57183653 32.20585097
1853 1 1 0.000208443016946 48.53930964 33.11948957 32.20585097
1854 1 1 0.000200544861352 50.01019781 35.66714262 32.20585097
1855 1 1 0.000191983883054 48.53930964 38.21479566 32.20585097
1856 1 1 0.000193520214294 50.01019781 20.38122435 32.20585097
1857 1 1 0.000206510715658 51.48108598 22.92887739 32.20585097
1858 1 1 0.000832394153752 35.30131610 25.47653044 32.20585097
1859 1 1 0.000214994897013 51.48108598 28.02418348 32.20585097
1860 1 1 0.00797755430009 35.30131610 30.57183653 32.20585097
1861 1 1 0.000214524837999 51.48108598 33.11948957 32.20585097
1862 1 1 0.000901577614228 35.30131610 35.66714262 32.20585097
1863 1 1 0.00020611484539 51.48108598 38.21479566 32.20585097
1864 1 1 -0.000550738622593 35.30131610 20.38122435 32.20585097
1865 1 1 -0.00108712502225 36.77220427 22.92887739 32.20585097
1866 1 1 -0.00108577528028 38.24309244 25.47653044 32.20585097
1867 1 1 -7.59903026088e-05 36.77220427 28.02418348 32.20585097
1868 1 1 -0.00119514700162 38.24309244 30.57183653 32.20585097
1869 1 1 -0.000126708911615 36.77220427 33.11948957 32.20585097
1870 1 1 -0.00104659333554 38.24309244 35.66714262 32.20585097
1871 1 1 -0.00104795516431 36.77220427 38.21479566 32.20585097
1872 1 1 0.000441244412814 38.24309244 20.38122435 32.20585097
1873 1 1 -0.000388280433187 41.18486878 23.77809508 34.60780130
1874 1 1 -0.00027848256329 42.65575695 26.32574812 34.60780130
1875 1 1 -0.00108626738601 41.18486878 28.87340116 34.60780130
1876 1 1 -0.000392371538915 42.65575695 31.42105421 34.60780130
1877 1 1 -0.00087175116132 41.18486878 33.96870725 34.60780130
1878 1 1 -0.000214054995421 42.65575695 36.51636030 34.60780130
1879 1 1 -0.000237144777079 41.18486878 39.06401334 34.60780130
1880 1 1 -0.000236235922203 42.65575695 21.23044203 34.60780130
1881 1 1 -0.000252428028954 44.12664513 23.77809508 34.60780130
1882 1 1 -0.000298590048776 45.59753330 26.32574812 34.60780130
1883 1 1 -0.000201010231819 44.12664513 28.87340116 34.60780130
1884 1 1 -0.000267691767876 45.59753330 31.42105421 34.60780130
1885 1 1 -0.000199412802613 44.12664513 33.96870725 34.60780130
1886 1 1 -0.000323957395046 45.59753330 36.51636030 34.60780130
1887 1 1 -0.000291652911307 44.12664513 39.06401334 34.60780130
1888 1 1 -0.000365566507036 45.59753330 21.23044203 34.60780130
1889 1 1 -0.000375243994328 47.06842147 23.77809508 34.60780130
1890 1 1 -0.000375709688364 48.53930964 26.32574812 34.60780130
1891 1 1 -0.000360748225117 47.06842147 28.87340116 34.60780130
1892 1 1 -0.000384396993102 48.53930964 31.42105421 34.60780130
1893 1 1 -0.000367615866538 47.06842147 33.96870725 34.60780130
1894 1 1 -0.000367724993751 48.53930964 36.51636030 34.60780130
1895 1 1 -0.000370644508288 47.06842147 39.06401334 34.60780130
1896 1 1 -0.000328708165231 48.53930964 21.23044203 34.60780130
1897 1 1 -0.00031974755292 50.01019781 23.77809508 34.60780130
1898 1 1 -0.00030432509148 51.48108598 26.32574812 34.60780130
1899 1 1 -0.000353463929919 50.01019781 28.87340116 34.60780130
1900 1 1 -0.000316986353773 51.48108598 31.42105421 34.60780130
1901 1 1 -0.000347267188952 50.01019781 33.96870725 34.60780130
1902 1 1 -0.000293140073158 51.48108598 36.51636030 34.60780130
1903 1 1 -0.000302350861469 50.01019781 39.06401334 34.60780130
1904 1 1 -0.000267599579206 51.48108598 21.23044203 34.60780130
1905 1 1 -0.00253674039597 35.30131610 23.77809508 34.60780130
1906 1 1 -0.00253823804845 36.77220427 26.32574812 34.60780130
1907 1 1 0.00320078446182 35.30131610 28.87340116 34.60780130
1908 1 1 -0.00147311055497 36.77220427 31.42105421 34.60780130
1909 1 1 0.00148957265852 35.30131610 33.96870725 34.60780130
1910 1 1 -0.00288772208382 36.77220427 36.51636030 34.60780130
1911 1 1 -0.00291814581431 35.30131610 39.06401334 34.60780130
1912 1 1 -0.00173238619942 36.77220427 21.23044203 34.60780130
1913 1 1 -0.00193550783882 38.24309244 23.77809508 34.60780130
1914 1 1 -0.00173650556108 39.71398061 26.32574812 34.60780130
1915 1 1 -0.0030979765523 38.24309244 28.87340116 34.60780130
1916 1 1 -0.00236557082853 39.71398061 31.42105421 34.60780130
1917 1 1 -0.00292143652556 38.24309244 33.96870725 34.60780130
1918 1 1 -0.00124450088245 39.71398061 36.51636030 34.60780130
1919 1 1 -0.00124221004463 38.24309244 39.06401334 34.60780130
1920 1 1 -0.000385389124038 39.71398061 21.23044203 34.60780130
1921 1 1 0.00212894973546 35.30131610 40.76244870 25.00000000
1922 1 1 0.00034248068421 36.77220427 43.31010174 25.00000000
1923 1 1 0.000192660826316 35.30131610 45.85775479 25.00000000
1924 1 1 0.000340923393749 36.77220427 48.40540783 25.00000000
1925 1 1 0.000358134933721 35.30131610 50.95306088 25.00000000
1926 1 1 0.000274208398952 36.77220427 53.50071392 25.00000000
1927 1 1 0.000238013998615 35.30131610 56.04836697 25.00000000
1928 1 1 0.000221050124939 36.77220427 58.59602001 25.00000000
1929 1 1 0.000615392571264 38.24309244 40.76244870 25.00000000
1930 1 1 0.000218653288384 39.71398061 43.31010174 25.00000000
1931 1 1 0.000268941721778 38.24309244 45.85775479 25.00000000
1932 1 1 0.000357053830084 39.71398061 48.40540783 25.00000000
1933 1 1 0.000324605588843 38.24309244 50.95306088 25.00000000
1934 1 1 0.000241617287591 39.71398061 53.50071392 25.00000000
1935 1 1 0.000224049141816 38.24309244 56.04836697 25.00000000
1936 1 1 0.000214261570629 39.71398061 58.59602001 25.00000000
1937 1 1 0.000211637907012 41.18486878 40.76244870 25.00000000
1938 1 1 0.000346823478786 42.65575695 43.31010174 25.00000000
1939 1 1 0.000358088347995 41.18486878 45.85775479 25.00000000
1940 1 1 0.000307289886655 42.65575695 48.40540783 25.00000000
1941 1 1 0.000273078595447 41.18486878 50.95306088 25.00000000
1942 1 1 0.00022145117023 42.65575695 53.50071392 25.00000000
1943 1 1 0.000214837767948 41.18486878 56.04836697 25.00000000
1944 1 1 0.000207058219971 42.65575695 58.59602001 25.00000000
1945 1 1 0.000344539405658 44.12664513 40.76244870 25.00000000
1946 1 1 0.000349541526225 45.59753330 43.31010174 25.00000000
1947 1 1 0.000333481587183 44.12664513 45.85775479 25.00000000
1948 1 1 0.000251911409513 45.59753330 48.40540783 25.00000000
1949 1 1 0.000234637392694 44.12664513 50.95306088 25.00000000
1950 1 1 0.000212495316768 45.59753330 53.50071392 25.00000000
1951 1 1 0.00020853505405 44.12664513 56.04836697 25.00000000
1952 1 1 0.000199927844476 45.59753330 58.59602001 25.00000000
1953 1 1 0.000357233382094 47.06842147 40.76244870 25.00000000
1954 1 1 0.000281694842889 48.53930964 43.31010174 25.00000000
1955 1 1 0.00026892934075 47.06842147 45.85775479 25.00000000
1956 1 1 0.000228293207141 48.53930964 48.40540783 25.00000000
1957 1 1 0.000218910435779 47.06842147 50.95306088 25.00000000
1958 1 1 0.000207576869745 48.53930964 53.50071392 25.00000000
1959 1 1 0.000202656625278 47.06842147 56.04836697 25.00000000
1960 1 1 0.000194227979177 48.53930964 58.59602001 25.00000000
1961 1 1 0.000286668876456 50.01019781 40.76244870 25.00000000
1962 1 1 0.000249361121107 51.48108598 43.31010174 25.00000000
1963 1 1 0.000239604815655 50.01019781 45.85775479 25.00000000
1964 1 1 0.000225524998283 51.48108598 48.40540783 25.00000000
1965 1 1 0.000215104082585 50.01019781 50.95306088 25.00000000
1966 1 1 0.000204158329255 51.48108598 53.50071392 25.00000000
1967 1 1 0.000197557295205 50.01019781 56.04836697 25.00000000
1968 1 1 0.000191154245526 51.48108598 58.59602001 25.00000000
1969 1 1 -0.000294471136138 36.77220427 41.61166638 27.40195032
1970 1 1 -0.000530765805233 38.24309244 44.15931943 27.40195032
1971 1 1 -0.000396777433485 36.77220427 46.70697247 27.40195032
1972 1 1 -0.000181312278483 38.24309244 49.25462551 27.40195032
1973 1 1 -0.000164888955232 36.77220427 51.80227856 27.40195032
1974 1 1 -0.000166277049622 38.24309244 54.34993160 27.40195032
1975 1 1 -0.00015954165827 36.77220427 56.89758465 27.40195032
1976 1 1 -0.000144098287942 38.24309244 59.44523769 27.40195032
1977 1 1 -0.000582708357128 39.71398061 41.61166638 27.40195032
1978 1 1 -0.000302920801689 41.18486878 44.15931943 27.40195032
1979 1 1 -0.000234022118291 39.71398061 46.70697247 27.40195032
1980 1 1 -0.000165638972903 41.18486878 49.25462551 27.40195032
1981 1 1 -0.000166512315328 39.71398061 51.80227856 27.40195032
1982 1 1 -0.000158484436174 41.18486878 54.34993160 27.40195032
1983 1 1 -0.000150263433534 39.71398061 56.89758465 27.40195032
1984 1 1 -0.000137698830958 41.18486878 59.44523769 27.40195032
1985 1 1 -0.00035161889519 42.65575695 41.61166638 27.40195032
1986 1 1 -0.000183791158353 44.12664513 44.15931943 27.40195032
1987 1 1 -0.000171673710387 42.65575695 46.70697247 27.40195032
1988 1 1 -0.000168596281431 44.12664513 49.25462551 27.40195032
1989 1 1 -0.000164959288538 42.65575695 51.80227856 27.40195032
1990 1 1 -0.000147063940297 44.12664513 54.34993160 27.40195032
1991 1 1 -0.000140830120348 42.65575695 56.89758465 27.40195032
1992 1 1 -0.000132802490449 44.12664513 59.44523769 27.40195032
1993 1 1 -0.000192379326882 45.59753330 41.61166638 27.40195032
1994 1 1 -0.000174485475186 47.06842147 44.15931943 27.40195032
1995 1 1 -0.000171164682651 45.59753330 46.70697247 27.40195032
1996 1 1 -0.000162464569201 47.06842147 49.25462551 27.40195032
1997 1 1 -0.000154895666845 45.59753330 51.80227856 27.40195032
1998 1 1 -0.000137754275943 47.06842147 54.34993160 27.40195032
1999 1 1 -0.000133893048112 45.59753330 56.89758465 27.40195032
2000 1 1 -0.000129336588786 47.06842147 59.44523769 27.40195032
2001 1 1 -0.000179757673356 48.53930964 41.61166638 27.40195032
2002 1 1 -0.000175780020474 50.01019781 44.15931943 27.40195032
2003 1 1 -0.000168939562119 48.53930964 46.70697247 27.40195032
2004 1 1 -0.000150614164387 50.01019781 49.25462551 27.40195032
2005 1 1 -0.000143787528929 48.53930964 51.80227856 27.40195032
2006 1 1 -0.000133238429983 50.01019781 54.34993160 27.40195032
2007 1 1 -0.000130126255212 48.53930964 56.89758465 27.40195032
2008 1 1 -0.000127098739374 50.01019781 59.44523769 27.40195032
2009 1 1 -0.000186389307042 51.48108598 41.61166638 27.40195032
2010 1 1 -0.00057484414419 35.30131610 44.15931943 27.40195032
2011 1 1 -0.000158705690846 51.48108598 46.70697247 27.40195032
2012 1 1 -0.000248807545474 35.30131610 49.25462551 27.40195032
2013 1 1 -0.000138048708628 51.48108598 51.80227856 27.40195032
2014 1 1 -0.000168237630225 35.30131610 54.34993160 27.40195032
2015 1 1 -0.000128655809631 51.48108598 56.89758465 27.40195032
2016 1 1 -0.000151175593121 35.30131610 59.44523769 27.40195032
2017 1 1 -1.29708771965e-05 38.24309244 42.46088406 29.80390065
2018 1 1 -8.08228181604e-06 39.71398061 45.00853711 29.80390065
2019 1 1 -8.75603097018e-06 38.24309244 47.55619015 29.80390065
2020 1 1 -6.74976465911e-06 39.71398061 50.10384320 29.80390065
2021 1 1 -5.77396019313e-06 38.24309244 52.65149624 29.80390065
2022 1 1 -5.36238112659e-06 39.71398061 55.19914928 29.80390065
2023 1 1 -5.29099705425e-06 38.24309244 57.74680233 29.80390065
2024 1 1 -4.96727551356e-06 39.71398061 60.29445537 29.80390065
2025 1 1 -1.35839154944e-05 41.18486878 42.46088406 29.80390065
2026 1 1 -6.67478376729e-06 42.65575695 45.00853711 29.80390065
2027 1 1 -6.92761284248e-06 41.18486878 47.55619015 29.80390065
2028 1 1 -6.2441136144e-06 42.65575695 50.10384320 29.80390065
2029 1 1 -5.67742026619e-06 41.18486878 52.65149624 29.80390065
2030 1 1 -5.12493354584e-06 42.65575695 55.19914928 29.80390065
2031 1 1 -5.02066658866e-06 41.18486878 57.74680233 29.80390065
2032 1 1 -4.74316186016e-06 42.65575695 60.29445537 29.80390065
2033 1 1 -7.68913837134e-06 44.12664513 42.46088406 29.80390065
2034 1 1 -6.13816956404e-06 45.59753330 45.00853711 29.80390065
2035 1 1 -6.4270803364e-06 44.12664513 47.55619015 29.80390065
2036 1 1 -5.74273471947e-06 45.59753330 50.10384320 29.80390065
2037 1 1 -5.35977980069e-06 44.12664513 52.65149624 29.80390065
2038 1 1 -4.8438998774e-06 45.59753330 55.19914928 29.80390065
2039 1 1 -4.76361839691e-06 44.12664513 57.74680233 29.80390065
2040 1 1 -4.58348294991e-06 45.59753330 60.29445537 29.80390065
2041 1 1 -6.06643819819e-06 47.06842147 42.46088406 29.80390065
2042 1 1 -6.17706163135e-06 48.53930964 45.00853711 29.80390065
2043 1 1 -6.03595568764e-06 47.06842147 47.55619015 29.80390065
2044 1 1 -5.27742666386e-06 48.53930964 50.10384320 29.80390065
2045 1 1 -5.00895524119e-06 47.06842147 52.65149624 29.80390065
2046 1 1 -4.67878379314e-06 48.53930964 55.19914928 29.80390065
2047 1 1 -4.60105899162e-06 47.06842147 57.74680233 29.80390065
2048 1 1 -4.47995801076e-06 48.53930964 60.29445537 29.80390065
2049 1 1 -6.41155046946e-06 50.01019781 42.46088406 29.80390065
2050 1 1 -5.88984962075e-06 51.48108598 45.00853711 29.80390065
2051 1 1 -5.57168686207e-06 50.01019781 47.55619015 29.80390065
2052 1 1 -5.03283880605e-06 51.48108598 50.10384320 29.80390065
2053 1 1 -4.82380853261e-06 50.01019781 52.65149624 29.80390065
2054 1 1 -4.61018968396e-06 51.48108598 55.19914928 29.80390065
2055 1 1 -4.50825670943e-06 50.01019781 57.74680233 29.80390065
2056 1 1 -4.42460871202e-06 51.48108598 60.29445537 29.80390065
2057 1 1 -1.22936594944e-05 35.30131610 42.46088406 29.80390065
2058 1 1 -9.0999742465e-06 36.77220427 45.00853711 29.80390065
2059 1 1 -1.31692493038e-05 35.30131610 47.55619015 29.80390065
2060 1 1 -8.53231946833e-06 36.77220427 50.10384320 29.80390065
2061 1 1 -6.3701178311e-06 35.30131610 52.65149624 29.80390065
2062 1 1 -5.34722515937e-06 36.77220427 55.19914928 29.80390065
2063 1 1 -5.40993034118e-06 35.30131610 57.74680233 29.80390065
2064 1 1 -5.21301612713e-06 36.77220427 60.29445537 29.80390065
2065 1 1 0.000497726835804 39.71398061 43.31010174 32.20585097
2066 1 1 0.000225393214633 41.18486878 45.85775479 32.20585097
2067 1 1 0.000186168564462 39.71398061 48.40540783 32.20585097
2068 1 1 0.000173063999608 41.18486878 50.95306088 32.20585097
2069 1 1 0.000171971918735 39.71398061 53.50071392 32.20585097
2070 1 1 0.000154676170783 41.18486878 56.04836697 32.20585097
2071 1 1 0.000148106745087 39.71398061 58.59602001 32.20585097
2072 1 1 0.000541112327045 41.18486878 40.76244870 32.20585097
2073 1 1 0.000268268317076 42.65575695 43.31010174 32.20585097
2074 1 1 0.000177705406693 44.12664513 45.85775479 32.20585097
2075 1 1 0.00017309026368 42.65575695 48.40540783 32.20585097
2076 1 1 0.00017014302164 44.12664513 50.95306088 32.20585097
2077 1 1 0.000163031370972 42.65575695 53.50071392 32.20585097
2078 1 1 0.000144657969606 44.12664513 56.04836697 32.20585097
2079 1 1 0.000141230803976 42.65575695 58.59602001 32.20585097
2080 1 1 0.000288110833317 44.12664513 40.76244870 32.20585097
2081 1 1 0.000184918091523 45.59753330 43.31010174 32.20585097
2082 1 1 0.000179640077695 47.06842147 45.85775479 32.20585097
2083 1 1 0.000175247241838 45.59753330 48.40540783 32.20585097
2084 1 1 0.000158921500799 47.06842147 50.95306088 32.20585097
2085 1 1 0.000151078824688 45.59753330 53.50071392 32.20585097
2086 1 1 0.000138001431407 47.06842147 56.04836697 32.20585097
2087 1 1 0.000136280340241 45.59753330 58.59602001 32.20585097
2088 1 1 0.000189199730285 47.06842147 40.76244870 32.20585097
2089 1 1 0.000184791129021 48.53930964 43.31010174 32.20585097
2090 1 1 0.000173720006128 50.01019781 45.85775479 32.20585097
2091 1 1 0.00016644685557 48.53930964 48.40540783 32.20585097
2092 1 1 0.000148456165209 50.01019781 50.95306088 32.20585097
2093 1 1 0.000142397442456 48.53930964 53.50071392 32.20585097
2094 1 1 0.000134987643049 50.01019781 56.04836697 32.20585097
2095 1 1 0.000133164864266 48.53930964 58.59602001 32.20585097
2096 1 1 0.000193146711298 50.01019781 40.76244870 32.20585097
2097 1 1 0.000183783803217 51.48108598 43.31010174 32.20585097
2098 1 1 0.000579746597517 35.30131610 45.85775479 32.20585097
2099 1 1 0.000155775977961 51.48108598 48.40540783 32.20585097
2100 1 1 0.000185818182478 35.30131610 50.95306088 32.20585097
2101 1 1 0.000138880083767 51.48108598 53.50071392 32.20585097
2102 1 1 0.000172890485622 35.30131610 56.04836697 32.20585097
2103 1 1 0.000131619976462 51.48108598 58.59602001 32.20585097
2104 1 1 -0.000592247006749 35.30131610 40.76244870 32.20585097
2105 1 1 0.000596646830505 36.77220427 43.31010174 32.20585097
2106 1 1 0.000390053908492 38.24309244 45.85775479 32.20585097
2107 1 1 0.000259898906742 36.77220427 48.40540783 32.20585097
2108 1 1 0.000171981424896 38.24309244 50.95306088 32.20585097
2109 1 1 0.000174457108761 36.77220427 53.50071392 32.20585097
2110 1 1 0.000165174660697 38.24309244 56.04836697 32.20585097
2111 1 1 0.000156100034164 36.77220427 58.59602001 32.20585097
2112 1 1 0.000430941194625 38.24309244 40.76244870 32.20585097
2113 1 1 -0.000309290582546 41.18486878 44.15931943 34.60780130
2114 1 1 -0.000342660388707 42.65575695 46.70697247 34.60780130
2115 1 1 -0.000313324597032 41.18486878 49.25462551 34.60780130
2116 1 1 -0.000234157862962 42.65575695 51.80227856 34.60780130
2117 1 1 -0.00021890029346 41.18486878 54.34993160 34.60780130
2118 1 1 -0.000206472036972 42.65575695 56.89758465 34.60780130
2119 1 1 -0.000206744873291 41.18486878 59.44523769 34.60780130
2120 1 1 -0.000286775754673 42.65575695 41.61166638 34.60780130
2121 1 1 -0.000357035123078 44.12664513 44.15931943 34.60780130
2122 1 1 -0.000278746268357 45.59753330 46.70697247 34.60780130
2123 1 1 -0.000256315296553 44.12664513 49.25462551 34.60780130
2124 1 1 -0.000215455125649 45.59753330 51.80227856 34.60780130
2125 1 1 -0.000209409094855 44.12664513 54.34993160 34.60780130
2126 1 1 -0.000200393914901 45.59753330 56.89758465 34.60780130
2127 1 1 -0.000199079105501 44.12664513 59.44523769 34.60780130
2128 1 1 -0.000364671558292 45.59753330 41.61166638 34.60780130
2129 1 1 -0.000295839985864 47.06842147 44.15931943 34.60780130
2130 1 1 -0.000237037198496 48.53930964 46.70697247 34.60780130
2131 1 1 -0.000224984382311 47.06842147 49.25462551 34.60780130
2132 1 1 -0.000209729022686 48.53930964 51.80227856 34.60780130
2133 1 1 -0.000204104523395 47.06842147 54.34993160 34.60780130
2134 1 1 -0.000194668286493 48.53930964 56.89758465 34.60780130
2135 1 1 -0.000192542702303 47.06842147 59.44523769 34.60780130
2136 1 1 -0.000304511026053 48.53930964 41.61166638 34.60780130
2137 1 1 -0.000248366906983 50.01019781 44.15931943 34.60780130
2138 1 1 -0.000228909055816 51.48108598 46.70697247 34.60780130
2139 1 1 -0.000218314120877 50.01019781 49.25462551 34.60780130
2140 1 1 -0.000207762422962 51.48108598 51.80227856 34.60780130
2141 1 1 -0.000199601230718 50.01019781 54.34993160 34.60780130
2142 1 1 -0.000191013553638 51.48108598 56.89758465 34.60780130
2143 1 1 -0.000188363371203 50.01019781 59.44523769 34.60780130
2144 1 1 -0.000255332704513 51.48108598 41.61166638 34.60780130
2145 1 1 -0.000380862757077 35.30131610 44.15931943 34.60780130
2146 1 1 -0.000247379240071 36.77220427 46.70697247 34.60780130
2147 1 1 -0.000335147699014 35.30131610 49.25462551 34.60780130
2148 1 1 -0.000318203049352 36.77220427 51.80227856 34.60780130
2149 1 1 -0.000264945274521 35.30131610 54.34993160 34.60780130
2150 1 1 -0.000221603945545 36.77220427 56.89758465 34.60780130
2151 1 1 -0.000220683169943 35.30131610 59.44523769 34.60780130
2152 1 1 -0.00086483828633 36.77220427 41.61166638 34.60780130
2153 1 1 -0.000185847603382 38.24309244 44.15931943 34.60780130
2154 1 1 -0.000343904887905 39.71398061 46.70697247 34.60780130
2155 1 1 -0.000353855534469 38.24309244 49.25462551 34.60780130
2156 1 1 -0.000272722154588 39.71398061 51.80227856 34.60780130
2157 1 1 -0.00023788671798 38.24309244 54.34993160 34.60780130
2158 1 1 -0.000213002501452 39.71398061 56.89758465 34.60780130
2159 1 1 -0.000214181404406 38.24309244 59.44523769 34.60780130
2160 1 1 -0.000207435412071 39.71398061 41.61166638 34.60780130
2161 2 2 1 26.47598707 30.57183653 37.10780130
2162 3 2 -1 26.47598707 30.57183653 22.50000000
