ITEM: TIMESTEP
0
ITEM: NUMBER OF ATOMS
3000
ITEM: BOX BOUNDS pp pp pp
0.0000000000000000e+00 3.1043045599999999e+01
0.0000000000000000e+00 3.1043045599999999e+01
0.0000000000000000e+00 3.1043045599999999e+01
ITEM: ATOMS id type q
1 1 -0.752693411184417
2 2 0.371798361373891
3 2 0.415744526158618
4 1 -0.725658778040989
5 2 0.309481453777039
6 2 0.340118485402666
7 1 -0.754037185801009
8 2 0.400012809485509
9 2 0.379730045642584
10 1 -0.741392503506834
11 2 0.358655200802602
12 2 0.361905632767077
13 1 -0.718184028997105
14 2 0.332142313743682
15 2 0.366404673616773
16 1 -0.729435909601766
17 2 0.384012642809955
18 2 0.381288041787129
19 1 -0.732777704593183
20 2 0.383110292775383
21 2 0.369548034194324
22 1 -0.730504366460477
23 2 0.337998127134374
24 2 0.315700003913885
25 1 -0.688223104925436
26 2 0.376605418347333
27 2 0.390778485686189
28 1 -0.655482597837852
29 2 0.380327383480191
30 2 0.373109461661248
31 1 -0.706964944733794
32 2 0.372222248975488
33 2 0.363509529077083
34 1 -0.690981914873183
35 2 0.348432280569321
36 2 0.322098258071333
37 1 -0.682884695412701
38 2 0.404058857760559
39 2 0.358587925595787
40 1 -0.692939795498375
41 2 0.345945963412138
42 2 0.346227552738062
43 1 -0.768897980243512
44 2 0.351681773085946
45 2 0.363893836521502
46 1 -0.715885823896317
47 2 0.379463528142317
48 2 0.318761005569624
49 1 -0.734352543606085
50 2 0.376777869675862
51 2 0.364236045526793
52 1 -0.753934602887157
53 2 0.369185596020003
54 2 0.39674238433674
55 1 -0.694221659068447
56 2 0.354583148141811
57 2 0.371331961894512
58 1 -0.699041641359294
59 2 0.350787359428767
60 2 0.364361936427103
61 1 -0.719101266703581
62 2 0.390191026603591
63 2 0.371396949314635
64 1 -0.710262744368874
65 2 0.360804823413006
66 2 0.384080028958986
67 1 -0.757160948290617
68 2 0.373665718778279
69 2 0.354346136127594
70 1 -0.719038945086146
71 2 0.377200093469239
72 2 0.370243037790307
73 1 -0.756891281208272
74 2 0.40729221879457
75 2 0.382013999527207
76 1 -0.744405272056471
77 2 0.410581576259527
78 2 0.368593643871568
79 1 -0.70468058998879
80 2 0.328273845077899
81 2 0.346413805227467
82 1 -0.776651027048032
83 2 0.374332253099788
84 2 0.348948775310997
85 1 -0.721707738524589
86 2 0.378254849066991
87 2 0.383235836085304
88 1 -0.739687192176263
89 2 0.387432230845033
90 2 0.388319265372755
91 1 -0.691718437533702
92 2 0.381295873629768
93 2 0.37973448324231
94 1 -0.732099153137776
95 2 0.355846738305814
96 2 0.365225579208441
97 1 -0.750657943766885
98 2 0.397598653612172
99 2 0.364710763926951
100 1 -0.719118042801904
101 2 0.366397909875591
102 2 0.364897712571817
103 1 -0.754507570585209
104 2 0.35377652746001
105 2 0.380191299386443
106 1 -0.704817831097305
107 2 0.349686312313891
108 2 0.361658206104828
109 1 -0.759715540029486
110 2 0.354762414865768
111 2 0.348632673583003
112 1 -0.736055122558114
113 2 0.349293404581767
114 2 0.35825947079468
115 1 -0.749601149402366
116 2 0.34193521936668
117 2 0.394528409458812
118 1 -0.719676515890525
119 2 0.374557813618948
120 2 0.351520060850924
121 1 -0.720455289846845
122 2 0.368166681627995
123 2 0.335673163707436
124 1 -0.728038223378572
125 2 0.378833958874307
126 2 0.374193051800363
127 1 -0.715728454077446
128 2 0.36491312783049
129 2 0.352565869537521
130 1 -0.709300655618143
131 2 0.372418400140989
132 2 0.33747609646263
133 1 -0.730714020506184
134 2 0.3904480417797
135 2 0.390170641639204
136 1 -0.710500886004818
137 2 0.360082605544487
138 2 0.377450372261735
139 1 -0.771675217983545
140 2 0.34610679163757
141 2 0.328168028642378
142 1 -0.741535227982197
143 2 0.365043419598478
144 2 0.36240299708811
145 1 -0.724511881508911
146 2 0.369572400480937
147 2 0.377057783195341
148 1 -0.635194966155644
149 2 0.398608077629074
150 2 0.402651995516137
151 1 -0.729056789426329
152 2 0.339905047066546
153 2 0.372349809983422
154 1 -0.718397564559459
155 2 0.363082518368974
156 2 0.378120379159636
157 1 -0.718475415838683
158 2 0.362098986398645
159 2 0.386469007655595
160 1 -0.730275292238434
161 2 0.371967906385166
162 2 0.367932428454455
163 1 -0.742724391447554
164 2 0.377897350657894
165 2 0.372985826628395
166 1 -0.777925355659454
167 2 0.359370334812199
168 2 0.397748582670795
169 1 -0.77456940803198
170 2 0.388796997111276
171 2 0.354528698628431
172 1 -0.718698934106021
173 2 0.30560195749728
174 2 0.345943652945422
175 1 -0.712511845610404
176 2 0.395317903696361
177 2 0.384180718427404
178 1 -0.679797831355956
179 2 0.369807126092694
180 2 0.366271008149043
181 1 -0.747249651461611
182 2 0.37033563635894
183 2 0.348263009966746
184 1 -0.726044908625294
185 2 0.340440998733702
186 2 0.371032886319507
187 1 -0.778074833943446
188 2 0.381129126300989
189 2 0.364938278686636
190 1 -0.764344178967838
191 2 0.364239511634049
192 2 0.378606225426803
193 1 -0.712818509642168
194 2 0.341375568994808
195 2 0.381884327885149
196 1 -0.745428698119359
197 2 0.393499279692221
198 2 0.404132468805982
199 1 -0.672545778834504
200 2 0.354958929696828
201 2 0.38502343741378
202 1 -0.692415909396661
203 2 0.364046818276349
204 2 0.360391695939122
205 1 -0.731809587380371
206 2 0.338271886751317
207 2 0.353197481815189
208 1 -0.729292366585285
209 2 0.378873022511146
210 2 0.362239480263436
211 1 -0.692012495687707
212 2 0.375047634105293
213 2 0.353290153531883
214 1 -0.738140787101076
215 2 0.364591131046559
216 2 0.374044870634591
217 1 -0.706973924813527
218 2 0.394867951442262
219 2 0.376202529676777
220 1 -0.733780420208186
221 2 0.312220658137356
222 2 0.327764465977703
223 1 -0.704277960767803
224 2 0.350779826850163
225 2 0.358979580705661
226 1 -0.747162140825806
227 2 0.380660275416942
228 2 0.402603577233316
229 1 -0.731366750991132
230 2 0.371025712111331
231 2 0.379883199243137
232 1 -0.719301412556902
233 2 0.342244632270702
234 2 0.378225224617559
235 1 -0.691803012249668
236 2 0.339896180976648
237 2 0.361152047177353
238 1 -0.725212987067903
239 2 0.319166313744901
240 2 0.33482917129841
241 1 -0.735443311598438
242 2 0.36983116321667
243 2 0.369410902980797
244 1 -0.695168489892
245 2 0.327270712377058
246 2 0.382206694144928
247 1 -0.707589868164528
248 2 0.339758903154582
249 2 0.367885256951624
250 1 -0.739256596511876
251 2 0.379954631227165
252 2 0.386982318875118
253 1 -0.730590793325936
254 2 0.353984504470071
255 2 0.399420667742627
256 1 -0.755229952871258
257 2 0.398593163927898
258 2 0.36300001019728
259 1 -0.739023033032493
260 2 0.352261401939761
261 2 0.331214010065997
262 1 -0.728178916465127
263 2 0.364357102134608
264 2 0.365616609831379
265 1 -0.727870737241801
266 2 0.339967031116163
267 2 0.364691007340157
268 1 -0.763280963050741
269 2 0.388477250610393
270 2 0.409291471732314
271 1 -0.732795670571042
272 2 0.356945667138024
273 2 0.366132127187972
274 1 -0.735622036862832
275 2 0.383869860146577
276 2 0.357903742798884
277 1 -0.747003772759116
278 2 0.404864694503208
279 2 0.396334113868406
280 1 -0.76737241091739
281 2 0.358397216260539
282 2 0.383573294876517
283 1 -0.756670433571522
284 2 0.355685503602484
285 2 0.345713983321261
286 1 -0.761595668331339
287 2 0.350367500305317
288 2 0.369671190416878
289 1 -0.688850581807233
290 2 0.370410274848692
291 2 0.357483198697674
292 1 -0.769249522634612
293 2 0.377379385539542
294 2 0.376742986562622
295 1 -0.758617814696378
296 2 0.383877876101225
297 2 0.380475020739416
298 1 -0.726211843346683
299 2 0.371101254769145
300 2 0.392759031556994
301 1 -0.784262075070181
302 2 0.369192202278035
303 2 0.386052350959799
304 1 -0.748940494595159
305 2 0.37490893742845
306 2 0.391129757536133
307 1 -0.753075783469816
308 2 0.380505623929405
309 2 0.371741345317725
310 1 -0.742918723239246
311 2 0.396779524551599
312 2 0.362941159915016
313 1 -0.728555959985605
314 2 0.357060315803848
315 2 0.391796830625822
316 1 -0.748097895882863
317 2 0.376580420379674
318 2 0.364577994788393
319 1 -0.752834716248988
320 2 0.341450478538591
321 2 0.388366149782967
322 1 -0.715168287605881
323 2 0.371930573814729
324 2 0.378011486076105
325 1 -0.720272456827321
326 2 0.358298094002969
327 2 0.387560698133309
328 1 -0.682802860449026
329 2 0.382432038883027
330 2 0.381100456115014
331 1 -0.734139261632889
332 2 0.348319902213893
333 2 0.325924652081181
334 1 -0.691890313153447
335 2 0.384338405187926
336 2 0.37746597498481
337 1 -0.732716889187375
338 2 0.345510171974551
339 2 0.332104697310451
340 1 -0.755127018888727
341 2 0.337330049648955
342 2 0.368666590795563
343 1 -0.670550752747343
344 2 0.327072298433328
345 2 0.335447035481076
346 1 -0.733864443105884
347 2 0.388288548754483
348 2 0.358462315973819
349 1 -0.724331358238349
350 2 0.39966672953987
351 2 0.354735295862898
352 1 -0.688742443731433
353 2 0.357736674853301
354 2 0.359137595260807
355 1 -0.74081762269681
356 2 0.343837744367841
357 2 0.40000044543019
358 1 -0.747602106890193
359 2 0.333676948853233
360 2 0.365642177434521
361 1 -0.720152066322724
362 2 0.351363534036756
363 2 0.377081224635427
364 1 -0.702865727184152
365 2 0.358450400900782
366 2 0.336605302907826
367 1 -0.727049073343777
368 2 0.373821434426372
369 2 0.37698324482728
370 1 -0.774802180125801
371 2 0.361142153842202
372 2 0.38264720400057
373 1 -0.73016011889937
374 2 0.370977985491076
375 2 0.359828782895671
376 1 -0.71703429739012
377 2 0.372094052096388
378 2 0.359511758789668
379 1 -0.753019234211626
380 2 0.382861335358197
381 2 0.370907086622122
382 1 -0.755215925687042
383 2 0.368130756931805
384 2 0.356486399861552
385 1 -0.712745469924475
386 2 0.360189082405691
387 2 0.339490325591357
388 1 -0.755048948964998
389 2 0.388603518325916
390 2 0.406522717390607
391 1 -0.718981723111643
392 2 0.343672115496621
393 2 0.351949339601477
394 1 -0.747169398031306
395 2 0.371912038365228
396 2 0.412726548614849
397 1 -0.701985630456223
398 2 0.320024524298223
399 2 0.385262149164848
400 1 -0.744093974647869
401 2 0.363940277604081
402 2 0.354320226356505
403 1 -0.745105064842959
404 2 0.382984325192012
405 2 0.400545108838334
406 1 -0.724845256818963
407 2 0.357347130874206
408 2 0.336127863795519
409 1 -0.737742890487447
410 2 0.371012841224453
411 2 0.365241673909018
412 1 -0.722425724056601
413 2 0.381918127864767
414 2 0.350235951169735
415 1 -0.742672355219566
416 2 0.408939890772231
417 2 0.373794322735275
418 1 -0.703946934240878
419 2 0.411521078036843
420 2 0.383660481512644
421 1 -0.67314153635101
422 2 0.395539662522132
423 2 0.324071778217078
424 1 -0.729237192846192
425 2 0.377310469990799
426 2 0.415041845464812
427 1 -0.726535018589723
428 2 0.349883989823608
429 2 0.373661959026528
430 1 -0.654522211850292
431 2 0.364868817557287
432 2 0.353193922175204
433 1 -0.744910247005718
434 2 0.360577536574054
435 2 0.379283351785196
436 1 -0.696238698445415
437 2 0.380669775062325
438 2 0.362602048618601
439 1 -0.735770396006179
440 2 0.378539728109774
441 2 0.367120806918334
442 1 -0.751095830335715
443 2 0.343186738748563
444 2 0.338259561407242
445 1 -0.72050423225927
446 2 0.351625888472382
447 2 0.36189042455054
448 1 -0.703128522134627
449 2 0.352592348817618
450 2 0.363170987651497
451 1 -0.774729986666079
452 2 0.375079823208679
453 2 0.38461328001454
454 1 -0.747188103654189
455 2 0.389352687092125
456 2 0.401529183956855
457 1 -0.764934433686888
458 2 0.382092332987552
459 2 0.384136399224907
460 1 -0.733013122293483
461 2 0.377237814814217
462 2 0.342982850588682
463 1 -0.719231672054336
464 2 0.333435805635972
465 2 0.392787413741346
466 1 -0.714172655667218
467 2 0.362003947132555
468 2 0.374450259464678
469 1 -0.758255342998099
470 2 0.346037731172505
471 2 0.384836443160529
472 1 -0.722415568004247
473 2 0.355321298683287
474 2 0.359434903544456
475 1 -0.725194113005911
476 2 0.369288505714347
477 2 0.368362194303555
478 1 -0.771476455462355
479 2 0.351408682790295
480 2 0.370363006119049
481 1 -0.736810298014819
482 2 0.377296496551848
483 2 0.307155801847228
484 1 -0.724726760841426
485 2 0.389142396244793
486 2 0.348494598682852
487 1 -0.759568725174864
488 2 0.335109514837705
489 2 0.382396613428894
490 1 -0.689184077551604
491 2 0.368001765724026
492 2 0.321616907578261
493 1 -0.727477725584878
494 2 0.380719681175972
495 2 0.401775578787045
496 1 -0.757108399785016
497 2 0.374717710053275
498 2 0.305520664449599
499 1 -0.741864490888008
500 2 0.395600813754839
501 2 0.348987503491866
502 1 -0.735664509916362
503 2 0.358500349288492
504 2 0.329130737329869
505 1 -0.6985503489347
506 2 0.373336801449587
507 2 0.340713942891777
508 1 -0.72560636869785
509 2 0.352686383018728
510 2 0.388259144716928
511 1 -0.745067248818832
512 2 0.384094227316826
513 2 0.353286778545585
514 1 -0.750698661788004
515 2 0.37063549811365
516 2 0.36353314203254
517 1 -0.720615492571768
518 2 0.386565573493814
519 2 0.365280685666598
520 1 -0.719036699481686
521 2 0.393217396747662
522 2 0.37363976478087
523 1 -0.720747834810702
524 2 0.379222508630083
525 2 0.35765226110671
526 1 -0.716698038021245
527 2 0.376032527685855
528 2 0.371918354563718
529 1 -0.703701377520652
530 2 0.370702007069187
531 2 0.351200208523915
532 1 -0.705129063476983
533 2 0.391397464826789
534 2 0.356848113047817
535 1 -0.693461943656541
536 2 0.373121565843602
537 2 0.376152217691046
538 1 -0.68733936512053
539 2 0.397180872293699
540 2 0.388400286767777
541 1 -0.723985254785679
542 2 0.354270140221051
543 2 0.34129933214244
544 1 -0.75066864703626
545 2 0.379804421036635
546 2 0.393792063605313
547 1 -0.723066940417398
548 2 0.397395104297455
549 2 0.386150893656341
550 1 -0.742754141548853
551 2 0.315939429569768
552 2 0.311552231772699
553 1 -0.747771929983443
554 2 0.361748716439644
555 2 0.332463029929846
556 1 -0.711152447440275
557 2 0.372753998270352
558 2 0.345217322238772
559 1 -0.767967180656772
560 2 0.413242882102444
561 2 0.379440516050499
562 1 -0.69437665514548
563 2 0.353583096291276
564 2 0.386175910962178
565 1 -0.708842177137442
566 2 0.327521902236303
567 2 0.407115202770237
568 1 -0.717269250151042
569 2 0.387803928701142
570 2 0.377882677234939
571 1 -0.713367264549796
572 2 0.357214112187475
573 2 0.371517957320067
574 1 -0.735596450682338
575 2 0.338614488611881
576 2 0.322119336010789
577 1 -0.711221830684957
578 2 0.397108669937998
579 2 0.395442262358212
580 1 -0.712008513806864
581 2 0.374575589170319
582 2 0.368281240546163
583 1 -0.738072734924253
584 2 0.339951547203362
585 2 0.370937733694642
586 1 -0.687557202473881
587 2 0.321207416849983
588 2 0.363801796324426
589 1 -0.730501999405277
590 2 0.340972514227707
591 2 0.396374878883765
592 1 -0.745527983641777
593 2 0.368188391175666
594 2 0.341282356626484
595 1 -0.756766293068117
596 2 0.40004656076485
597 2 0.368360317415912
598 1 -0.745426771103081
599 2 0.386533205936939
600 2 0.376138435400042
601 1 -0.733563254086047
602 2 0.367022850842578
603 2 0.3524055343666
604 1 -0.73228630443298
605 2 0.360664243211948
606 2 0.36382371491347
607 1 -0.678656541388459
608 2 0.366725357252186
609 2 0.337240787759231
610 1 -0.756642992082565
611 2 0.386302034473084
612 2 0.347357758876233
613 1 -0.729252874840373
614 2 0.374045569618865
615 2 0.385623521772071
616 1 -0.691692707939089
617 2 0.376203913742529
618 2 0.383686366986639
619 1 -0.718924099641465
620 2 0.402428236287624
621 2 0.348034020144036
622 1 -0.757444467085188
623 2 0.358783980461208
624 2 0.353849843938381
625 1 -0.680651103393015
626 2 0.396190289463144
627 2 0.386400729308105
628 1 -0.751946875521743
629 2 0.364273816939456
630 2 0.363061869853379
631 1 -0.734491439343309
632 2 0.363204828884792
633 2 0.375696624856345
634 1 -0.675588533740557
635 2 0.359589056854877
636 2 0.35943750727469
637 1 -0.750236291337621
638 2 0.37572956122832
639 2 0.347732531185624
640 1 -0.747678234783996
641 2 0.359644639834441
642 2 0.395398698023188
643 1 -0.737843412592718
644 2 0.36424574144475
645 2 0.360195547387088
646 1 -0.741383273912864
647 2 0.37564630850339
648 2 0.39284062135008
649 1 -0.734302148394665
650 2 0.382755816947851
651 2 0.392839400779786
652 1 -0.713210284677972
653 2 0.37597666578639
654 2 0.347672637773444
655 1 -0.739174941543634
656 2 0.392526452373418
657 2 0.371265583950616
658 1 -0.692180562220293
659 2 0.404289672129542
660 2 0.371762866186125
661 1 -0.743404827044541
662 2 0.370374565894888
663 2 0.385144477227822
664 1 -0.788355866258709
665 2 0.353030796979342
666 2 0.31808660484557
667 1 -0.732811997860143
668 2 0.390163556381018
669 2 0.352390405508372
670 1 -0.739965872499063
671 2 0.381669326980257
672 2 0.362075286027536
673 1 -0.723576548695878
674 2 0.355771124668267
675 2 0.378716158459614
676 1 -0.764999899786083
677 2 0.363934930271043
678 2 0.330425220565687
679 1 -0.738786680162728
680 2 0.402805719663826
681 2 0.364412341133592
682 1 -0.697414833548696
683 2 0.388482060952652
684 2 0.39095995574246
685 1 -0.761794295891896
686 2 0.374180422117139
687 2 0.380081892389192
688 1 -0.727499467490278
689 2 0.357642054766939
690 2 0.366906112517391
691 1 -0.716288151213793
692 2 0.373591991979291
693 2 0.373531276267383
694 1 -0.717009719307441
695 2 0.37121948216062
696 2 0.360523587879157
697 1 -0.673678585856365
698 2 0.384824643009303
699 2 0.391252680361694
700 1 -0.724229557139109
701 2 0.392194573090055
702 2 0.376486379131268
703 1 -0.736516988049674
704 2 0.343953925380714
705 2 0.384221430283821
706 1 -0.775715281474535
707 2 0.361943975278763
708 2 0.364859448094337
709 1 -0.75315934879032
710 2 0.382014005447757
711 2 0.395704933342472
712 1 -0.764037000895931
713 2 0.380977256974123
714 2 0.364019482272999
715 1 -0.729921098200661
716 2 0.35629412659982
717 2 0.38317795148151
718 1 -0.700023183553391
719 2 0.359710449845618
720 2 0.388805168519928
721 1 -0.750125585757822
722 2 0.38547623946504
723 2 0.343350986449968
724 1 -0.74506340295596
725 2 0.339120788056288
726 2 0.366832761510903
727 1 -0.757931933677188
728 2 0.325582487867174
729 2 0.372013741140187
730 1 -0.754351942775349
731 2 0.36708682048324
732 2 0.366054085372951
733 1 -0.729337073033885
734 2 0.378822068411337
735 2 0.347862079838574
736 1 -0.749885309450476
737 2 0.371522744028163
738 2 0.338790526409927
739 1 -0.753482906252071
740 2 0.37810453007269
741 2 0.374320896698338
742 1 -0.699060329978442
743 2 0.363186565514519
744 2 0.364905351849856
745 1 -0.7495169809221
746 2 0.33450184376046
747 2 0.338737893323948
748 1 -0.730131824378528
749 2 0.342548529444593
750 2 0.349154633306013
751 1 -0.742725379218015
752 2 0.370551014612202
753 2 0.383952181857103
754 1 -0.646782720805549
755 2 0.383369581268212
756 2 0.38407322003081
757 1 -0.736108909897222
758 2 0.38393708941446
759 2 0.396136119275731
760 1 -0.723786311552982
761 2 0.330051318315826
762 2 0.360229307302387
763 1 -0.727424665663198
764 2 0.370195749183783
765 2 0.362057753537322
766 1 -0.781851541492864
767 2 0.417998010213153
768 2 0.35886674848379
769 1 -0.721185285038074
770 2 0.305128402573875
771 2 0.372553022601528
772 1 -0.769924787020116
773 2 0.37009680163956
774 2 0.358684392851863
775 1 -0.718089410566943
776 2 0.33684722925483
777 2 0.365231152775661
778 1 -0.73524972683866
779 2 0.366280246783075
780 2 0.360918594110378
781 1 -0.710480021940481
782 2 0.380661929939849
783 2 0.338274398697033
784 1 -0.722975523111336
785 2 0.377163916978531
786 2 0.360253689508362
787 1 -0.716503504265643
788 2 0.365051169623974
789 2 0.321992293331828
790 1 -0.756337188180626
791 2 0.363754778344431
792 2 0.381592159356118
793 1 -0.714551627773878
794 2 0.349046720261452
795 2 0.385744331110767
796 1 -0.763509830975144
797 2 0.402943679531139
798 2 0.380580661338588
799 1 -0.760443305106854
800 2 0.357073981572019
801 2 0.393530079543815
802 1 -0.722352276650346
803 2 0.360580690844603
804 2 0.336930376986319
805 1 -0.702171672382886
806 2 0.360555028598439
807 2 0.356751058783422
808 1 -0.754214909947573
809 2 0.375763720074439
810 2 0.346198720257061
811 1 -0.695425316037972
812 2 0.365415881442009
813 2 0.373650819843037
814 1 -0.740437376056784
815 2 0.350997615363148
816 2 0.367716970173229
817 1 -0.711401762156318
818 2 0.388233274836242
819 2 0.361256012792712
820 1 -0.725483615845072
821 2 0.352069097068546
822 2 0.343175880699555
823 1 -0.735104280335965
824 2 0.357553209390864
825 2 0.346282780329978
826 1 -0.773212128833589
827 2 0.385308594503711
828 2 0.369565307031943
829 1 -0.734271040683204
830 2 0.359542310119033
831 2 0.329851693025074
832 1 -0.696684208106533
833 2 0.358813904068558
834 2 0.375270470503067
835 1 -0.739891168912939
836 2 0.379413228138215
837 2 0.370975106065068
838 1 -0.746552230145592
839 2 0.380246104620196
840 2 0.384747667898917
841 1 -0.740954849467595
842 2 0.341166734043522
843 2 0.371810382358302
844 1 -0.74641319228184
845 2 0.367570178546591
846 2 0.354419517290426
847 1 -0.746197437737259
848 2 0.353123831411986
849 2 0.325862552665381
850 1 -0.687099545142479
851 2 0.366103315437687
852 2 0.364493405648434
853 1 -0.73515012802123
854 2 0.364929679760281
855 2 0.337494682412301
856 1 -0.72795099751113
857 2 0.381213135273448
858 2 0.344478409178295
859 1 -0.750179336896072
860 2 0.397352869604698
861 2 0.406479670936017
862 1 -0.723074771257521
863 2 0.37099078207472
864 2 0.362187176973285
865 1 -0.750397660601629
866 2 0.379719265511026
867 2 0.313689465861282
868 1 -0.732004051797566
869 2 0.385676858238509
870 2 0.378700281691293
871 1 -0.724864710167282
872 2 0.351342072246821
873 2 0.318668296719528
874 1 -0.767150938993853
875 2 0.346262672115873
876 2 0.375747406755143
877 1 -0.727927926065225
878 2 0.345308198009365
879 2 0.32782749869743
880 1 -0.704501373443545
881 2 0.376083648644475
882 2 0.353838492303776
883 1 -0.775584456543613
884 2 0.337029693102297
885 2 0.363404537330333
886 1 -0.743328877477859
887 2 0.369440248418432
888 2 0.37317531329198
889 1 -0.766795979168207
890 2 0.368088447127974
891 2 0.352720663161622
892 1 -0.751428197570589
893 2 0.379438916306961
894 2 0.343720341037335
895 1 -0.77247944620997
896 2 0.390572359696945
897 2 0.396648411995101
898 1 -0.71540556374686
899 2 0.381241646199042
900 2 0.38548419585524
901 1 -0.719496892765797
902 2 0.373898069828272
903 2 0.380782782856541
904 1 -0.667141074631803
905 2 0.381227865211617
906 2 0.354919032389902
907 1 -0.722457145962941
908 2 0.379581408546783
909 2 0.334983622093192
910 1 -0.742762093046187
911 2 0.322675348674416
912 2 0.378606927393257
913 1 -0.716657480025278
914 2 0.365678303764854
915 2 0.333231357953386
916 1 -0.718439709034536
917 2 0.370060157197301
918 2 0.372389402939165
919 1 -0.753066107999731
920 2 0.371515584672243
921 2 0.395639280366538
922 1 -0.767910867127248
923 2 0.328667395131647
924 2 0.359233001870563
925 1 -0.720389529058744
926 2 0.335833692414185
927 2 0.351078516276476
928 1 -0.748447675870419
929 2 0.35752523058904
930 2 0.359490972066721
931 1 -0.810825997959868
932 2 0.389256176516161
933 2 0.377649132609637
934 1 -0.705454806359803
935 2 0.379233867288417
936 2 0.357998854663129
937 1 -0.733084152152556
938 2 0.371907978008427
939 2 0.378865758763413
940 1 -0.75987587062291
941 2 0.330092155141062
942 2 0.359018101480309
943 1 -0.738805317620044
944 2 0.326433532148811
945 2 0.357539370929768
946 1 -0.706647067638451
947 2 0.392509394298154
948 2 0.397223412890365
949 1 -0.737823747759016
950 2 0.33928671459293
951 2 0.335199850481249
952 1 -0.742059636343433
953 2 0.360243584296512
954 2 0.320000525395966
955 1 -0.788837452215709
956 2 0.385539924018021
957 2 0.401970633361524
958 1 -0.746044388125216
959 2 0.348449717586599
960 2 0.375482021410488
961 1 -0.766361837330451
962 2 0.368546164864209
963 2 0.410193297977154
964 1 -0.744529433039154
965 2 0.37667839252494
966 2 0.402803857391132
967 1 -0.803351396939281
968 2 0.368621817840583
969 2 0.376789279240086
970 1 -0.731412955649068
971 2 0.325651835682694
972 2 0.389553564318981
973 1 -0.787693464366336
974 2 0.365678969576118
975 2 0.376796136598355
976 1 -0.764948679670346
977 2 0.35658820424447
978 2 0.349841307603486
979 1 -0.674777690668812
980 2 0.376193299546765
981 2 0.3242884008303
982 1 -0.738213711888062
983 2 0.380319846530404
984 2 0.375871080693392
985 1 -0.7810920610501
986 2 0.360811274891818
987 2 0.389989522007001
988 1 -0.739750782499274
989 2 0.352193143526481
990 2 0.350656709116644
991 1 -0.761767053377145
992 2 0.376072144876894
993 2 0.397974945993767
994 1 -0.710543900301627
995 2 0.314390079300094
996 2 0.378912956812654
997 1 -0.750137494754243
998 2 0.340391492263778
999 2 0.376704939157757
1000 1 -0.730707357197315
1001 2 0.339075030215247
1002 2 0.368290426625561
1003 1 -0.733685828678726
1004 2 0.369195886920417
1005 2 0.374220934594222
1006 1 -0.747248999978726
1007 2 0.339613827150541
1008 2 0.36196937792133
1009 1 -0.679291625116717
1010 2 0.35845436507454
1011 2 0.319576448234865
1012 1 -0.769099647970541
1013 2 0.365028152142747
1014 2 0.347164128170701
1015 1 -0.726201763802539
1016 2 0.383558437769494
1017 2 0.345230010993701
1018 1 -0.724350033093947
1019 2 0.375311842325575
1020 2 0.33125392026631
1021 1 -0.754507906491835
1022 2 0.380480509582754
1023 2 0.396507468128176
1024 1 -0.747267586421323
1025 2 0.347382102318179
1026 2 0.387783581627188
1027 1 -0.77395989597873
1028 2 0.36280230124496
1029 2 0.363546210281573
1030 1 -0.72085510555439
1031 2 0.352532160196219
1032 2 0.360566867879128
1033 1 -0.74233599581013
1034 2 0.381986638387285
1035 2 0.354275250667831
1036 1 -0.675463619125394
1037 2 0.390809112985023
1038 2 0.379238728943955
1039 1 -0.719106481629075
1040 2 0.368224540480874
1041 2 0.393781259109909
1042 1 -0.755681925211794
1043 2 0.374849276481835
1044 2 0.384405789610807
1045 1 -0.702882535368345
1046 2 0.330878180410112
1047 2 0.368569501609192
1048 1 -0.778447151150388
1049 2 0.376157564386514
1050 2 0.367113911189714
1051 1 -0.751004805470106
1052 2 0.370883071773989
1053 2 0.373523730008573
1054 1 -0.714330470320223
1055 2 0.35431976932508
1056 2 0.379700191672158
1057 1 -0.737127303750468
1058 2 0.371679230594159
1059 2 0.36822057630047
1060 1 -0.778283102642932
1061 2 0.393374634890542
1062 2 0.360348958309102
1063 1 -0.749673682335496
1064 2 0.338776025879942
1065 2 0.361213127839621
1066 1 -0.693033237608269
1067 2 0.375525052693095
1068 2 0.384732734377978
1069 1 -0.771203968117711
1070 2 0.402387833017246
1071 2 0.363673280540134
1072 1 -0.750715666418683
1073 2 0.350059837515112
1074 2 0.336863487934429
1075 1 -0.654947650235375
1076 2 0.359230623534489
1077 2 0.343557226710039
1078 1 -0.711560302886931
1079 2 0.411997564288051
1080 2 0.350558841834642
1081 1 -0.726177158884318
1082 2 0.357228934567545
1083 2 0.344309842911365
1084 1 -0.740389482087802
1085 2 0.337620088075754
1086 2 0.327201854731822
1087 1 -0.771154173619715
1088 2 0.349841984238401
1089 2 0.35298793401624
1090 1 -0.741651419624074
1091 2 0.353455462631881
1092 2 0.356961649391782
1093 1 -0.756045472915286
1094 2 0.386610312564766
1095 2 0.350621412183369
1096 1 -0.727238054005141
1097 2 0.368018590288024
1098 2 0.348357210449959
1099 1 -0.692407927720162
1100 2 0.376251869773688
1101 2 0.380316168644107
1102 1 -0.724796211212585
1103 2 0.372278084854498
1104 2 0.415250623800515
1105 1 -0.675140253630353
1106 2 0.399105080824204
1107 2 0.375074409765507
1108 1 -0.735046038612008
1109 2 0.396003038573674
1110 2 0.322818710200186
1111 1 -0.751895901899986
1112 2 0.381462111619137
1113 2 0.3279155665474
1114 1 -0.703902811560967
1115 2 0.380662750002497
1116 2 0.35644271226777
1117 1 -0.751370687865607
1118 2 0.362692284965518
1119 2 0.388321916316495
1120 1 -0.764310832421805
1121 2 0.365996204487894
1122 2 0.399476539431302
1123 1 -0.74001146316747
1124 2 0.360766406647486
1125 2 0.359477644744707
1126 1 -0.772625204920155
1127 2 0.342657391536869
1128 2 0.373992615610004
1129 1 -0.743972633886384
1130 2 0.349038559755714
1131 2 0.373961157793852
1132 1 -0.786779781969453
1133 2 0.405493220714577
1134 2 0.362365250936356
1135 1 -0.710916945619464
1136 2 0.407643087865402
1137 2 0.367673393907217
1138 1 -0.761408031152587
1139 2 0.337011908087504
1140 2 0.347436821982504
1141 1 -0.708603037469413
1142 2 0.38477726902148
1143 2 0.352732946622073
1144 1 -0.72888505087042
1145 2 0.332308372309454
1146 2 0.347901110759486
1147 1 -0.754508958053899
1148 2 0.343515468374947
1149 2 0.403897315989318
1150 1 -0.734431021363534
1151 2 0.36170215800534
1152 2 0.335159823217088
1153 1 -0.709046352458794
1154 2 0.346590099398314
1155 2 0.390452342695775
1156 1 -0.736879298053622
1157 2 0.396904545675032
1158 2 0.369890104439664
1159 1 -0.775664381722555
1160 2 0.357918185186346
1161 2 0.371069365805666
1162 1 -0.772879404858366
1163 2 0.351203969583893
1164 2 0.372006189750579
1165 1 -0.77174056028302
1166 2 0.368159033680818
1167 2 0.379202094466706
1168 1 -0.717213917080493
1169 2 0.353190161113089
1170 2 0.372009055340257
1171 1 -0.688385626076238
1172 2 0.353531009188774
1173 2 0.383657116789635
1174 1 -0.711696056392466
1175 2 0.383605065285583
1176 2 0.399756410250808
1177 1 -0.721283473512209
1178 2 0.387579346550318
1179 2 0.396574220713243
1180 1 -0.706682344529075
1181 2 0.386665434838423
1182 2 0.363179352093508
1183 1 -0.737161378283597
1184 2 0.370113065387658
1185 2 0.372280557429272
1186 1 -0.717571911513245
1187 2 0.354727300963492
1188 2 0.359098868140958
1189 1 -0.715393102435103
1190 2 0.366461632094843
1191 2 0.348380405909943
1192 1 -0.751415204310101
1193 2 0.380491941553302
1194 2 0.349927676334409
1195 1 -0.706292515867739
1196 2 0.350702579396124
1197 2 0.407695899115191
1198 1 -0.737802207517046
1199 2 0.361499659309996
1200 2 0.388692927022955
1201 1 -0.734331403230976
1202 2 0.387643620572435
1203 2 0.373127014380273
1204 1 -0.738259242937574
1205 2 0.383751010436433
1206 2 0.408380511421436
1207 1 -0.726803058041925
1208 2 0.363858470437158
1209 2 0.364385824863105
1210 1 -0.736297700729407
1211 2 0.407756965078787
1212 2 0.38332993334506
1213 1 -0.742271547110355
1214 2 0.356028413119729
1215 2 0.362979077730627
1216 1 -0.725994801208308
1217 2 0.379104413393889
1218 2 0.382928662787929
1219 1 -0.746305619421403
1220 2 0.340847991234478
1221 2 0.371394567363747
1222 1 -0.757465264245402
1223 2 0.375503352209124
1224 2 0.369993252678696
1225 1 -0.735155579280479
1226 2 0.378707587528749
1227 2 0.386918446611649
1228 1 -0.724494312129418
1229 2 0.365569659925077
1230 2 0.348947728096023
1231 1 -0.735066067997794
1232 2 0.344112407756368
1233 2 0.38197940782249
1234 1 -0.701761685674633
1235 2 0.359976620892132
1236 2 0.415881559912827
1237 1 -0.731118983050948
1238 2 0.344787722697056
1239 2 0.348093033184672
1240 1 -0.75175075175734
1241 2 0.383139816917714
1242 2 0.348165759224268
1243 1 -0.731693169460673
1244 2 0.37475958273256
1245 2 0.391519986540399
1246 1 -0.751179340842515
1247 2 0.384756234948925
1248 2 0.371243948998295
1249 1 -0.771707494338469
1250 2 0.399252966319547
1251 2 0.363876215124506
1252 1 -0.693330634258329
1253 2 0.357145798188202
1254 2 0.371135482208692
1255 1 -0.753416426594147
1256 2 0.380485229652842
1257 2 0.359302944604803
1258 1 -0.752746478297143
1259 2 0.360633940992593
1260 2 0.379452408353487
1261 1 -0.780210240272395
1262 2 0.392769653470767
1263 2 0.361744825686984
1264 1 -0.724953455289869
1265 2 0.388583065054751
1266 2 0.3348828493302
1267 1 -0.725277033292674
1268 2 0.376370001171438
1269 2 0.381671598957142
1270 1 -0.761615228416442
1271 2 0.322817516589092
1272 2 0.316493579880505
1273 1 -0.750971705230654
1274 2 0.337263792287173
1275 2 0.368349284852397
1276 1 -0.754633764706527
1277 2 0.363375753711083
1278 2 0.336789754524187
1279 1 -0.720424292592677
1280 2 0.353736235861545
1281 2 0.354311192724521
1282 1 -0.726278803085802
1283 2 0.389869163971934
1284 2 0.372938121269098
1285 1 -0.720453891957525
1286 2 0.346259056761806
1287 2 0.393249798184147
1288 1 -0.710058317934726
1289 2 0.365303739884546
1290 2 0.380956117678781
1291 1 -0.717288597327081
1292 2 0.380661372193439
1293 2 0.3587222100826
1294 1 -0.758660998938184
1295 2 0.380059500566846
1296 2 0.366046047325421
1297 1 -0.780328251354471
1298 2 0.334392227494427
1299 2 0.356593349647815
1300 1 -0.748166454038194
1301 2 0.409054631109211
1302 2 0.357360968483817
1303 1 -0.787213216711438
1304 2 0.361041908143639
1305 2 0.394774711755633
1306 1 -0.732690989047728
1307 2 0.345008671522454
1308 2 0.346500607371431
1309 1 -0.77405104698221
1310 2 0.36909563603286
1311 2 0.359157450692957
1312 1 -0.730256659004703
1313 2 0.350097768766505
1314 2 0.399083937253343
1315 1 -0.706684432699272
1316 2 0.350887125538879
1317 2 0.364244147556312
1318 1 -0.738237252725938
1319 2 0.363748111465689
1320 2 0.339823003072925
1321 1 -0.658600129974804
1322 2 0.33031381343387
1323 2 0.322293638603845
1324 1 -0.745696840943983
1325 2 0.354939425387725
1326 2 0.384550551098609
1327 1 -0.792195538699551
1328 2 0.38254920047389
1329 2 0.3368002324571
1330 1 -0.784900655239407
1331 2 0.3549769254579
1332 2 0.375547069613509
1333 1 -0.752311466371453
1334 2 0.278194438047056
1335 2 0.36403452208336
1336 1 -0.748039905095573
1337 2 0.39395174052832
1338 2 0.355207746908278
1339 1 -0.715005708031347
1340 2 0.386231797921535
1341 2 0.360285204854992
1342 1 -0.683040601906781
1343 2 0.373206704845582
1344 2 0.344292588235446
1345 1 -0.74072186060911
1346 2 0.374235436104481
1347 2 0.357653853821624
1348 1 -0.706308368420824
1349 2 0.361118224765834
1350 2 0.324985306960761
1351 1 -0.718392558683981
1352 2 0.360960764074742
1353 2 0.362589318175784
1354 1 -0.74739175034532
1355 2 0.342286562560597
1356 2 0.342894386295838
1357 1 -0.724698050939123
1358 2 0.353186411828078
1359 2 0.35680322450649
1360 1 -0.674752154573736
1361 2 0.376018342031131
1362 2 0.358220313103944
1363 1 -0.728076389325639
1364 2 0.364824364067173
1365 2 0.39710762813869
1366 1 -0.746077124172958
1367 2 0.368382741026049
1368 2 0.352942512278677
1369 1 -0.742505860794083
1370 2 0.349812553223103
1371 2 0.379199149818474
1372 1 -0.722662980682239
1373 2 0.374520441894137
1374 2 0.384339302300171
1375 1 -0.749214480279
1376 2 0.369746919463328
1377 2 0.361425015861657
1378 1 -0.72402416412928
1379 2 0.372381062327714
1380 2 0.354168785767829
1381 1 -0.702121046420837
1382 2 0.379876256473641
1383 2 0.348729993544549
1384 1 -0.719705475907085
1385 2 0.332667169808469
1386 2 0.384726824662658
1387 1 -0.725488649771107
1388 2 0.369224286671982
1389 2 0.368380818724614
1390 1 -0.740704806958116
1391 2 0.372875289080131
1392 2 0.370997763856543
1393 1 -0.71661968621951
1394 2 0.375588025503678
1395 2 0.387480062322851
1396 1 -0.681564010041141
1397 2 0.372851303227154
1398 2 0.361678379399538
1399 1 -0.737626171552411
1400 2 0.399051794950157
1401 2 0.386238288698387
1402 1 -0.690856624624182
1403 2 0.401298879897124
1404 2 0.366990117400548
1405 1 -0.717071170863797
1406 2 0.35886761288699
1407 2 0.335822312932667
1408 1 -0.781473725902529
1409 2 0.359516272991888
1410 2 0.366450238298843
1411 1 -0.707210956072881
1412 2 0.374268251937983
1413 2 0.340336997934772
1414 1 -0.73354934541633
1415 2 0.354993481638005
1416 2 0.375304919539251
1417 1 -0.704397758480185
1418 2 0.333302537242273
1419 2 0.354991141689329
1420 1 -0.76833911554123
1421 2 0.395735973766552
1422 2 0.371357493775008
1423 1 -0.763824412253032
1424 2 0.393280292893152
1425 2 0.377205040526274
1426 1 -0.732465517453969
1427 2 0.368545347834198
1428 2 0.388083497218861
1429 1 -0.737498841455688
1430 2 0.369600463268953
1431 2 0.390034816954637
1432 1 -0.66842655416218
1433 2 0.383200336868954
1434 2 0.3984857501827
1435 1 -0.721850256203726
1436 2 0.381219513546171
1437 2 0.349887930903033
1438 1 -0.763945214103077
1439 2 0.338115377885128
1440 2 0.336638585542494
1441 1 -0.732575997813677
1442 2 0.366772544180212
1443 2 0.383711995751107
1444 1 -0.679791515169392
1445 2 0.385453173093393
1446 2 0.356824905323287
1447 1 -0.780781266921631
1448 2 0.395952033081572
1449 2 0.340658175896294
1450 1 -0.745470264796505
1451 2 0.375029134882831
1452 2 0.371363042562304
1453 1 -0.75139429329621
1454 2 0.352035217561845
1455 2 0.376910752514432
1456 1 -0.691191488982062
1457 2 0.336062170256208
1458 2 0.335446350529487
1459 1 -0.760855612245162
1460 2 0.410809789210128
1461 2 0.379849581286296
1462 1 -0.752680767329491
1463 2 0.369984231696342
1464 2 0.365851268063189
1465 1 -0.706923059795659
1466 2 0.392433235223025
1467 2 0.359518856564089
1468 1 -0.720629854463371
1469 2 0.391544288614689
1470 2 0.393933929621453
1471 1 -0.705551457302647
1472 2 0.35794709336453
1473 2 0.363554521350473
1474 1 -0.733801966912419
1475 2 0.373145305961731
1476 2 0.341180479359895
1477 1 -0.715722045534808
1478 2 0.417586288572773
1479 2 0.332756597116945
1480 1 -0.743162899074809
1481 2 0.362710758013946
1482 2 0.325352780626056
1483 1 -0.763141782825547
1484 2 0.40380048054843
1485 2 0.379898622375622
1486 1 -0.745641991979686
1487 2 0.349552994012317
1488 2 0.356899892757204
1489 1 -0.739036060758903
1490 2 0.318249863152471
1491 2 0.349620667644522
1492 1 -0.733113111110761
1493 2 0.319193166850349
1494 2 0.360703082159642
1495 1 -0.746925471267556
1496 2 0.360609555011424
1497 2 0.386896972960024
1498 1 -0.727396070611625
1499 2 0.384966498082827
1500 2 0.357383173961713
1501 1 -0.692825504957965
1502 2 0.327489999069411
1503 2 0.373287849483178
1504 1 -0.738084975370391
1505 2 0.335490353073931
1506 2 0.374258274518963
1507 1 -0.754314572926743
1508 2 0.395960665140307
1509 2 0.387679439072786
1510 1 -0.75081861886
1511 2 0.396711792315455
1512 2 0.377862607351723
1513 1 -0.724249735008122
1514 2 0.339313341508744
1515 2 0.348518354355411
1516 1 -0.670632781379113
1517 2 0.350253965657048
1518 2 0.372949427346375
1519 1 -0.744173445285485
1520 2 0.350791779286717
1521 2 0.388520437863496
1522 1 -0.758861966719606
1523 2 0.356144424428942
1524 2 0.372891690074397
1525 1 -0.759864446967535
1526 2 0.393734453569267
1527 2 0.40097395062269
1528 1 -0.751438618423966
1529 2 0.389433628300732
1530 2 0.375721664607209
1531 1 -0.703694476880768
1532 2 0.416732931580319
1533 2 0.392927714404528
1534 1 -0.720742624804975
1535 2 0.34813476584412
1536 2 0.2901870469525
1537 1 -0.737724000612768
1538 2 0.327423238677138
1539 2 0.38150674489832
1540 1 -0.696123755967932
1541 2 0.366317817003187
1542 2 0.355698010849421
1543 1 -0.760332675333861
1544 2 0.372583483174091
1545 2 0.335456550663174
1546 1 -0.736918442930062
1547 2 0.391634111893821
1548 2 0.401204867592682
1549 1 -0.743875225048238
1550 2 0.359426583789723
1551 2 0.410576886045018
1552 1 -0.759075266702309
1553 2 0.337572347876618
1554 2 0.350595847523706
1555 1 -0.734123816759218
1556 2 0.346055485424702
1557 2 0.388334784172867
1558 1 -0.709776454476565
1559 2 0.350374341022751
1560 2 0.37058069808224
1561 1 -0.724364342840365
1562 2 0.401104532047867
1563 2 0.417606576245288
1564 1 -0.687731396534301
1565 2 0.361202274159518
1566 2 0.377834080432197
1567 1 -0.743128743991395
1568 2 0.368312039353231
1569 2 0.362852008917125
1570 1 -0.75887844872253
1571 2 0.383853385230183
1572 2 0.403371107990614
1573 1 -0.725179055636841
1574 2 0.358605201333711
1575 2 0.360498430578317
1576 1 -0.66405502818446
1577 2 0.395386379258979
1578 2 0.380164604935419
1579 1 -0.73073748252898
1580 2 0.366574858209572
1581 2 0.340425815568649
1582 1 -0.696281807653934
1583 2 0.383278835059799
1584 2 0.373352618069681
1585 1 -0.756033102464868
1586 2 0.379110549541099
1587 2 0.387139233394847
1588 1 -0.702195669608785
1589 2 0.355830058552414
1590 2 0.392963624230123
1591 1 -0.72876708412197
1592 2 0.371363874822857
1593 2 0.362920434682968
1594 1 -0.754112536271757
1595 2 0.36241774540032
1596 2 0.389047169322265
1597 1 -0.688744269967687
1598 2 0.356134683210259
1599 2 0.341068178494812
1600 1 -0.778353008956051
1601 2 0.323559437033144
1602 2 0.35745471008943
1603 1 -0.723469915495816
1604 2 0.357816339478016
1605 2 0.351091976564069
1606 1 -0.782682762024176
1607 2 0.349476448833166
1608 2 0.384126893353782
1609 1 -0.732040141876952
1610 2 0.376282575991266
1611 2 0.35860666797333
1612 1 -0.738093771365243
1613 2 0.362088932934799
1614 2 0.366602325196427
1615 1 -0.701901786842642
1616 2 0.365053438795191
1617 2 0.372964805702779
1618 1 -0.721458750063681
1619 2 0.308634533133652
1620 2 0.336015901445392
1621 1 -0.764294320633467
1622 2 0.379557199097456
1623 2 0.33551499678241
1624 1 -0.739509961281117
1625 2 0.347714794070411
1626 2 0.322268826299405
1627 1 -0.722677462720535
1628 2 0.356808208752744
1629 2 0.402042633703683
1630 1 -0.725416906517772
1631 2 0.368589310143688
1632 2 0.381641850454425
1633 1 -0.729616297286296
1634 2 0.369194198877259
1635 2 0.364577006727721
1636 1 -0.734730212628102
1637 2 0.368036631672049
1638 2 0.380592996813541
1639 1 -0.723680206558721
1640 2 0.354110973726058
1641 2 0.340711170277908
1642 1 -0.770989806395207
1643 2 0.345751552553852
1644 2 0.354274802319504
1645 1 -0.729701577318615
1646 2 0.352453565710444
1647 2 0.360731671638709
1648 1 -0.687264434558023
1649 2 0.369911154750138
1650 2 0.350328265298352
1651 1 -0.782788932126751
1652 2 0.357920050439586
1653 2 0.358805427321524
1654 1 -0.727725237648746
1655 2 0.370904958452498
1656 2 0.38024267200575
1657 1 -0.753851085793749
1658 2 0.375950739892715
1659 2 0.381409808140439
1660 1 -0.754370578690848
1661 2 0.35803724488079
1662 2 0.356159336685923
1663 1 -0.718295376575703
1664 2 0.362360572772139
1665 2 0.347959939845064
1666 1 -0.747987380461709
1667 2 0.343143711884095
1668 2 0.382019053736272
1669 1 -0.779677367564547
1670 2 0.355350314421523
1671 2 0.379034199733684
1672 1 -0.732475044675664
1673 2 0.364125615297456
1674 2 0.376050243251387
1675 1 -0.754894370096445
1676 2 0.346691145377768
1677 2 0.379260924804564
1678 1 -0.745365458795047
1679 2 0.394125547868349
1680 2 0.377945485025451
1681 1 -0.711899750512393
1682 2 0.359102041722345
1683 2 0.336071933890618
1684 1 -0.728090823145357
1685 2 0.367922306715363
1686 2 0.352379283076926
1687 1 -0.717141247060945
1688 2 0.385181022865506
1689 2 0.353638810002304
1690 1 -0.732558401725567
1691 2 0.398602199692561
1692 2 0.365196410931049
1693 1 -0.720235262287451
1694 2 0.375180227234593
1695 2 0.357672294328466
1696 1 -0.699012712907112
1697 2 0.356633959416458
1698 2 0.378328550365091
1699 1 -0.72925957927151
1700 2 0.341722053699694
1701 2 0.371564016244123
1702 1 -0.734396388849527
1703 2 0.352113199276781
1704 2 0.346816701023485
1705 1 -0.746141526112874
1706 2 0.352812894046263
1707 2 0.344757191227121
1708 1 -0.7279964257083
1709 2 0.377566186117772
1710 2 0.331619842330414
1711 1 -0.688142146664823
1712 2 0.374267742572117
1713 2 0.363147050803082
1714 1 -0.707971630737685
1715 2 0.365895817225116
1716 2 0.348961827093493
1717 1 -0.710190324764735
1718 2 0.359857775913915
1719 2 0.413363092639481
1720 1 -0.679744177206738
1721 2 0.365533133790758
1722 2 0.314068432431291
1723 1 -0.702863210496663
1724 2 0.341319350062824
1725 2 0.359966112647521
1726 1 -0.72641852274099
1727 2 0.367617977810635
1728 2 0.355553228155545
1729 1 -0.662403048249305
1730 2 0.391192187342137
1731 2 0.353864330329939
1732 1 -0.745273754158821
1733 2 0.368928757135349
1734 2 0.394543519739895
1735 1 -0.751077206772841
1736 2 0.378665649006261
1737 2 0.325700786274956
1738 1 -0.789087895368108
1739 2 0.387986695688498
1740 2 0.381883229946994
1741 1 -0.732000629005982
1742 2 0.377309848895719
1743 2 0.377622001999678
1744 1 -0.734429556885398
1745 2 0.371809906078739
1746 2 0.409194900070494
1747 1 -0.769711946470252
1748 2 0.399294162143783
1749 2 0.380665929132372
1750 1 -0.76516020026673
1751 2 0.36517628144693
1752 2 0.382137331887374
1753 1 -0.750165363250239
1754 2 0.383889439705061
1755 2 0.388689130983629
1756 1 -0.759143304198188
1757 2 0.3364730485309
1758 2 0.363356855529881
1759 1 -0.702023347506297
1760 2 0.335824634282188
1761 2 0.330314250741557
1762 1 -0.748309155674722
1763 2 0.354900084318915
1764 2 0.35785573072417
1765 1 -0.768321674579545
1766 2 0.410090036028687
1767 2 0.360975123374282
1768 1 -0.748154354314034
1769 2 0.364180087260212
1770 2 0.351678016948765
1771 1 -0.699403347881881
1772 2 0.365730570542695
1773 2 0.375720955347943
1774 1 -0.738032650978492
1775 2 0.37927787444616
1776 2 0.365960554291947
1777 1 -0.740612737128027
1778 2 0.340118138806152
1779 2 0.339826961607142
1780 1 -0.667232087196674
1781 2 0.372968645473472
1782 2 0.349636291228641
1783 1 -0.673309878867208
1784 2 0.361188895031056
1785 2 0.382787029747696
1786 1 -0.726893545140698
1787 2 0.365038602901155
1788 2 0.372974815859611
1789 1 -0.707835304294839
1790 2 0.399563248245888
1791 2 0.408380776307797
1792 1 -0.737323746898833
1793 2 0.415692815884548
1794 2 0.386562399635839
1795 1 -0.768647656881832
1796 2 0.356496473913483
1797 2 0.39082884774288
1798 1 -0.741374047693391
1799 2 0.40177616276611
1800 2 0.412601567804366
1801 1 -0.743894503382666
1802 2 0.347036348446394
1803 2 0.352238670109873
1804 1 -0.737055763120036
1805 2 0.373081392320351
1806 2 0.340716165958509
1807 1 -0.717031979033926
1808 2 0.357053455416418
1809 2 0.369988276733177
1810 1 -0.68894502447172
1811 2 0.356066430307486
1812 2 0.345847209832653
1813 1 -0.694373572672928
1814 2 0.340959017273919
1815 2 0.365540115709673
1816 1 -0.740341068991413
1817 2 0.338608859289034
1818 2 0.362283076945273
1819 1 -0.723792678838961
1820 2 0.348329144309265
1821 2 0.353155540747181
1822 1 -0.738639332071475
1823 2 0.352571798716407
1824 2 0.400966343790463
1825 1 -0.693972146957994
1826 2 0.351288701693221
1827 2 0.367372575663985
1828 1 -0.74842583052234
1829 2 0.359916032089499
1830 2 0.345598735880082
1831 1 -0.721581874730636
1832 2 0.358383903900428
1833 2 0.352193009862909
1834 1 -0.72156498274941
1835 2 0.372051378358336
1836 2 0.39184576021877
1837 1 -0.713595670991693
1838 2 0.364239107966279
1839 2 0.36076539390149
1840 1 -0.691474295469464
1841 2 0.397877780938396
1842 2 0.367228573178377
1843 1 -0.731295194085273
1844 2 0.375929079751737
1845 2 0.400339404367494
1846 1 -0.762835792724939
1847 2 0.355472461888053
1848 2 0.402030422725693
1849 1 -0.758207983804981
1850 2 0.343660812252505
1851 2 0.375548886390815
1852 1 -0.760857402004304
1853 2 0.385549606253937
1854 2 0.36043889003387
1855 1 -0.744073870202267
1856 2 0.377979771304823
1857 2 0.347738854047492
1858 1 -0.713503377421393
1859 2 0.376594799789433
1860 2 0.362568041299065
1861 1 -0.729434828708751
1862 2 0.376228130404307
1863 2 0.36851970954817
1864 1 -0.756132628257571
1865 2 0.378436610505334
1866 2 0.36885743853562
1867 1 -0.726981305584736
1868 2 0.382571486752608
1869 2 0.406795786135563
1870 1 -0.74801459512631
1871 2 0.377399493759525
1872 2 0.361405473245472
1873 1 -0.776392286944648
1874 2 0.34451024893658
1875 2 0.307611176719654
1876 1 -0.711174267974472
1877 2 0.321098921415148
1878 2 0.376333777995352
1879 1 -0.725757838227537
1880 2 0.363278853801015
1881 2 0.373063226633009
1882 1 -0.729569395887219
1883 2 0.352923123379469
1884 2 0.358705295270944
1885 1 -0.758992452349432
1886 2 0.391312753612386
1887 2 0.343985952245468
1888 1 -0.752252868773298
1889 2 0.371515491143264
1890 2 0.378235319117416
1891 1 -0.715062000959445
1892 2 0.335567201683631
1893 2 0.370341748056657
1894 1 -0.730797451101999
1895 2 0.336314256067093
1896 2 0.33864286879259
1897 1 -0.742781629452155
1898 2 0.356021901028578
1899 2 0.350042428010009
1900 1 -0.750113371874912
1901 2 0.353153866869729
1902 2 0.377394904100635
1903 1 -0.697876765726608
1904 2 0.367222748074289
1905 2 0.364161434409849
1906 1 -0.767851138977962
1907 2 0.334016064938074
1908 2 0.343871946104808
1909 1 -0.728475869012202
1910 2 0.373228020161469
1911 2 0.363305819879357
1912 1 -0.740987764021122
1913 2 0.397740992188312
1914 2 0.38844768454874
1915 1 -0.76920874450931
1916 2 0.336115175909613
1917 2 0.328293217790699
1918 1 -0.74149800650658
1919 2 0.385323816860565
1920 2 0.355681451406989
1921 1 -0.70790276335472
1922 2 0.343600403312459
1923 2 0.338958064038913
1924 1 -0.723991789020156
1925 2 0.340935650043835
1926 2 0.317149828491728
1927 1 -0.712208908026313
1928 2 0.367416627438445
1929 2 0.373015424515439
1930 1 -0.714619960860785
1931 2 0.373378735592716
1932 2 0.34418674654385
1933 1 -0.754835134929526
1934 2 0.351650299204307
1935 2 0.365440720718344
1936 1 -0.708515106534658
1937 2 0.391601921304039
1938 2 0.362771484181941
1939 1 -0.721305217570536
1940 2 0.351582073095647
1941 2 0.385462247973228
1942 1 -0.68833486429578
1943 2 0.328026748451818
1944 2 0.37006596416704
1945 1 -0.763971209876004
1946 2 0.343167933766977
1947 2 0.357011185153523
1948 1 -0.749477521340447
1949 2 0.359247300827503
1950 2 0.38208573716242
1951 1 -0.793217209611654
1952 2 0.379207325753328
1953 2 0.40642667293505
1954 1 -0.74638709601264
1955 2 0.323434946200833
1956 2 0.343373235218491
1957 1 -0.748437264861129
1958 2 0.34748167464579
1959 2 0.356741824469095
1960 1 -0.745719856111257
1961 2 0.367179128144536
1962 2 0.336741650468255
1963 1 -0.729727624593897
1964 2 0.401846534594026
1965 2 0.360244699421433
1966 1 -0.705930203243914
1967 2 0.351761919215222
1968 2 0.350003523152127
1969 1 -0.718556917782012
1970 2 0.366287031477066
1971 2 0.343758638107209
1972 1 -0.700419716034101
1973 2 0.391814832913703
1974 2 0.391213740917118
1975 1 -0.774728654129796
1976 2 0.350664885440369
1977 2 0.362244181438394
1978 1 -0.768391775513254
1979 2 0.358498237368715
1980 2 0.353025981359305
1981 1 -0.696045173320101
1982 2 0.354208800803855
1983 2 0.339923556366643
1984 1 -0.6977876651227
1985 2 0.337341821782727
1986 2 0.354847770489375
1987 1 -0.710771379091042
1988 2 0.363382475730277
1989 2 0.344516205246334
1990 1 -0.757944943108039
1991 2 0.384566330900894
1992 2 0.360489432769641
1993 1 -0.785385296715104
1994 2 0.380363331255361
1995 2 0.366083387026427
1996 1 -0.72635388177761
1997 2 0.366608756886787
1998 2 0.380898549809013
1999 1 -0.736374468455387
2000 2 0.312727812578156
2001 2 0.3678071220147
2002 1 -0.703732419008416
2003 2 0.387781378973332
2004 2 0.378489186793036
2005 1 -0.736648897088992
2006 2 0.382574720599945
2007 2 0.364107677337864
2008 1 -0.713140949952947
2009 2 0.355345456336814
2010 2 0.353316350831535
2011 1 -0.747042747328868
2012 2 0.395815905443043
2013 2 0.394202109982974
2014 1 -0.712088779134507
2015 2 0.363610431372751
2016 2 0.374761672685701
2017 1 -0.734866970554687
2018 2 0.366772857728572
2019 2 0.41558418301148
2020 1 -0.777146781003803
2021 2 0.353799047168487
2022 2 0.374712729420787
2023 1 -0.735998983509631
2024 2 0.323259655079413
2025 2 0.354914317878175
2026 1 -0.759950185688265
2027 2 0.369944923096528
2028 2 0.372858859409334
2029 1 -0.782777039017497
2030 2 0.380746903093155
2031 2 0.393013678643901
2032 1 -0.716652599988092
2033 2 0.372291580000735
2034 2 0.360557331208066
2035 1 -0.748450780875544
2036 2 0.353665769803838
2037 2 0.383590934185399
2038 1 -0.724726952571523
2039 2 0.385990978058055
2040 2 0.348393396488262
2041 1 -0.711623867819011
2042 2 0.381299857018307
2043 2 0.388020746113562
2044 1 -0.765358857532914
2045 2 0.368406193759981
2046 2 0.375012982454699
2047 1 -0.707715899421345
2048 2 0.335893331202601
2049 2 0.35085652183665
2050 1 -0.730305927999031
2051 2 0.353197281974966
2052 2 0.364130365981868
2053 1 -0.737612268134059
2054 2 0.37988005178341
2055 2 0.390594009582491
2056 1 -0.721940491596983
2057 2 0.36503889981955
2058 2 0.340072454883545
2059 1 -0.73632727014845
2060 2 0.381603212342854
2061 2 0.325359271170833
2062 1 -0.752278996507962
2063 2 0.382064376271465
2064 2 0.349794711224474
2065 1 -0.682103164036897
2066 2 0.38740136738802
2067 2 0.370836138515376
2068 1 -0.728024306108833
2069 2 0.385179938072491
2070 2 0.388791326154931
2071 1 -0.746856297711922
2072 2 0.388884587613028
2073 2 0.395207123388673
2074 1 -0.774084094830877
2075 2 0.402816527034883
2076 2 0.379125670545711
2077 1 -0.691078414875204
2078 2 0.368939053782688
2079 2 0.395801820978556
2080 1 -0.714923270090416
2081 2 0.371597029963808
2082 2 0.367288468597909
2083 1 -0.702568456830684
2084 2 0.365691878204415
2085 2 0.381198902746506
2086 1 -0.70554386399825
2087 2 0.381301535624964
2088 2 0.379693521836876
2089 1 -0.704916656202037
2090 2 0.314144338941779
2091 2 0.350901271398174
2092 1 -0.754609139888414
2093 2 0.352778083330443
2094 2 0.363514003568353
2095 1 -0.708267299528612
2096 2 0.352791054403246
2097 2 0.326142890043288
2098 1 -0.71618918582881
2099 2 0.355872343942686
2100 2 0.363201882828233
2101 1 -0.743494656960459
2102 2 0.374075558414384
2103 2 0.371726503702743
2104 1 -0.721606840668008
2105 2 0.349546954098236
2106 2 0.388880832778185
2107 1 -0.767973691197565
2108 2 0.391525700757615
2109 2 0.368391590570911
2110 1 -0.727070012304793
2111 2 0.350631335063886
2112 2 0.357470231238471
2113 1 -0.74526534850949
2114 2 0.362920575041515
2115 2 0.362369263045164
2116 1 -0.774617558231019
2117 2 0.341634422400229
2118 2 0.370298415667787
2119 1 -0.748937577467025
2120 2 0.359727228117196
2121 2 0.385825775780527
2122 1 -0.766379023795725
2123 2 0.333261370889462
2124 2 0.381741790458714
2125 1 -0.725585248412802
2126 2 0.353085301784747
2127 2 0.383084020910433
2128 1 -0.748821004879716
2129 2 0.346533125403311
2130 2 0.327471262145232
2131 1 -0.779390735144645
2132 2 0.400459835413239
2133 2 0.385678279543317
2134 1 -0.727328280773353
2135 2 0.377049545519806
2136 2 0.373504940884812
2137 1 -0.706993540879181
2138 2 0.365718829361334
2139 2 0.379254341959872
2140 1 -0.759051893090938
2141 2 0.347391586964416
2142 2 0.382867903775353
2143 1 -0.757987708265436
2144 2 0.335499261874368
2145 2 0.353383220165025
2146 1 -0.720987133077512
2147 2 0.370355292263634
2148 2 0.376481818401077
2149 1 -0.741431060874004
2150 2 0.363530029121113
2151 2 0.358902865062874
2152 1 -0.728349332178182
2153 2 0.348123932347039
2154 2 0.364174682445171
2155 1 -0.727798952114479
2156 2 0.352862700185008
2157 2 0.347312795869315
2158 1 -0.761139225639312
2159 2 0.338211254884748
2160 2 0.358714431299353
2161 1 -0.727366960923243
2162 2 0.349681605214644
2163 2 0.364696996419342
2164 1 -0.753464717474372
2165 2 0.361847163593869
2166 2 0.363326238127703
2167 1 -0.741692263889341
2168 2 0.375042961764952
2169 2 0.372805907383872
2170 1 -0.763438433267398
2171 2 0.343242467474134
2172 2 0.325610109659406
2173 1 -0.733990647956516
2174 2 0.383601904245413
2175 2 0.369542389414676
2176 1 -0.756083932188782
2177 2 0.375745274511004
2178 2 0.356732277211233
2179 1 -0.735713695810169
2180 2 0.370468593888655
2181 2 0.361280073520445
2182 1 -0.75537425210432
2183 2 0.361207547190244
2184 2 0.381048334614108
2185 1 -0.72021294099691
2186 2 0.380831839205843
2187 2 0.391964072489247
2188 1 -0.745885163398927
2189 2 0.371814925661192
2190 2 0.360124489244172
2191 1 -0.730777864175096
2192 2 0.366562540563644
2193 2 0.372313963245519
2194 1 -0.769992821801619
2195 2 0.371888206798855
2196 2 0.382555573769678
2197 1 -0.732647324826392
2198 2 0.38692671422653
2199 2 0.332987431907172
2200 1 -0.708009755100216
2201 2 0.371121147268821
2202 2 0.353957442266758
2203 1 -0.752524567945645
2204 2 0.335001079314711
2205 2 0.358139071725003
2206 1 -0.743136186690263
2207 2 0.357846267351405
2208 2 0.397188868020847
2209 1 -0.740533104582987
2210 2 0.390516475295895
2211 2 0.394244643720227
2212 1 -0.684791796971993
2213 2 0.399028324730996
2214 2 0.384335802057869
2215 1 -0.757537496256256
2216 2 0.341879951054351
2217 2 0.370047563988502
2218 1 -0.774997241971455
2219 2 0.355023235818032
2220 2 0.327907599266719
2221 1 -0.75990763005463
2222 2 0.376650836784166
2223 2 0.372443418966666
2224 1 -0.76281375728488
2225 2 0.377481290975885
2226 2 0.3477547353091
2227 1 -0.729240933720175
2228 2 0.348021110322319
2229 2 0.322564677709423
2230 1 -0.752581669763385
2231 2 0.393147404451588
2232 2 0.348127181217975
2233 1 -0.768558854712518
2234 2 0.361977188182891
2235 2 0.39833341131989
2236 1 -0.748749159476319
2237 2 0.372172370343474
2238 2 0.374587779607547
2239 1 -0.726272647981446
2240 2 0.350758617502742
2241 2 0.396567250133449
2242 1 -0.752696683010955
2243 2 0.374074592413296
2244 2 0.355453191192879
2245 1 -0.731935886620543
2246 2 0.376250361643185
2247 2 0.372760346409668
2248 1 -0.752552166996972
2249 2 0.362685233209719
2250 2 0.351398034700684
2251 1 -0.657863331063918
2252 2 0.332318774258509
2253 2 0.384019648475807
2254 1 -0.757364623560826
2255 2 0.362017510074012
2256 2 0.357448807965589
2257 1 -0.731500796029162
2258 2 0.394837799678698
2259 2 0.364177015596904
2260 1 -0.700979191431555
2261 2 0.345275963267705
2262 2 0.407700000858713
2263 1 -0.740852029993286
2264 2 0.36873182197727
2265 2 0.360848240639979
2266 1 -0.748321234689029
2267 2 0.296661550921359
2268 2 0.384541955779469
2269 1 -0.717470489334245
2270 2 0.351781998844933
2271 2 0.409064477193307
2272 1 -0.710659674429171
2273 2 0.361970467142625
2274 2 0.403267896019117
2275 1 -0.64770187842362
2276 2 0.361468790493844
2277 2 0.341282244001471
2278 1 -0.780033201135202
2279 2 0.302849740470923
2280 2 0.371169285048174
2281 1 -0.723323586527728
2282 2 0.387965715556577
2283 2 0.418203993895939
2284 1 -0.74981086417197
2285 2 0.388404603609899
2286 2 0.33998915596579
2287 1 -0.75965677888365
2288 2 0.367387245918687
2289 2 0.345666359504836
2290 1 -0.723065628399587
2291 2 0.331033243233292
2292 2 0.352801345675814
2293 1 -0.727208334933859
2294 2 0.401441608466635
2295 2 0.356213000178641
2296 1 -0.712314047484302
2297 2 0.379318342833911
2298 2 0.364551247935995
2299 1 -0.749295563664665
2300 2 0.376568667589551
2301 2 0.355852291514453
2302 1 -0.706662129470033
2303 2 0.335640179069771
2304 2 0.359004967692716
2305 1 -0.733578995734632
2306 2 0.367279523645723
2307 2 0.410893154520995
2308 1 -0.735635253791033
2309 2 0.383640268719234
2310 2 0.394953872637403
2311 1 -0.729997932849472
2312 2 0.392716979304324
2313 2 0.40455026685568
2314 1 -0.793156060548386
2315 2 0.37654757900309
2316 2 0.382522253886587
2317 1 -0.777477043983429
2318 2 0.420869395794465
2319 2 0.394860454718777
2320 1 -0.779902182700101
2321 2 0.327040437582868
2322 2 0.324518555203536
2323 1 -0.762690786903821
2324 2 0.365252779339164
2325 2 0.347497600873918
2326 1 -0.759534764217483
2327 2 0.337758454753543
2328 2 0.379421135901642
2329 1 -0.715824329178822
2330 2 0.317232620759729
2331 2 0.350765566269157
2332 1 -0.736059385136418
2333 2 0.37424394462673
2334 2 0.401681676041619
2335 1 -0.706588690614491
2336 2 0.347582885240828
2337 2 0.359124675402608
2338 1 -0.714958568237066
2339 2 0.311117410899801
2340 2 0.345436483340977
2341 1 -0.762705937232453
2342 2 0.383591966131427
2343 2 0.349045675913714
2344 1 -0.720230564686873
2345 2 0.334055902166171
2346 2 0.400786841850825
2347 1 -0.699898879173741
2348 2 0.392393072346051
2349 2 0.349233616956127
2350 1 -0.712478956808938
2351 2 0.372605329274076
2352 2 0.336799372156934
2353 1 -0.771630895848008
2354 2 0.379530205503843
2355 2 0.350258098839201
2356 1 -0.732137108938341
2357 2 0.382079433280843
2358 2 0.380058497314109
2359 1 -0.683655147875529
2360 2 0.340458289565812
2361 2 0.340346018541134
2362 1 -0.726223381032779
2363 2 0.391798593247166
2364 2 0.375972712111603
2365 1 -0.703359641997653
2366 2 0.365550249641555
2367 2 0.359285006594599
2368 1 -0.74128342877704
2369 2 0.385983773538599
2370 2 0.389356041601263
2371 1 -0.760783524526858
2372 2 0.327064021485116
2373 2 0.34130095177837
2374 1 -0.755441532623415
2375 2 0.356030197353835
2376 2 0.340983430017523
2377 1 -0.772799311268911
2378 2 0.367384249191955
2379 2 0.381687373593585
2380 1 -0.709614833404426
2381 2 0.353971174890889
2382 2 0.340089018766615
2383 1 -0.771627241759787
2384 2 0.376577465142763
2385 2 0.38109541710731
2386 1 -0.773705161067045
2387 2 0.371686502657536
2388 2 0.338526902547572
2389 1 -0.74562460620608
2390 2 0.354898989717534
2391 2 0.39323180121206
2392 1 -0.768752295379334
2393 2 0.384163515954267
2394 2 0.379521738490445
2395 1 -0.732569057483068
2396 2 0.367818930545631
2397 2 0.362822671489367
2398 1 -0.725644617926818
2399 2 0.391477766555195
2400 2 0.362377739622854
2401 1 -0.735418857282406
2402 2 0.332306857762272
2403 2 0.358041544496799
2404 1 -0.729137557717644
2405 2 0.340181053898642
2406 2 0.357565301416791
2407 1 -0.727928146049348
2408 2 0.360389311547793
2409 2 0.363461756861323
2410 1 -0.760056446506599
2411 2 0.3521586040956
2412 2 0.346204850874118
2413 1 -0.730373187087423
2414 2 0.362548460146184
2415 2 0.390826344481316
2416 1 -0.753509344517913
2417 2 0.383383264055968
2418 2 0.344426013794905
2419 1 -0.73417729484517
2420 2 0.3331782496978
2421 2 0.348139037319932
2422 1 -0.755232280747114
2423 2 0.412339686411617
2424 2 0.350544845966027
2425 1 -0.714767483546118
2426 2 0.390107861865601
2427 2 0.377786891892744
2428 1 -0.763156460938179
2429 2 0.39886911027748
2430 2 0.382360181616641
2431 1 -0.734327868338466
2432 2 0.390814301823895
2433 2 0.367882788105972
2434 1 -0.766783868382375
2435 2 0.369700791288215
2436 2 0.330619873809489
2437 1 -0.73148836424282
2438 2 0.369026354380752
2439 2 0.368234548889517
2440 1 -0.720241833389699
2441 2 0.342275878440126
2442 2 0.356752181362474
2443 1 -0.706904941111683
2444 2 0.37594828586047
2445 2 0.389076193364234
2446 1 -0.673816518114838
2447 2 0.397673704695175
2448 2 0.378887311055293
2449 1 -0.730934055946645
2450 2 0.389501416568893
2451 2 0.378987738088913
2452 1 -0.719279091609491
2453 2 0.379014034548994
2454 2 0.355191049062104
2455 1 -0.722068251192103
2456 2 0.401641503574903
2457 2 0.319143743212759
2458 1 -0.689992464490364
2459 2 0.404310009967219
2460 2 0.350283883777461
2461 1 -0.766664699483944
2462 2 0.381248526187813
2463 2 0.357945298303143
2464 1 -0.765412600609246
2465 2 0.410456531827316
2466 2 0.395546361931052
2467 1 -0.744048727647479
2468 2 0.35612922789792
2469 2 0.393491916434395
2470 1 -0.71000915636725
2471 2 0.386905189443154
2472 2 0.347378951706072
2473 1 -0.783697929615336
2474 2 0.352879838070333
2475 2 0.357380999292238
2476 1 -0.751895096809695
2477 2 0.353319221786909
2478 2 0.335678483810461
2479 1 -0.742775864543251
2480 2 0.38901816110991
2481 2 0.390290969233381
2482 1 -0.668798190474696
2483 2 0.380464593159515
2484 2 0.373048823902159
2485 1 -0.732998979415965
2486 2 0.371213524504038
2487 2 0.366803377250982
2488 1 -0.731869844246265
2489 2 0.390074892776574
2490 2 0.355496431273139
2491 1 -0.74308031024208
2492 2 0.346654952498746
2493 2 0.392104429220467
2494 1 -0.741285660059025
2495 2 0.383775020790855
2496 2 0.400052903150407
2497 1 -0.780021166059432
2498 2 0.380945262671236
2499 2 0.395161604286206
2500 1 -0.765667469009078
2501 2 0.385879532644355
2502 2 0.322984922476355
2503 1 -0.722620243997582
2504 2 0.390034459212182
2505 2 0.395021474528331
2506 1 -0.763115168116547
2507 2 0.347937968161998
2508 2 0.366238683592589
2509 1 -0.701910982801094
2510 2 0.398879244926066
2511 2 0.375949062984598
2512 1 -0.714428002319741
2513 2 0.33542113471083
2514 2 0.357017267832299
2515 1 -0.680015373659152
2516 2 0.342064833218123
2517 2 0.360507379356829
2518 1 -0.700156381075018
2519 2 0.394477787041066
2520 2 0.388037087929485
2521 1 -0.746415500437842
2522 2 0.375705573020192
2523 2 0.369264585949388
2524 1 -0.715357942150085
2525 2 0.337107012368719
2526 2 0.386793532049176
2527 1 -0.726932569477885
2528 2 0.321082242459764
2529 2 0.343781882405057
2530 1 -0.744710147714392
2531 2 0.345013345854302
2532 2 0.341910281235455
2533 1 -0.744762260992769
2534 2 0.376956730335917
2535 2 0.354103260749425
2536 1 -0.731133396286973
2537 2 0.341517221545038
2538 2 0.370353466086583
2539 1 -0.761708366995518
2540 2 0.349310503338959
2541 2 0.360980023438527
2542 1 -0.743299913162799
2543 2 0.391297092780942
2544 2 0.359229390975454
2545 1 -0.765431402504722
2546 2 0.382017033668948
2547 2 0.383310173703792
2548 1 -0.724956303706046
2549 2 0.359397784090999
2550 2 0.3937478945759
2551 1 -0.694377364365254
2552 2 0.34688361437528
2553 2 0.340519567000205
2554 1 -0.685827397314762
2555 2 0.350042047836856
2556 2 0.370132664570851
2557 1 -0.705997537976647
2558 2 0.367433651913514
2559 2 0.34258034283242
2560 1 -0.710273844952969
2561 2 0.397023811980777
2562 2 0.401882649105871
2563 1 -0.676061808143186
2564 2 0.407759124826863
2565 2 0.404334889072338
2566 1 -0.722327603134803
2567 2 0.386669512246094
2568 2 0.343321017577892
2569 1 -0.731718827815047
2570 2 0.36121677080891
2571 2 0.347029888444706
2572 1 -0.745255461689887
2573 2 0.357351304172084
2574 2 0.341989839897289
2575 1 -0.739188870234005
2576 2 0.369411764646013
2577 2 0.39108345773725
2578 1 -0.686803770389396
2579 2 0.370993574782661
2580 2 0.376639336197543
2581 1 -0.724594200796081
2582 2 0.389746515342653
2583 2 0.373248676019454
2584 1 -0.756610028355627
2585 2 0.376569761901689
2586 2 0.355900289221152
2587 1 -0.75156861596992
2588 2 0.365429366294731
2589 2 0.358622565757162
2590 1 -0.729014118849882
2591 2 0.378512740899533
2592 2 0.341083370018302
2593 1 -0.755786614755189
2594 2 0.409392610239158
2595 2 0.417102809631268
2596 1 -0.738791526518099
2597 2 0.348446249180124
2598 2 0.365079937549244
2599 1 -0.754826532123617
2600 2 0.372593834737515
2601 2 0.353128559598817
2602 1 -0.686099274571692
2603 2 0.356958847553388
2604 2 0.362332690449762
2605 1 -0.700191772084935
2606 2 0.384858638873743
2607 2 0.392031773242099
2608 1 -0.695415442283602
2609 2 0.362051280156792
2610 2 0.380949003158918
2611 1 -0.751629087911301
2612 2 0.411739228578787
2613 2 0.392063190345086
2614 1 -0.768146555738255
2615 2 0.385250333971641
2616 2 0.359376025979093
2617 1 -0.712591870239836
2618 2 0.371189219682299
2619 2 0.345732580130019
2620 1 -0.70693956672693
2621 2 0.370070179670439
2622 2 0.403062887804748
2623 1 -0.785117096525983
2624 2 0.367962431437171
2625 2 0.370439266659553
2626 1 -0.725922874478001
2627 2 0.32742719419254
2628 2 0.360103392962689
2629 1 -0.71235479848711
2630 2 0.390919585983429
2631 2 0.391319946303143
2632 1 -0.739098400562666
2633 2 0.399299555578773
2634 2 0.372483215128488
2635 1 -0.719248235882188
2636 2 0.367986826122651
2637 2 0.393081252675557
2638 1 -0.739407316879533
2639 2 0.353801061276085
2640 2 0.379971668397719
2641 1 -0.696814331399214
2642 2 0.369789598927536
2643 2 0.370370472905362
2644 1 -0.715151608674015
2645 2 0.379630467531626
2646 2 0.351584041918467
2647 1 -0.720186229253704
2648 2 0.366024003578558
2649 2 0.343560256412283
2650 1 -0.6840458459349
2651 2 0.371318251775085
2652 2 0.397860185775075
2653 1 -0.714027447577245
2654 2 0.405491487268054
2655 2 0.370617107895201
2656 1 -0.735901432933682
2657 2 0.346740615275453
2658 2 0.330443229595491
2659 1 -0.731945144837591
2660 2 0.352836015240803
2661 2 0.365183966348152
2662 1 -0.73997891138616
2663 2 0.375118490417688
2664 2 0.362461695614973
2665 1 -0.763207382568927
2666 2 0.332515761035373
2667 2 0.347286435251686
2668 1 -0.725814902274308
2669 2 0.347143817959189
2670 2 0.378818467785566
2671 1 -0.789751431018552
2672 2 0.372973588272497
2673 2 0.354593150254246
2674 1 -0.752460271665647
2675 2 0.3637331656681
2676 2 0.356211586980217
2677 1 -0.696018672982884
2678 2 0.349495849696463
2679 2 0.343352647850148
2680 1 -0.731974072224153
2681 2 0.37405866138747
2682 2 0.35441606471907
2683 1 -0.727238041332894
2684 2 0.381622947489649
2685 2 0.367132937001766
2686 1 -0.742758307298585
2687 2 0.390845691687945
2688 2 0.332418546771241
2689 1 -0.755906960820443
2690 2 0.380749744841318
2691 2 0.343218656470883
2692 1 -0.731094252767755
2693 2 0.333369889853832
2694 2 0.363346826599136
2695 1 -0.731427916465085
2696 2 0.35188707775087
2697 2 0.389457245327225
2698 1 -0.775393658210037
2699 2 0.356562429182634
2700 2 0.371970061134215
2701 1 -0.75279343289862
2702 2 0.368623428646771
2703 2 0.361665454216693
2704 1 -0.725333407682285
2705 2 0.3556708095251
2706 2 0.401312540906303
2707 1 -0.749033126461172
2708 2 0.331789305810459
2709 2 0.376986018917952
2710 1 -0.749324784820253
2711 2 0.378420632308537
2712 2 0.367377998934955
2713 1 -0.774904440359569
2714 2 0.380170181696889
2715 2 0.38676133938015
2716 1 -0.697855212823898
2717 2 0.341771549315236
2718 2 0.372246168129729
2719 1 -0.729608675141321
2720 2 0.359002868197601
2721 2 0.361055477492474
2722 1 -0.755782792597236
2723 2 0.329638011351766
2724 2 0.370118017635747
2725 1 -0.738678430683273
2726 2 0.360670953937143
2727 2 0.34575853013463
2728 1 -0.696457494065343
2729 2 0.377011695510249
2730 2 0.402486983768004
2731 1 -0.718954394701596
2732 2 0.363962977170147
2733 2 0.375147508575049
2734 1 -0.723776738063597
2735 2 0.404630600238353
2736 2 0.347674991096852
2737 1 -0.759436738232657
2738 2 0.353799762209625
2739 2 0.380892542860392
2740 1 -0.748609163430388
2741 2 0.336762391554578
2742 2 0.360815484834645
2743 1 -0.71448952524806
2744 2 0.355198827156787
2745 2 0.371090449639447
2746 1 -0.732679943706628
2747 2 0.375240778389063
2748 2 0.381660133641165
2749 1 -0.739287362563229
2750 2 0.348419129970044
2751 2 0.397078076013447
2752 1 -0.757886659205585
2753 2 0.378098662329906
2754 2 0.379510973359862
2755 1 -0.761424685101225
2756 2 0.385198946112937
2757 2 0.387061698728021
2758 1 -0.729629519033094
2759 2 0.376798266951381
2760 2 0.352670507977602
2761 1 -0.721559213482368
2762 2 0.36470318132634
2763 2 0.378802143350228
2764 1 -0.756897662641669
2765 2 0.353783327752257
2766 2 0.383320789774196
2767 1 -0.743323280371742
2768 2 0.360598700176618
2769 2 0.36813888009339
2770 1 -0.771995634861032
2771 2 0.37486330049091
2772 2 0.363877484787785
2773 1 -0.702847491653511
2774 2 0.354627688105725
2775 2 0.371867469967535
2776 1 -0.770265523011828
2777 2 0.327435859823551
2778 2 0.332380632710329
2779 1 -0.727222872718965
2780 2 0.368450981515988
2781 2 0.410273972087963
2782 1 -0.743061159624764
2783 2 0.34349737554755
2784 2 0.382816437643119
2785 1 -0.685847074411343
2786 2 0.361845392755695
2787 2 0.378980120546142
2788 1 -0.703159969964911
2789 2 0.379120017064047
2790 2 0.368089899611137
2791 1 -0.734058977840233
2792 2 0.35643106024594
2793 2 0.368120965813259
2794 1 -0.719506341887068
2795 2 0.392211344849766
2796 2 0.422097329497493
2797 1 -0.740479928114582
2798 2 0.338492492876365
2799 2 0.378090896471251
2800 1 -0.768572592095672
2801 2 0.376770138803383
2802 2 0.3777224094759
2803 1 -0.742082797774838
2804 2 0.343604683672364
2805 2 0.373883976191089
2806 1 -0.780709358037617
2807 2 0.39611773140122
2808 2 0.38429100411601
2809 1 -0.732574189102524
2810 2 0.390907188852886
2811 2 0.343457341364976
2812 1 -0.709305068284253
2813 2 0.390421979102795
2814 2 0.391480194637545
2815 1 -0.759156754106739
2816 2 0.348547019175242
2817 2 0.363593835877147
2818 1 -0.754589696483236
2819 2 0.339118442141686
2820 2 0.376774480596133
2821 1 -0.693128177300698
2822 2 0.384074429382217
2823 2 0.333596391731999
2824 1 -0.759219380809215
2825 2 0.336319058642951
2826 2 0.348849985440224
2827 1 -0.7517337897796
2828 2 0.39274984921199
2829 2 0.388493005811962
2830 1 -0.743242303837872
2831 2 0.401170024455437
2832 2 0.368310392781111
2833 1 -0.776749351525444
2834 2 0.339018246639672
2835 2 0.338688971600029
2836 1 -0.723333321247118
2837 2 0.370105158829308
2838 2 0.345122339641444
2839 1 -0.724012274003889
2840 2 0.347961851279933
2841 2 0.367933207663075
2842 1 -0.786182598089032
2843 2 0.362838981670585
2844 2 0.370672554332112
2845 1 -0.687642291001098
2846 2 0.380360412598322
2847 2 0.398328091396052
2848 1 -0.746343236168886
2849 2 0.35477747716723
2850 2 0.38312027114961
2851 1 -0.713914226038976
2852 2 0.386399428156421
2853 2 0.362567853380211
2854 1 -0.76142504858454
2855 2 0.36191943553683
2856 2 0.36284028673849
2857 1 -0.718559441385013
2858 2 0.35286612904517
2859 2 0.338960045594432
2860 1 -0.752795352278724
2861 2 0.371344140391804
2862 2 0.372470740941407
2863 1 -0.722053873937521
2864 2 0.326983957307235
2865 2 0.383182881172746
2866 1 -0.71833642578969
2867 2 0.333645730000781
2868 2 0.339340747045925
2869 1 -0.727829417635106
2870 2 0.382328480581808
2871 2 0.356731419611112
2872 1 -0.762634754899755
2873 2 0.381534637872459
2874 2 0.308870573310441
2875 1 -0.688087973876633
2876 2 0.395811160584116
2877 2 0.372209169263683
2878 1 -0.715438527391406
2879 2 0.371616769615112
2880 2 0.364678513852968
2881 1 -0.748281190496681
2882 2 0.345653889112831
2883 2 0.334029489490026
2884 1 -0.732628823236627
2885 2 0.391159469805315
2886 2 0.379577706375316
2887 1 -0.666818990774998
2888 2 0.372185395831554
2889 2 0.398026572321876
2890 1 -0.711294483969361
2891 2 0.314981983433935
2892 2 0.343917110358402
2893 1 -0.67038827049329
2894 2 0.388158269225291
2895 2 0.347193435192147
2896 1 -0.741081383557059
2897 2 0.390981818891563
2898 2 0.356958834098407
2899 1 -0.698341680442094
2900 2 0.378154400157175
2901 2 0.4237262436464
2902 1 -0.696482311155555
2903 2 0.366949373400793
2904 2 0.337458084941646
2905 1 -0.710700810512401
2906 2 0.37751306748663
2907 2 0.329977582473244
2908 1 -0.727108320837036
2909 2 0.373025858853947
2910 2 0.370991054425793
2911 1 -0.732909603708735
2912 2 0.356520784839339
2913 2 0.37302139849857
2914 1 -0.764162331829645
2915 2 0.385487261385005
2916 2 0.363966153331371
2917 1 -0.730866476277545
2918 2 0.367420599620172
2919 2 0.336550851179955
2920 1 -0.744087087590505
2921 2 0.367939665988705
2922 2 0.363565460511104
2923 1 -0.735658882326903
2924 2 0.337742454048354
2925 2 0.373844703311373
2926 1 -0.655136899741834
2927 2 0.372289761888662
2928 2 0.377303612789705
2929 1 -0.715418893004207
2930 2 0.355655524397136
2931 2 0.322982622125675
2932 1 -0.780334783558303
2933 2 0.368822364827184
2934 2 0.40308064032198
2935 1 -0.730536846247489
2936 2 0.375897529085166
2937 2 0.324270433278714
2938 1 -0.741065014981471
2939 2 0.382206684661579
2940 2 0.346305553506143
2941 1 -0.744565306731774
2942 2 0.38445224723147
2943 2 0.395117352555979
2944 1 -0.78024993112624
2945 2 0.38490037614787
2946 2 0.354615929558988
2947 1 -0.731900469232631
2948 2 0.338742523610435
2949 2 0.375355535416826
2950 1 -0.755353659320363
2951 2 0.351134493669012
2952 2 0.381674518290996
2953 1 -0.776917028065511
2954 2 0.375793436302234
2955 2 0.378703142741874
2956 1 -0.719706466763866
2957 2 0.34590402903686
2958 2 0.398667871634023
2959 1 -0.730080334333365
2960 2 0.356202827996306
2961 2 0.38795182443553
2962 1 -0.720074958384928
2963 2 0.394729893758183
2964 2 0.36276792424037
2965 1 -0.725783092531231
2966 2 0.383214929963662
2967 2 0.396913249500614
2968 1 -0.705800151487795
2969 2 0.361383881850589
2970 2 0.366858566405057
2971 1 -0.731913327646564
2972 2 0.352449060416406
2973 2 0.356602027818464
2974 1 -0.723395529191389
2975 2 0.383781219078322
2976 2 0.398842470889036
2977 1 -0.745130051439235
2978 2 0.333262702768678
2979 2 0.343954389293548
2980 1 -0.724298004785245
2981 2 0.365087566459356
2982 2 0.351581960283486
2983 1 -0.734089474545007
2984 2 0.349397151880585
2985 2 0.359566541883442
2986 1 -0.705122688502409
2987 2 0.36558020908023
2988 2 0.365341995834478
2989 1 -0.737396822022893
2990 2 0.377231952311637
2991 2 0.309804497270469
2992 1 -0.759081568096536
2993 2 0.355991690068072
2994 2 0.331832033049327
2995 1 -0.712609057299849
2996 2 0.366477447642449
2997 2 0.352229111961326
2998 1 -0.737675962576128
2999 2 0.350792255745169
3000 2 0.34783102381233
