ITEM: TIMESTEP
0
ITEM: NUMBER OF ATOMS
564
ITEM: BOX BOUNDS pp pp ff
0.0000000000000000e+00 1.7650658050000001e+01
0.0000000000000000e+00 2.0381224350000000e+01
0.0000000000000000e+00 6.0000000000000000e+01
ITEM: ATOMS id mol type q x y z
1 1 2 0 8.24512200 15.58107900 22.60780130
2 1 3 0.659329320383 8.99930700 15.99494600 23.02750430
3 1 3 0.646741853814 7.50380600 16.13955400 22.84187130
4 1 4 -1.07209227266 8.24676900 15.70555000 22.69149230
5 1 2 0 15.94739500 18.39865100 22.69035230
6 1 3 0.553101734001 16.71765600 18.46088800 22.12550130
7 1 3 0.471562449098 15.55165300 17.55682700 22.46462430
8 1 4 -1.04857691047 15.99533800 18.29885400 22.58914830
9 1 2 0 17.43363900 10.16011000 22.73132430
10 1 3 0.448154755 17.04728200 9.37132900 22.35081830
11 1 3 0.551230186869 0.66633495 9.89504700 22.98756730
12 1 4 -1.03851121545 17.49726000 10.02520600 22.71541730
13 1 2 0 1.34938300 4.55603100 22.80664330
14 1 3 0.487349369265 2.25303400 4.29537500 22.62858430
15 1 3 0.543231000396 1.36124800 4.85802700 23.71487830
16 1 4 -0.970689873254 1.46658000 4.56132300 22.90011430
17 1 2 0 13.79454900 8.69815200 22.91890230
18 1 3 0.541166745988 13.76817500 9.65498800 22.91982030
19 1 3 0.571304136872 14.31482300 8.47167600 23.68978230
20 1 4 -1.08976351746 13.85777400 8.79164700 23.01770230
21 1 2 0 2.45384200 11.13179700 23.00931330
22 1 3 0.465618934367 3.34523300 10.88819200 23.25893330
23 1 3 0.455180883454 2.56797500 11.78723500 22.32112330
24 1 4 -0.98591116963 2.58256100 11.18451700 22.95317030
25 1 2 0 5.78675400 16.92692800 23.09641330
26 1 3 0.47706659024 5.28323000 16.47580400 23.77404430
27 1 3 0.453634735002 5.17677800 17.01724400 22.36429030
28 1 4 -1.03442917448 5.64421300 16.88074000 23.08943730
29 1 2 0 9.01000400 19.57176400 23.18088730
30 1 3 0.62063299523 8.78238800 19.25232600 24.05403330
31 1 3 0.542002290034 8.18499100 19.55303200 22.69587630
32 1 4 -1.04111659399 8.87525500 19.52847400 23.23057330
33 1 2 0 8.83043300 2.85815800 23.19435430
34 1 3 0.564338572557 9.21769000 2.02205600 23.45357830
35 1 3 0.658604810418 9.56648500 3.46996200 23.18191330
36 1 4 -1.11464580827 8.97423000 2.82944500 23.22594530
37 1 2 0 6.02784200 0.12173500 23.20701130
38 1 3 0.483647775091 5.47821600 0.33162200 22.45196730
39 1 3 0.56185112786 5.79197900 19.60317635 23.43282430
40 1 4 -1.10327587499 5.92729000 0.03342000 23.13926330
41 1 2 0 4.18397800 8.35952700 23.26490830
42 1 3 0.585245069105 5.05229100 7.96143000 23.32642530
43 1 3 0.475473757585 3.81527900 8.00719600 22.45487330
44 1 4 -1.10297033091 4.24793400 8.26346300 23.16908830
45 1 2 0 0.45553800 19.51483400 23.37309230
46 1 3 0.497939800827 0.12126100 20.35801600 23.67892930
47 1 3 0.558206287112 0.15406600 18.88529700 24.02809630
48 1 4 -1.02753607876 0.37415500 19.54218300 23.49609230
49 1 2 0 15.09732900 11.54517500 23.49740530
50 1 3 0.659103249015 15.28848600 12.42944200 23.81007330
51 1 3 0.686609630891 15.91183100 11.25434900 23.08723630
52 1 4 -1.19824156965 15.22606500 11.62114200 23.48492330
53 1 2 0 10.74610700 16.76684700 23.56450830
54 1 3 0.670070812708 10.79944800 17.51104700 24.16413530
55 1 3 0.65527585345 11.09645100 16.02988700 24.06489030
56 1 4 -1.15309049651 10.79778300 16.76777400 23.70532230
57 1 2 0 10.92097000 4.49939700 23.57670830
58 1 3 0.608427442554 10.73334500 5.43784000 23.59550930
59 1 3 0.487058280914 11.43992200 4.37428700 22.78218430
60 1 4 -1.21186927023 10.96338400 4.60351300 23.47740630
61 1 2 0 11.20759600 7.43499100 23.63896930
62 1 3 0.615656104273 12.08038100 7.79234200 23.47532730
63 1 3 0.644124337612 10.71998500 8.16114200 24.02777930
64 1 4 -1.17468450159 11.25690300 7.57369300 23.66779430
65 1 2 0 2.77487200 2.13963000 23.80555830
66 1 3 0.502489100755 1.87563000 2.20241100 24.12751330
67 1 3 0.532755878864 3.06142600 1.26344600 24.06328030
68 1 4 -1.01828806087 2.69644000 2.03550400 23.87976330
69 1 2 0 6.66557400 7.03157500 23.85975330
70 1 3 0.557959764968 7.12119900 7.12854900 24.69595530
71 1 3 0.474534680122 7.35394200 7.11666000 23.20009930
72 1 4 -1.14018585688 6.81201900 7.05488100 23.88235330
73 1 2 0 13.64690200 1.83257800 24.19527930
74 1 3 0.594459191643 12.85765800 1.41328700 24.53809330
75 1 3 0.581767960228 13.96923300 2.36706000 24.92099530
76 1 4 -1.05683803295 13.58713200 1.84732400 24.33206430
77 1 2 0 5.00715200 4.70371400 24.22363830
78 1 3 0.601577049344 5.69863400 5.36154900 24.15057330
79 1 3 0.46204037492 4.71389900 4.56278300 23.32343130
80 1 4 -1.15421518738 5.05813000 4.76988400 24.09904830
81 1 2 0 15.07740200 5.32894500 24.27709430
82 1 3 0.49428700533 15.73547300 6.01263700 24.40255330
83 1 3 0.46795405391 14.93436300 5.30425000 23.33096330
84 1 4 -1.06158135568 15.14333200 5.41330500 24.17203830
85 1 2 0 1.93368600 15.47494700 24.31767830
86 1 3 0.575408934503 2.65042100 14.86751800 24.50085330
87 1 3 0.449614720692 2.23595500 15.98270500 23.56465230
88 1 4 -1.05986401423 2.06413000 15.46218800 24.24473030
89 1 2 0 9.63670000 9.69834100 24.31854630
90 1 3 0.511597649963 8.68003500 9.72351600 24.29875530
91 1 3 0.444281342295 9.90754500 10.40837200 23.73654030
92 1 4 -1.11410012371 9.54890600 9.79245600 24.24150930
93 1 2 0 4.31714800 14.06587000 24.39000730
94 1 3 0.479387439259 4.78988600 13.85099400 23.58590530
95 1 3 0.555802133353 4.04766500 13.21824400 24.74376130
96 1 4 -1.13722212744 4.34316700 13.92985700 24.33235730
97 1 2 0 8.26061000 12.83181700 24.44569030
98 1 3 0.668306716546 9.17832700 13.10211800 24.47678330
99 1 3 0.660210429603 7.78734700 13.53820400 24.88531730
100 1 4 -1.20867603818 8.31750600 12.95684500 24.50594830
101 1 2 0 3.49508600 18.95208400 24.47556130
102 1 3 0.495910752974 2.58902400 18.66568000 24.36042530
103 1 3 0.606183802831 3.69139100 18.76415800 25.39337430
104 1 4 -1.04692596199 3.40422900 18.89136400 24.57831330
105 1 2 0 6.70188600 10.48890000 24.57235630
106 1 3 0.483427269215 6.46010100 10.31878300 23.66195430
107 1 3 0.615095237178 7.31296500 11.22413700 24.52500130
108 1 4 -1.17376973846 6.74916000 10.56124200 24.44975230
109 1 2 0 15.29878900 14.08884200 24.76001430
110 1 3 0.671047737466 14.60940900 14.74576100 24.85719830
111 1 3 0.480139763233 16.08598800 14.51512300 25.09888730
112 1 4 -1.17293394542 15.31131100 14.22750500 24.81583530
113 1 2 0 10.77183900 14.15511100 24.80595330
114 1 3 0.602601864465 10.57829100 14.62850600 25.61506930
115 1 3 0.658253016128 11.47870900 13.55459400 25.04248130
116 1 4 -1.2290300439 10.83755000 14.13883800 24.93980830
117 1 2 0 16.91267600 2.62313000 24.96988530
118 1 3 0.56585229865 16.99912700 3.50638200 25.32852730
119 1 3 0.505385646299 16.30921700 2.72117700 24.23336830
120 1 4 -1.03477981936 16.84649300 2.74874800 24.92151230
121 1 2 0 6.30170800 2.23170000 24.98602930
122 1 3 0.654856277633 5.83233700 3.00106400 24.66353530
123 1 3 0.693942550415 6.33270000 1.63767700 24.23608930
124 1 4 -1.26562702609 6.24559000 2.25414600 24.84874530
125 1 2 0 11.01134000 1.83247200 25.20326530
126 1 3 0.62687222049 10.71999300 2.01679600 26.09622330
127 1 3 0.540324220024 11.10650300 2.69489800 24.79904030
128 1 4 -1.15940647444 10.98622600 1.96646900 25.26582930
129 1 2 0 13.32813600 15.90542400 25.21628930
130 1 3 0.597418948336 13.85549900 16.61335500 25.58636330
131 1 3 0.585814062899 12.97239400 15.44774900 25.97800630
132 1 4 -1.17709091853 13.35010600 15.93746000 25.36117230
133 1 2 0 12.52022500 12.01202700 25.25169830
134 1 3 0.564057390145 13.16850400 11.76504100 24.59218030
135 1 3 0.555398757801 12.46499600 11.25163700 25.83048030
136 1 4 -1.15781866761 12.59614300 11.88307100 25.24136330
137 1 2 0 16.40840300 19.45741800 25.26426230
138 1 3 0.517051580338 16.45952200 0.01605565 25.09025530
139 1 3 0.610231255097 16.01683600 19.08778600 24.47288430
140 1 4 -1.17213840651 16.36482200 19.53041400 25.14068130
141 1 2 0 8.47517700 18.06131700 25.42277330
142 1 3 0.574424286489 9.37481800 18.02996000 25.74818930
143 1 3 0.654740205138 8.14606800 17.17026200 25.54085130
144 1 4 -1.18902468843 8.54821200 17.94323700 25.47954630
145 1 2 0 15.19334000 8.74581100 25.53532230
146 1 3 0.599158173141 15.44104000 8.06498400 26.16090330
147 1 3 0.4978396041 15.78328000 9.47463600 25.72772030
148 1 4 -1.16349748839 15.30056800 8.75195500 25.64003330
149 1 2 0 0.84938300 5.70515300 25.53580530
150 1 3 0.58399341436 1.03248100 6.59229700 25.84513430
151 1 3 0.56608829738 1.58163000 5.18159800 25.86128430
152 1 4 -1.11579957236 0.96655800 5.75169700 25.61706830
153 1 2 0 11.22479500 18.68220300 25.59883530
154 1 3 0.528242894698 11.22328700 19.60210700 25.33424530
155 1 3 0.576974980954 12.03922400 18.57516400 26.09024130
156 1 4 -1.17782511197 11.32885800 18.78626000 25.62787030
157 1 2 0 0.41183400 11.55787700 25.60587830
158 1 3 0.596582920518 0.64613800 10.64146400 25.75257830
159 1 3 0.549596995724 1.16805100 11.92914000 25.15142030
160 1 4 -1.08435837654 0.53863300 11.48809100 25.56648230
161 1 2 0 8.12633200 4.17882000 25.81706730
162 1 3 0.520581730518 8.77924900 3.69358300 26.32152430
163 1 3 0.652560141368 7.91021400 3.60075600 25.08537830
164 1 4 -1.15947495414 8.18224700 4.04270400 25.78797930
165 1 2 0 7.56908800 15.36448100 25.83811130
166 1 3 0.6619169894 8.22538200 15.13923700 26.49748630
167 1 3 0.663897763766 6.73050100 15.24906300 26.28496930
168 1 4 -1.26664349636 7.54575200 15.32087200 25.97972230
169 1 2 0 0.99370900 8.71985900 25.85117430
170 1 3 0.423742823478 0.75134800 8.66391400 24.92685630
171 1 3 0.681473955503 1.94997400 8.76190300 25.84641530
172 1 4 -1.14658109538 1.08509800 8.71807900 25.73224130
173 1 2 0 12.80925900 5.16015400 25.90682430
174 1 3 0.547082147175 12.15851800 4.87924200 25.26350730
175 1 3 0.647490758507 13.60881700 5.29227200 25.39742730
176 1 4 -1.18034186282 12.82831000 5.14110600 25.75926230
177 1 2 0 8.66085300 7.03336900 26.04967530
178 1 3 0.624568680764 8.59535500 6.07871800 26.07381730
179 1 3 0.660923181812 9.58679200 7.21454900 26.21105330
180 1 4 -1.26012775801 8.77100000 6.93435600 26.07342430
181 1 2 0 3.89553600 11.60235000 26.06317630
182 1 3 0.546091050651 4.36255600 11.87078400 26.85442130
183 1 3 0.612571564333 4.10647500 10.67404100 25.96328430
184 1 4 -1.12406647359 3.98232300 11.51787800 26.15167730
185 1 2 0 3.62978500 8.71462200 26.07897430
186 1 3 0.638424062656 4.19971700 8.10610000 26.54919830
187 1 3 0.585048068563 3.81499100 8.55099900 25.15422730
188 1 4 -1.24765033264 3.72645200 8.61577800 26.02079030
189 1 2 0 3.21464800 4.26027600 26.49332830
190 1 3 0.515155344654 3.37191400 4.89379200 27.19343930
191 1 3 0.590118118126 3.82220800 4.51447600 25.79871730
192 1 4 -1.12730359197 3.31255500 4.37391400 26.49403230
193 1 2 0 14.18334800 18.39282300 26.57302230
194 1 3 0.606432156855 14.05279500 18.70785100 27.46741930
195 1 3 0.676163977647 14.96614200 18.85201600 26.26870830
196 1 4 -1.2068859878 14.26684300 18.49193300 26.64856030
197 1 2 0 6.69366900 8.81958100 26.69397730
198 1 3 0.682884122944 6.66206100 9.56283700 26.09164430
199 1 3 0.628186992202 7.49209700 8.34957300 26.45348230
200 1 4 -1.24912233173 6.79183100 8.85456000 26.58608530
201 1 2 0 9.63566200 11.01814000 26.78542030
202 1 3 0.595421427692 9.80181200 10.80716900 25.86666130
203 1 3 0.5560739607 8.84712900 11.56050100 26.76830830
204 1 4 -1.10382833555 9.55599000 11.06056200 26.66561830
205 1 2 0 2.56207100 1.31779700 26.86136530
206 1 3 0.615693566062 2.86473400 2.03251100 26.30117630
207 1 3 0.688658913916 3.10342600 1.38371200 27.64801730
208 1 4 -1.23291893322 2.67011600 1.41772700 26.89035530
209 1 2 0 1.35572600 16.76575200 26.97442730
210 1 3 0.457780411291 0.76187300 16.19088100 27.45722630
211 1 3 0.524651548592 1.52887500 16.29958600 26.15653930
212 1 4 -1.02224044897 1.30187100 16.63248700 26.93153130
213 1 2 0 15.20294000 12.00841700 26.99576630
214 1 3 0.533692583271 16.02440000 11.63625400 26.67493830
215 1 3 0.564679655695 15.01914100 12.73415100 26.39930930
216 1 4 -1.06810334601 15.28456800 12.05367800 26.87834230
217 1 2 0 14.20052200 2.94209600 26.99865430
218 1 3 0.580335061699 13.94774800 3.86530700 27.00281030
219 1 3 0.475020894441 14.89590700 2.88072000 27.65356130
220 1 4 -1.08221079107 14.25718100 3.05242100 27.08302230
221 1 2 0 11.24978600 7.42906100 27.02862630
222 1 3 0.55982813144 11.65519100 6.82977100 26.40194430
223 1 3 0.626313291539 10.98777200 6.87013000 27.76018530
224 1 4 -1.21825471021 11.26814200 7.28079500 27.04205230
225 1 2 0 4.12556900 17.85664100 27.04741530
226 1 3 0.687084390346 4.62032600 17.03731100 27.03536130
227 1 3 0.598045611664 3.20873000 17.58389200 27.01209730
228 1 4 -1.1596863258 4.07153700 17.71684200 27.04135130
229 1 2 0 13.02757000 9.70643000 27.07282030
230 1 3 0.674612653693 12.45232700 8.95602600 26.92375030
231 1 3 0.631737222874 13.84320600 9.47563300 26.62818230
232 1 4 -1.21855394924 13.05834300 9.58082500 26.99681930
233 1 2 0 5.09463500 15.28001200 27.15941430
234 1 3 0.509649364696 4.68903500 14.99026100 26.34224530
235 1 3 0.679619874575 5.01627300 14.52778700 27.74614230
236 1 4 -1.2489153769 5.03268200 15.14662600 27.12991530
237 1 2 0 6.66157900 0.62793900 27.18777830
238 1 3 0.65260482991 6.64215100 1.27150000 26.47948130
239 1 3 0.567562526657 6.86266800 20.18023435 26.75341430
240 1 4 -1.19937508418 6.68483400 0.60421000 27.04150430
241 1 2 0 9.88209000 14.93647000 27.29756330
242 1 3 0.485629138394 9.67706800 14.14177100 27.79016230
243 1 3 0.676834984047 10.37561600 15.47930100 27.91237830
244 1 4 -1.24013268308 9.91902200 14.90422800 27.43932630
245 1 2 0 7.39681800 12.82525900 27.51775430
246 1 3 0.563229585987 6.44357100 12.88146200 27.58404130
247 1 3 0.412489661638 7.67311700 12.44228000 28.35035130
248 1 4 -1.06826105658 7.31016100 12.78342800 27.63282230
249 1 2 0 10.32713300 2.90882100 27.55348030
250 1 3 0.686439557766 9.59637700 2.71213200 28.13960530
251 1 3 0.611040492216 10.47085900 3.84955300 27.65643630
252 1 4 -1.35983122508 10.25198600 3.00406800 27.64169130
253 1 2 0 13.08636200 14.70248000 27.75652730
254 1 3 0.473324276699 13.84954500 14.83373000 28.31916130
255 1 3 0.744879811706 12.89162000 13.76821100 27.83034430
256 1 4 -1.25830686353 13.15912900 14.59968400 27.83800030
257 1 2 0 15.86894400 6.99060100 27.75915330
258 1 3 0.447629583363 15.29772500 7.08061000 28.52193630
259 1 3 0.473195075963 16.66471700 7.46600900 27.99782430
260 1 4 -1.00033841452 15.89769000 7.06298100 27.88735130
261 1 2 0 5.11344400 6.80445900 27.87901130
262 1 3 0.596981625525 5.75585700 7.32598600 27.39781730
263 1 3 0.659211896943 5.57738500 5.99710300 28.10074930
264 1 4 -1.14952884981 5.25507000 6.76787000 27.84579730
265 1 2 0 0.21195400 1.70798400 27.89629830
266 1 3 0.723368828154 1.01377200 1.56700700 27.39286430
267 1 3 0.478591040949 17.34354205 0.91769200 27.74717830
268 1 4 -1.04932750535 0.24814900 1.58877100 27.81276330
269 1 2 0 12.39997200 12.20247200 28.07804930
270 1 3 0.712078236952 13.06349600 11.58825600 27.76387230
271 1 3 0.576891450073 11.63854200 12.03851500 27.52165530
272 1 4 -1.22151602947 12.38743900 12.10285700 27.96660630
273 1 2 0 12.13002900 1.09927700 28.33719430
274 1 3 0.538332592235 12.99724300 1.38319500 28.04811930
275 1 3 0.652093057612 11.53462500 1.77161700 28.00600730
276 1 4 -1.08971665755 12.16482400 1.22169000 28.25779330
277 1 2 0 4.82940600 12.94086300 28.46305530
278 1 3 0.456801680875 5.04059100 12.13789100 28.93936330
279 1 3 0.605145588315 3.90801500 13.10414900 28.66457030
280 1 4 -1.23167823577 4.73849100 12.85897500 28.54982430
281 1 2 0 6.39772100 4.46443500 28.63961930
282 1 3 0.6603301512 7.00222600 3.77491800 28.91416330
283 1 3 0.450144039539 6.37638800 4.39875300 27.68491330
284 1 4 -1.09382302005 6.47237400 4.36776000 28.55255030
285 1 2 0 1.91486700 13.23845100 28.66041730
286 1 3 0.492042813419 1.83367200 12.46438900 28.10322130
287 1 3 0.453611341221 1.06628100 13.67554600 28.58912830
288 1 4 -1.01608187478 1.79584400 13.19531500 28.57996430
289 1 2 0 9.81651600 18.75151400 28.70247830
290 1 3 0.60288355616 10.30103900 17.98385500 29.00607130
291 1 3 0.542878734459 10.40674300 19.17743600 28.08082230
292 1 4 -1.1150372817 9.95409700 18.70776800 28.66176230
293 1 2 0 11.38663600 16.46598000 28.87761430
294 1 3 0.648974565475 12.14939100 16.00750800 28.52513730
295 1 3 0.433435776805 11.22185300 16.04443800 29.72104830
296 1 4 -1.21328114076 11.46318300 16.35332800 28.94046230
297 1 2 0 4.50752500 1.14806100 28.94505830
298 1 3 0.631768533878 5.27861900 1.26247800 28.38958030
299 1 3 0.548233536603 4.52803900 0.22481600 29.19690830
300 1 4 -1.10303115297 4.60886100 1.04452100 28.90619030
301 1 2 0 10.16258100 5.47986400 28.95691530
302 1 3 0.491547890476 9.46082900 5.86992400 29.47809630
303 1 3 0.430574185698 10.78444500 5.14588700 29.60342630
304 1 4 -1.06498196323 10.15235400 5.48704300 29.10639430
305 1 2 0 8.19492700 2.24313000 29.08671030
306 1 3 0.573709796057 7.92380100 1.55035300 28.48439430
307 1 3 0.50989116123 8.54768800 1.77743200 29.84494430
308 1 4 -1.19562893772 8.20537700 2.09483100 29.10667030
309 1 2 0 15.05156300 19.31191500 29.12141530
310 1 3 0.440612107679 14.47225600 19.29359700 29.88318930
311 1 3 0.417782812584 15.35830900 20.21744000 29.07490830
312 1 4 -0.964606223822 15.01667200 19.42548800 29.21297830
313 1 2 0 2.52582400 9.94933400 29.33243830
314 1 3 0.43713598365 2.51448200 10.63251900 30.00278330
315 1 3 0.456278890508 3.45518100 9.79256400 29.16525330
316 1 4 -0.908293850263 2.64334100 10.01672100 29.39684930
317 1 2 0 7.65495200 9.21183300 29.36535130
318 1 3 0.432286785406 8.27486400 9.81540900 29.77478630
319 1 3 0.552298040487 7.81334800 9.30574300 28.42603130
320 1 4 -0.950398722357 7.75458500 9.30111900 29.29751930
321 1 2 0 7.30022100 17.67514900 29.50165530
322 1 3 0.600766792245 8.09221800 18.08947200 29.15915230
323 1 3 0.438342900279 7.51513200 16.74326100 29.54201330
324 1 4 -0.972789352542 7.42911700 17.60889400 29.46297730
325 1 1 0.000137220043717 0.00000000 0.00000000 10.00000000
326 1 1 0.000175666238331 1.47088817 2.54765304 10.00000000
327 1 1 0.000137289630131 0.00000000 5.09530609 10.00000000
328 1 1 0.000215416850211 1.47088817 7.64295913 10.00000000
329 1 1 0.00019373217177 0.00000000 10.19061218 10.00000000
330 1 1 0.000254275732203 1.47088817 12.73826522 10.00000000
331 1 1 0.000187090996389 0.00000000 15.28591827 10.00000000
332 1 1 0.000214386181059 1.47088817 17.83357131 10.00000000
333 1 1 0.000203562386752 2.94177634 0.00000000 10.00000000
334 1 1 0.000201726315798 4.41266451 2.54765304 10.00000000
335 1 1 0.00022240638955 2.94177634 5.09530609 10.00000000
336 1 1 0.000271597741169 4.41266451 7.64295913 10.00000000
337 1 1 0.000279616947652 2.94177634 10.19061218 10.00000000
338 1 1 0.000249956572064 4.41266451 12.73826522 10.00000000
339 1 1 0.000247404217082 2.94177634 15.28591827 10.00000000
340 1 1 0.000192126182851 4.41266451 17.83357131 10.00000000
341 1 1 0.000141768237786 5.88355268 0.00000000 10.00000000
342 1 1 0.000147250876045 7.35444085 2.54765304 10.00000000
343 1 1 0.000230443707032 5.88355268 5.09530609 10.00000000
344 1 1 0.000229534650478 7.35444085 7.64295913 10.00000000
345 1 1 0.000244919444193 5.88355268 10.19061218 10.00000000
346 1 1 0.000137974037889 7.35444085 12.73826522 10.00000000
347 1 1 0.000157330010147 5.88355268 15.28591827 10.00000000
348 1 1 5.34327544694e-05 7.35444085 17.83357131 10.00000000
349 1 1 2.32762555217e-05 8.82532903 0.00000000 10.00000000
350 1 1 5.28013196936e-05 10.29621720 2.54765304 10.00000000
351 1 1 0.000169757099656 8.82532903 5.09530609 10.00000000
352 1 1 0.000145305976352 10.29621720 7.64295913 10.00000000
353 1 1 0.000142265797947 8.82532903 10.19061218 10.00000000
354 1 1 1.40092189206e-05 10.29621720 12.73826522 10.00000000
355 1 1 8.70518709759e-06 8.82532903 15.28591827 10.00000000
356 1 1 -6.52266294403e-05 10.29621720 17.83357131 10.00000000
357 1 1 -4.80426157617e-05 11.76710537 0.00000000 10.00000000
358 1 1 1.083954913e-05 13.23799354 2.54765304 10.00000000
359 1 1 8.42167797951e-05 11.76710537 5.09530609 10.00000000
360 1 1 8.75432235657e-05 13.23799354 7.64295913 10.00000000
361 1 1 6.31533959944e-05 11.76710537 10.19061218 10.00000000
362 1 1 3.85888569164e-06 13.23799354 12.73826522 10.00000000
363 1 1 -6.54040227088e-05 11.76710537 15.28591827 10.00000000
364 1 1 -5.47461884464e-05 13.23799354 17.83357131 10.00000000
365 1 1 8.11633319915e-06 14.70888171 0.00000000 10.00000000
366 1 1 6.96739511909e-05 16.17976988 2.54765304 10.00000000
367 1 1 6.07662215964e-05 14.70888171 5.09530609 10.00000000
368 1 1 0.000115850534629 16.17976988 7.64295913 10.00000000
369 1 1 8.51943435667e-05 14.70888171 10.19061218 10.00000000
370 1 1 0.000129346324714 16.17976988 12.73826522 10.00000000
371 1 1 2.50917056589e-05 14.70888171 15.28591827 10.00000000
372 1 1 8.92501291965e-05 16.17976988 17.83357131 10.00000000
373 1 1 0.000352836531036 1.47088817 0.84921768 12.40195032
374 1 1 0.000493036774386 2.94177634 3.39687073 12.40195032
375 1 1 0.000515532057807 1.47088817 5.94452377 12.40195032
376 1 1 0.000597029314333 2.94177634 8.49217681 12.40195032
377 1 1 0.00056995843609 1.47088817 11.03982986 12.40195032
378 1 1 0.000548347628632 2.94177634 13.58748290 12.40195032
379 1 1 0.000372401853543 1.47088817 16.13513595 12.40195032
380 1 1 0.000307597275804 2.94177634 18.68278899 12.40195032
381 1 1 0.000345485081654 4.41266451 0.84921768 12.40195032
382 1 1 0.000472096844113 5.88355268 3.39687073 12.40195032
383 1 1 0.000594287548401 4.41266451 5.94452377 12.40195032
384 1 1 0.000613008271784 5.88355268 8.49217681 12.40195032
385 1 1 0.000614148979805 4.41266451 11.03982986 12.40195032
386 1 1 0.000466874662911 5.88355268 13.58748290 12.40195032
387 1 1 0.000363940227139 4.41266451 16.13513595 12.40195032
388 1 1 0.000196275074557 5.88355268 18.68278899 12.40195032
389 1 1 0.000205288306938 7.35444085 0.84921768 12.40195032
390 1 1 0.000317409905093 8.82532903 3.39687073 12.40195032
391 1 1 0.000541852187228 7.35444085 5.94452377 12.40195032
392 1 1 0.000486513134057 8.82532903 8.49217681 12.40195032
393 1 1 0.00050759718955 7.35444085 11.03982986 12.40195032
394 1 1 0.000261868937016 8.82532903 13.58748290 12.40195032
395 1 1 0.000205668838676 7.35444085 16.13513595 12.40195032
396 1 1 4.58722693099e-05 8.82532903 18.68278899 12.40195032
397 1 1 7.12636611301e-05 10.29621720 0.84921768 12.40195032
398 1 1 0.000158417802712 11.76710537 3.39687073 12.40195032
399 1 1 0.00035833434188 10.29621720 5.94452377 12.40195032
400 1 1 0.000314749936255 11.76710537 8.49217681 12.40195032
401 1 1 0.000315541510133 10.29621720 11.03982986 12.40195032
402 1 1 0.000126155491815 11.76710537 13.58748290 12.40195032
403 1 1 3.6117489398e-05 10.29621720 16.13513595 12.40195032
404 1 1 -4.19112956014e-05 11.76710537 18.68278899 12.40195032
405 1 1 3.18712912499e-05 13.23799354 0.84921768 12.40195032
406 1 1 0.000188235275354 14.70888171 3.39687073 12.40195032
407 1 1 0.000247154804835 13.23799354 5.94452377 12.40195032
408 1 1 0.000328898540505 14.70888171 8.49217681 12.40195032
409 1 1 0.000253954688211 13.23799354 11.03982986 12.40195032
410 1 1 0.000197028443348 14.70888171 13.58748290 12.40195032
411 1 1 1.48761320573e-06 13.23799354 16.13513595 12.40195032
412 1 1 1.87762881029e-05 14.70888171 18.68278899 12.40195032
413 1 1 0.00018547591262 16.17976988 0.84921768 12.40195032
414 1 1 0.000379082741448 0.00000000 3.39687073 12.40195032
415 1 1 0.000354722626347 16.17976988 5.94452377 12.40195032
416 1 1 0.000487704206671 0.00000000 8.49217681 12.40195032
417 1 1 0.00039975606415 16.17976988 11.03982986 12.40195032
418 1 1 0.000428841087786 0.00000000 13.58748290 12.40195032
419 1 1 0.000167337518044 16.17976988 16.13513595 12.40195032
420 1 1 0.000215826991944 0.00000000 18.68278899 12.40195032
421 1 1 -0.000168358080857 2.94177634 1.69843536 14.80390065
422 1 1 -0.000366996997069 4.41266451 4.24608841 14.80390065
423 1 1 -0.00025308355543 2.94177634 6.79374145 14.80390065
424 1 1 -0.000455688531056 4.41266451 9.34139450 14.80390065
425 1 1 -0.000397563495726 2.94177634 11.88904754 14.80390065
426 1 1 -0.000577844390926 4.41266451 14.43670058 14.80390065
427 1 1 -0.000925803127902 2.94177634 16.98435363 14.80390065
428 1 1 -0.000767219295301 4.41266451 19.53200667 14.80390065
429 1 1 -0.000541097278429 5.88355268 1.69843536 14.80390065
430 1 1 -0.00043177453183 7.35444085 4.24608841 14.80390065
431 1 1 -0.000559068831561 5.88355268 6.79374145 14.80390065
432 1 1 -0.00035392439864 7.35444085 9.34139450 14.80390065
433 1 1 -0.00025984322708 5.88355268 11.88904754 14.80390065
434 1 1 0.000268789737587 7.35444085 14.43670058 14.80390065
435 1 1 -0.00048054465109 5.88355268 16.98435363 14.80390065
436 1 1 -0.00039771866058 7.35444085 19.53200667 14.80390065
437 1 1 -0.000266902537599 8.82532903 1.69843536 14.80390065
438 1 1 -0.000330193082628 10.29621720 4.24608841 14.80390065
439 1 1 -0.00032707610791 8.82532903 6.79374145 14.80390065
440 1 1 1.08501473751e-05 10.29621720 9.34139450 14.80390065
441 1 1 0.000220463748056 8.82532903 11.88904754 14.80390065
442 1 1 0.000560264731965 10.29621720 14.43670058 14.80390065
443 1 1 0.0003623381575 8.82532903 16.98435363 14.80390065
444 1 1 0.00010790562816 10.29621720 19.53200667 14.80390065
445 1 1 -0.00018893840094 11.76710537 1.69843536 14.80390065
446 1 1 -0.000256089473741 13.23799354 4.24608841 14.80390065
447 1 1 -8.42949130023e-05 11.76710537 6.79374145 14.80390065
448 1 1 0.000181361643578 13.23799354 9.34139450 14.80390065
449 1 1 0.000172025134055 11.76710537 11.88904754 14.80390065
450 1 1 -3.08433286116e-05 13.23799354 14.43670058 14.80390065
451 1 1 0.000280235152516 11.76710537 16.98435363 14.80390065
452 1 1 -6.15784833466e-05 13.23799354 19.53200667 14.80390065
453 1 1 -6.00454081111e-05 14.70888171 1.69843536 14.80390065
454 1 1 0.000154018775931 16.17976988 4.24608841 14.80390065
455 1 1 4.92225325465e-05 14.70888171 6.79374145 14.80390065
456 1 1 0.00014607073958 16.17976988 9.34139450 14.80390065
457 1 1 2.16611738985e-05 14.70888171 11.88904754 14.80390065
458 1 1 -0.000480811879111 16.17976988 14.43670058 14.80390065
459 1 1 -0.000424108506168 14.70888171 16.98435363 14.80390065
460 1 1 -0.000312240507579 16.17976988 19.53200667 14.80390065
461 1 1 0.000170533290485 0.00000000 1.69843536 14.80390065
462 1 1 0.000235189413198 1.47088817 4.24608841 14.80390065
463 1 1 0.000133162791287 0.00000000 6.79374145 14.80390065
464 1 1 -9.88430758508e-05 1.47088817 9.34139450 14.80390065
465 1 1 -0.000115739881937 0.00000000 11.88904754 14.80390065
466 1 1 -0.000709504726131 1.47088817 14.43670058 14.80390065
467 1 1 -0.000812468966474 0.00000000 16.98435363 14.80390065
468 1 1 -0.000480814117255 1.47088817 19.53200667 14.80390065
469 1 1 -0.00349383569161 4.41266451 2.54765304 17.20585097
470 1 1 -0.00478370813692 5.88355268 5.09530609 17.20585097
471 1 1 -0.00556935810876 4.41266451 7.64295913 17.20585097
472 1 1 -0.00503066059316 5.88355268 10.19061218 17.20585097
473 1 1 -0.0048403163632 4.41266451 12.73826522 17.20585097
474 1 1 -0.0025651862059 5.88355268 15.28591827 17.20585097
475 1 1 -0.00504406988474 4.41266451 17.83357131 17.20585097
476 1 1 -0.00358617429585 5.88355268 0.00000000 17.20585097
477 1 1 -0.00278972605725 7.35444085 2.54765304 17.20585097
478 1 1 -0.00343173700765 8.82532903 5.09530609 17.20585097
479 1 1 -0.00500650680147 7.35444085 7.64295913 17.20585097
480 1 1 -0.00277926715916 8.82532903 10.19061218 17.20585097
481 1 1 -0.00141376296321 7.35444085 12.73826522 17.20585097
482 1 1 0.00250665082764 8.82532903 15.28591827 17.20585097
483 1 1 -0.000648182714004 7.35444085 17.83357131 17.20585097
484 1 1 -0.000157822038678 8.82532903 0.00000000 17.20585097
485 1 1 -0.00134873955953 10.29621720 2.54765304 17.20585097
486 1 1 -0.00256935602783 11.76710537 5.09530609 17.20585097
487 1 1 -0.00275691471039 10.29621720 7.64295913 17.20585097
488 1 1 -0.00102581025181 11.76710537 10.19061218 17.20585097
489 1 1 0.000674689839747 10.29621720 12.73826522 17.20585097
490 1 1 0.00208418977714 11.76710537 15.28591827 17.20585097
491 1 1 0.00285343972944 10.29621720 17.83357131 17.20585097
492 1 1 0.00110905511628 11.76710537 0.00000000 17.20585097
493 1 1 -0.00112241285369 13.23799354 2.54765304 17.20585097
494 1 1 -0.00165369643188 14.70888171 5.09530609 17.20585097
495 1 1 -0.00136321628688 13.23799354 7.64295913 17.20585097
496 1 1 -0.000796002403655 14.70888171 10.19061218 17.20585097
497 1 1 -0.000399414962985 13.23799354 12.73826522 17.20585097
498 1 1 -0.00176764268694 14.70888171 15.28591827 17.20585097
499 1 1 0.000866125149838 13.23799354 17.83357131 17.20585097
500 1 1 -0.000104887909023 14.70888171 0.00000000 17.20585097
501 1 1 -0.000290567495073 16.17976988 2.54765304 17.20585097
502 1 1 -0.000987426567744 0.00000000 5.09530609 17.20585097
503 1 1 -0.00151171697504 16.17976988 7.64295913 17.20585097
504 1 1 -0.00215599286303 0.00000000 10.19061218 17.20585097
505 1 1 -0.00214112650364 16.17976988 12.73826522 17.20585097
506 1 1 -0.00478854029477 0.00000000 15.28591827 17.20585097
507 1 1 -0.00283158362718 16.17976988 17.83357131 17.20585097
508 1 1 -0.0015477016571 0.00000000 0.00000000 17.20585097
509 1 1 -0.0009252287577 1.47088817 2.54765304 17.20585097
510 1 1 -0.00328401699383 2.94177634 5.09530609 17.20585097
511 1 1 -0.00323675679205 1.47088817 7.64295913 17.20585097
512 1 1 -0.00462949335064 2.94177634 10.19061218 17.20585097
513 1 1 -0.00427220043892 1.47088817 12.73826522 17.20585097
514 1 1 -0.00593039495753 2.94177634 15.28591827 17.20585097
515 1 1 -0.00509607165909 1.47088817 17.83357131 17.20585097
516 1 1 -0.00355359315255 2.94177634 0.00000000 17.20585097
517 1 1 -0.00686098350783 5.88355268 3.39687073 19.60780130
518 1 1 -0.0098613749171 7.35444085 5.94452377 19.60780130
519 1 1 -0.0126791591828 5.88355268 8.49217681 19.60780130
520 1 1 -0.00723962629527 7.35444085 11.03982986 19.60780130
521 1 1 -0.00523914350969 5.88355268 13.58748290 19.60780130
522 1 1 0.00529017597362 7.35444085 16.13513595 19.60780130
523 1 1 -0.00376059051336 5.88355268 18.68278899 19.60780130
524 1 1 -0.000777785658425 7.35444085 0.84921768 19.60780130
525 1 1 -0.00263957736383 8.82532903 3.39687073 19.60780130
526 1 1 -0.00521505181422 10.29621720 5.94452377 19.60780130
527 1 1 -0.00818693735527 8.82532903 8.49217681 19.60780130
528 1 1 -0.00181352234957 10.29621720 11.03982986 19.60780130
529 1 1 0.00591495114775 8.82532903 13.58748290 19.60780130
530 1 1 0.0129452670003 10.29621720 16.13513595 19.60780130
531 1 1 0.00797777054844 8.82532903 18.68278899 19.60780130
532 1 1 0.00483068196289 10.29621720 0.84921768 19.60780130
533 1 1 -0.00186702621363 11.76710537 3.39687073 19.60780130
534 1 1 -0.00306267897494 13.23799354 5.94452377 19.60780130
535 1 1 -0.00194753715552 11.76710537 8.49217681 19.60780130
536 1 1 0.000259937859077 13.23799354 11.03982986 19.60780130
537 1 1 0.00479104853985 11.76710537 13.58748290 19.60780130
538 1 1 0.00479952142047 13.23799354 16.13513595 19.60780130
539 1 1 0.00997603572646 11.76710537 18.68278899 19.60780130
540 1 1 0.00413691797042 13.23799354 0.84921768 19.60780130
541 1 1 -0.00051364290109 14.70888171 3.39687073 19.60780130
542 1 1 -0.00192911481464 16.17976988 5.94452377 19.60780130
543 1 1 -0.000461486542526 14.70888171 8.49217681 19.60780130
544 1 1 -0.000515531914095 16.17976988 11.03982986 19.60780130
545 1 1 -0.00116157801769 14.70888171 13.58748290 19.60780130
546 1 1 -0.00569841093853 16.17976988 16.13513595 19.60780130
547 1 1 0.00275222405246 14.70888171 18.68278899 19.60780130
548 1 1 0.00274889537024 16.17976988 0.84921768 19.60780130
549 1 1 0.00211091425466 0.00000000 3.39687073 19.60780130
550 1 1 -0.00415447961993 1.47088817 5.94452377 19.60780130
551 1 1 -0.00362668734591 0.00000000 8.49217681 19.60780130
552 1 1 -0.00579016595692 1.47088817 11.03982986 19.60780130
553 1 1 -0.00674647044207 0.00000000 13.58748290 19.60780130
554 1 1 -0.0116145882526 1.47088817 16.13513595 19.60780130
555 1 1 -0.00391263288717 0.00000000 18.68278899 19.60780130
556 1 1 -1.53416834151e-05 1.47088817 0.84921768 19.60780130
557 1 1 -0.00306706295061 2.94177634 3.39687073 19.60780130
558 1 1 -0.0107790648317 4.41266451 5.94452377 19.60780130
559 1 1 -0.00962432953927 2.94177634 8.49217681 19.60780130
560 1 1 -0.0109901591664 4.41266451 11.03982986 19.60780130
561 1 1 -0.0114141673111 2.94177634 13.58748290 19.60780130
562 1 1 -0.00930845176707 4.41266451 16.13513595 19.60780130
563 1 1 -0.0078821159187 2.94177634 18.68278899 19.60780130
564 1 1 -0.00494167864891 4.41266451 0.84921768 19.60780130
