ITEM: TIMESTEP
0
ITEM: NUMBER OF ATOMS
240
ITEM: BOX BOUNDS pp pp ff
0.0000000000000000e+00 1.7650658050000001e+01
0.0000000000000000e+00 2.0381224350000000e+01
0.0000000000000000e+00 6.0000000000000000e+01
ITEM: ATOMS id type q
1 1 -0.024065290698
2 1 -0.0240652815835
3 1 -0.0240652731845
4 1 -0.0240652807056
5 1 -0.0240652907173
6 1 -0.0240652815909
7 1 -0.0240652731758
8 1 -0.0240652806857
9 1 -0.0240652907027
10 1 -0.0240652815908
11 1 -0.0240652731892
12 1 -0.0240652807129
13 1 -0.0240652907221
14 1 -0.0240652815982
15 1 -0.0240652731805
16 1 -0.024065280693
17 1 -0.024065290711
18 1 -0.0240652815975
19 1 -0.0240652731975
20 1 -0.0240652807196
21 1 -0.0240652907304
22 1 -0.0240652816049
23 1 -0.0240652731888
24 1 -0.0240652806997
25 1 -0.0240652907136
26 1 -0.024065281595
27 1 -0.0240652732001
28 1 -0.024065280717
29 1 -0.024065290733
30 1 -0.0240652816023
31 1 -0.0240652731914
32 1 -0.0240652806971
33 1 -0.0240652907069
34 1 -0.0240652815866
35 1 -0.0240652731934
36 1 -0.0240652807087
37 1 -0.0240652907263
38 1 -0.024065281594
39 1 -0.0240652731847
40 1 -0.0240652806888
41 1 -0.0240652906996
42 1 -0.0240652815819
43 1 -0.0240652731861
44 1 -0.024065280704
45 1 -0.0240652907189
46 1 -0.0240652815893
47 1 -0.0240652731774
48 1 -0.0240652806841
49 1 -0.00159592147709
50 1 -0.00159590732885
51 1 -0.00159590657262
52 1 -0.00159592035054
53 1 -0.00159592148857
54 1 -0.00159590732942
55 1 -0.00159590656197
56 1 -0.00159592033479
57 1 -0.00159592148178
58 1 -0.00159590733433
59 1 -0.00159590657731
60 1 -0.00159592035601
61 1 -0.00159592149326
62 1 -0.00159590733489
63 1 -0.00159590656666
64 1 -0.00159592034026
65 1 -0.00159592148627
66 1 -0.00159590733608
67 1 -0.00159590658181
68 1 -0.00159592035776
69 1 -0.00159592149776
70 1 -0.00159590733664
71 1 -0.00159590657115
72 1 -0.00159592034201
73 1 -0.00159592148452
74 1 -0.00159590733158
75 1 -0.00159590658005
76 1 -0.00159592035327
77 1 -0.001595921496
78 1 -0.00159590733215
79 1 -0.0015959065694
80 1 -0.00159592033752
81 1 -0.00159592147905
82 1 -0.00159590732689
83 1 -0.00159590657458
84 1 -0.00159592034858
85 1 -0.00159592149053
86 1 -0.00159590732746
87 1 -0.00159590656393
88 1 -0.00159592033283
89 1 -0.0015959214762
90 1 -0.00159590732601
91 1 -0.00159590657173
92 1 -0.00159592034769
93 1 -0.00159592148768
94 1 -0.00159590732657
95 1 -0.00159590656108
96 1 -0.00159592033194
97 1 -8.07780384502e-07
98 1 -8.04336871494e-07
99 1 -8.07799599007e-07
100 1 -8.11245200429e-07
101 1 -8.07782228615e-07
102 1 -8.04332700357e-07
103 1 -8.07791921125e-07
104 1 -8.1123869264e-07
105 1 -8.07780377204e-07
106 1 -8.04336865368e-07
107 1 -8.07799591702e-07
108 1 -8.11245194273e-07
109 1 -8.07782221293e-07
110 1 -8.04332694238e-07
111 1 -8.07791913833e-07
112 1 -8.11238686498e-07
113 1 -8.07780374637e-07
114 1 -8.04336867925e-07
115 1 -8.0779958914e-07
116 1 -8.11245196849e-07
117 1 -8.07782218748e-07
118 1 -8.04332696784e-07
119 1 -8.07791911277e-07
120 1 -8.1123868904e-07
121 1 -8.0778038076e-07
122 1 -8.04336875237e-07
123 1 -8.07799595266e-07
124 1 -8.11245204156e-07
125 1 -8.07782224884e-07
126 1 -8.04332704108e-07
127 1 -8.07791917391e-07
128 1 -8.11238696371e-07
129 1 -8.07780387546e-07
130 1 -8.04336879957e-07
131 1 -8.07799602045e-07
132 1 -8.11245208891e-07
133 1 -8.07782231639e-07
134 1 -8.04332708821e-07
135 1 -8.0779192418e-07
136 1 -8.11238701087e-07
137 1 -8.07780389238e-07
138 1 -8.04336878262e-07
139 1 -8.07799603736e-07
140 1 -8.11245207207e-07
141 1 -8.07782233331e-07
142 1 -8.04332707148e-07
143 1 -8.07791925876e-07
144 1 -8.11238699388e-07
145 1 0.00163711235967
146 1 0.00163711120422
147 1 0.00163709751475
148 1 0.00163709830169
149 1 0.00163711236465
150 1 0.00163711121015
151 1 0.00163709751751
152 1 0.00163709829989
153 1 0.00163711236413
154 1 0.00163711120595
155 1 0.00163709751921
156 1 0.00163709830343
157 1 0.00163711236911
158 1 0.00163711121189
159 1 0.00163709752197
160 1 0.00163709830162
161 1 0.0016371123624
162 1 0.00163711120149
163 1 0.00163709751748
164 1 0.00163709829897
165 1 0.00163711236737
166 1 0.00163711120743
167 1 0.00163709752023
168 1 0.00163709829716
169 1 0.00163711235695
170 1 0.00163711119681
171 1 0.00163709751203
172 1 0.00163709829429
173 1 0.00163711236193
174 1 0.00163711120275
175 1 0.00163709751479
176 1 0.00163709829248
177 1 0.0016371123541
178 1 0.00163711119592
179 1 0.00163709750918
180 1 0.0016370982934
181 1 0.00163711235908
182 1 0.00163711120186
183 1 0.00163709751194
184 1 0.00163709829159
185 1 0.00163711235499
186 1 0.00163711119877
187 1 0.00163709751007
188 1 0.00163709829624
189 1 0.00163711235997
190 1 0.00163711120471
191 1 0.00163709751283
192 1 0.00163709829444
193 1 0.0240249075908
194 1 0.0240248975769
195 1 0.0240248900795
196 1 0.0240248984854
197 1 0.0240249075988
198 1 0.0240248975817
199 1 0.0240248900778
200 1 0.0240248984787
201 1 0.0240249075934
202 1 0.0240248975743
203 1 0.0240248900821
204 1 0.0240248984827
205 1 0.0240249076014
206 1 0.0240248975791
207 1 0.0240248900804
208 1 0.024024898476
209 1 0.0240249075866
210 1 0.0240248975659
211 1 0.0240248900754
212 1 0.0240248984744
213 1 0.0240249075946
214 1 0.0240248975707
215 1 0.0240248900736
216 1 0.0240248984677
217 1 0.0240249075792
218 1 0.0240248975612
219 1 0.024024890068
220 1 0.0240248984696
221 1 0.0240249075872
222 1 0.024024897566
223 1 0.0240248900662
224 1 0.0240248984629
225 1 0.0240249075777
226 1 0.0240248975628
227 1 0.0240248900664
228 1 0.0240248984712
229 1 0.0240249075856
230 1 0.0240248975676
231 1 0.0240248900647
232 1 0.0240248984645
233 1 0.0240249075824
234 1 0.0240248975701
235 1 0.0240248900711
236 1 0.0240248984786
237 1 0.0240249075904
238 1 0.024024897575
239 1 0.0240248900694
240 1 0.0240248984719
