ITEM: TIMESTEP
0
ITEM: NUMBER OF ATOMS
240
ITEM: BOX BOUNDS pp pp ff
0.0000000000000000e+00 1.7650658050000001e+01
0.0000000000000000e+00 2.0381224350000000e+01
0.0000000000000000e+00 6.0000000000000000e+01
ITEM: ATOMS id type q
1 1 -0.0550006073803
2 1 -0.055000285842
3 1 -0.0550001854888
4 1 -0.0550004402052
5 1 -0.0550006067733
6 1 -0.0550002854282
7 1 -0.0550001854948
8 1 -0.0550004406428
9 1 -0.0550006075798
10 1 -0.055000286117
11 1 -0.0550001856883
12 1 -0.0550004404802
13 1 -0.0550006069728
14 1 -0.0550002857033
15 1 -0.0550001856944
16 1 -0.0550004409178
17 1 -0.0550006078607
18 1 -0.0550002863265
19 1 -0.0550001859692
20 1 -0.0550004406897
21 1 -0.0550006072537
22 1 -0.0550002859128
23 1 -0.0550001859753
24 1 -0.0550004411274
25 1 -0.055000607938
26 1 -0.0550002862492
27 1 -0.0550001860465
28 1 -0.0550004406124
29 1 -0.055000607331
30 1 -0.0550002858355
31 1 -0.0550001860526
32 1 -0.0550004410501
33 1 -0.0550006077285
34 1 -0.0550002859683
35 1 -0.055000185837
36 1 -0.0550004403315
37 1 -0.0550006071215
38 1 -0.0550002855545
39 1 -0.0550001858431
40 1 -0.0550004407691
41 1 -0.0550006074535
42 1 -0.0550002857688
43 1 -0.055000185562
44 1 -0.055000440132
45 1 -0.0550006068465
46 1 -0.055000285355
47 1 -0.055000185568
48 1 -0.0550004405696
49 1 0.0479831621198
50 1 0.0479834553006
51 1 0.0479833246263
52 1 0.0479830961089
53 1 0.0479831625488
54 1 0.0479834555214
55 1 0.0479833245101
56 1 0.0479830957232
57 1 0.0479831619536
58 1 0.0479834551279
59 1 0.04798332446
60 1 0.0479830959362
61 1 0.0479831623826
62 1 0.0479834553488
63 1 0.0479833243438
64 1 0.0479830955505
65 1 0.0479831618222
66 1 0.0479834550785
67 1 0.0479833243287
68 1 0.0479830958869
69 1 0.0479831622512
70 1 0.0479834552994
71 1 0.0479833242125
72 1 0.0479830955011
73 1 0.0479831618716
74 1 0.0479834552099
75 1 0.0479833243781
76 1 0.0479830960182
77 1 0.0479831623006
78 1 0.0479834554307
79 1 0.0479833242619
80 1 0.0479830956325
81 1 0.0479831620442
82 1 0.0479834553761
83 1 0.0479833245507
84 1 0.0479830961844
85 1 0.0479831624732
86 1 0.047983455597
87 1 0.0479833244345
88 1 0.0479830957987
89 1 0.0479831621595
90 1 0.0479834554158
91 1 0.0479833246659
92 1 0.0479830962241
93 1 0.0479831625885
94 1 0.0479834556366
95 1 0.0479833245498
96 1 0.0479830958384
97 1 -0.00134704258451
98 1 -0.00134693912296
99 1 -0.00134705348431
100 1 -0.00134715630799
101 1 -0.00134704260429
102 1 -0.00134693908639
103 1 -0.00134705342305
104 1 -0.00134715626816
105 1 -0.00134704258556
106 1 -0.00134693912342
107 1 -0.00134705348536
108 1 -0.00134715630845
109 1 -0.00134704260533
110 1 -0.00134693908685
111 1 -0.00134705342409
112 1 -0.00134715626862
113 1 -0.00134704258562
114 1 -0.00134693912335
115 1 -0.00134705348542
116 1 -0.00134715630838
117 1 -0.0013470426054
118 1 -0.00134693908678
119 1 -0.00134705342416
120 1 -0.00134715626855
121 1 -0.00134704258516
122 1 -0.0013469391223
123 1 -0.00134705348496
124 1 -0.00134715630733
125 1 -0.00134704260494
126 1 -0.00134693908574
127 1 -0.00134705342369
128 1 -0.0013471562675
129 1 -0.00134704258383
130 1 -0.00134693912118
131 1 -0.00134705348363
132 1 -0.00134715630621
133 1 -0.0013470426036
134 1 -0.00134693908461
135 1 -0.00134705342236
136 1 -0.00134715626638
137 1 -0.00134704258339
138 1 -0.00134693912162
139 1 -0.00134705348319
140 1 -0.00134715630665
141 1 -0.00134704260316
142 1 -0.00134693908505
143 1 -0.00134705342192
144 1 -0.00134715626682
145 1 -0.0457536327851
146 1 -0.0457535770486
147 1 -0.0457538002377
148 1 -0.0457539195771
149 1 -0.0457536331047
150 1 -0.0457535769384
151 1 -0.0457537997941
152 1 -0.0457539190472
153 1 -0.0457536326592
154 1 -0.0457535770016
155 1 -0.0457538001119
156 1 -0.0457539195301
157 1 -0.0457536329789
158 1 -0.0457535768915
159 1 -0.0457537996683
160 1 -0.0457539190002
161 1 -0.0457536327062
162 1 -0.0457535771274
163 1 -0.0457538001588
164 1 -0.0457539196559
165 1 -0.0457536330259
166 1 -0.0457535770173
167 1 -0.0457537997153
168 1 -0.045753919126
169 1 -0.0457536328731
170 1 -0.0457535772892
171 1 -0.0457538003257
172 1 -0.0457539198177
173 1 -0.0457536331927
174 1 -0.0457535771791
175 1 -0.0457537998821
176 1 -0.0457539192878
177 1 -0.0457536329856
178 1 -0.045753577328
179 1 -0.0457538004382
180 1 -0.0457539198565
181 1 -0.0457536333052
182 1 -0.0457535772178
183 1 -0.0457537999946
184 1 -0.0457539193265
185 1 -0.0457536329469
186 1 -0.0457535772155
187 1 -0.0457538003995
188 1 -0.045753919744
189 1 -0.0457536332665
190 1 -0.0457535771053
191 1 -0.0457537999559
192 1 -0.045753919214
193 1 0.0541181225949
194 1 0.054117956466
195 1 0.0541177121254
196 1 0.0541178118254
197 1 0.0541181223444
198 1 0.054117956773
199 1 0.0541177127951
200 1 0.0541178124803
201 1 0.0541181226733
202 1 0.0541179563876
203 1 0.0541177122037
204 1 0.054117811747
205 1 0.0541181224227
206 1 0.0541179566946
207 1 0.0541177128735
208 1 0.0541178124019
209 1 0.0541181224622
210 1 0.0541179561071
211 1 0.0541177119926
212 1 0.0541178114665
213 1 0.0541181222116
214 1 0.0541179564141
215 1 0.0541177126624
216 1 0.0541178121214
217 1 0.0541181221895
218 1 0.0541179559099
219 1 0.05411771172
220 1 0.0541178112693
221 1 0.054118121939
222 1 0.054117956217
223 1 0.0541177123897
224 1 0.0541178119243
225 1 0.0541181221173
226 1 0.0541179559822
227 1 0.0541177116477
228 1 0.0541178113416
229 1 0.0541181218667
230 1 0.0541179562892
231 1 0.0541177123174
232 1 0.0541178119965
233 1 0.0541181223144
234 1 0.0541179562549
235 1 0.0541177118449
236 1 0.0541178116143
237 1 0.0541181220639
238 1 0.0541179565619
239 1 0.0541177125146
240 1 0.0541178122692
