ITEM: TIMESTEP
0
ITEM: NUMBER OF ATOMS
564
ITEM: BOX BOUNDS pp pp ff
0.0000000000000000e+00 1.7650658050000001e+01
0.0000000000000000e+00 2.0381224350000000e+01
0.0000000000000000e+00 6.0000000000000000e+01
ITEM: ATOMS id mol type q x y z
1 1 2 0 8.24512200 15.58107900 22.60780130
2 1 3 0.650730485026 8.99930700 15.99494600 23.02750430
3 1 3 0.637033774358 7.50380600 16.13955400 22.84187130
4 1 4 -1.08666503171 8.24676900 15.70555000 22.69149230
5 1 2 0 15.94739500 18.39865100 22.69035230
6 1 3 0.513035225969 16.71765600 18.46088800 22.12550130
7 1 3 0.436200077045 15.55165300 17.55682700 22.46462430
8 1 4 -1.02791129875 15.99533800 18.29885400 22.58914830
9 1 2 0 17.43363900 10.16011000 22.73132430
10 1 3 0.416792379235 17.04728200 9.37132900 22.35081830
11 1 3 0.537382255662 0.66633495 9.89504700 22.98756730
12 1 4 -1.02941466623 17.49726000 10.02520600 22.71541730
13 1 2 0 1.34938300 4.55603100 22.80664330
14 1 3 0.46613015518 2.25303400 4.29537500 22.62858430
15 1 3 0.543914264437 1.36124800 4.85802700 23.71487830
16 1 4 -0.981360316777 1.46658000 4.56132300 22.90011430
17 1 2 0 13.79454900 8.69815200 22.91890230
18 1 3 0.523755850102 13.76817500 9.65498800 22.91982030
19 1 3 0.572726555874 14.31482300 8.47167600 23.68978230
20 1 4 -1.09800281208 13.85777400 8.79164700 23.01770230
21 1 2 0 2.45384200 11.13179700 23.00931330
22 1 3 0.452966780495 3.34523300 10.88819200 23.25893330
23 1 3 0.416665163294 2.56797500 11.78723500 22.32112330
24 1 4 -0.971134509583 2.58256100 11.18451700 22.95317030
25 1 2 0 5.78675400 16.92692800 23.09641330
26 1 3 0.473048545889 5.28323000 16.47580400 23.77404430
27 1 3 0.417611693315 5.17677800 17.01724400 22.36429030
28 1 4 -1.0227509631 5.64421300 16.88074000 23.08943730
29 1 2 0 9.01000400 19.57176400 23.18088730
30 1 3 0.622307530418 8.78238800 19.25232600 24.05403330
31 1 3 0.518165071025 8.18499100 19.55303200 22.69587630
32 1 4 -1.04516808881 8.87525500 19.52847400 23.23057330
33 1 2 0 8.83043300 2.85815800 23.19435430
34 1 3 0.554518351009 9.21769000 2.02205600 23.45357830
35 1 3 0.645117641309 9.56648500 3.46996200 23.18191330
36 1 4 -1.11894658826 8.97423000 2.82944500 23.22594530
37 1 2 0 6.02784200 0.12173500 23.20701130
38 1 3 0.44707081548 5.47821600 0.33162200 22.45196730
39 1 3 0.553428103266 5.79197900 19.60317635 23.43282430
40 1 4 -1.08823334168 5.92729000 0.03342000 23.13926330
41 1 2 0 4.18397800 8.35952700 23.26490830
42 1 3 0.571586506574 5.05229100 7.96143000 23.32642530
43 1 3 0.439522835356 3.81527900 8.00719600 22.45487330
44 1 4 -1.08707660228 4.24793400 8.26346300 23.16908830
45 1 2 0 0.45553800 19.51483400 23.37309230
46 1 3 0.488396269898 0.12126100 20.35801600 23.67892930
47 1 3 0.560658446054 0.15406600 18.88529700 24.02809630
48 1 4 -1.03358388655 0.37415500 19.54218300 23.49609230
49 1 2 0 15.09732900 11.54517500 23.49740530
50 1 3 0.647146577841 15.28848600 12.42944200 23.81007330
51 1 3 0.669432448443 15.91183100 11.25434900 23.08723630
52 1 4 -1.19354898842 15.22606500 11.62114200 23.48492330
53 1 2 0 10.74610700 16.76684700 23.56450830
54 1 3 0.666333009409 10.79944800 17.51104700 24.16413530
55 1 3 0.649660401696 11.09645100 16.02988700 24.06489030
56 1 4 -1.16247328493 10.79778300 16.76777400 23.70532230
57 1 2 0 10.92097000 4.49939700 23.57670830
58 1 3 0.593813310219 10.73334500 5.43784000 23.59550930
59 1 3 0.452655811451 11.43992200 4.37428700 22.78218430
60 1 4 -1.19246167606 10.96338400 4.60351300 23.47740630
61 1 2 0 11.20759600 7.43499100 23.63896930
62 1 3 0.60410336498 12.08038100 7.79234200 23.47532730
63 1 3 0.638719798667 10.71998500 8.16114200 24.02777930
64 1 4 -1.17570912477 11.25690300 7.57369300 23.66779430
65 1 2 0 2.77487200 2.13963000 23.80555830
66 1 3 0.498606380339 1.87563000 2.20241100 24.12751330
67 1 3 0.527556655438 3.06142600 1.26344600 24.06328030
68 1 4 -1.02182000849 2.69644000 2.03550400 23.87976330
69 1 2 0 6.66557400 7.03157500 23.85975330
70 1 3 0.556135384271 7.12119900 7.12854900 24.69595530
71 1 3 0.448033286704 7.35394200 7.11666000 23.20009930
72 1 4 -1.12986139971 6.81201900 7.05488100 23.88235330
73 1 2 0 13.64690200 1.83257800 24.19527930
74 1 3 0.58964643031 12.85765800 1.41328700 24.53809330
75 1 3 0.584323700764 13.96923300 2.36706000 24.92099530
76 1 4 -1.06675193602 13.58713200 1.84732400 24.33206430
77 1 2 0 5.00715200 4.70371400 24.22363830
78 1 3 0.592467649845 5.69863400 5.36154900 24.15057330
79 1 3 0.441192708202 4.71389900 4.56278300 23.32343130
80 1 4 -1.14243549804 5.05813000 4.76988400 24.09904830
81 1 2 0 15.07740200 5.32894500 24.27709430
82 1 3 0.485610535689 15.73547300 6.01263700 24.40255330
83 1 3 0.440313480779 14.93436300 5.30425000 23.33096330
84 1 4 -1.04810206837 15.14333200 5.41330500 24.17203830
85 1 2 0 1.93368600 15.47494700 24.31767830
86 1 3 0.570671539031 2.65042100 14.86751800 24.50085330
87 1 3 0.430832818207 2.23595500 15.98270500 23.56465230
88 1 4 -1.05432398602 2.06413000 15.46218800 24.24473030
89 1 2 0 9.63670000 9.69834100 24.31854630
90 1 3 0.504121674016 8.68003500 9.72351600 24.29875530
91 1 3 0.423332379485 9.90754500 10.40837200 23.73654030
92 1 4 -1.10486247031 9.54890600 9.79245600 24.24150930
93 1 2 0 4.31714800 14.06587000 24.39000730
94 1 3 0.460931288412 4.78988600 13.85099400 23.58590530
95 1 3 0.553125942328 4.04766500 13.21824400 24.74376130
96 1 4 -1.1291866199 4.34316700 13.92985700 24.33235730
97 1 2 0 8.26061000 12.83181700 24.44569030
98 1 3 0.662176165153 9.17832700 13.10211800 24.47678330
99 1 3 0.659731279373 7.78734700 13.53820400 24.88531730
100 1 4 -1.21103214625 8.31750600 12.95684500 24.50594830
101 1 2 0 3.49508600 18.95208400 24.47556130
102 1 3 0.490139858148 2.58902400 18.66568000 24.36042530
103 1 3 0.607590412366 3.69139100 18.76415800 25.39337430
104 1 4 -1.04793094347 3.40422900 18.89136400 24.57831330
105 1 2 0 6.70188600 10.48890000 24.57235630
106 1 3 0.463802653273 6.46010100 10.31878300 23.66195430
107 1 3 0.608052287553 7.31296500 11.22413700 24.52500130
108 1 4 -1.1628438915 6.74916000 10.56124200 24.44975230
109 1 2 0 15.29878900 14.08884200 24.76001430
110 1 3 0.665072523955 14.60940900 14.74576100 24.85719830
111 1 3 0.476233636812 16.08598800 14.51512300 25.09888730
112 1 4 -1.17251190521 15.31131100 14.22750500 24.81583530
113 1 2 0 10.77183900 14.15511100 24.80595330
114 1 3 0.605455142231 10.57829100 14.62850600 25.61506930
115 1 3 0.653592087436 11.47870900 13.55459400 25.04248130
116 1 4 -1.23202551835 10.83755000 14.13883800 24.93980830
117 1 2 0 16.91267600 2.62313000 24.96988530
118 1 3 0.563482432829 16.99912700 3.50638200 25.32852730
119 1 3 0.490483650126 16.30921700 2.72117700 24.23336830
120 1 4 -1.02903492567 16.84649300 2.74874800 24.92151230
121 1 2 0 6.30170800 2.23170000 24.98602930
122 1 3 0.649889861018 5.83233700 3.00106400 24.66353530
123 1 3 0.687169188297 6.33270000 1.63767700 24.23608930
124 1 4 -1.26121820721 6.24559000 2.25414600 24.84874530
125 1 2 0 11.01134000 1.83247200 25.20326530
126 1 3 0.627674867445 10.71999300 2.01679600 26.09622330
127 1 3 0.53918207382 11.10650300 2.69489800 24.79904030
128 1 4 -1.15998324015 10.98622600 1.96646900 25.26582930
129 1 2 0 13.32813600 15.90542400 25.21628930
130 1 3 0.596536469586 13.85549900 16.61335500 25.58636330
131 1 3 0.587319843734 12.97239400 15.44774900 25.97800630
132 1 4 -1.18028094006 13.35010600 15.93746000 25.36117230
133 1 2 0 12.52022500 12.01202700 25.25169830
134 1 3 0.557013692509 13.16850400 11.76504100 24.59218030
135 1 3 0.555691450724 12.46499600 11.25163700 25.83048030
136 1 4 -1.15634878096 12.59614300 11.88307100 25.24136330
137 1 2 0 16.40840300 19.45741800 25.26426230
138 1 3 0.514490127599 16.45952200 0.01605565 25.09025530
139 1 3 0.604057492913 16.01683600 19.08778600 24.47288430
140 1 4 -1.16828001621 16.36482200 19.53041400 25.14068130
141 1 2 0 8.47517700 18.06131700 25.42277330
142 1 3 0.575065838085 9.37481800 18.02996000 25.74818930
143 1 3 0.65570616145 8.14606800 17.17026200 25.54085130
144 1 4 -1.18991557592 8.54821200 17.94323700 25.47954630
145 1 2 0 15.19334000 8.74581100 25.53532230
146 1 3 0.599039944667 15.44104000 8.06498400 26.16090330
147 1 3 0.498746663539 15.78328000 9.47463600 25.72772030
148 1 4 -1.16372727493 15.30056800 8.75195500 25.64003330
149 1 2 0 0.84938300 5.70515300 25.53580530
150 1 3 0.583295846902 1.03248100 6.59229700 25.84513430
151 1 3 0.56666867404 1.58163000 5.18159800 25.86128430
152 1 4 -1.11710953311 0.96655800 5.75169700 25.61706830
153 1 2 0 11.22479500 18.68220300 25.59883530
154 1 3 0.522757199602 11.22328700 19.60210700 25.33424530
155 1 3 0.575494846392 12.03922400 18.57516400 26.09024130
156 1 4 -1.17597468739 11.32885800 18.78626000 25.62787030
157 1 2 0 0.41183400 11.55787700 25.60587830
158 1 3 0.597033607171 0.64613800 10.64146400 25.75257830
159 1 3 0.547065695353 1.16805100 11.92914000 25.15142030
160 1 4 -1.08382845866 0.53863300 11.48809100 25.56648230
161 1 2 0 8.12633200 4.17882000 25.81706730
162 1 3 0.520949169176 8.77924900 3.69358300 26.32152430
163 1 3 0.651511684702 7.91021400 3.60075600 25.08537830
164 1 4 -1.15923632828 8.18224700 4.04270400 25.78797930
165 1 2 0 7.56908800 15.36448100 25.83811130
166 1 3 0.662060924387 8.22538200 15.13923700 26.49748630
167 1 3 0.663613226623 6.73050100 15.24906300 26.28496930
168 1 4 -1.26638198971 7.54575200 15.32087200 25.97972230
169 1 2 0 0.99370900 8.71985900 25.85117430
170 1 3 0.422337498678 0.75134800 8.66391400 24.92685630
171 1 3 0.680822230283 1.94997400 8.76190300 25.84641530
172 1 4 -1.14592369459 1.08509800 8.71807900 25.73224130
173 1 2 0 12.80925900 5.16015400 25.90682430
174 1 3 0.546579641658 12.15851800 4.87924200 25.26350730
175 1 3 0.645853779279 13.60881700 5.29227200 25.39742730
176 1 4 -1.17952466654 12.82831000 5.14110600 25.75926230
177 1 2 0 8.66085300 7.03336900 26.04967530
178 1 3 0.624299423699 8.59535500 6.07871800 26.07381730
179 1 3 0.661235007746 9.58679200 7.21454900 26.21105330
180 1 4 -1.26017793221 8.77100000 6.93435600 26.07342430
181 1 2 0 3.89553600 11.60235000 26.06317630
182 1 3 0.5458523754 4.36255600 11.87078400 26.85442130
183 1 3 0.612496777156 4.10647500 10.67404100 25.96328430
184 1 4 -1.12369393112 3.98232300 11.51787800 26.15167730
185 1 2 0 3.62978500 8.71462200 26.07897430
186 1 3 0.638297120412 4.19971700 8.10610000 26.54919830
187 1 3 0.583876164896 3.81499100 8.55099900 25.15422730
188 1 4 -1.24706152457 3.72645200 8.61577800 26.02079030
189 1 2 0 3.21464800 4.26027600 26.49332830
190 1 3 0.515019255123 3.37191400 4.89379200 27.19343930
191 1 3 0.590234946377 3.82220800 4.51447600 25.79871730
192 1 4 -1.12732199236 3.31255500 4.37391400 26.49403230
193 1 2 0 14.18334800 18.39282300 26.57302230
194 1 3 0.606670987308 14.05279500 18.70785100 27.46741930
195 1 3 0.675013409778 14.96614200 18.85201600 26.26870830
196 1 4 -1.2070855934 14.26684300 18.49193300 26.64856030
197 1 2 0 6.69366900 8.81958100 26.69397730
198 1 3 0.682600030488 6.66206100 9.56283700 26.09164430
199 1 3 0.628458329317 7.49209700 8.34957300 26.45348230
200 1 4 -1.24905446819 6.79183100 8.85456000 26.58608530
201 1 2 0 9.63566200 11.01814000 26.78542030
202 1 3 0.597099676329 9.80181200 10.80716900 25.86666130
203 1 3 0.557147714968 8.84712900 11.56050100 26.76830830
204 1 4 -1.10495625937 9.55599000 11.06056200 26.66561830
205 1 2 0 2.56207100 1.31779700 26.86136530
206 1 3 0.617011007627 2.86473400 2.03251100 26.30117630
207 1 3 0.688621883005 3.10342600 1.38371200 27.64801730
208 1 4 -1.23334305447 2.67011600 1.41772700 26.89035530
209 1 2 0 1.35572600 16.76575200 26.97442730
210 1 3 0.457477503826 0.76187300 16.19088100 27.45722630
211 1 3 0.524030669467 1.52887500 16.29958600 26.15653930
212 1 4 -1.02201235626 1.30187100 16.63248700 26.93153130
213 1 2 0 15.20294000 12.00841700 26.99576630
214 1 3 0.534092586699 16.02440000 11.63625400 26.67493830
215 1 3 0.566236973489 15.01914100 12.73415100 26.39930930
216 1 4 -1.06881968845 15.28456800 12.05367800 26.87834230
217 1 2 0 14.20052200 2.94209600 26.99865430
218 1 3 0.58021911807 13.94774800 3.86530700 27.00281030
219 1 3 0.475039136599 14.89590700 2.88072000 27.65356130
220 1 4 -1.08226508687 14.25718100 3.05242100 27.08302230
221 1 2 0 11.24978600 7.42906100 27.02862630
222 1 3 0.560792174722 11.65519100 6.82977100 26.40194430
223 1 3 0.626244238539 10.98777200 6.87013000 27.76018530
224 1 4 -1.21862582193 11.26814200 7.28079500 27.04205230
225 1 2 0 4.12556900 17.85664100 27.04741530
226 1 3 0.687185887021 4.62032600 17.03731100 27.03536130
227 1 3 0.59832076638 3.20873000 17.58389200 27.01209730
228 1 4 -1.16002381792 4.07153700 17.71684200 27.04135130
229 1 2 0 13.02757000 9.70643000 27.07282030
230 1 3 0.674975728823 12.45232700 8.95602600 26.92375030
231 1 3 0.632305128071 13.84320600 9.47563300 26.62818230
232 1 4 -1.21893618821 13.05834300 9.58082500 26.99681930
233 1 2 0 5.09463500 15.28001200 27.15941430
234 1 3 0.509644634152 4.68903500 14.99026100 26.34224530
235 1 3 0.679595781794 5.01627300 14.52778700 27.74614230
236 1 4 -1.24894204739 5.03268200 15.14662600 27.12991530
237 1 2 0 6.66157900 0.62793900 27.18777830
238 1 3 0.652688339307 6.64215100 1.27150000 26.47948130
239 1 3 0.567583381813 6.86266800 20.18023435 26.75341430
240 1 4 -1.19946817937 6.68483400 0.60421000 27.04150430
241 1 2 0 9.88209000 14.93647000 27.29756330
242 1 3 0.485823548834 9.67706800 14.14177100 27.79016230
243 1 3 0.676884191391 10.37561600 15.47930100 27.91237830
244 1 4 -1.24047197012 9.91902200 14.90422800 27.43932630
245 1 2 0 7.39681800 12.82525900 27.51775430
246 1 3 0.563174903516 6.44357100 12.88146200 27.58404130
247 1 3 0.412394558053 7.67311700 12.44228000 28.35035130
248 1 4 -1.0681604054 7.31016100 12.78342800 27.63282230
249 1 2 0 10.32713300 2.90882100 27.55348030
250 1 3 0.686419842408 9.59637700 2.71213200 28.13960530
251 1 3 0.611015304177 10.47085900 3.84955300 27.65643630
252 1 4 -1.35993557056 10.25198600 3.00406800 27.64169130
253 1 2 0 13.08636200 14.70248000 27.75652730
254 1 3 0.473497077417 13.84954500 14.83373000 28.31916130
255 1 3 0.74492195703 12.89162000 13.76821100 27.83034430
256 1 4 -1.25843571078 13.15912900 14.59968400 27.83800030
257 1 2 0 15.86894400 6.99060100 27.75915330
258 1 3 0.447632163562 15.29772500 7.08061000 28.52193630
259 1 3 0.473141056197 16.66471700 7.46600900 27.99782430
260 1 4 -1.00031363609 15.89769000 7.06298100 27.88735130
261 1 2 0 5.11344400 6.80445900 27.87901130
262 1 3 0.596987544986 5.75585700 7.32598600 27.39781730
263 1 3 0.659234691587 5.57738500 5.99710300 28.10074930
264 1 4 -1.14955373966 5.25507000 6.76787000 27.84579730
265 1 2 0 0.21195400 1.70798400 27.89629830
266 1 3 0.723389148811 1.01377200 1.56700700 27.39286430
267 1 3 0.478593173146 17.34354205 0.91769200 27.74717830
268 1 4 -1.04937268716 0.24814900 1.58877100 27.81276330
269 1 2 0 12.39997200 12.20247200 28.07804930
270 1 3 0.71207799321 13.06349600 11.58825600 27.76387230
271 1 3 0.576912094246 11.63854200 12.03851500 27.52165530
272 1 4 -1.22154361015 12.38743900 12.10285700 27.96660630
273 1 2 0 12.13002900 1.09927700 28.33719430
274 1 3 0.538357792128 12.99724300 1.38319500 28.04811930
275 1 3 0.65206405389 11.53462500 1.77161700 28.00600730
276 1 4 -1.08965945846 12.16482400 1.22169000 28.25779330
277 1 2 0 4.82940600 12.94086300 28.46305530
278 1 3 0.456828241976 5.04059100 12.13789100 28.93936330
279 1 3 0.605175326425 3.90801500 13.10414900 28.66457030
280 1 4 -1.23167552133 4.73849100 12.85897500 28.54982430
281 1 2 0 6.39772100 4.46443500 28.63961930
282 1 3 0.660322242658 7.00222600 3.77491800 28.91416330
283 1 3 0.450090274106 6.37638800 4.39875300 27.68491330
284 1 4 -1.09379168581 6.47237400 4.36776000 28.55255030
285 1 2 0 1.91486700 13.23845100 28.66041730
286 1 3 0.491937837436 1.83367200 12.46438900 28.10322130
287 1 3 0.453541143927 1.06628100 13.67554600 28.58912830
288 1 4 -1.0160052226 1.79584400 13.19531500 28.57996430
289 1 2 0 9.81651600 18.75151400 28.70247830
290 1 3 0.602953807552 10.30103900 17.98385500 29.00607130
291 1 3 0.54310156215 10.40674300 19.17743600 28.08082230
292 1 4 -1.11517650569 9.95409700 18.70776800 28.66176230
293 1 2 0 11.38663600 16.46598000 28.87761430
294 1 3 0.648982834882 12.14939100 16.00750800 28.52513730
295 1 3 0.433421315319 11.22185300 16.04443800 29.72104830
296 1 4 -1.21325949348 11.46318300 16.35332800 28.94046230
297 1 2 0 4.50752500 1.14806100 28.94505830
298 1 3 0.631735109204 5.27861900 1.26247800 28.38958030
299 1 3 0.548256769815 4.52803900 0.22481600 29.19690830
300 1 4 -1.10300283894 4.60886100 1.04452100 28.90619030
301 1 2 0 10.16258100 5.47986400 28.95691530
302 1 3 0.491555370106 9.46082900 5.86992400 29.47809630
303 1 3 0.430594876158 10.78444500 5.14588700 29.60342630
304 1 4 -1.06498642177 10.15235400 5.48704300 29.10639430
305 1 2 0 8.19492700 2.24313000 29.08671030
306 1 3 0.573668229994 7.92380100 1.55035300 28.48439430
307 1 3 0.509892756738 8.54768800 1.77743200 29.84494430
308 1 4 -1.19558938879 8.20537700 2.09483100 29.10667030
309 1 2 0 15.05156300 19.31191500 29.12141530
310 1 3 0.440606177625 14.47225600 19.29359700 29.88318930
311 1 3 0.41778008676 15.35830900 20.21744000 29.07490830
312 1 4 -0.964574544263 15.01667200 19.42548800 29.21297830
313 1 2 0 2.52582400 9.94933400 29.33243830
314 1 3 0.437128244943 2.51448200 10.63251900 30.00278330
315 1 3 0.456280626357 3.45518100 9.79256400 29.16525330
316 1 4 -0.908271923277 2.64334100 10.01672100 29.39684930
317 1 2 0 7.65495200 9.21183300 29.36535130
318 1 3 0.432271504461 8.27486400 9.81540900 29.77478630
319 1 3 0.552211380493 7.81334800 9.30574300 28.42603130
320 1 4 -0.950340405241 7.75458500 9.30111900 29.29751930
321 1 2 0 7.30022100 17.67514900 29.50165530
322 1 3 0.600753258343 8.09221800 18.08947200 29.15915230
323 1 3 0.438343268837 7.51513200 16.74326100 29.54201330
324 1 4 -0.972780561921 7.42911700 17.60889400 29.46297730
325 1 1 0.000239788919167 0.00000000 0.00000000 10.00000000
326 1 1 0.000269885225389 1.47088817 2.54765304 10.00000000
327 1 1 0.000235506130971 0.00000000 5.09530609 10.00000000
328 1 1 0.000304979409258 1.47088817 7.64295913 10.00000000
329 1 1 0.000286821436679 0.00000000 10.19061218 10.00000000
330 1 1 0.0003405874376 1.47088817 12.73826522 10.00000000
331 1 1 0.000283278025823 0.00000000 15.28591827 10.00000000
332 1 1 0.000305372341484 1.47088817 17.83357131 10.00000000
333 1 1 0.000291242417227 2.94177634 0.00000000 10.00000000
334 1 1 0.000291093138752 4.41266451 2.54765304 10.00000000
335 1 1 0.000312718750903 2.94177634 5.09530609 10.00000000
336 1 1 0.000364023754273 4.41266451 7.64295913 10.00000000
337 1 1 0.000366435267428 2.94177634 10.19061218 10.00000000
338 1 1 0.000338689436617 4.41266451 12.73826522 10.00000000
339 1 1 0.00033141206658 2.94177634 15.28591827 10.00000000
340 1 1 0.000277864044398 4.41266451 17.83357131 10.00000000
341 1 1 0.000232669201323 5.88355268 0.00000000 10.00000000
342 1 1 0.000247098068489 7.35444085 2.54765304 10.00000000
343 1 1 0.000327033575441 5.88355268 5.09530609 10.00000000
344 1 1 0.000337533886095 7.35444085 7.64295913 10.00000000
345 1 1 0.000344442339678 5.88355268 10.19061218 10.00000000
346 1 1 0.000246045573118 7.35444085 12.73826522 10.00000000
347 1 1 0.000251347807494 5.88355268 15.28591827 10.00000000
348 1 1 0.000153768489022 7.35444085 17.83357131 10.00000000
349 1 1 0.000130334766926 8.82532903 0.00000000 10.00000000
350 1 1 0.000168245549238 10.29621720 2.54765304 10.00000000
351 1 1 0.000281746343345 8.82532903 5.09530609 10.00000000
352 1 1 0.000267077770115 10.29621720 7.64295913 10.00000000
353 1 1 0.000261067255707 8.82532903 10.19061218 10.00000000
354 1 1 0.000139221656791 10.29621720 12.73826522 10.00000000
355 1 1 0.000123716759927 8.82532903 15.28591827 10.00000000
356 1 1 5.30894622141e-05 10.29621720 17.83357131 10.00000000
357 1 1 7.22347843757e-05 11.76710537 0.00000000 10.00000000
358 1 1 0.000130948724707 13.23799354 2.54765304 10.00000000
359 1 1 0.000205340062272 11.76710537 5.09530609 10.00000000
360 1 1 0.000207051733438 13.23799354 7.64295913 10.00000000
361 1 1 0.000188791946199 11.76710537 10.19061218 10.00000000
362 1 1 0.000126790472826 13.23799354 12.73826522 10.00000000
363 1 1 6.06976338027e-05 11.76710537 15.28591827 10.00000000
364 1 1 6.9246979056e-05 13.23799354 17.83357131 10.00000000
365 1 1 0.000127009756455 14.70888171 0.00000000 10.00000000
366 1 1 0.000179185086336 16.17976988 2.54765304 10.00000000
367 1 1 0.00017448364276 14.70888171 5.09530609 10.00000000
368 1 1 0.000218793071918 16.17976988 7.64295913 10.00000000
369 1 1 0.000197935024227 14.70888171 10.19061218 10.00000000
370 1 1 0.000232782545384 16.17976988 12.73826522 10.00000000
371 1 1 0.000142528216918 14.70888171 15.28591827 10.00000000
372 1 1 0.0002008409473 16.17976988 17.83357131 10.00000000
373 1 1 -0.000612288808076 1.47088817 0.84921768 12.40195032
374 1 1 -0.000487143369378 2.94177634 3.39687073 12.40195032
375 1 1 -0.000457367838349 1.47088817 5.94452377 12.40195032
376 1 1 -0.000375925707728 2.94177634 8.49217681 12.40195032
377 1 1 -0.000400326472648 1.47088817 11.03982986 12.40195032
378 1 1 -0.000430151910645 2.94177634 13.58748290 12.40195032
379 1 1 -0.000593318230112 1.47088817 16.13513595 12.40195032
380 1 1 -0.000663757918612 2.94177634 18.68278899 12.40195032
381 1 1 -0.000630452940386 4.41266451 0.84921768 12.40195032
382 1 1 -0.000497675378043 5.88355268 3.39687073 12.40195032
383 1 1 -0.000380689972817 4.41266451 5.94452377 12.40195032
384 1 1 -0.000347291416747 5.88355268 8.49217681 12.40195032
385 1 1 -0.000356857780353 4.41266451 11.03982986 12.40195032
386 1 1 -0.000494706278445 5.88355268 13.58748290 12.40195032
387 1 1 -0.000609212561195 4.41266451 16.13513595 12.40195032
388 1 1 -0.000766007272893 5.88355268 18.68278899 12.40195032
389 1 1 -0.00074828687328 7.35444085 0.84921768 12.40195032
390 1 1 -0.000622363499568 8.82532903 3.39687073 12.40195032
391 1 1 -0.000409323378119 7.35444085 5.94452377 12.40195032
392 1 1 -0.000443598286547 8.82532903 8.49217681 12.40195032
393 1 1 -0.000436466462608 7.35444085 11.03982986 12.40195032
394 1 1 -0.000664317155801 8.82532903 13.58748290 12.40195032
395 1 1 -0.000738153891658 7.35444085 16.13513595 12.40195032
396 1 1 -0.000884963418836 8.82532903 18.68278899 12.40195032
397 1 1 -0.000852612931946 10.29621720 0.84921768 12.40195032
398 1 1 -0.000760521833091 11.76710537 3.39687073 12.40195032
399 1 1 -0.000564031455539 10.29621720 5.94452377 12.40195032
400 1 1 -0.000597713519947 11.76710537 8.49217681 12.40195032
401 1 1 -0.000599390544364 10.29621720 11.03982986 12.40195032
402 1 1 -0.000780562133355 11.76710537 13.58748290 12.40195032
403 1 1 -0.000875831185075 10.29621720 16.13513595 12.40195032
404 1 1 -0.000948063747664 11.76710537 18.68278899 12.40195032
405 1 1 -0.000879593257687 13.23799354 0.84921768 12.40195032
406 1 1 -0.000740452944373 14.70888171 3.39687073 12.40195032
407 1 1 -0.000672704012437 13.23799354 5.94452377 12.40195032
408 1 1 -0.000599187458547 14.70888171 8.49217681 12.40195032
409 1 1 -0.000660081184247 13.23799354 11.03982986 12.40195032
410 1 1 -0.000724079860972 14.70888171 13.58748290 12.40195032
411 1 1 -0.000901138145014 13.23799354 16.13513595 12.40195032
412 1 1 -0.000888275665678 14.70888171 18.68278899 12.40195032
413 1 1 -0.000744816798769 16.17976988 0.84921768 12.40195032
414 1 1 -0.000580680253785 0.00000000 3.39687073 12.40195032
415 1 1 -0.000591759537642 16.17976988 5.94452377 12.40195032
416 1 1 -0.000470686976082 0.00000000 8.49217681 12.40195032
417 1 1 -0.000542714731695 16.17976988 11.03982986 12.40195032
418 1 1 -0.000528591713757 0.00000000 13.58748290 12.40195032
419 1 1 -0.000759584692293 16.17976988 16.13513595 12.40195032
420 1 1 -0.000724860020268 0.00000000 18.68278899 12.40195032
421 1 1 -0.00177320251438 2.94177634 1.69843536 14.80390065
422 1 1 -0.00196991742102 4.41266451 4.24608841 14.80390065
423 1 1 -0.0018065159822 2.94177634 6.79374145 14.80390065
424 1 1 -0.00200473607488 4.41266451 9.34139450 14.80390065
425 1 1 -0.00193855228612 2.94177634 11.88904754 14.80390065
426 1 1 -0.0021440555701 4.41266451 14.43670058 14.80390065
427 1 1 -0.00246844021601 2.94177634 16.98435363 14.80390065
428 1 1 -0.00229870954642 4.41266451 19.53200667 14.80390065
429 1 1 -0.00211178974782 5.88355268 1.69843536 14.80390065
430 1 1 -0.00203725186151 7.35444085 4.24608841 14.80390065
431 1 1 -0.00215180609446 5.88355268 6.79374145 14.80390065
432 1 1 -0.00198537804776 7.35444085 9.34139450 14.80390065
433 1 1 -0.00186785677024 5.88355268 11.88904754 14.80390065
434 1 1 -0.0013262948023 7.35444085 14.43670058 14.80390065
435 1 1 -0.00199387479942 5.88355268 16.98435363 14.80390065
436 1 1 -0.00191514577997 7.35444085 19.53200667 14.80390065
437 1 1 -0.00184770999957 8.82532903 1.69843536 14.80390065
438 1 1 -0.00192767355449 10.29621720 4.24608841 14.80390065
439 1 1 -0.0019436417213 8.82532903 6.79374145 14.80390065
440 1 1 -0.00163094296656 10.29621720 9.34139450 14.80390065
441 1 1 -0.00144801944834 8.82532903 11.88904754 14.80390065
442 1 1 -0.00108731058359 10.29621720 14.43670058 14.80390065
443 1 1 -0.00119379297559 8.82532903 16.98435363 14.80390065
444 1 1 -0.00147786841727 10.29621720 19.53200667 14.80390065
445 1 1 -0.00180696408916 11.76710537 1.69843536 14.80390065
446 1 1 -0.00186792402086 13.23799354 4.24608841 14.80390065
447 1 1 -0.0016748891145 11.76710537 6.79374145 14.80390065
448 1 1 -0.00140308499621 13.23799354 9.34139450 14.80390065
449 1 1 -0.00148840051715 11.76710537 11.88904754 14.80390065
450 1 1 -0.00167063837263 13.23799354 14.43670058 14.80390065
451 1 1 -0.0013303540004 11.76710537 16.98435363 14.80390065
452 1 1 -0.00165794922061 13.23799354 19.53200667 14.80390065
453 1 1 -0.00168946175258 14.70888171 1.69843536 14.80390065
454 1 1 -0.0014810923543 16.17976988 4.24608841 14.80390065
455 1 1 -0.00152498117689 14.70888171 6.79374145 14.80390065
456 1 1 -0.00137893626719 16.17976988 9.34139450 14.80390065
457 1 1 -0.00157506997374 14.70888171 11.88904754 14.80390065
458 1 1 -0.0020669479153 16.17976988 14.43670058 14.80390065
459 1 1 -0.00198204855596 14.70888171 16.98435363 14.80390065
460 1 1 -0.0018581660622 16.17976988 19.53200667 14.80390065
461 1 1 -0.0014536517558 0.00000000 1.69843536 14.80390065
462 1 1 -0.00138519652078 1.47088817 4.24608841 14.80390065
463 1 1 -0.00142894416628 0.00000000 6.79374145 14.80390065
464 1 1 -0.00160093943152 1.47088817 9.34139450 14.80390065
465 1 1 -0.00165730496099 0.00000000 11.88904754 14.80390065
466 1 1 -0.00227796168922 1.47088817 14.43670058 14.80390065
467 1 1 -0.00234446502198 0.00000000 16.98435363 14.80390065
468 1 1 -0.00203718505228 1.47088817 19.53200667 14.80390065
469 1 1 -0.00129556848411 4.41266451 2.54765304 17.20585097
470 1 1 -0.002666142646 5.88355268 5.09530609 17.20585097
471 1 1 -0.00320888169044 4.41266451 7.64295913 17.20585097
472 1 1 -0.00295098110865 5.88355268 10.19061218 17.20585097
473 1 1 -0.0025754170119 4.41266451 12.73826522 17.20585097
474 1 1 -0.000265788924451 5.88355268 15.28591827 17.20585097
475 1 1 -0.00253078554155 4.41266451 17.83357131 17.20585097
476 1 1 -0.00113898798796 5.88355268 0.00000000 17.20585097
477 1 1 -0.000666746672377 7.35444085 2.54765304 17.20585097
478 1 1 -0.00150530426133 8.82532903 5.09530609 17.20585097
479 1 1 -0.00306973555922 7.35444085 7.64295913 17.20585097
480 1 1 -0.00116771039594 8.82532903 10.19061218 17.20585097
481 1 1 0.000393141103731 7.35444085 12.73826522 17.20585097
482 1 1 0.00438103606056 8.82532903 15.28591827 17.20585097
483 1 1 0.00176080250653 7.35444085 17.83357131 17.20585097
484 1 1 0.00196126272615 8.82532903 0.00000000 17.20585097
485 1 1 0.000515905768624 10.29621720 2.54765304 17.20585097
486 1 1 -0.000703601622863 11.76710537 5.09530609 17.20585097
487 1 1 -0.000975622822946 10.29621720 7.64295913 17.20585097
488 1 1 0.000609376936955 11.76710537 10.19061218 17.20585097
489 1 1 0.00211963137732 10.29621720 12.73826522 17.20585097
490 1 1 0.0035985707641 11.76710537 15.28591827 17.20585097
491 1 1 0.00469465441299 10.29621720 17.83357131 17.20585097
492 1 1 0.00279090485881 11.76710537 0.00000000 17.20585097
493 1 1 0.000542465546372 13.23799354 2.54765304 17.20585097
494 1 1 0.000190442299866 14.70888171 5.09530609 17.20585097
495 1 1 0.000593152543988 13.23799354 7.64295913 17.20585097
496 1 1 0.00126293220122 14.70888171 10.19061218 17.20585097
497 1 1 0.00115399768474 13.23799354 12.73826522 17.20585097
498 1 1 3.46261406146e-07 14.70888171 15.28591827 17.20585097
499 1 1 0.00259917198212 13.23799354 17.83357131 17.20585097
500 1 1 0.00169388578153 14.70888171 0.00000000 17.20585097
501 1 1 0.00144488308078 16.17976988 2.54765304 17.20585097
502 1 1 0.00102502878431 0.00000000 5.09530609 17.20585097
503 1 1 0.000722778430639 16.17976988 7.64295913 17.20585097
504 1 1 0.000329671337718 0.00000000 10.19061218 17.20585097
505 1 1 -0.000130554514184 16.17976988 12.73826522 17.20585097
506 1 1 -0.00264806216268 0.00000000 15.28591827 17.20585097
507 1 1 -0.000665654055534 16.17976988 17.83357131 17.20585097
508 1 1 0.000541527338047 0.00000000 0.00000000 17.20585097
509 1 1 0.00107063969088 1.47088817 2.54765304 17.20585097
510 1 1 -0.00105504597932 2.94177634 5.09530609 17.20585097
511 1 1 -0.000765448733169 1.47088817 7.64295913 17.20585097
512 1 1 -0.00208308286774 2.94177634 10.19061218 17.20585097
513 1 1 -0.00192263570421 1.47088817 12.73826522 17.20585097
514 1 1 -0.00360714390085 2.94177634 15.28591827 17.20585097
515 1 1 -0.00275726956034 1.47088817 17.83357131 17.20585097
516 1 1 -0.00126758189408 2.94177634 0.00000000 17.20585097
517 1 1 0.0082176846165 5.88355268 3.39687073 19.60780130
518 1 1 0.00480217590644 7.35444085 5.94452377 19.60780130
519 1 1 0.00238316803515 5.88355268 8.49217681 19.60780130
520 1 1 0.00677484296876 7.35444085 11.03982986 19.60780130
521 1 1 0.00965853915614 5.88355268 13.58748290 19.60780130
522 1 1 0.0205833455772 7.35444085 16.13513595 19.60780130
523 1 1 0.0123186056257 5.88355268 18.68278899 19.60780130
524 1 1 0.0145810418792 7.35444085 0.84921768 19.60780130
525 1 1 0.0119492740458 8.82532903 3.39687073 19.60780130
526 1 1 0.00913227780159 10.29621720 5.94452377 19.60780130
527 1 1 0.00579969051713 8.82532903 8.49217681 19.60780130
528 1 1 0.0114159038195 10.29621720 11.03982986 19.60780130
529 1 1 0.0195670088746 8.82532903 13.58748290 19.60780130
530 1 1 0.0266859736977 10.29621720 16.13513595 19.60780130
531 1 1 0.0229540544851 8.82532903 18.68278899 19.60780130
532 1 1 0.0189373982582 10.29621720 0.84921768 19.60780130
533 1 1 0.0121657225785 11.76710537 3.39687073 19.60780130
534 1 1 0.0113216922288 13.23799354 5.94452377 19.60780130
535 1 1 0.0121593953735 11.76710537 8.49217681 19.60780130
536 1 1 0.0140926068874 13.23799354 11.03982986 19.60780130
537 1 1 0.0177000266586 11.76710537 13.58748290 19.60780130
538 1 1 0.0181394331638 13.23799354 16.13513595 19.60780130
539 1 1 0.0234852915017 11.76710537 18.68278899 19.60780130
540 1 1 0.0175393043387 13.23799354 0.84921768 19.60780130
541 1 1 0.0132057569183 14.70888171 3.39687073 19.60780130
542 1 1 0.0127031274714 16.17976988 5.94452377 19.60780130
543 1 1 0.0145141477753 14.70888171 8.49217681 19.60780130
544 1 1 0.0146213072366 16.17976988 11.03982986 19.60780130
545 1 1 0.0124708883872 14.70888171 13.58748290 19.60780130
546 1 1 0.0087753920122 16.17976988 16.13513595 19.60780130
547 1 1 0.0168623668446 14.70888171 18.68278899 19.60780130
548 1 1 0.0167799524116 16.17976988 0.84921768 19.60780130
549 1 1 0.0163597466612 0.00000000 3.39687073 19.60780130
550 1 1 0.0111741620665 1.47088817 5.94452377 19.60780130
551 1 1 0.0121874624767 0.00000000 8.49217681 19.60780130
552 1 1 0.0101790062872 1.47088817 11.03982986 19.60780130
553 1 1 0.00805106713292 0.00000000 13.58748290 19.60780130
554 1 1 0.00356060838531 1.47088817 16.13513595 19.60780130
555 1 1 0.0112015190658 0.00000000 18.68278899 19.60780130
556 1 1 0.0147834158632 1.47088817 0.84921768 19.60780130
557 1 1 0.0119898250951 2.94177634 3.39687073 19.60780130
558 1 1 0.00465121753852 4.41266451 5.94452377 19.60780130
559 1 1 0.00643017826431 2.94177634 8.49217681 19.60780130
560 1 1 0.00449550155612 4.41266451 11.03982986 19.60780130
561 1 1 0.00399156895786 2.94177634 13.58748290 19.60780130
562 1 1 0.00639928092849 4.41266451 16.13513595 19.60780130
563 1 1 0.00770125321945 2.94177634 18.68278899 19.60780130
564 1 1 0.0105636163759 4.41266451 0.84921768 19.60780130
