ITEM: TIMESTEP
0
ITEM: NUMBER OF ATOMS
324
ITEM: BOX BOUNDS pp pp ff
0.0000000000000000e+00 1.7650658050000001e+01
0.0000000000000000e+00 2.0381224350000000e+01
0.0000000000000000e+00 6.0000000000000000e+01
ITEM: ATOMS id mol type q x y z
1 1 2 0 8.24512200 15.58107900 22.60780130
2 1 3 0.589681848469 8.99930700 15.99494600 23.02750430
3 1 3 0.474615896811 7.50380600 16.13955400 22.84187130
4 1 4 -1.06429774528 8.24676900 15.70555000 22.69149230
5 2 2 0 15.94739500 18.39865100 22.69035230
6 2 3 0.553315489905 16.71765600 18.46088800 22.12550130
7 2 3 0.482506335304 15.55165300 17.55682700 22.46462430
8 2 4 -1.03582182521 15.99533800 18.29885400 22.58914830
9 3 2 0 17.43363900 10.16011000 22.73132430
10 3 3 0.462883582269 17.04728200 9.37132900 22.35081830
11 3 3 0.526519899822 0.66633495 9.89504700 22.98756730
12 3 4 -0.989403482091 17.49726000 10.02520600 22.71541730
13 4 2 0 1.34938300 4.55603100 22.80664330
14 4 3 0.448237706306 2.25303400 4.29537500 22.62858430
15 4 3 0.515195722009 1.36124800 4.85802700 23.71487830
16 4 4 -0.963433428315 1.46658000 4.56132300 22.90011430
17 5 2 0 13.79454900 8.69815200 22.91890230
18 5 3 0.547246313375 13.76817500 9.65498800 22.91982030
19 5 3 0.542422951645 14.31482300 8.47167600 23.68978230
20 5 4 -1.08966926502 13.85777400 8.79164700 23.01770230
21 6 2 0 2.45384200 11.13179700 23.00931330
22 6 3 0.483572016585 3.34523300 10.88819200 23.25893330
23 6 3 0.48909720972 2.56797500 11.78723500 22.32112330
24 6 4 -0.972669226305 2.58256100 11.18451700 22.95317030
25 7 2 0 5.78675400 16.92692800 23.09641330
26 7 3 0.486822194606 5.28323000 16.47580400 23.77404430
27 7 3 0.451609666026 5.17677800 17.01724400 22.36429030
28 7 4 -0.938431860632 5.64421300 16.88074000 23.08943730
29 8 2 0 9.01000400 19.57176400 23.18088730
30 8 3 0.56537310552 8.78238800 19.25232600 24.05403330
31 8 3 0.448316378507 8.18499100 19.55303200 22.69587630
32 8 4 -1.01368948403 8.87525500 19.52847400 23.23057330
33 9 2 0 8.83043300 2.85815800 23.19435430
34 9 3 0.55174322675 9.21769000 2.02205600 23.45357830
35 9 3 0.54609433859 9.56648500 3.46996200 23.18191330
36 9 4 -1.09783756534 8.97423000 2.82944500 23.22594530
37 10 2 0 6.02784200 0.12173500 23.20701130
38 10 3 0.47445706215 5.47821600 0.33162200 22.45196730
39 10 3 0.590613449728 5.79197900 19.60317635 23.43282430
40 10 4 -1.06507051188 5.92729000 0.03342000 23.13926330
41 11 2 0 4.18397800 8.35952700 23.26490830
42 11 3 0.599104236006 5.05229100 7.96143000 23.32642530
43 11 3 0.503377206623 3.81527900 8.00719600 22.45487330
44 11 4 -1.10248144263 4.24793400 8.26346300 23.16908830
45 12 2 0 0.45553800 19.51483400 23.37309230
46 12 3 0.491548945779 0.12126100 20.35801600 23.67892930
47 12 3 0.536750291749 0.15406600 18.88529700 24.02809630
48 12 4 -1.02829923753 0.37415500 19.54218300 23.49609230
49 13 2 0 15.09732900 11.54517500 23.49740530
50 13 3 0.590146356483 15.28848600 12.42944200 23.81007330
51 13 3 0.580320085093 15.91183100 11.25434900 23.08723630
52 13 4 -1.17046644158 15.22606500 11.62114200 23.48492330
53 14 2 0 10.74610700 16.76684700 23.56450830
54 14 3 0.556649662424 10.79944800 17.51104700 24.16413530
55 14 3 0.526797594019 11.09645100 16.02988700 24.06489030
56 14 4 -1.08344725644 10.79778300 16.76777400 23.70532230
57 15 2 0 10.92097000 4.49939700 23.57670830
58 15 3 0.628128616939 10.73334500 5.43784000 23.59550930
59 15 3 0.535542366024 11.43992200 4.37428700 22.78218430
60 15 4 -1.16367098296 10.96338400 4.60351300 23.47740630
61 16 2 0 11.20759600 7.43499100 23.63896930
62 16 3 0.592360760315 12.08038100 7.79234200 23.47532730
63 16 3 0.577158491227 10.71998500 8.16114200 24.02777930
64 16 4 -1.16951925154 11.25690300 7.57369300 23.66779430
65 17 2 0 2.77487200 2.13963000 23.80555830
66 17 3 0.50042966163 1.87563000 2.20241100 24.12751330
67 17 3 0.537614548123 3.06142600 1.26344600 24.06328030
68 17 4 -1.03804420975 2.69644000 2.03550400 23.87976330
69 18 2 0 6.66557400 7.03157500 23.85975330
70 18 3 0.650097621504 7.12119900 7.12854900 24.69595530
71 18 3 0.525670995803 7.35394200 7.11666000 23.20009930
72 18 4 -1.17576861731 6.81201900 7.05488100 23.88235330
73 19 2 0 13.64690200 1.83257800 24.19527930
74 19 3 0.539830384918 12.85765800 1.41328700 24.53809330
75 19 3 0.505301123919 13.96923300 2.36706000 24.92099530
76 19 4 -1.04513150884 13.58713200 1.84732400 24.33206430
77 20 2 0 5.00715200 4.70371400 24.22363830
78 20 3 0.598204569994 5.69863400 5.36154900 24.15057330
79 20 3 0.506618669971 4.71389900 4.56278300 23.32343130
80 20 4 -1.10482323997 5.05813000 4.76988400 24.09904830
81 21 2 0 15.07740200 5.32894500 24.27709430
82 21 3 0.531070634307 15.73547300 6.01263700 24.40255330
83 21 3 0.513287660792 14.93436300 5.30425000 23.33096330
84 21 4 -1.0443582951 15.14333200 5.41330500 24.17203830
85 22 2 0 1.93368600 15.47494700 24.31767830
86 22 3 0.556968308207 2.65042100 14.86751800 24.50085330
87 22 3 0.484309805949 2.23595500 15.98270500 23.56465230
88 22 4 -1.04127811416 2.06413000 15.46218800 24.24473030
89 23 2 0 9.63670000 9.69834100 24.31854630
90 23 3 0.550838238579 8.68003500 9.72351600 24.29875530
91 23 3 0.539602426915 9.90754500 10.40837200 23.73654030
92 23 4 -1.09044066549 9.54890600 9.79245600 24.24150930
93 24 2 0 4.31714800 14.06587000 24.39000730
94 24 3 0.545597676101 4.78988600 13.85099400 23.58590530
95 24 3 0.588340561545 4.04766500 13.21824400 24.74376130
96 24 4 -1.13393823765 4.34316700 13.92985700 24.33235730
97 25 2 0 8.26061000 12.83181700 24.44569030
98 25 3 0.645824954605 9.17832700 13.10211800 24.47678330
99 25 3 0.616213950946 7.78734700 13.53820400 24.88531730
100 25 4 -1.26203890555 8.31750600 12.95684500 24.50594830
101 26 2 0 3.49508600 18.95208400 24.47556130
102 26 3 0.451700793938 2.58902400 18.66568000 24.36042530
103 26 3 0.605587265401 3.69139100 18.76415800 25.39337430
104 26 4 -1.05728805934 3.40422900 18.89136400 24.57831330
105 27 2 0 6.70188600 10.48890000 24.57235630
106 27 3 0.488998761361 6.46010100 10.31878300 23.66195430
107 27 3 0.694116414121 7.31296500 11.22413700 24.52500130
108 27 4 -1.18311517548 6.74916000 10.56124200 24.44975230
109 28 2 0 15.29878900 14.08884200 24.76001430
110 28 3 0.688057499892 14.60940900 14.74576100 24.85719830
111 28 3 0.46175899559 16.08598800 14.51512300 25.09888730
112 28 4 -1.14981649548 15.31131100 14.22750500 24.81583530
113 29 2 0 10.77183900 14.15511100 24.80595330
114 29 3 0.565138037891 10.57829100 14.62850600 25.61506930
115 29 3 0.580065680797 11.47870900 13.55459400 25.04248130
116 29 4 -1.14520371869 10.83755000 14.13883800 24.93980830
117 30 2 0 16.91267600 2.62313000 24.96988530
118 30 3 0.524547006845 16.99912700 3.50638200 25.32852730
119 30 3 0.471900796551 16.30921700 2.72117700 24.23336830
120 30 4 -0.996447803396 16.84649300 2.74874800 24.92151230
121 31 2 0 6.30170800 2.23170000 24.98602930
122 31 3 0.565640424956 5.83233700 3.00106400 24.66353530
123 31 3 0.659125440316 6.33270000 1.63767700 24.23608930
124 31 4 -1.22476586527 6.24559000 2.25414600 24.84874530
125 32 2 0 11.01134000 1.83247200 25.20326530
126 32 3 0.588007885933 10.71999300 2.01679600 26.09622330
127 32 3 0.516719365552 11.10650300 2.69489800 24.79904030
128 32 4 -1.10472725149 10.98622600 1.96646900 25.26582930
129 33 2 0 13.32813600 15.90542400 25.21628930
130 33 3 0.580806356913 13.85549900 16.61335500 25.58636330
131 33 3 0.55789525183 12.97239400 15.44774900 25.97800630
132 33 4 -1.13870160874 13.35010600 15.93746000 25.36117230
133 34 2 0 12.52022500 12.01202700 25.25169830
134 34 3 0.581408925051 13.16850400 11.76504100 24.59218030
135 34 3 0.565056236478 12.46499600 11.25163700 25.83048030
136 34 4 -1.14646516153 12.59614300 11.88307100 25.24136330
137 35 2 0 16.40840300 19.45741800 25.26426230
138 35 3 0.553454180956 16.45952200 0.01605565 25.09025530
139 35 3 0.611200623276 16.01683600 19.08778600 24.47288430
140 35 4 -1.16465480423 16.36482200 19.53041400 25.14068130
141 36 2 0 8.47517700 18.06131700 25.42277330
142 36 3 0.534813049794 9.37481800 18.02996000 25.74818930
143 36 3 0.613529103368 8.14606800 17.17026200 25.54085130
144 36 4 -1.14834215316 8.54821200 17.94323700 25.47954630
145 37 2 0 15.19334000 8.74581100 25.53532230
146 37 3 0.598994131687 15.44104000 8.06498400 26.16090330
147 37 3 0.5407379455 15.78328000 9.47463600 25.72772030
148 37 4 -1.13973207719 15.30056800 8.75195500 25.64003330
149 38 2 0 0.84938300 5.70515300 25.53580530
150 38 3 0.523383774855 1.03248100 6.59229700 25.84513430
151 38 3 0.573878075243 1.58163000 5.18159800 25.86128430
152 38 4 -1.0972618501 0.96655800 5.75169700 25.61706830
153 39 2 0 11.22479500 18.68220300 25.59883530
154 39 3 0.553771487676 11.22328700 19.60210700 25.33424530
155 39 3 0.570076374054 12.03922400 18.57516400 26.09024130
156 39 4 -1.12384786173 11.32885800 18.78626000 25.62787030
157 40 2 0 0.41183400 11.55787700 25.60587830
158 40 3 0.543978235652 0.64613800 10.64146400 25.75257830
159 40 3 0.4967195297 1.16805100 11.92914000 25.15142030
160 40 4 -1.04069776535 0.53863300 11.48809100 25.56648230
161 41 2 0 8.12633200 4.17882000 25.81706730
162 41 3 0.495227387434 8.77924900 3.69358300 26.32152430
163 41 3 0.68399379795 7.91021400 3.60075600 25.08537830
164 41 4 -1.17922118538 8.18224700 4.04270400 25.78797930
165 42 2 0 7.56908800 15.36448100 25.83811130
166 42 3 0.597157582406 8.22538200 15.13923700 26.49748630
167 42 3 0.556620345177 6.73050100 15.24906300 26.28496930
168 42 4 -1.15377792758 7.54575200 15.32087200 25.97972230
169 43 2 0 0.99370900 8.71985900 25.85117430
170 43 3 0.440320893666 0.75134800 8.66391400 24.92685630
171 43 3 0.691964234223 1.94997400 8.76190300 25.84641530
172 43 4 -1.13228512789 1.08509800 8.71807900 25.73224130
173 44 2 0 12.80925900 5.16015400 25.90682430
174 44 3 0.538514171679 12.15851800 4.87924200 25.26350730
175 44 3 0.630362502242 13.60881700 5.29227200 25.39742730
176 44 4 -1.16887667392 12.82831000 5.14110600 25.75926230
177 45 2 0 8.66085300 7.03336900 26.04967530
178 45 3 0.62578593404 8.59535500 6.07871800 26.07381730
179 45 3 0.652171943626 9.58679200 7.21454900 26.21105330
180 45 4 -1.27795787767 8.77100000 6.93435600 26.07342430
181 46 2 0 3.89553600 11.60235000 26.06317630
182 46 3 0.497166020665 4.36255600 11.87078400 26.85442130
183 46 3 0.616799956945 4.10647500 10.67404100 25.96328430
184 46 4 -1.11396597761 3.98232300 11.51787800 26.15167730
185 47 2 0 3.62978500 8.71462200 26.07897430
186 47 3 0.692408730847 4.19971700 8.10610000 26.54919830
187 47 3 0.573694858457 3.81499100 8.55099900 25.15422730
188 47 4 -1.2661035893 3.72645200 8.61577800 26.02079030
189 48 2 0 3.21464800 4.26027600 26.49332830
190 48 3 0.50666492374 3.37191400 4.89379200 27.19343930
191 48 3 0.572699270298 3.82220800 4.51447600 25.79871730
192 48 4 -1.07936419404 3.31255500 4.37391400 26.49403230
193 49 2 0 14.18334800 18.39282300 26.57302230
194 49 3 0.538148933385 14.05279500 18.70785100 27.46741930
195 49 3 0.641834001643 14.96614200 18.85201600 26.26870830
196 49 4 -1.17998293503 14.26684300 18.49193300 26.64856030
197 50 2 0 6.69366900 8.81958100 26.69397730
198 50 3 0.608459645113 6.66206100 9.56283700 26.09164430
199 50 3 0.595640568885 7.49209700 8.34957300 26.45348230
200 50 4 -1.204100214 6.79183100 8.85456000 26.58608530
201 51 2 0 9.63566200 11.01814000 26.78542030
202 51 3 0.546670632478 9.80181200 10.80716900 25.86666130
203 51 3 0.513749387031 8.84712900 11.56050100 26.76830830
204 51 4 -1.06042001951 9.55599000 11.06056200 26.66561830
205 52 2 0 2.56207100 1.31779700 26.86136530
206 52 3 0.54623810848 2.86473400 2.03251100 26.30117630
207 52 3 0.640779723818 3.10342600 1.38371200 27.64801730
208 52 4 -1.1870178323 2.67011600 1.41772700 26.89035530
209 53 2 0 1.35572600 16.76575200 26.97442730
210 53 3 0.439529268121 0.76187300 16.19088100 27.45722630
211 53 3 0.529432110363 1.52887500 16.29958600 26.15653930
212 53 4 -0.968961378483 1.30187100 16.63248700 26.93153130
213 54 2 0 15.20294000 12.00841700 26.99576630
214 54 3 0.501022996409 16.02440000 11.63625400 26.67493830
215 54 3 0.563173164849 15.01914100 12.73415100 26.39930930
216 54 4 -1.06419616126 15.28456800 12.05367800 26.87834230
217 55 2 0 14.20052200 2.94209600 26.99865430
218 55 3 0.552881618573 13.94774800 3.86530700 27.00281030
219 55 3 0.479857020465 14.89590700 2.88072000 27.65356130
220 55 4 -1.03273863904 14.25718100 3.05242100 27.08302230
221 56 2 0 11.24978600 7.42906100 27.02862630
222 56 3 0.58261708267 11.65519100 6.82977100 26.40194430
223 56 3 0.60160149931 10.98777200 6.87013000 27.76018530
224 56 4 -1.18421858198 11.26814200 7.28079500 27.04205230
225 57 2 0 4.12556900 17.85664100 27.04741530
226 57 3 0.580274296376 4.62032600 17.03731100 27.03536130
227 57 3 0.509915404843 3.20873000 17.58389200 27.01209730
228 57 4 -1.09018970122 4.07153700 17.71684200 27.04135130
229 58 2 0 13.02757000 9.70643000 27.07282030
230 58 3 0.613195300683 12.45232700 8.95602600 26.92375030
231 58 3 0.565986635848 13.84320600 9.47563300 26.62818230
232 58 4 -1.17918193653 13.05834300 9.58082500 26.99681930
233 59 2 0 5.09463500 15.28001200 27.15941430
234 59 3 0.517398772944 4.68903500 14.99026100 26.34224530
235 59 3 0.613147281404 5.01627300 14.52778700 27.74614230
236 59 4 -1.13054605435 5.03268200 15.14662600 27.12991530
237 60 2 0 6.66157900 0.62793900 27.18777830
238 60 3 0.643052276227 6.64215100 1.27150000 26.47948130
239 60 3 0.575762313306 6.86266800 20.18023435 26.75341430
240 60 4 -1.21881458953 6.68483400 0.60421000 27.04150430
241 61 2 0 9.88209000 14.93647000 27.29756330
242 61 3 0.489602978399 9.67706800 14.14177100 27.79016230
243 61 3 0.669324052929 10.37561600 15.47930100 27.91237830
244 61 4 -1.15892703133 9.91902200 14.90422800 27.43932630
245 62 2 0 7.39681800 12.82525900 27.51775430
246 62 3 0.574562192028 6.44357100 12.88146200 27.58404130
247 62 3 0.448845987833 7.67311700 12.44228000 28.35035130
248 62 4 -1.02340817986 7.31016100 12.78342800 27.63282230
249 63 2 0 10.32713300 2.90882100 27.55348030
250 63 3 0.682630034065 9.59637700 2.71213200 28.13960530
251 63 3 0.59666771448 10.47085900 3.84955300 27.65643630
252 63 4 -1.27929774855 10.25198600 3.00406800 27.64169130
253 64 2 0 13.08636200 14.70248000 27.75652730
254 64 3 0.481360312227 13.84954500 14.83373000 28.31916130
255 64 3 0.795648594529 12.89162000 13.76821100 27.83034430
256 64 4 -1.27700890676 13.15912900 14.59968400 27.83800030
257 65 2 0 15.86894400 6.99060100 27.75915330
258 65 3 0.490177482201 15.29772500 7.08061000 28.52193630
259 65 3 0.512195290481 16.66471700 7.46600900 27.99782430
260 65 4 -1.00237277268 15.89769000 7.06298100 27.88735130
261 66 2 0 5.11344400 6.80445900 27.87901130
262 66 3 0.51876417345 5.75585700 7.32598600 27.39781730
263 66 3 0.625422782418 5.57738500 5.99710300 28.10074930
264 66 4 -1.14418695587 5.25507000 6.76787000 27.84579730
265 67 2 0 0.21195400 1.70798400 27.89629830
266 67 3 0.669171465256 1.01377200 1.56700700 27.39286430
267 67 3 0.377508569641 17.34354205 0.91769200 27.74717830
268 67 4 -1.0466800349 0.24814900 1.58877100 27.81276330
269 68 2 0 12.39997200 12.20247200 28.07804930
270 68 3 0.691888146628 13.06349600 11.58825600 27.76387230
271 68 3 0.554825440614 11.63854200 12.03851500 27.52165530
272 68 4 -1.24671358724 12.38743900 12.10285700 27.96660630
273 69 2 0 12.13002900 1.09927700 28.33719430
274 69 3 0.493987018361 12.99724300 1.38319500 28.04811930
275 69 3 0.572175472085 11.53462500 1.77161700 28.00600730
276 69 4 -1.06616249045 12.16482400 1.22169000 28.25779330
277 70 2 0 4.82940600 12.94086300 28.46305530
278 70 3 0.534039364742 5.04059100 12.13789100 28.93936330
279 70 3 0.692879003127 3.90801500 13.10414900 28.66457030
280 70 4 -1.22691836787 4.73849100 12.85897500 28.54982430
281 71 2 0 6.39772100 4.46443500 28.63961930
282 71 3 0.620984037039 7.00222600 3.77491800 28.91416330
283 71 3 0.459121402037 6.37638800 4.39875300 27.68491330
284 71 4 -1.08010543908 6.47237400 4.36776000 28.55255030
285 72 2 0 1.91486700 13.23845100 28.66041730
286 72 3 0.531831679315 1.83367200 12.46438900 28.10322130
287 72 3 0.528361969794 1.06628100 13.67554600 28.58912830
288 72 4 -1.06019364911 1.79584400 13.19531500 28.57996430
289 73 2 0 9.81651600 18.75151400 28.70247830
290 73 3 0.547143651838 10.30103900 17.98385500 29.00607130
291 73 3 0.53817508997 10.40674300 19.17743600 28.08082230
292 73 4 -1.08531874181 9.95409700 18.70776800 28.66176230
293 74 2 0 11.38663600 16.46598000 28.87761430
294 74 3 0.712501661577 12.14939100 16.00750800 28.52513730
295 74 3 0.481243783023 11.22185300 16.04443800 29.72104830
296 74 4 -1.1937454446 11.46318300 16.35332800 28.94046230
297 75 2 0 4.50752500 1.14806100 28.94505830
298 75 3 0.579058040806 5.27861900 1.26247800 28.38958030
299 75 3 0.499111285015 4.52803900 0.22481600 29.19690830
300 75 4 -1.07816932582 4.60886100 1.04452100 28.90619030
301 76 2 0 10.16258100 5.47986400 28.95691530
302 76 3 0.571557794573 9.46082900 5.86992400 29.47809630
303 76 3 0.501996623303 10.78444500 5.14588700 29.60342630
304 76 4 -1.07355441788 10.15235400 5.48704300 29.10639430
305 77 2 0 8.19492700 2.24313000 29.08671030
306 77 3 0.673160695853 7.92380100 1.55035300 28.48439430
307 77 3 0.550199827788 8.54768800 1.77743200 29.84494430
308 77 4 -1.22336052364 8.20537700 2.09483100 29.10667030
309 78 2 0 15.05156300 19.31191500 29.12141530
310 78 3 0.463632509523 14.47225600 19.29359700 29.88318930
311 78 3 0.4950945016 15.35830900 20.21744000 29.07490830
312 78 4 -0.958727011123 15.01667200 19.42548800 29.21297830
313 79 2 0 2.52582400 9.94933400 29.33243830
314 79 3 0.435688502055 2.51448200 10.63251900 30.00278330
315 79 3 0.46619666301 3.45518100 9.79256400 29.16525330
316 79 4 -0.901885165064 2.64334100 10.01672100 29.39684930
317 80 2 0 7.65495200 9.21183300 29.36535130
318 80 3 0.407958902221 8.27486400 9.81540900 29.77478630
319 80 3 0.543625977545 7.81334800 9.30574300 28.42603130
320 80 4 -0.951584879766 7.75458500 9.30111900 29.29751930
321 81 2 0 7.30022100 17.67514900 29.50165530
322 81 3 0.570958142302 8.09221800 18.08947200 29.15915230
323 81 3 0.380397861754 7.51513200 16.74326100 29.54201330
324 81 4 -0.951356004056 7.42911700 17.60889400 29.46297730
