# referee item 4: NVE of SPC-FQ water, arm selfterm (run_nve.py)
units        metal
atom_style   full
boundary     p p p
lattice      sc 3.1
region       box block 0 4 0 4 0 4
create_box   2 box
mass         1 15.9994
mass         2 1.008
molecule     h2o spcfq.mol
create_atoms 0 box mol h2o 12345
group        fq type 1 2
set          type 1 charge -0.85
set          type 2 charge  0.425
pair_style   hybrid/overlay lj/cut 10.0 coul/long 10.0 coul/shield/intra 5.0 all
pair_coeff   1 1 lj/cut 0.01275 3.176
pair_coeff   1 2 lj/cut 0.0 1.0
pair_coeff   2 2 lj/cut 0.0 1.0
pair_coeff   * * coul/long
pair_coeff   * * coul/shield/intra 1.11

kspace_style pppm/samqeq 1.0e-6
kspace_modify gewald 0.33957131 mesh 18 18 18   # the split the pin was measured at
neighbor     2.0 bin
neigh_modify every 1 delay 0 check yes
fix          chg fq qeq/sam 1 0.0 10.0 1.0e-7 spcfq_expt.param
fix_modify   chg energy yes
fix_modify   chg recip_self peratom
compute      dip fq dipole/samqeq
timestep     0.001
variable     f loop 51
label        frame
variable     s equal 20000+1000*(v_f-1)
read_dump    ../traj/traj.lammpstrj ${s} x y z box yes
reset_timestep 0   # the fix re-solves at run setup only from step 0
run          0
write_dump   fq custom q.${s}.dump id type q x y z modify sort id
next         f
jump         SELF frame
print        "RERUN_DONE" file done.txt screen no
