ITEM: TIMESTEP
0
ITEM: NUMBER OF ATOMS
192
ITEM: BOX BOUNDS pp pp pp
0.0000000000000000e+00 1.2400000000000000e+01
0.0000000000000000e+00 1.2400000000000000e+01
0.0000000000000000e+00 1.2400000000000000e+01
ITEM: ATOMS id type q x y z
1 1 -0.978516 3.09162 8.98509 4.59609
2 2 0.541599 2.56042 9.74454 4.22051
3 2 0.436918 2.51552 8.16942 4.64908
4 1 -0.932528 12.394 10.5577 9.57505
5 2 0.452734 0.582973 11.2688 9.95894
6 2 0.479793 11.455 10.897 9.51884
7 1 -1.00041 10.9383 6.70696 3.7177
8 2 0.45371 10.235 6.19133 3.22842
9 2 0.546704 11.2206 7.49181 3.16605
10 1 -0.981139 6.3079 11.8395 2.52407
11 2 0.523238 5.49903 11.771 3.10807
12 2 0.457901 6.44979 10.9715 2.04809
13 1 -0.985669 3.71899 7.22687 10.0381
14 2 0.465737 3.84128 6.94944 9.08512
15 2 0.519931 2.75158 7.41331 10.2094
16 1 -0.985354 11.0203 9.8765 0.0975353
17 2 0.520409 10.2614 10.3475 12.0478
18 2 0.464945 10.9694 8.89765 12.2994
19 1 -1.16986 9.07694 5.39987 1.98468
20 2 0.564729 8.92965 6.38187 2.10294
21 2 0.605135 8.2834 4.89966 2.33122
22 1 -1.01533 6.80703 3.95789 2.7589
23 2 0.510307 6.3617 4.1522 3.63293
24 2 0.505024 6.17008 3.47093 2.16125
25 1 -1.18103 2.21022 8.12018 1.50203
26 2 0.651088 2.76087 8.90513 1.78603
27 2 0.529943 1.25599 8.27161 1.75993
28 1 -0.910772 7.58113 6.11707 11.3864
29 2 0.422887 8.01121 6.83935 10.8448
30 2 0.487885 6.82489 6.50239 11.9152
31 1 -1.05325 3.72435 10.4544 1.85954
32 2 0.496675 4.60655 10.3995 1.39186
33 2 0.556579 3.57299 11.3906 2.17694
34 1 -0.970585 4.20583 2.94167 0.766704
35 2 0.515735 3.9597 3.80986 1.19759
36 2 0.45485 3.95791 2.96807 12.1983
37 1 -1.0253 2.77999 11.58 9.28584
38 2 0.504482 2.85198 11.0817 10.1498
39 2 0.520821 2.20618 12.3889 9.41439
40 1 -0.938256 4.03046 3.41715 9.5949
41 2 0.443334 3.16906 2.94074 9.77104
42 2 0.494922 3.84509 4.27442 9.11456
43 1 -1.03925 12.282 1.09017 2.04799
44 2 0.564419 12.3494 2.08622 2.10592
45 2 0.474828 0.765385 0.711828 1.77151
46 1 -0.954886 12.0904 8.61357 5.75556
47 2 0.512473 12.0727 7.93329 5.02282
48 2 0.442413 11.3433 9.26501 5.62371
49 1 -0.884218 1.48306 5.05002 8.96166
50 2 0.375251 0.611923 5.54072 8.9799
51 2 0.508967 2.04678 5.39927 8.21317
52 1 -0.939705 11.0842 1.08616 4.8315
53 2 0.467596 10.0968 1.22783 4.90284
54 2 0.47211 11.3325 0.947046 3.87288
55 1 -1.14198 2.63833 5.40762 1.562
56 2 0.544006 1.90134 4.90413 1.11105
57 2 0.597977 2.4655 6.38972 1.48712
58 1 -0.99075 9.84253 12.278 1.97136
59 2 0.432321 9.44881 12.0735 1.07516
60 2 0.558429 10.7649 0.246095 1.85409
61 1 -1.15276 3.00563 0.867321 2.38946
62 2 0.532677 3.32642 1.32796 1.56187
63 2 0.620088 2.899 1.53752 3.12394
64 1 -1.07685 2.86423 2.44679 4.64837
65 2 0.54752 2.0302 2.37248 5.19507
66 2 0.529326 3.66198 2.32771 5.23949
67 1 -1.05341 4.84846 1.87888 6.60953
68 2 0.490478 4.62576 2.19594 7.53142
69 2 0.562933 5.64545 2.37767 6.26893
70 1 -0.887091 7.68262 3.39534 9.64551
71 2 0.45915 7.75217 3.97782 10.4554
72 2 0.427941 6.80402 3.55417 9.19514
73 1 -0.904695 6.85227 0.0917479 9.41521
74 2 0.399099 5.9295 0.257524 9.06733
75 2 0.505597 7.52254 0.460831 8.77138
76 1 -0.93879 1.78033 11.247 11.8772
77 2 0.499131 2.60803 11.4711 12.3917
78 2 0.439659 0.989537 11.2767 0.088557
79 1 -1.01984 4.74494 9.80308 7.21976
80 2 0.50408 4.23959 9.01215 6.87471
81 2 0.515758 4.19061 10.2817 7.9007
82 1 -0.955892 9.34899 10.3202 4.02136
83 2 0.555423 9.68628 11.0076 3.37816
84 2 0.400469 8.55318 10.6809 4.50776
85 1 -0.931673 11.822 3.98032 2.57554
86 2 0.460542 11.0144 3.88862 1.99299
87 2 0.471131 11.9887 4.94808 2.76444
88 1 -0.813919 4.94351 12.1763 11.6274
89 2 0.450957 5.81404 11.7445 11.3914
90 2 0.362962 4.74435 0.504892 10.972
91 1 -1.11578 12.1236 9.06357 2.66601
92 2 0.566368 0.261189 9.83609 3.00403
93 2 0.549413 11.5644 9.35997 1.89177
94 1 -1.07218 1.35924 1.62575 9.38529
95 2 0.521716 1.41187 2.19404 8.56414
96 2 0.55046 0.482036 1.77826 9.84055
97 1 -0.9103 10.8858 6.65907 0.168598
98 2 0.492468 10.0209 6.26561 0.480271
99 2 0.417832 11.4112 5.96333 12.0788
100 1 -1.07248 1.38905 11.1202 3.7789
101 2 0.502352 0.941373 11.2301 4.66633
102 2 0.570125 1.98793 11.9027 3.60853
103 1 -1.066 3.78869 5.50353 7.28645
104 2 0.542089 3.32292 5.7901 6.44922
105 2 0.523913 4.73607 5.82304 7.26691
106 1 -0.89678 10.3149 11.0886 7.71869
107 2 0.508334 9.54963 10.8954 7.10472
108 2 0.388446 10.9039 11.7848 7.30833
109 1 -0.887598 10.676 4.41096 9.88528
110 2 0.443126 10.7645 3.75621 9.13462
111 2 0.444472 9.93924 4.12056 10.4959
112 1 -0.949442 4.42911 11.8395 4.83509
113 2 0.479389 4.54787 11.1093 5.50794
114 2 0.470053 4.63905 0.320632 5.25882
115 1 -0.982508 10.9594 8.09255 9.41274
116 2 0.50559 11.4567 7.96422 10.2707
117 2 0.476918 11.4676 8.72069 8.82356
118 1 -1.02163 7.5527 9.86898 6.93613
119 2 0.470363 7.72821 8.95335 6.57445
120 2 0.55127 6.59619 9.9377 7.21964
121 1 -0.995609 8.34948 8.07669 2.29918
122 2 0.451308 7.35823 8.09231 2.16806
123 2 0.544301 8.61515 8.81359 2.92079
124 1 -1.03782 7.17018 3.34779 5.94699
125 2 0.442448 6.80476 4.2517 6.1693
126 2 0.595376 8.14386 3.42535 5.73266
127 1 -0.958947 4.30315 5.15414 4.08045
128 2 0.4553 3.87693 4.36141 4.51624
129 2 0.503646 3.77456 5.41471 3.27255
130 1 -1.10511 9.50984 3.10975 0.399386
131 2 0.552773 8.7434 2.50157 0.192738
132 2 0.552334 9.1869 3.87612 0.95472
133 1 -0.909168 1.43633 6.16287 5.81967
134 2 0.47424 0.954178 6.8506 6.36241
135 2 0.434928 0.873541 5.33928 5.74913
136 1 -0.996293 6.23308 9.73456 0.209215
137 2 0.555415 5.76513 8.85593 0.304273
138 2 0.440878 6.97 9.64893 11.9387
139 1 -0.976717 8.00722 1.42263 3.94465
140 2 0.507219 7.59413 0.705542 3.38327
141 2 0.469498 7.77963 2.31809 3.56208
142 1 -0.98438 11.3665 1.80403 11.2244
143 2 0.542915 10.9679 2.36239 11.952
144 2 0.441465 10.7441 1.05385 11.001
145 1 -0.965307 0.627441 2.5427 6.64279
146 2 0.524687 0.53021 1.56366 6.46381
147 2 0.44062 12.1322 2.98375 6.57897
148 1 -0.937308 0.919223 3.91424 11.9558
149 2 0.476694 0.190937 3.2601 11.7516
150 2 0.460614 1.14559 4.4298 11.1294
151 1 -0.975776 8.10269 8.74297 9.90356
152 2 0.522422 8.99048 8.34543 9.67161
153 2 0.453355 7.89671 9.49015 9.27166
154 1 -0.944197 5.76018 8.13007 4.26141
155 2 0.431447 5.34633 7.25741 4.0022
156 2 0.512751 5.04735 8.82713 4.33873
157 1 -0.96384 7.00521 1.67668 0.327658
158 2 0.480361 6.9728 0.868307 0.915444
159 2 0.483479 6.086 1.88125 12.3912
160 1 -0.969606 9.04851 11.4232 11.4244
161 2 0.455156 8.83329 10.6655 10.8083
162 2 0.51445 8.36339 12.1439 11.3184
163 1 -0.914928 1.04809 11.9675 6.84914
164 2 0.400735 0.321556 11.2999 7.01198
165 2 0.514193 1.69614 11.9472 7.61047
166 1 -0.881868 1.73318 8.48054 8.02694
167 2 0.461777 1.19796 8.80602 8.80643
168 2 0.420091 1.48978 9.00704 7.21234
169 1 -0.934384 6.53901 6.38972 7.59705
170 2 0.41516 6.41736 6.74251 8.52482
171 2 0.519224 7.46561 6.59422 7.28149
172 1 -0.903958 9.98912 1.954 8.33147
173 2 0.462989 9.49108 1.22285 7.86522
174 2 0.44097 9.33996 2.63112 8.67802
175 1 -0.93901 8.4808 7.00071 5.5307
176 2 0.47691 9.18692 6.46067 5.07271
177 2 0.462099 7.94782 7.50024 4.84776
178 1 -1.00553 7.9188 0.354066 6.70139
179 2 0.467831 7.44772 11.9002 6.4802
180 2 0.537703 7.78019 1.01253 5.96165
181 1 -1.00504 1.0771 8.41961 11.175
182 2 0.516775 0.962309 9.41292 11.1622
183 2 0.488266 1.46041 8.13963 12.0551
184 1 -0.941729 11.0241 5.92689 7.37051
185 2 0.466814 10.8539 6.9021 7.22911
186 2 0.474915 11.169 5.75155 8.3443
187 1 -1.10091 5.15623 7.16421 0.14634
188 2 0.610432 4.7031 7.13499 11.6554
189 2 0.490474 4.61578 6.64989 0.812213
190 1 -0.965414 9.98085 3.88845 5.24482
191 2 0.48397 10.7688 3.44936 4.8131
192 2 0.481444 10.2987 4.55414 5.91998
