ITEM: TIMESTEP
0
ITEM: NUMBER OF ATOMS
192
ITEM: BOX BOUNDS pp pp pp
0.0000000000000000e+00 1.2400000000000000e+01
0.0000000000000000e+00 1.2400000000000000e+01
0.0000000000000000e+00 1.2400000000000000e+01
ITEM: ATOMS id type q x y z
1 1 -1.02852 6.69561 6.81929 5.70157
2 2 0.44261 6.84033 7.70466 5.25976
3 2 0.585908 7.5147 6.56569 6.21613
4 1 -0.985291 0.553317 11.0812 8.3413
5 2 0.501779 0.972393 10.9927 9.24493
6 2 0.483512 11.958 11.1014 8.43598
7 1 -1.00861 9.60718 5.60229 2.91955
8 2 0.543564 10.1446 5.72444 2.08514
9 2 0.465046 10.2231 5.4976 3.7004
10 1 -0.962816 4.84121 10.103 0.195841
11 2 0.538656 5.0644 9.18539 12.2669
12 2 0.42416 5.65737 10.5222 0.593499
13 1 -0.971022 5.16851 7.40547 11.3777
14 2 0.458466 4.50818 7.53715 10.6383
15 2 0.512556 5.73982 6.60975 11.1766
16 1 -0.963516 0.442418 11.7701 11.2959
17 2 0.511313 1.3737 11.8618 11.6485
18 2 0.452203 12.3153 0.186978 11.5301
19 1 -0.849355 5.06481 7.12646 1.95276
20 2 0.448916 5.94023 6.88469 1.53419
21 2 0.400439 4.75206 8.00362 1.58837
22 1 -0.945817 5.1087 2.44754 4.84504
23 2 0.485063 4.37136 2.476 5.51997
24 2 0.460754 4.89203 3.06447 4.08843
25 1 -0.848619 0.514982 5.23967 2.91371
26 2 0.400756 12.3213 6.03809 3.01374
27 2 0.447863 1.26683 5.45916 2.29198
28 1 -1.01502 8.24382 4.72899 10.3386
29 2 0.518832 8.49756 4.25437 9.49575
30 2 0.49619 7.85478 4.07364 10.986
31 1 -0.952681 2.8422 8.76936 3.7363
32 2 0.498474 2.47897 8.68607 2.80833
33 2 0.454206 2.20316 9.29426 4.29853
34 1 -0.939397 3.99783 4.28417 2.76478
35 2 0.490354 3.81367 5.26705 2.77231
36 2 0.449044 4.94252 4.12422 2.47846
37 1 -0.85064 2.97825 9.23349 10.0059
38 2 0.414597 3.15791 10.063 10.5348
39 2 0.436043 3.42135 9.30538 9.11231
40 1 -0.892411 5.06547 4.18441 11.7179
41 2 0.416844 4.28052 4.66095 12.1138
42 2 0.475567 5.61765 3.78599 0.0502413
43 1 -1.01489 10.1134 3.40567 0.694586
44 2 0.483145 9.80383 3.32779 1.64228
45 2 0.531741 9.56987 2.79808 0.1154
46 1 -0.867918 3.22998 9.68697 6.99957
47 2 0.391211 2.48038 9.57833 7.65249
48 2 0.476707 3.79608 8.86263 7.0018
49 1 -0.932662 2.90436 4.70274 9.58212
50 2 0.413446 2.53158 4.04199 8.93063
51 2 0.519215 3.90046 4.6187 9.60905
52 1 -0.953486 10.6587 0.728674 7.05165
53 2 0.485683 10.3242 12.3444 6.52918
54 2 0.467803 11.4122 1.16186 6.55702
55 1 -1.05354 0.574351 3.13467 0.0983281
56 2 0.549922 12.0888 3.24676 0.549089
57 2 0.50362 1.20453 2.66209 0.714409
58 1 -0.843175 6.71439 12.1369 2.68654
59 2 0.445497 7.10648 12.0491 3.60228
60 2 0.397678 5.86898 11.6054 2.63359
61 1 -1.01131 2.81299 12.0297 0.442367
62 2 0.465146 2.39112 12.1136 1.34514
63 2 0.546161 3.63667 11.4667 0.510322
64 1 -0.946407 11.893 1.88442 4.36419
65 2 0.468089 0.25471 1.25135 4.50234
66 2 0.478319 12.2279 2.82524 4.41619
67 1 -1.00056 3.49427 2.05515 7.72372
68 2 0.457003 3.07748 2.37508 8.57457
69 2 0.543553 2.82213 1.53257 7.19919
70 1 -0.931472 8.31743 1.61865 11.5319
71 2 0.454586 7.4924 1.21341 11.1381
72 2 0.476886 9.12353 1.24992 11.069
73 1 -1.02992 6.18752 1.6477 8.67716
74 2 0.490942 6.10222 0.958263 9.39648
75 2 0.53898 5.43601 1.54435 8.02558
76 1 -0.904973 2.36052 1.76489 10.5844
77 2 0.410506 2.1666 0.960413 11.1459
78 2 0.494468 2.02732 2.58465 11.0502
79 1 -0.862362 6.04355 11.4814 6.7006
80 2 0.413737 5.30353 10.8688 6.42304
81 2 0.448625 6.67238 10.9922 7.30493
82 1 -0.933648 9.69722 11.1569 4.79364
83 2 0.540685 9.72478 10.4109 4.12829
84 2 0.392962 8.75303 11.3077 5.08652
85 1 -1.02787 9.6711 1.36965 2.75342
86 2 0.527025 10.6003 1.31352 3.11865
87 2 0.500847 9.03422 0.942936 3.39552
88 1 -0.845018 6.48501 10.2399 9.97996
89 2 0.462624 6.33168 9.3532 9.54378
90 2 0.382395 6.39869 10.143 10.9715
91 1 -0.92114 10.1861 11.6842 0.915776
92 2 0.545138 10.0181 0.139173 1.40647
93 2 0.376001 9.32619 11.3433 0.535958
94 1 -0.928016 5.18784 0.970511 11.2127
95 2 0.492344 4.46449 1.50435 10.7748
96 2 0.435673 5.29668 1.27091 12.1603
97 1 -0.824244 11.4325 9.07151 11.5157
98 2 0.538673 11.611 10.0513 11.425
99 2 0.285571 10.8597 8.91004 12.3193
100 1 -0.869419 0.438077 11.1934 2.42349
101 2 0.42235 0.961897 10.4571 1.99512
102 2 0.44707 11.9234 11.2296 2.02091
103 1 -0.97393 4.91948 7.52673 8.02625
104 2 0.444915 5.677 7.78492 7.42666
105 2 0.529015 4.90284 6.53258 8.13308
106 1 -0.924635 0.120544 9.82415 5.42487
107 2 0.468624 11.704 10.2638 5.05081
108 2 0.456011 0.380995 10.2758 6.27822
109 1 -0.859265 11.2554 4.76292 10.1051
110 2 0.487157 11.0216 3.79798 10.2244
111 2 0.372109 10.9793 5.06231 9.19176
112 1 -0.886931 3.64934 11.6358 4.28801
113 2 0.462256 3.75426 10.6432 4.22746
114 2 0.424675 4.35937 12.0103 4.88434
115 1 -0.905776 10.8525 8.70017 8.24539
116 2 0.526287 11.7519 8.26321 8.2361
117 2 0.379489 10.2356 8.18057 8.8365
118 1 -0.89298 7.79159 9.10478 7.52981
119 2 0.385724 8.3075 8.97884 6.68247
120 2 0.507256 8.32907 8.76391 8.30112
121 1 -0.828339 7.7474 8.94989 0.595923
122 2 0.457856 7.87679 7.96929 0.448674
123 2 0.370483 8.23155 9.46042 12.2853
124 1 -1.01983 8.81853 2.94382 8.03406
125 2 0.532235 7.92113 2.50343 8.00675
126 2 0.487599 9.52781 2.2678 7.83423
127 1 -0.942461 5.63185 4.80184 8.83798
128 2 0.420237 5.86625 4.45624 7.92934
129 2 0.522224 6.2157 4.36431 9.52186
130 1 -1.01752 10.8495 6.26029 0.283892
131 2 0.585866 10.8936 5.4487 12.1013
132 2 0.431654 11.0412 7.07465 12.1361
133 1 -1.0115 1.78436 3.83264 5.02221
134 2 0.507179 2.6675 4.30172 5.02669
135 2 0.504319 1.23258 4.16814 4.25867
136 1 -0.91324 7.42979 5.74981 0.606391
137 2 0.466731 7.33823 5.30083 1.49523
138 2 0.446509 8.37795 5.68352 0.295551
139 1 -0.972587 6.11608 2.45262 1.62149
140 2 0.460621 6.47312 3.08006 2.31348
141 2 0.511966 6.35049 1.51299 1.87081
142 1 -0.889858 11.0221 1.71182 10.1316
143 2 0.435031 11.9811 1.95499 10.2769
144 2 0.454827 10.9675 0.917578 9.5265
145 1 -0.823576 0.575204 3.05646 7.56892
146 2 0.319041 0.0538748 2.2051 7.51059
147 2 0.504535 0.82691 3.35689 6.64893
148 1 -0.930993 2.28919 5.73085 0.131591
149 2 0.490513 1.58994 5.02822 12.3998
150 2 0.44048 2.77188 5.8865 11.6697
151 1 -0.955139 8.70478 7.56432 10.0093
152 2 0.382828 9.53569 7.80853 10.5093
153 2 0.572311 8.60891 6.56916 9.98804
154 1 -0.887769 6.36566 9.09054 3.82365
155 2 0.43014 7.08369 9.08326 3.12767
156 2 0.457629 5.77096 8.29658 3.69736
157 1 -0.892929 1.97099 1.86365 2.36259
158 2 0.408327 1.91321 1.02625 2.90612
159 2 0.484603 2.78192 2.38199 2.63409
160 1 -0.830517 9.14948 11.6687 9.59251
161 2 0.461596 8.27426 11.2271 9.78988
162 2 0.368922 9.21544 11.8547 8.61216
163 1 -1.02558 1.77756 0.256061 6.34232
164 2 0.523362 1.55286 12.0892 7.13489
165 2 0.502222 2.10593 12.0739 5.59848
166 1 -0.960081 0.633012 7.10954 9.03954
167 2 0.463137 1.08234 7.56748 9.80662
168 2 0.496944 0.803869 6.12565 9.09228
169 1 -1.02605 9.30989 6.43837 6.42549
170 2 0.577922 9.80869 5.61465 6.15586
171 2 0.44813 9.95097 7.10917 6.79838
172 1 -0.977989 9.91328 3.87642 5.4446
173 2 0.486273 9.65554 3.41106 6.29137
174 2 0.491716 9.8123 3.24687 4.67422
175 1 -0.894757 9.67401 8.87321 3.11477
176 2 0.433547 10.0173 8.81855 2.17712
177 2 0.46121 9.56764 7.95042 3.48512
178 1 -0.942171 7.74772 1.05897 5.20832
179 2 0.548221 6.88161 1.55882 5.20899
180 2 0.39395 7.82309 0.521563 6.04828
181 1 -0.944681 1.78181 8.67831 1.0435
182 2 0.478265 1.40244 7.76531 0.893478
183 2 0.466416 2.31952 8.95108 0.24571
184 1 -0.871096 0.25451 6.97587 5.4593
185 2 0.393868 0.621828 6.64149 6.32721
186 2 0.477228 0.25075 7.97586 5.46208
187 1 -0.892195 3.81076 6.23428 5.33943
188 2 0.454835 3.62254 6.90844 4.62523
189 2 0.437359 4.70728 6.41747 5.7428
190 1 -1.03297 6.81523 4.69162 3.32141
191 2 0.544057 7.67266 5.19843 3.41061
192 2 0.488912 6.30103 4.75326 4.17687
