ITEM: TIMESTEP
0
ITEM: NUMBER OF ATOMS
192
ITEM: BOX BOUNDS pp pp pp
0.0000000000000000e+00 1.2400000000000000e+01
0.0000000000000000e+00 1.2400000000000000e+01
0.0000000000000000e+00 1.2400000000000000e+01
ITEM: ATOMS id type q x y z
1 1 -0.986456 6.31367 6.79293 4.00666
2 2 0.522753 7.13108 6.4904 3.51644
3 2 0.463703 6.57346 7.13084 4.91128
4 1 -0.912239 11.7192 2.25651 9.86406
5 2 0.469202 11.8535 1.54039 10.549
6 2 0.443037 10.9362 2.02348 9.28726
7 1 -0.843288 8.31805 9.20369 4.04969
8 2 0.428439 8.69067 8.35996 4.43607
9 2 0.414849 9.03615 9.8986 4.0119
10 1 -1.00403 4.93314 11.3841 11.7471
11 2 0.466497 4.88299 10.6364 0.00931755
12 2 0.53753 4.42457 12.1719 12.0947
13 1 -0.892338 3.34018 5.48195 10.1889
14 2 0.395213 3.51984 4.63815 9.68323
15 2 0.497125 2.4227 5.81343 9.96904
16 1 -0.957134 0.194422 12.1825 11.49
17 2 0.493614 11.8571 12.1774 12.1655
18 2 0.46352 12.233 11.905 10.5999
19 1 -0.99172 0.884235 6.07528 12.3874
20 2 0.465761 0.239862 6.77088 12.0697
21 2 0.525959 0.671403 5.2003 11.9525
22 1 -0.897456 5.65603 1.36664 5.64235
23 2 0.397636 5.21636 1.55896 6.51967
24 2 0.499821 6.12307 2.18856 5.31628
25 1 -1.0365 2.03325 6.27255 2.63356
26 2 0.581391 1.76541 6.26232 1.67015
27 2 0.455109 2.01684 5.33992 2.99403
28 1 -0.876842 6.16724 6.43086 10.3492
29 2 0.387622 6.82317 5.76271 10.7004
30 2 0.48922 5.24168 6.16036 10.6141
31 1 -0.917017 4.68213 9.98215 4.93549
32 2 0.529848 3.79301 9.83144 4.50334
33 2 0.387169 5.37716 10.118 4.22946
34 1 -0.947056 4.96921 4.20197 3.51484
35 2 0.454467 5.0175 5.18191 3.32146
36 2 0.492588 4.43223 3.74796 2.80383
37 1 -0.931203 3.62066 8.57012 11.3236
38 2 0.451955 3.97683 8.20678 10.4627
39 2 0.479248 2.62402 8.4887 11.3328
40 1 -1.01818 3.52074 4.12461 0.800498
41 2 0.501823 2.55153 3.96916 0.60954
42 2 0.51636 3.78083 5.03669 0.483519
43 1 -0.858177 10.4848 2.11682 0.485829
44 2 0.394886 9.83855 1.47873 0.904358
45 2 0.463291 10.9655 2.62232 1.20235
46 1 -1.14971 6.2501 12.3176 9.32186
47 2 0.596162 6.25053 11.6911 8.54245
48 2 0.553553 5.66379 11.9508 10.0441
49 1 -0.936394 0.338506 4.89674 9.73151
50 2 0.53448 12.3006 4.00609 9.85383
51 2 0.401914 12.0579 5.62092 9.84278
52 1 -0.914697 9.32467 11.6067 6.53673
53 2 0.475771 9.86793 12.3859 6.22417
54 2 0.438926 9.86602 10.7697 6.45738
55 1 -1.1072 12.0265 3.37506 2.71291
56 2 0.509749 11.258 3.13283 3.30513
57 2 0.59745 0.477483 3.33043 3.23615
58 1 -0.878433 6.05551 9.83685 1.94477
59 2 0.436068 6.22921 10.5984 2.56918
60 2 0.442365 6.30027 8.97659 2.39203
61 1 -1.06113 2.24172 11.3368 0.779179
62 2 0.606975 1.70138 11.9235 0.176028
63 2 0.454155 2.79958 10.7161 0.228262
64 1 -0.934834 11.1956 1.16361 5.53849
65 2 0.430219 11.9024 0.463391 5.63896
66 2 0.504614 11.1348 1.4407 4.57957
67 1 -1.03837 3.12157 2.37065 8.97726
68 2 0.489304 2.42725 3.0522 9.20832
69 2 0.549064 3.89861 2.82193 8.53843
70 1 -0.91097 6.61537 3.35421 12.0009
71 2 0.495926 6.56484 2.98193 11.0742
72 2 0.415044 6.01657 2.82795 0.20467
73 1 -1.23805 7.00822 2.56784 9.20278
74 2 0.662989 6.74281 1.60379 9.19016
75 2 0.575059 7.90831 2.67135 8.77953
76 1 -0.952043 3.51369 1.40281 11.8894
77 2 0.471638 3.87204 2.0684 0.144036
78 2 0.480405 3.64133 1.74787 10.9595
79 1 -1.08496 6.63443 10.5905 7.1099
80 2 0.565714 7.49259 10.983 6.77903
81 2 0.519241 6.04872 10.3654 6.33125
82 1 -0.88817 10.0198 11.7031 3.35494
83 2 0.424182 10.0155 11.4763 2.38101
84 2 0.463988 10.9552 11.6518 3.70501
85 1 -0.941022 9.25629 2.55328 3.24204
86 2 0.404055 8.62505 2.12718 2.59398
87 2 0.536967 8.75321 2.84188 4.05667
88 1 -0.975485 6.72091 7.45646 7.34333
89 2 0.474265 6.77652 7.26317 8.3229
90 2 0.501221 7.03607 8.3894 7.16924
91 1 -0.993316 9.8364 10.9346 0.20365
92 2 0.516104 9.24359 10.3102 0.712255
93 2 0.477212 9.71505 10.7844 11.6225
94 1 -0.787697 7.05297 9.73743 10.929
95 2 0.332073 7.40496 10.6651 10.8041
96 2 0.455624 6.0739 9.77648 11.1288
97 1 -0.943874 0.612819 9.09152 10.8393
98 2 0.471144 12.1853 8.60622 11.1215
99 2 0.47273 0.402766 9.68469 10.0621
100 1 -0.889304 0.453613 0.221983 3.04546
101 2 0.452979 0.971039 0.805027 3.67183
102 2 0.436325 1.07434 11.9747 2.60301
103 1 -0.920597 4.0284 8.67196 7.99274
104 2 0.459614 4.19727 9.47027 7.41465
105 2 0.460983 4.66659 7.94206 7.74784
106 1 -0.894863 0.214629 10.1762 5.15851
107 2 0.437347 0.827897 10.9655 5.18787
108 2 0.457516 0.47033 9.58365 4.39464
109 1 -0.976906 9.1044 4.3272 10.1221
110 2 0.492293 9.77954 3.68002 10.4761
111 2 0.484613 8.20136 4.09946 10.4863
112 1 -0.945868 2.47305 12.2184 5.34979
113 2 0.478667 3.31079 0.347134 5.2134
114 2 0.467201 2.35697 12.0231 6.32365
115 1 -1.04339 2.6866 12.0613 8.21556
116 2 0.572203 2.83311 0.648778 8.15734
117 2 0.471188 3.37303 11.6575 8.82039
118 1 -0.77876 10.2608 8.66624 7.61952
119 2 0.37118 10.3228 8.40989 8.58411
120 2 0.40758 11.1494 8.53152 7.181
121 1 -0.880689 8.63739 8.1682 0.505646
122 2 0.41863 8.22073 8.0031 12.0117
123 2 0.462059 8.57356 7.33928 1.06137
124 1 -0.957098 9.11363 2.32402 7.34155
125 2 0.502085 8.76945 3.22752 7.08615
126 2 0.455014 9.54483 1.89497 6.54783
127 1 -1.00252 5.06445 4.16844 7.95027
128 2 0.442439 5.17951 5.1441 7.76359
129 2 0.560077 5.87029 3.82389 8.43183
130 1 -0.84207 10.6375 5.92269 1.81447
131 2 0.410382 9.77128 5.43836 1.93701
132 2 0.431688 11.3959 5.27664 1.90152
133 1 -0.985834 2.1649 4.79128 6.61859
134 2 0.525821 2.89113 5.44414 6.40324
135 2 0.460013 1.43041 5.2597 7.10962
136 1 -0.968709 7.14958 5.4638 1.41464
137 2 0.493898 6.19786 5.76718 1.46152
138 2 0.474811 7.17967 4.50085 1.14664
139 1 -0.763635 7.45176 0.436481 0.397974
140 2 0.393823 7.65916 12.0058 0.914633
141 2 0.369811 7.97851 0.440602 11.948
142 1 -0.865446 9.56998 12.1382 9.8125
143 2 0.428078 8.66606 11.7396 9.6574
144 2 0.437368 10.0932 12.1195 8.96049
145 1 -0.82045 11.0582 4.00495 5.93552
146 2 0.390733 11.779 4.64425 5.66763
147 2 0.429717 11.4626 3.11384 6.14138
148 1 -0.92915 0.858839 3.09908 0.0113
149 2 0.464818 0.293472 3.26179 0.819928
150 2 0.464332 0.831313 2.12771 12.1753
151 1 -0.972631 10.7855 7.0801 11.0485
152 2 0.440184 10.1082 6.62822 10.4679
153 2 0.532446 10.4562 7.09825 11.9926
154 1 -0.960378 4.65246 6.84821 1.03288
155 2 0.506539 4.90051 7.44171 0.267221
156 2 0.453839 4.17788 7.38492 1.73053
157 1 -0.868409 3.80723 0.999063 2.82433
158 2 0.427518 4.80143 0.907492 2.88074
159 2 0.440891 3.44705 0.328949 2.17532
160 1 -0.999522 0.1461 10.7149 8.44269
161 2 0.531144 0.952433 11.2966 8.54985
162 2 0.468378 0.1735 10.2686 7.54827
163 1 -1.11271 1.86115 3.09071 4.30199
164 2 0.59092 2.02316 3.72753 5.05579
165 2 0.521795 2.67442 2.52585 4.1622
166 1 -0.872249 1.28063 7.63495 8.11745
167 2 0.47812 2.2623 7.72255 7.94818
168 2 0.394129 1.01949 8.22792 8.87916
169 1 -1.01769 8.31631 5.14261 7.40017
170 2 0.493664 8.22628 6.11941 7.20585
171 2 0.524027 8.71248 5.01886 8.30997
172 1 -0.946872 9.33201 6.34407 4.8095
173 2 0.464079 9.3776 5.62478 5.50272
174 2 0.482793 10.244 6.72915 4.66823
175 1 -0.794919 12.2076 9.3723 1.3866
176 2 0.375277 0.703132 9.54862 0.978084
177 2 0.419641 11.5401 10.0199 1.01893
178 1 -0.925407 6.92922 12.3708 3.19353
179 2 0.471417 7.92088 12.3252 3.31411
180 2 0.45399 6.51868 0.432455 3.97987
181 1 -0.906554 2.57562 9.33106 3.00136
182 2 0.447382 2.15242 8.62146 2.43801
183 2 0.459171 2.47835 10.2177 2.5493
184 1 -0.868356 0.0275197 7.05187 4.55972
185 2 0.392194 0.692348 7.45347 5.18959
186 2 0.476163 0.410516 7.03642 3.6361
187 1 -0.963214 3.52699 6.80762 5.12975
188 2 0.464595 2.84893 6.89427 4.39987
189 2 0.498619 4.44551 6.81923 4.73452
190 1 -1.06952 7.36355 3.87057 5.01727
191 2 0.543095 6.65408 4.20936 4.39931
192 2 0.526424 7.53419 4.54841 5.73241
