ITEM: TIMESTEP
0
ITEM: NUMBER OF ATOMS
192
ITEM: BOX BOUNDS pp pp pp
0.0000000000000000e+00 1.2400000000000000e+01
0.0000000000000000e+00 1.2400000000000000e+01
0.0000000000000000e+00 1.2400000000000000e+01
ITEM: ATOMS id type q x y z
1 1 -0.838984 7.29431 7.98255 4.65671
2 2 0.476242 8.01407 7.41699 5.05932
3 2 0.362741 7.60157 8.33319 3.77203
4 1 -0.884555 10.5371 3.51048 9.69323
5 2 0.406916 11.1625 2.80706 10.031
6 2 0.477639 10.4365 3.41925 8.70248
7 1 -1.11792 7.95005 11.6621 4.13897
8 2 0.592295 8.38155 11.2314 4.93164
9 2 0.525629 8.51404 0.0265694 3.82681
10 1 -1.03845 5.90027 11.2889 11.7278
11 2 0.546932 5.8872 10.9239 0.258753
12 2 0.491516 5.05435 11.0355 11.2585
13 1 -0.887721 1.71327 4.66909 9.58318
14 2 0.449828 2.41975 5.36947 9.68501
15 2 0.437893 0.851258 5.00784 9.96025
16 1 -0.893913 12.0584 1.03942 11.4836
17 2 0.488351 11.5477 1.68906 12.0467
18 2 0.405561 11.4597 0.672848 10.7715
19 1 -1.01653 12.291 6.52914 11.106
20 2 0.528989 11.3609 6.72184 11.4189
21 2 0.487539 0.125691 7.14852 10.3568
22 1 -0.967735 5.74467 1.26774 6.59063
23 2 0.51231 4.92564 1.47852 7.12427
24 2 0.455425 5.85684 1.95037 5.86852
25 1 -0.91364 1.45991 6.10462 2.96053
26 2 0.447695 2.28441 5.78689 2.49229
27 2 0.465945 0.652784 5.8276 2.43917
28 1 -1.074 5.5091 5.88572 11.3097
29 2 0.570735 5.37929 4.90131 11.191
30 2 0.503263 4.973 6.37774 10.6237
31 1 -0.990642 5.2004 11.1341 5.4338
32 2 0.557464 5.77692 11.8631 5.80289
33 2 0.433179 5.67443 10.6856 4.6761
34 1 -0.972562 5.19925 4.26632 4.66685
35 2 0.524258 4.72266 4.82136 5.34861
36 2 0.448303 5.26338 4.77523 3.80842
37 1 -0.920374 3.32761 7.36528 9.90311
38 2 0.477457 2.99749 8.17506 10.3882
39 2 0.442917 3.91033 7.64765 9.14106
40 1 -0.881973 3.72748 4.09822 1.28516
41 2 0.45858 2.78385 4.05702 0.956739
42 2 0.423393 4.30762 3.52651 0.704987
43 1 -1.02863 10.5121 3.02238 0.501495
44 2 0.536146 9.69464 2.87871 12.3437
45 2 0.492485 10.5349 3.96946 0.821696
46 1 -1.01422 6.94305 0.0775016 9.16785
47 2 0.499567 6.33131 0.354136 8.42674
48 2 0.514655 6.42611 11.9637 9.85256
49 1 -0.838522 0.3854 1.52879 8.15877
50 2 0.396367 0.118979 1.15783 9.04839
51 2 0.442155 12.1884 1.15451 7.44921
52 1 -1.08742 9.51875 11.0662 6.43412
53 2 0.486441 10.4553 11.0567 6.08365
54 2 0.600977 9.41273 10.3477 7.12149
55 1 -1.0127 0.174148 3.26531 3.38682
56 2 0.483978 0.642987 2.9569 4.21452
57 2 0.528721 0.478199 2.71721 2.60763
58 1 -0.932123 6.5245 10.2775 2.06172
59 2 0.545837 7.03961 10.8288 2.71806
60 2 0.386285 7.08107 9.49942 1.7706
61 1 -1.06561 3.07336 10.3052 11.6255
62 2 0.539447 2.10097 10.3223 11.3928
63 2 0.526161 3.19687 10.6239 0.165297
64 1 -0.853775 11.7221 0.814433 5.02044
65 2 0.44739 11.3688 1.31396 4.22946
66 2 0.406385 12.331 0.084836 4.70912
67 1 -0.971735 3.47031 2.11546 8.19178
68 2 0.489571 3.29227 2.51645 9.0904
69 2 0.482164 2.65329 1.63466 7.87349
70 1 -1.03835 5.23021 3.04636 11.0149
71 2 0.509134 4.4676 2.40136 10.9658
72 2 0.529218 5.96304 2.74308 10.4058
73 1 -0.995428 7.17592 3.09725 8.86407
74 2 0.459923 7.4559 2.13742 8.84538
75 2 0.535505 7.76264 3.6276 8.25212
76 1 -0.919956 2.80469 1.39096 11.4881
77 2 0.472809 2.0033 1.78076 11.9418
78 2 0.447148 3.2791 0.77693 12.1189
79 1 -0.865653 5.41572 8.40627 7.48382
80 2 0.452958 6.11296 8.84131 6.91407
81 2 0.412695 4.94369 9.10335 8.02351
82 1 -0.919185 10.3441 11.4172 1.54625
83 2 0.502303 9.99743 11.0223 0.695444
84 2 0.416882 9.68261 12.078 1.90094
85 1 -1.04123 9.19408 1.69309 3.19393
86 2 0.496581 9.58541 1.99403 2.32427
87 2 0.544644 8.7735 2.4728 3.65779
88 1 -1.03813 7.6123 7.25992 9.34523
89 2 0.498958 7.54151 6.88091 10.2679
90 2 0.539176 6.73213 7.16945 8.87927
91 1 -1.07361 8.75336 10.4679 11.4485
92 2 0.534893 7.79697 10.7379 11.56
93 2 0.538718 9.2125 11.1122 10.8369
94 1 -0.856145 7.08363 7.48068 0.694207
95 2 0.335222 6.53894 8.04221 1.31711
96 2 0.520924 6.47493 6.92716 0.1258
97 1 -0.86094 0.256118 9.95015 10.735
98 2 0.394523 12.1864 10.5784 11.3552
99 2 0.466417 12.3627 10.1275 9.79563
100 1 -0.849178 0.694728 0.542459 2.1415
101 2 0.410286 1.41339 0.255976 1.50789
102 2 0.438892 12.32 12.3139 2.07304
103 1 -0.943379 2.54725 8.83996 6.57158
104 2 0.508537 3.46296 8.43878 6.54876
105 2 0.434842 2.62052 9.83711 6.58925
106 1 -0.882035 11.6474 10.1128 4.17651
107 2 0.47426 11.2289 10.519 3.36417
108 2 0.407774 11.8362 9.14568 4.00605
109 1 -0.94768 8.61924 4.87139 11.2911
110 2 0.511905 9.28545 4.69354 10.5669
111 2 0.435775 7.88704 4.19188 11.2447
112 1 -0.999916 2.28205 11.8816 6.01085
113 2 0.519424 1.92408 0.240322 5.46658
114 2 0.480492 3.27636 11.8408 5.91242
115 1 -0.913555 4.08239 10.8715 9.14803
116 2 0.396032 3.79628 11.6884 8.6472
117 2 0.517522 3.50334 10.7554 9.95502
118 1 -0.994453 9.54453 9.16848 8.68952
119 2 0.554666 8.89711 8.48051 9.01744
120 2 0.439787 10.4778 8.87003 8.88941
121 1 -1.00832 10.6976 7.77656 2.14689
122 2 0.509488 10.4214 8.01645 1.21618
123 2 0.498828 10.5043 6.80961 2.31315
124 1 -0.896366 8.94808 1.55439 6.80402
125 2 0.432109 8.75651 2.03042 5.94571
126 2 0.464257 9.2583 0.624301 6.60731
127 1 -0.800719 5.34247 5.35877 7.91028
128 2 0.413689 4.75388 4.64968 7.522
129 2 0.38703 6.27971 5.01596 7.97409
130 1 -1.00885 10.4345 5.02762 2.85424
131 2 0.577713 11.101 4.30385 3.03303
132 2 0.431139 10.101 5.39555 3.72225
133 1 -0.9078 2.80785 4.86719 6.2775
134 2 0.464539 2.28829 5.51938 5.72549
135 2 0.443261 2.38018 4.77663 7.17689
136 1 -0.920111 7.14874 4.30923 1.92628
137 2 0.425041 6.34886 4.50338 1.35839
138 2 0.49507 7.95654 4.73838 1.52217
139 1 -0.888216 7.93392 1.78517 11.8819
140 2 0.468455 7.06091 1.71891 12.3651
141 2 0.419761 7.80889 1.51071 10.9285
142 1 -1.00501 9.9271 12.3325 9.36051
143 2 0.540979 8.97167 0.134456 9.14512
144 2 0.464032 10.4053 12.0553 8.52715
145 1 -0.991333 11.5835 4.78978 7.04394
146 2 0.502686 11.7918 5.3112 6.21643
147 2 0.488647 12.3436 4.17338 7.24966
148 1 -0.939809 0.853563 4.18938 0.283847
149 2 0.476766 1.05517 5.04278 12.2032
150 2 0.463042 0.0163 3.78766 12.3129
151 1 -1.04085 9.83716 7.8631 11.7263
152 2 0.438915 9.28033 7.06414 11.4991
153 2 0.601937 9.28384 8.69129 11.6373
154 1 -0.922799 3.65539 7.41959 1.30989
155 2 0.422788 4.00954 6.61352 0.835721
156 2 0.500011 2.72187 7.60389 1.00236
157 1 -1.02327 3.91832 12.2478 1.63163
158 2 0.511223 4.66769 0.472698 1.85055
159 2 0.512048 3.67144 11.7247 2.44735
160 1 -0.911991 0.0771705 10.6376 7.6896
161 2 0.514848 0.855559 10.9587 7.15015
162 2 0.397143 12.205 9.72861 7.37375
163 1 -0.921394 2.65996 2.06613 4.61134
164 2 0.470523 2.78449 2.83999 5.23233
165 2 0.450871 3.23614 2.19084 3.80359
166 1 -0.924613 12.1696 7.57729 8.3173
167 2 0.449576 11.8082 6.64697 8.25439
168 2 0.475038 0.628313 7.63647 7.80834
169 1 -1.06292 8.74159 5.07768 7.50058
170 2 0.526543 8.64111 5.98466 7.9096
171 2 0.536378 9.6552 4.99046 7.10346
172 1 -0.838476 9.9969 7.74439 5.59114
173 2 0.403107 10.6685 7.38404 6.23855
174 2 0.435369 10.4081 8.48761 5.06337
175 1 -0.847704 1.07356 9.08347 1.41351
176 2 0.404716 1.33348 9.78489 2.07718
177 2 0.442988 0.200787 8.67656 1.68312
178 1 -0.954809 6.30089 1.65347 2.29239
179 2 0.431395 6.82059 1.1126 2.95373
180 2 0.523414 6.69822 2.56863 2.22457
181 1 -0.896888 3.22947 10.125 3.3875
182 2 0.445627 3.80512 9.42059 2.97221
183 2 0.451261 3.60959 10.3856 4.27495
184 1 -1.09262 0.697699 6.81504 5.54192
185 2 0.507809 0.913699 7.76705 5.75878
186 2 0.584812 1.17492 6.54727 4.70492
187 1 -0.847115 4.09541 7.41278 4.29239
188 2 0.440298 3.89235 7.31051 3.31858
189 2 0.406818 5.03038 7.74939 4.40439
190 1 -1.03818 7.97662 3.77126 5.08478
191 2 0.529705 7.04133 3.86004 4.74221
192 2 0.50847 8.05757 4.24761 5.96031
