ITEM: TIMESTEP
0
ITEM: NUMBER OF ATOMS
192
ITEM: BOX BOUNDS pp pp pp
0.0000000000000000e+00 1.2400000000000000e+01
0.0000000000000000e+00 1.2400000000000000e+01
0.0000000000000000e+00 1.2400000000000000e+01
ITEM: ATOMS id type q x y z
1 1 -0.912841 4.85675 6.5759 6.35865
2 2 0.428939 4.92668 6.02969 5.52392
3 2 0.483902 5.51585 7.32705 6.32169
4 1 -0.96996 9.6715 3.21946 8.80376
5 2 0.435991 10.3804 3.66938 9.34688
6 2 0.533969 9.87456 3.33268 7.83116
7 1 -1.00003 0.0431275 12.1492 2.64596
8 2 0.509497 11.5899 11.7916 3.02557
9 2 0.49053 12.2487 0.561475 2.09602
10 1 -1.01828 5.70418 0.219188 0.423491
11 2 0.548768 6.44861 0.850192 0.205182
12 2 0.469516 6.01319 11.9653 1.11409
13 1 -1.0226 10.3892 3.62842 6.14442
14 2 0.492771 11.0257 3.05819 5.62519
15 2 0.529825 10.6161 4.59243 6.006
16 1 -0.916287 10.4089 11.7276 10.5756
17 2 0.449406 10.7545 11.9215 9.65746
18 2 0.466881 9.58159 12.2645 10.7407
19 1 -1.00018 4.10636 4.6345 11.2211
20 2 0.39376 3.3939 4.59221 10.5206
21 2 0.606422 4.38644 5.58514 11.3547
22 1 -1.01343 3.53915 9.8771 7.51606
23 2 0.504779 4.22137 9.53934 6.86759
24 2 0.50865 3.66907 9.42864 8.40037
25 1 -0.82457 2.85636 7.1702 0.433568
26 2 0.419101 1.87494 7.08211 0.604035
27 2 0.405469 3.20055 7.9934 0.885098
28 1 -1.03605 7.64773 1.43177 10.1833
29 2 0.499714 8.3592 1.846 9.61567
30 2 0.536339 7.52094 1.97877 11.0108
31 1 -0.922705 4.6011 11.7456 4.95374
32 2 0.4615 3.81269 11.974 4.38253
33 2 0.461204 4.98968 10.8747 4.65284
34 1 -0.960828 2.96425 7.20702 3.70595
35 2 0.455244 3.47375 8.06648 3.66436
36 2 0.505584 1.98755 7.39298 3.59878
37 1 -0.918698 5.09706 9.30489 3.16262
38 2 0.399672 5.83662 8.63196 3.14728
39 2 0.519026 4.77808 9.47095 2.22952
40 1 -0.986968 3.02826 2.18012 9.86911
41 2 0.407251 3.56962 2.90387 10.297
42 2 0.579717 3.63966 1.47772 9.50464
43 1 -0.940732 10.4066 4.53226 12.0969
44 2 0.460048 11.3815 4.3167 12.0413
45 2 0.480684 9.96141 3.90117 0.33217
46 1 -0.92534 2.76479 8.67675 10.1796
47 2 0.469133 1.91073 8.94228 9.7323
48 2 0.456207 2.60105 8.54065 11.1567
49 1 -0.882444 0.491694 2.99821 8.53999
50 2 0.422894 0.461153 3.99322 8.63505
51 2 0.45955 1.39365 2.66468 8.81428
52 1 -1.02914 9.24939 8.57952 7.58586
53 2 0.452961 8.81325 9.0395 8.35929
54 2 0.576177 8.8208 7.68725 7.44385
55 1 -0.969948 4.48343 5.0128 2.63024
56 2 0.511787 3.9548 5.80473 2.93588
57 2 0.458161 3.85948 4.27736 2.36602
58 1 -0.924362 6.09633 9.85004 9.46364
59 2 0.427596 5.95065 9.6818 10.4386
60 2 0.496767 6.98037 10.2983 9.33118
61 1 -1.05307 1.52827 10.1544 0.356582
62 2 0.469813 1.64764 10.4921 1.29023
63 2 0.583253 2.14311 10.6487 12.1421
64 1 -0.852648 1.78619 2.60505 2.64524
65 2 0.378005 0.791287 2.69498 2.59958
66 2 0.474643 2.14552 2.41036 1.73256
67 1 -0.85126 0.75338 2.3441 5.55153
68 2 0.45203 1.03529 1.87658 6.38937
69 2 0.39923 0.946417 1.76026 4.76294
70 1 -1.08688 4.97559 0.20524 9.08844
71 2 0.562128 5.90858 0.536917 9.22817
72 2 0.524749 5.00389 11.68 8.71005
73 1 -0.99497 8.26083 11.5539 7.75507
74 2 0.442732 9.25928 11.5204 7.79964
75 2 0.552238 7.97442 0.0182176 7.34162
76 1 -1.06713 3.46437 11.5727 11.4265
77 2 0.573587 4.27311 11.8038 11.9674
78 2 0.49354 3.57036 11.9306 10.4988
79 1 -1.04894 6.65924 5.73325 0.707294
80 2 0.50871 6.00153 5.48859 1.41973
81 2 0.540228 7.05246 6.62999 0.910379
82 1 -1.05713 10.9969 2.01005 0.961433
83 2 0.556665 10.3345 1.26339 0.899977
84 2 0.500464 11.6569 1.93251 0.214172
85 1 -0.942415 8.81679 3.32777 2.83686
86 2 0.456164 9.75377 3.0103 2.98277
87 2 0.486251 8.73446 4.27589 3.14394
88 1 -0.88972 5.5107 6.97616 10.1073
89 2 0.473011 5.73459 7.75394 9.51999
90 2 0.416709 6.254 6.82584 10.7592
91 1 -0.989039 9.66784 6.4747 10.186
92 2 0.510889 9.64166 5.94659 11.0348
93 2 0.47815 10.5585 6.35628 9.74705
94 1 -1.00917 9.10253 12.3185 1.35506
95 2 0.522643 8.53557 12.3162 2.1788
96 2 0.48653 9.57597 11.4415 1.2738
97 1 -1.024 8.94119 9.24434 10.938
98 2 0.505297 9.17748 8.29449 10.7331
99 2 0.518699 9.77373 9.79792 10.9587
100 1 -0.825018 1.23808 4.34594 12.1258
101 2 0.392611 1.06909 3.39427 11.8694
102 2 0.432406 2.13782 4.62652 11.7915
103 1 -0.875524 1.34538 7.64247 6.71062
104 2 0.411521 1.78227 6.75583 6.86229
105 2 0.464003 1.71284 8.31023 7.35798
106 1 -0.968961 0.86228 1.22832 11.8575
107 2 0.498239 1.43945 1.6247 11.1435
108 2 0.470722 1.15281 0.288538 12.0375
109 1 -0.919142 12.3992 7.54683 11.84
110 2 0.439911 12.1645 6.89 0.156527
111 2 0.479231 0.152584 8.44619 12.2494
112 1 -1.01648 11.3751 0.169441 8.01923
113 2 0.545249 12.3708 0.0780766 8.00411
114 2 0.471231 11.1282 1.06619 8.38649
115 1 -0.954724 1.97563 12.2429 8.25435
116 2 0.470604 2.80437 0.347382 8.01198
117 2 0.48412 2.1547 11.2607 8.19769
118 1 -0.936846 11.3354 6.26047 5.58127
119 2 0.515596 11.9698 6.6927 6.22213
120 2 0.421249 11.3707 6.73857 4.70367
121 1 -0.887664 0.408555 8.59098 3.08318
122 2 0.408364 11.9704 8.04554 3.08095
123 2 0.4793 0.405508 9.20358 3.87357
124 1 -0.862594 10.3438 0.544191 5.07941
125 2 0.407979 10.0139 1.26551 5.68844
126 2 0.454615 11.1348 0.0940299 5.49365
127 1 -0.840179 5.93089 3.94953 8.86094
128 2 0.422441 5.91055 3.64157 9.81213
129 2 0.417738 5.44376 4.81926 8.78168
130 1 -1.14614 7.91603 8.18515 1.00397
131 2 0.597401 8.43096 8.62414 0.267673
132 2 0.548738 8.18904 8.57826 1.882
133 1 -0.841447 3.68 1.91266 6.40778
134 2 0.378235 4.32346 2.678 6.39285
135 2 0.463212 4.13255 1.08993 6.0638
136 1 -0.869531 7.93593 5.615 4.49789
137 2 0.380375 8.19984 6.49145 4.09516
138 2 0.489157 7.95872 5.68603 5.4951
139 1 -1.09905 7.4436 2.87289 0.208968
140 2 0.539918 8.01896 2.82819 1.02564
141 2 0.559135 7.03504 3.7829 0.138457
142 1 -0.950178 5.1766 9.04569 0.243182
143 2 0.464198 4.72662 8.65804 11.8387
144 2 0.48598 6.09246 8.65453 0.333737
145 1 -0.934526 0.709959 5.30475 3.33561
146 2 0.477693 0.79928 4.85631 4.22495
147 2 0.456832 1.5793 5.24767 2.8447
148 1 -0.945354 10.9444 6.54482 1.97885
149 2 0.457696 10.3789 5.92039 1.44008
150 2 0.487658 11.4804 6.02158 2.64136
151 1 -0.892552 10.8001 9.72424 1.12099
152 2 0.444838 11.0411 9.00268 1.77003
153 2 0.447713 11.6339 10.1616 0.783966
154 1 -0.916245 6.21928 9.18401 6.22494
155 2 0.516181 6.68275 9.81659 6.84545
156 2 0.400064 6.55753 9.3223 5.2941
157 1 -0.967283 3.82263 2.43298 0.65468
158 2 0.488834 4.47765 1.67837 0.615753
159 2 0.478449 3.95092 3.02703 12.2605
160 1 -0.893787 0.239613 9.52884 9.10319
161 2 0.451066 11.8191 8.98601 8.92414
162 2 0.442722 12.3847 10.372 9.57654
163 1 -1.03083 7.27017 1.59303 6.83812
164 2 0.467299 7.05107 1.99507 7.72715
165 2 0.563527 6.99318 2.22107 6.1109
166 1 -0.956772 0.0738066 5.9772 9.33053
167 2 0.432397 0.907966 6.03623 8.78217
168 2 0.524375 0.270572 6.26277 10.2685
169 1 -0.99773 8.33596 5.96568 7.41818
170 2 0.468553 9.22799 5.51436 7.39377
171 2 0.529177 7.68579 5.39226 7.91665
172 1 -0.942167 8.79655 9.20723 3.79231
173 2 0.526967 9.65804 9.07038 4.2813
174 2 0.4152 8.23757 9.87595 4.28257
175 1 -0.870298 1.45153 10.848 5.06324
176 2 0.416695 1.96113 10.8689 4.20308
177 2 0.453603 2.0681 10.5987 5.81001
178 1 -0.956794 7.53632 12.3304 3.92301
179 2 0.47227 6.61014 0.193555 4.19311
180 2 0.484524 8.19352 0.306116 4.57642
181 1 -1.03319 2.68202 11.8753 2.68086
182 2 0.460647 3.03384 0.293583 2.22622
183 2 0.572544 1.71646 12.0076 2.90492
184 1 -1.03594 11.1342 9.28387 5.55313
185 2 0.46796 12.0651 9.45464 5.87621
186 2 0.567984 10.5493 9.0509 6.32999
187 1 -0.939256 2.95456 5.1161 8.28526
188 2 0.490066 3.56598 5.83224 7.94863
189 2 0.44919 3.22213 4.23689 7.89106
190 1 -0.984661 6.28845 3.01648 4.57717
191 2 0.482429 5.55309 3.3278 3.97523
192 2 0.502232 7.16183 3.07352 4.09348
