ITEM: TIMESTEP
0
ITEM: NUMBER OF ATOMS
192
ITEM: BOX BOUNDS pp pp pp
0.0000000000000000e+00 1.2400000000000000e+01
0.0000000000000000e+00 1.2400000000000000e+01
0.0000000000000000e+00 1.2400000000000000e+01
ITEM: ATOMS id type q x y z
1 1 -0.91568 3.15271 4.82648 4.38455
2 2 0.480623 2.18467 5.05176 4.49481
3 2 0.435058 3.45536 5.09489 3.47002
4 1 -0.933207 8.69735 1.57859 8.09645
5 2 0.493532 9.40077 0.93414 8.39628
6 2 0.439675 7.97564 1.62927 8.78679
7 1 -0.931625 11.5731 0.342292 3.5662
8 2 0.50976 11.3953 0.981362 4.31452
9 2 0.421864 0.0963032 12.3693 3.65868
10 1 -0.901118 5.70777 0.686838 0.816888
11 2 0.446578 6.30234 0.115335 1.38247
12 2 0.45454 5.67091 1.61013 1.19923
13 1 -0.892244 0.134984 5.59297 4.54802
14 2 0.490816 11.5856 5.50693 4.85015
15 2 0.401428 0.461182 6.51986 4.73367
16 1 -0.906076 9.50251 11.2047 11.4626
17 2 0.466972 9.42279 10.2175 11.601
18 2 0.439104 9.66087 11.3937 10.4935
19 1 -1.00006 3.32291 5.34563 9.89527
20 2 0.531769 3.69374 4.64518 9.28546
21 2 0.46829 3.82993 6.1985 9.77058
22 1 -0.882398 4.91713 9.82712 6.74092
23 2 0.462831 5.74511 10.182 6.30676
24 2 0.419567 4.14526 10.4254 6.52575
25 1 -0.953775 3.89483 8.20487 12.337
26 2 0.391506 3.17407 7.7635 11.8025
27 2 0.562269 3.48213 8.75327 0.664254
28 1 -0.956973 7.77086 1.17151 11.0966
29 2 0.502462 8.50273 0.61243 11.4862
30 2 0.454511 6.93895 1.05712 11.6396
31 1 -1.01634 4.50314 11.7418 4.42119
32 2 0.479032 4.67732 0.314619 4.26888
33 2 0.537307 3.52038 11.5661 4.36365
34 1 -0.965474 3.98946 8.01468 4.39055
35 2 0.485864 3.36678 7.65613 5.08604
36 2 0.47961 4.31013 8.92105 4.66563
37 1 -1.03082 6.23244 9.646 3.99662
38 2 0.46093 6.49068 9.55239 3.03508
39 2 0.569891 5.93779 10.5852 4.17272
40 1 -1.01259 4.40149 2.5118 10.4139
41 2 0.447375 4.9484 3.3324 10.2481
42 2 0.565214 4.78528 1.74563 9.89847
43 1 -0.910436 9.62267 5.53951 0.406568
44 2 0.456491 10.59 5.79277 0.415298
45 2 0.453945 9.51609 4.61761 0.77906
46 1 -0.902162 2.63674 8.88429 9.61589
47 2 0.446371 1.82741 8.61779 10.1393
48 2 0.455791 3.33108 9.24713 10.2374
49 1 -1.02797 1.55995 2.01975 9.10191
50 2 0.482618 2.34494 2.49713 9.49677
51 2 0.545356 1.81336 1.07435 8.89693
52 1 -0.901645 8.99189 8.24208 8.88717
53 2 0.502598 9.11308 7.28939 8.60841
54 2 0.399047 9.21044 8.33555 9.85851
55 1 -1.01752 5.46995 6.90621 2.05701
56 2 0.531377 5.08872 7.39469 2.84191
57 2 0.48614 4.77198 6.82172 1.34589
58 1 -1.01781 6.07682 10.1548 10.5904
59 2 0.49757 5.4097 10.8963 10.6626
60 2 0.520244 6.73511 10.3679 9.8684
61 1 -0.97217 2.06233 9.71641 1.74796
62 2 0.459587 1.10596 9.43302 1.81899
63 2 0.512583 2.11929 10.7134 1.79991
64 1 -0.961615 0.433233 2.46015 12.0192
65 2 0.532847 12.0686 1.99085 0.0608022
66 2 0.428767 0.940465 1.81077 11.4526
67 1 -1.03063 2.06492 1.83467 5.29531
68 2 0.488967 1.71317 2.54617 5.90362
69 2 0.541668 2.87895 2.17254 4.82286
70 1 -1.03011 5.06929 0.316525 8.5194
71 2 0.5171 5.61211 11.9152 8.26781
72 2 0.513013 5.08288 0.977356 7.76898
73 1 -0.972336 7.61302 10.9142 8.32666
74 2 0.504128 8.02362 10.0228 8.13452
75 2 0.468208 8.05844 11.6138 7.76795
76 1 -0.918603 3.72484 11.8612 11.5094
77 2 0.479114 4.1003 12.2679 12.3423
78 2 0.43949 2.74664 11.6936 11.632
79 1 -1.02724 6.38789 6.97551 11.2365
80 2 0.589678 5.64875 7.51964 11.6335
81 2 0.437563 7.22105 7.52679 11.1924
82 1 -0.880645 9.74729 2.46049 0.532961
83 2 0.402915 9.26948 2.62497 12.07
84 2 0.47773 9.1028 2.54725 1.29264
85 1 -0.917684 8.57065 2.72337 3.46951
86 2 0.423444 9.30881 2.86813 4.12843
87 2 0.49424 7.74828 3.20002 3.78017
88 1 -0.924146 5.39049 7.14648 8.27424
89 2 0.431455 6.24164 7.19426 8.79699
90 2 0.492691 5.04007 8.07072 8.12265
91 1 -0.90686 9.72516 5.42747 8.96045
92 2 0.401578 10.4518 5.59084 9.62778
93 2 0.505282 9.40571 4.4832 9.03994
94 1 -0.901304 8.64887 12.3588 2.03772
95 2 0.470957 8.8875 0.434157 2.88453
96 2 0.430347 9.44103 12.3469 1.42751
97 1 -1.11317 9.91833 8.32864 12.2423
98 2 0.569606 9.53051 7.41908 12.3916
99 2 0.543568 10.0699 8.77525 0.724049
100 1 -0.99959 0.81051 5.38855 11.2485
101 2 0.463182 0.733875 4.51268 11.7249
102 2 0.536407 1.7176 5.46455 10.8345
103 1 -0.865757 2.70251 6.75558 6.58867
104 2 0.44503 2.26681 6.84164 7.48464
105 2 0.420726 3.6651 6.51234 6.70809
106 1 -0.89997 0.872545 11.5707 11.8143
107 2 0.516287 0.488451 10.7054 12.1365
108 2 0.383683 0.81693 11.6092 10.8166
109 1 -1.07413 0.120956 8.49929 11.4808
110 2 0.482245 0.462128 7.66151 11.9071
111 2 0.591888 11.5435 8.59497 11.6691
112 1 -0.957943 10.9147 12.13 8.81493
113 2 0.415917 11.5381 0.359083 9.27939
114 2 0.542026 11.4401 11.3914 8.39251
115 1 -1.01987 2.36751 11.7126 8.49075
116 2 0.537253 3.34974 11.8999 8.5042
117 2 0.482617 2.21492 10.7273 8.56717
118 1 -0.908891 9.76329 6.44916 5.37453
119 2 0.547423 8.88283 6.87657 5.16929
120 2 0.361468 10.2375 6.98249 6.07503
121 1 -0.934925 0.83815 9.13034 4.25298
122 2 0.471543 1.59864 8.80384 3.69167
123 2 0.463382 0.907423 10.1217 4.36402
124 1 -0.935746 11.0324 2.54687 5.58154
125 2 0.443287 10.2328 2.69451 6.16354
126 2 0.492459 11.7231 3.24193 5.7814
127 1 -0.912509 6.64392 4.56162 9.78645
128 2 0.351966 6.95364 3.94851 10.5132
129 2 0.560543 6.45695 5.46588 10.1703
130 1 -1.01502 8.58521 7.6356 2.48429
131 2 0.520896 8.1996 8.50077 2.16368
132 2 0.494122 7.93184 6.89721 2.31728
133 1 -0.97862 3.97131 4.03712 7.41045
134 2 0.451416 3.85698 4.60421 6.59476
135 2 0.527204 4.58197 3.27306 7.20232
136 1 -0.96877 6.04226 4.36502 3.84495
137 2 0.493603 6.07113 5.0248 3.09403
138 2 0.475166 5.96601 4.85285 4.71455
139 1 -0.762914 6.72044 3.88114 0.792338
140 2 0.438847 6.84694 4.8711 0.729242
141 2 0.324067 7.11289 3.44274 12.3838
142 1 -0.984481 7.14724 9.73433 0.918129
143 2 0.543345 6.52783 9.76329 0.133597
144 2 0.441136 7.39483 10.6666 1.18196
145 1 -0.797824 2.63717 5.64288 1.58728
146 2 0.401018 1.75731 5.74058 2.05235
147 2 0.396806 2.80275 4.67732 1.38661
148 1 -0.919646 11.3532 7.09419 2.32229
149 2 0.413556 11.8313 6.77809 3.14172
150 2 0.506091 10.3927 7.26528 2.54192
151 1 -0.869947 11.1294 10.3959 1.82062
152 2 0.484429 10.9848 11.3515 2.07749
153 2 0.385518 10.7656 9.79963 2.53625
154 1 -0.99036 6.96627 7.27947 5.5377
155 2 0.44837 6.26405 7.09495 6.22533
156 2 0.54199 6.63586 7.97798 4.90295
157 1 -1.06467 3.19808 2.36581 0.595362
158 2 0.483858 2.27982 2.32289 0.201722
159 2 0.580811 3.86186 2.55869 12.2727
160 1 -0.888146 12.2122 7.45256 8.713
161 2 0.468454 12.1908 7.70375 9.6807
162 2 0.419692 12.2646 6.45755 8.62798
163 1 -1.02774 5.72117 1.97493 6.2776
164 2 0.467875 5.66314 1.49389 5.40282
165 2 0.559866 6.66816 2.24909 6.44508
166 1 -0.854502 11.1903 3.15076 9.74265
167 2 0.401934 11.4837 3.62235 10.5742
168 2 0.452568 11.9927 2.89636 9.20292
169 1 -0.891458 7.61106 4.31026 6.86279
170 2 0.439995 8.4531 4.84119 6.95811
171 2 0.451463 7.02638 4.4668 7.65881
172 1 -0.856444 9.65266 10.228 4.50498
173 2 0.417105 10.6159 10.4446 4.66372
174 2 0.439339 9.49021 9.2625 4.70856
175 1 -1.08058 1.7929 11.4945 5.49922
176 2 0.584104 1.84731 0.0930037 5.50006
177 2 0.496473 1.46965 11.1775 6.39087
178 1 -0.89753 7.75735 12.0252 5.33636
179 2 0.52906 8.37933 11.3358 4.965
180 2 0.36847 8.28444 0.414099 5.65226
181 1 -0.896907 1.95579 0.252175 2.489
182 2 0.450586 1.78728 0.994133 3.13794
183 2 0.44632 2.26552 0.634622 1.61849
184 1 -0.956759 12.2513 10.1313 7.25594
185 2 0.536725 0.1859 9.28228 7.66478
186 2 0.420033 12.1391 10.0051 6.2703
187 1 -0.883983 1.00411 4.08752 6.91844
188 2 0.464487 1.80806 4.65435 7.09841
189 2 0.419497 1.10104 3.2118 7.39143
190 1 -1.06239 4.22757 2.04456 3.29127
191 2 0.551046 3.95226 2.33385 2.37447
192 2 0.51134 4.78627 2.759 3.71252
