ITEM: TIMESTEP
0
ITEM: NUMBER OF ATOMS
192
ITEM: BOX BOUNDS pp pp pp
0.0000000000000000e+00 1.2400000000000000e+01
0.0000000000000000e+00 1.2400000000000000e+01
0.0000000000000000e+00 1.2400000000000000e+01
ITEM: ATOMS id type q x y z
1 1 -0.944804 0.88137 3.73092 2.86301
2 2 0.514196 0.0781138 3.30841 3.28286
3 2 0.430608 1.33585 3.06639 2.26984
4 1 -0.917234 8.16291 2.16722 9.93444
5 2 0.457524 9.14935 2.23768 9.78619
6 2 0.459709 7.72594 3.03177 9.68622
7 1 -0.89959 11.4257 1.22117 6.51157
8 2 0.45812 10.8265 1.82708 7.03483
9 2 0.441471 11.2231 1.31265 5.53659
10 1 -1.11277 5.43743 0.664255 1.2282
11 2 0.602143 6.14784 12.3651 1.14752
12 2 0.510624 5.18394 0.988616 0.316863
13 1 -1.00054 10.9532 3.54866 4.23603
14 2 0.540093 10.2557 4.2388 4.42895
15 2 0.46045 11.5635 3.46231 5.0235
16 1 -0.863235 10.5494 0.201409 11.8042
17 2 0.455721 10.9393 11.7488 11.4564
18 2 0.407514 10.282 0.783374 11.0362
19 1 -1.00234 3.63894 4.36263 8.80917
20 2 0.486486 3.09692 3.82004 8.16743
21 2 0.515857 3.40261 5.32932 8.71086
22 1 -1.08203 5.50751 9.86184 7.51586
23 2 0.519062 5.30594 9.58759 6.57556
24 2 0.562971 5.16679 10.7888 7.67305
25 1 -0.952782 3.79806 7.26831 10.9882
26 2 0.390774 3.75311 6.30814 11.264
27 2 0.562008 3.90015 7.84376 11.7997
28 1 -0.858239 8.83499 1.47 1.55905
29 2 0.458935 9.35932 1.17342 0.760851
30 2 0.399304 8.26232 0.715932 1.88066
31 1 -0.944461 4.42465 0.308779 4.00424
32 2 0.465009 4.68061 0.51053 3.05884
33 2 0.479452 3.69161 0.925994 4.29008
34 1 -0.884544 2.49993 7.96991 3.22197
35 2 0.471387 3.37838 7.95071 3.69941
36 2 0.413157 1.91052 7.24531 3.57912
37 1 -0.956018 5.55623 10.0887 3.63182
38 2 0.46097 6.17487 10.3721 2.89902
39 2 0.495048 5.03566 10.8798 3.95313
40 1 -0.915664 4.50109 2.40751 11.1331
41 2 0.48171 3.65342 2.75437 10.7317
42 2 0.433954 5.24581 2.50185 10.4724
43 1 -1.06721 10.572 5.97789 11.3052
44 2 0.497396 11.2745 6.59995 11.651
45 2 0.56981 10.1416 5.50186 12.0722
46 1 -0.989944 2.10795 6.73154 8.59306
47 2 0.439254 2.15541 6.91969 9.57406
48 2 0.550689 1.28896 7.15948 8.2108
49 1 -0.859236 1.50637 1.95059 8.54262
50 2 0.48819 1.48971 1.74558 9.52124
51 2 0.371046 1.81792 1.14507 8.03856
52 1 -0.828736 8.85685 8.36654 7.91694
53 2 0.379637 8.02141 8.41558 8.46432
54 2 0.449099 9.04732 7.41285 7.68412
55 1 -1.01786 4.95731 6.28478 1.71802
56 2 0.485681 4.89812 7.22653 2.04908
57 2 0.532181 5.8293 6.15118 1.24707
58 1 -1.01369 6.70504 9.35645 11.3266
59 2 0.44048 5.79981 9.68299 11.0547
60 2 0.573213 7.40737 9.8937 10.8596
61 1 -0.922359 4.40364 9.06271 0.640881
62 2 0.477763 3.8301 9.31497 1.42026
63 2 0.444596 4.70387 9.89014 0.166304
64 1 -0.907476 11.2379 0.676829 3.34184
65 2 0.44644 10.8464 1.59334 3.42367
66 2 0.461036 10.702 0.142512 2.6882
67 1 -0.988127 2.17381 1.68847 5.60851
68 2 0.451401 1.34226 1.44027 6.10542
69 2 0.536726 2.30371 2.67914 5.6499
70 1 -1.01787 4.75916 0.343569 7.77448
71 2 0.400856 5.46576 0.714681 8.37698
72 2 0.617014 4.68937 0.910643 6.95377
73 1 -0.978833 7.72753 11.6311 9.89128
74 2 0.472641 7.82134 11.5265 8.90119
75 2 0.506192 7.91438 0.18 10.1455
76 1 -0.811503 4.51283 11.7555 10.858
77 2 0.432936 3.97829 0.152909 10.5779
78 2 0.378566 4.8983 11.3117 10.0491
79 1 -0.977935 7.51623 7.26742 0.826735
80 2 0.506628 7.20216 8.04211 0.277901
81 2 0.471307 8.21454 7.57734 1.47196
82 1 -1.10424 9.34314 4.35563 0.791892
83 2 0.534836 9.50331 3.77029 1.5867
84 2 0.569404 8.36819 4.35627 0.569441
85 1 -0.967234 7.80416 3.43471 3.60458
86 2 0.51566 8.11473 2.56806 3.99504
87 2 0.451574 7.2879 3.25689 2.76681
88 1 -1.14968 5.47835 7.31544 8.51618
89 2 0.562237 4.75042 7.33584 9.20153
90 2 0.587441 5.63639 8.24026 8.17014
91 1 -1.02999 9.92217 5.71047 8.55761
92 2 0.423016 9.59804 4.80904 8.27063
93 2 0.606975 9.99089 5.73807 9.55486
94 1 -1.04115 9.84281 10.5237 2.3887
95 2 0.55785 10.475 10.272 1.65587
96 2 0.483295 10.2677 10.3364 3.27438
97 1 -0.836731 10.1514 9.34566 11.3849
98 2 0.44713 10.5731 9.35631 10.4782
99 2 0.389601 10.3332 8.46719 11.8267
100 1 -1.00424 1.48938 3.96926 10.6272
101 2 0.512545 1.8105 4.28386 11.5205
102 2 0.491694 2.15016 4.23178 9.92406
103 1 -0.930533 4.30182 7.11045 5.65337
104 2 0.494933 5.07328 6.6154 5.25365
105 2 0.4356 4.45703 7.23431 6.63346
106 1 -0.982938 1.24039 0.855969 11.2098
107 2 0.468925 0.373998 1.32745 11.3744
108 2 0.514014 1.09976 12.268 11.2743
109 1 -1.11595 1.00096 10.0605 11.0246
110 2 0.611085 1.52933 10.2114 10.1891
111 2 0.504865 0.739096 9.09723 11.0839
112 1 -0.809124 11.9627 10.8834 7.59029
113 2 0.417349 11.5938 11.5882 6.98437
114 2 0.391775 0.345133 11.2516 8.09245
115 1 -1.01115 2.39994 10.6631 8.66194
116 2 0.414484 2.99847 11.4573 8.76632
117 2 0.596669 2.48189 10.3038 7.7323
118 1 -0.969573 9.90201 6.40147 5.41233
119 2 0.490411 9.37726 7.25019 5.478
120 2 0.479162 10.0551 6.03243 6.32905
121 1 -0.835379 11.8556 9.16687 4.12951
122 2 0.448762 0.0887121 9.49061 3.42639
123 2 0.386617 11.4082 8.32958 3.81522
124 1 -0.884613 8.9106 2.91433 6.40382
125 2 0.501936 8.13925 3.52852 6.57056
126 2 0.382677 8.57014 1.98839 6.24036
127 1 -0.882831 6.75254 5.5516 10.3739
128 2 0.472444 6.24253 6.05284 9.67487
129 2 0.410387 7.04233 6.18368 11.0926
130 1 -0.970136 9.9588 6.68275 2.40019
131 2 0.481857 9.92081 6.57442 3.39358
132 2 0.488279 9.80995 5.79616 1.96225
133 1 -1.02723 2.62427 4.36571 6.02032
134 2 0.536151 2.35453 5.29798 6.2614
135 2 0.491077 2.93527 4.34385 5.07016
136 1 -1.0539 6.43154 6.00463 4.41929
137 2 0.489882 6.58865 6.71737 3.73568
138 2 0.564016 6.76492 5.12878 4.07036
139 1 -0.947259 6.37214 3.37052 0.957766
140 2 0.46632 5.73466 3.57083 0.213792
141 2 0.48094 6.13555 2.4916 1.37191
142 1 -1.10334 7.18264 10.9 1.26064
143 2 0.560088 8.153 10.9836 1.48737
144 2 0.543257 7.07538 10.2928 0.473354
145 1 -1.0588 2.47199 5.14721 0.581013
146 2 0.511446 2.19595 4.57143 1.35061
147 2 0.547349 3.34751 5.58362 0.788418
148 1 -0.939594 0.372161 7.29104 0.166735
149 2 0.417796 12.3371 7.47023 1.04911
150 2 0.521798 0.951187 6.47897 0.239384
151 1 -1.00493 0.224683 10.3806 1.37855
152 2 0.564967 0.465816 10.1656 0.432159
153 2 0.439964 1.05925 10.5113 1.91372
154 1 -0.87055 8.38401 8.82333 4.23197
155 2 0.433814 8.82981 9.23022 3.43466
156 2 0.436736 7.63729 9.41556 4.53477
157 1 -0.962519 2.43649 1.75616 1.47656
158 2 0.440439 3.23694 1.20558 1.71349
159 2 0.52208 2.08695 1.46955 0.58455
160 1 -0.87082 0.645185 7.13361 5.6322
161 2 0.434612 0.135877 6.28678 5.78548
162 2 0.436207 0.0784852 7.7743 5.11415
163 1 -1.01249 5.22993 2.64914 6.10354
164 2 0.493655 5.63114 3.39964 6.6287
165 2 0.518832 4.76259 3.01728 5.29974
166 1 -1.00288 11.0099 2.92888 10.4976
167 2 0.54792 11.9334 3.31226 10.5116
168 2 0.45496 10.4995 3.26002 11.2912
169 1 -1.03908 6.77482 5.05097 7.0626
170 2 0.531732 6.34871 5.62903 7.75851
171 2 0.507352 6.54008 5.39554 6.15365
172 1 -0.926914 8.01943 11.3357 6.95936
173 2 0.494778 7.62264 10.4474 7.19062
174 2 0.432136 8.97936 11.2162 6.70587
175 1 -0.955302 2.75548 9.75059 5.71433
176 2 0.469618 2.71795 10.4363 4.98741
177 2 0.485684 2.29821 8.91543 5.4087
178 1 -0.917206 7.47644 0.587821 4.48294
179 2 0.440629 7.78939 12.3501 5.18678
180 2 0.476578 6.54078 0.876066 4.68653
181 1 -0.881239 1.47647 11.6317 3.65462
182 2 0.406565 0.54463 11.2907 3.53068
183 2 0.474674 1.44565 0.189668 3.93989
184 1 -0.938862 11.9413 7.92296 8.79975
185 2 0.457519 11.4448 7.05613 8.84596
186 2 0.481343 11.5689 8.48128 8.05841
187 1 -0.88712 12.1998 4.30877 7.1311
188 2 0.418836 11.638 4.25061 7.95632
189 2 0.468284 0.684592 3.87393 7.29885
190 1 -0.947641 4.09153 3.65067 3.66603
191 2 0.435943 3.53393 2.90126 3.30899
192 2 0.511697 4.31705 4.28143 2.92354
