ITEM: TIMESTEP
0
ITEM: NUMBER OF ATOMS
192
ITEM: BOX BOUNDS pp pp pp
0.0000000000000000e+00 1.2400000000000000e+01
0.0000000000000000e+00 1.2400000000000000e+01
0.0000000000000000e+00 1.2400000000000000e+01
ITEM: ATOMS id type q x y z
1 1 -0.889904 11.5237 4.35735 5.46686
2 2 0.463362 10.5922 4.72076 5.47815
3 2 0.426542 12.1649 5.07532 5.73775
4 1 -1.00884 10.9614 3.00556 11.1062
5 2 0.488131 11.1961 2.03851 11.2048
6 2 0.52071 10.8713 3.22941 10.1358
7 1 -1.02598 8.47116 1.10796 7.39177
8 2 0.531599 7.8671 0.518569 6.85536
9 2 0.494385 9.12328 1.55944 6.78275
10 1 -0.945286 5.79081 0.83424 1.04788
11 2 0.421196 5.61307 1.60466 0.435613
12 2 0.524091 6.17655 1.17266 1.90618
13 1 -0.889931 1.78497 4.28187 2.97902
14 2 0.457857 2.67573 4.3553 2.53052
15 2 0.432074 1.90359 3.89889 3.89514
16 1 -0.990587 10.9928 11.5188 8.51684
17 2 0.57735 11.6696 11.5267 7.78071
18 2 0.413237 10.3768 12.2995 8.41172
19 1 -1.02614 4.09565 1.63128 10.2972
20 2 0.50512 5.09081 1.54389 10.2521
21 2 0.521025 3.79102 1.49106 11.2393
22 1 -1.02607 4.29117 9.58572 5.96484
23 2 0.535049 5.0767 8.97155 5.889
24 2 0.491019 3.69331 9.27268 6.70279
25 1 -0.912705 6.66284 10.3643 9.7602
26 2 0.414877 6.02153 11.0216 10.156
27 2 0.497828 6.74417 10.5284 8.77711
28 1 -0.960736 12.2755 0.55612 11.1241
29 2 0.526936 0.829447 0.752596 11.3508
30 2 0.4338 12.2242 0.1727 10.2019
31 1 -0.861987 6.99931 11.9807 3.90447
32 2 0.400564 6.64061 11.5296 3.08724
33 2 0.461423 7.77467 0.159727 3.65242
34 1 -0.881331 3.40782 6.04542 5.32889
35 2 0.488402 2.74342 6.71277 5.66538
36 2 0.392929 3.00674 5.12997 5.36191
37 1 -1.00635 3.4229 9.93688 2.75257
38 2 0.496195 3.84985 9.41858 3.49357
39 2 0.510152 2.72116 9.37526 2.31422
40 1 -0.978675 3.78675 11.7681 8.57864
41 2 0.474493 4.28318 11.4613 7.76659
42 2 0.504182 3.95215 0.343919 8.72157
43 1 -0.954252 11.5148 3.3027 2.69666
44 2 0.499687 0.0102 3.53028 3.07948
45 2 0.454565 11.2812 3.96097 1.98105
46 1 -0.943005 4.72719 8.11013 10.655
47 2 0.499191 4.32287 8.76903 11.2893
48 2 0.443813 5.60869 8.45534 10.3328
49 1 -0.940365 1.82667 2.52968 8.45591
50 2 0.544723 2.3741 2.47326 9.29086
51 2 0.395642 1.13548 1.80702 8.46102
52 1 -0.825075 6.58306 7.67199 6.83635
53 2 0.389673 6.84747 6.82243 6.37991
54 2 0.435403 7.09264 7.76329 7.69192
55 1 -0.86585 5.32523 4.94478 3.38983
56 2 0.45443 4.72783 5.40598 4.04588
57 2 0.41142 5.7061 5.61758 2.75557
58 1 -0.954512 8.00969 5.90205 10.0255
59 2 0.421123 8.26417 5.51255 10.9107
60 2 0.533389 7.66663 5.1769 9.42843
61 1 -1.06294 1.32628 8.97901 0.984516
62 2 0.500792 1.47195 9.4147 0.0962842
63 2 0.562147 0.549406 9.40984 1.44372
64 1 -0.855467 0.258229 0.819426 6.59341
65 2 0.502346 0.292042 0.656632 5.60733
66 2 0.353121 0.510363 1.76828 6.78345
67 1 -0.86741 10.6501 3.20958 8.31041
68 2 0.406143 10.45 2.22983 8.30475
69 2 0.461267 11.186 3.44501 7.49964
70 1 -0.837319 1.22456 11.8701 3.88065
71 2 0.356546 1.54678 0.331857 3.48873
72 2 0.480773 1.80598 11.1213 3.56261
73 1 -1.01467 4.31455 12.3219 5.76538
74 2 0.503596 3.71397 0.314826 5.06903
75 2 0.51107 4.3436 11.3281 5.65821
76 1 -0.953828 7.01598 1.20312 10.1436
77 2 0.468745 7.26982 0.427267 10.7212
78 2 0.485082 7.39523 1.07464 9.22727
79 1 -0.866844 10.2718 8.31558 12.1622
80 2 0.474695 10.0686 7.3523 11.9866
81 2 0.39215 9.41696 8.83094 12.2225
82 1 -0.919738 1.17648 3.29908 12.1867
83 2 0.46692 0.22382 3.0511 12.0108
84 2 0.452818 1.3281 4.25063 11.9192
85 1 -0.799949 8.59666 5.43607 3.07497
86 2 0.407003 8.3659 5.15123 4.00536
87 2 0.392945 9.20216 6.23113 3.11027
88 1 -0.949821 4.6756 4.9123 10.9854
89 2 0.451164 4.67516 4.87584 9.98602
90 2 0.498656 4.38853 5.82185 11.2859
91 1 -1.0804 7.07545 3.84738 8.23459
92 2 0.516868 7.46121 2.92743 8.16464
93 2 0.563532 6.09752 3.81535 8.02813
94 1 -1.02258 9.93703 0.611836 2.3156
95 2 0.53774 9.28453 0.208495 1.67407
96 2 0.484843 10.4427 1.34461 1.86021
97 1 -0.82222 9.43722 12.2431 11.1847
98 2 0.422608 10.4018 0.0741489 11.0574
99 2 0.399611 9.32579 11.2497 11.1561
100 1 -0.832465 0.407954 6.53344 11.7691
101 2 0.444985 12.0071 6.90355 12.2398
102 2 0.387479 1.14103 7.21358 11.7735
103 1 -0.919428 4.4035 5.02935 8.00531
104 2 0.471637 4.49201 5.91396 7.54745
105 2 0.44779 3.45874 4.90377 8.30809
106 1 -0.962432 2.93107 0.104502 12.3962
107 2 0.453813 3.43033 12.2707 0.830571
108 2 0.508619 2.42028 11.7057 12.0785
109 1 -1.08431 2.49997 10.1869 10.927
110 2 0.541388 1.86413 9.58928 10.4387
111 2 0.542918 3.10174 10.6412 10.2702
112 1 -0.926825 9.20615 9.05537 8.60799
113 2 0.493514 9.77179 9.83281 8.33296
114 2 0.433311 8.45174 9.37777 9.17977
115 1 -0.92592 1.22827 10.5314 7.38113
116 2 0.485035 1.59076 9.74804 7.88602
117 2 0.440885 1.81543 11.3265 7.53301
118 1 -0.937049 9.92481 7.33062 6.37504
119 2 0.424693 9.17008 6.6952 6.21187
120 2 0.512356 9.92094 7.61352 7.33418
121 1 -0.884657 10.413 11.0447 5.29538
122 2 0.452107 10.5932 12.0282 5.31066
123 2 0.43255 11.0388 10.601 4.6539
124 1 -1.02521 8.43557 4.75656 5.93147
125 2 0.446515 8.6346 3.90631 5.44416
126 2 0.578695 7.78333 4.57424 6.66723
127 1 -0.788267 6.85807 7.17587 0.227317
128 2 0.431593 6.01868 7.71073 0.130598
129 2 0.356674 7.43859 7.31872 11.8257
130 1 -0.768321 11.4747 6.74569 3.05755
131 2 0.375733 11.5782 7.23291 2.19043
132 2 0.392588 12.3008 6.86606 3.60819
133 1 -0.92165 1.49405 5.4789 9.30537
134 2 0.528235 0.618494 5.73813 9.71306
135 2 0.393414 1.52439 4.48678 9.18377
136 1 -0.846517 5.93182 8.26781 3.52424
137 2 0.429532 6.68262 8.83813 3.85745
138 2 0.416986 6.28114 7.61771 2.84945
139 1 -0.864369 7.67673 3.38158 0.175293
140 2 0.411634 8.17363 2.74029 11.9906
141 2 0.452735 6.79153 3.59321 12.161
142 1 -0.976063 8.18747 10.832 1.31968
143 2 0.479885 8.24858 10.3929 2.21604
144 2 0.496178 7.34315 10.5471 0.865815
145 1 -0.775844 3.51248 7.01348 1.19948
146 2 0.350079 3.50035 6.65826 2.13418
147 2 0.425764 2.5973 7.33149 0.951831
148 1 -0.988923 9.97497 5.17754 0.235037
149 2 0.492071 10.1313 4.37592 12.058
150 2 0.496852 9.2037 5.00243 0.846991
151 1 -0.96929 11.6176 10.5013 2.00682
152 2 0.517707 11.3779 11.4673 2.10304
153 2 0.451583 10.8305 9.9961 1.65309
154 1 -0.956415 8.76289 9.17904 3.65098
155 2 0.456523 9.20898 8.29028 3.75639
156 2 0.499893 9.10826 9.80985 4.34582
157 1 -0.96362 3.93579 3.32141 0.870257
158 2 0.445293 2.96376 3.08743 0.890451
159 2 0.518327 4.1807 3.64989 12.358
160 1 -0.995346 2.76054 8.02744 8.49911
161 2 0.504839 1.98426 7.39705 8.49658
162 2 0.490507 3.47949 7.66849 9.09432
163 1 -0.952753 2.38089 3.00371 5.58157
164 2 0.504258 2.20688 2.64299 6.49788
165 2 0.448495 3.35771 3.19031 5.47674
166 1 -0.843856 11.0039 6.44267 9.05806
167 2 0.484327 10.0351 6.32984 9.27842
168 2 0.359529 11.2953 5.70515 8.44883
169 1 -0.896594 6.14242 2.08034 5.61677
170 2 0.40062 6.78717 2.44414 4.9445
171 2 0.495974 5.90095 1.14111 5.37276
172 1 -0.953499 7.09931 11.0256 6.78978
173 2 0.456762 7.88005 10.6041 6.32847
174 2 0.496737 6.40268 11.2659 6.11379
175 1 -0.941168 0.697386 7.70476 6.00668
176 2 0.470995 0.918908 8.67808 6.06641
177 2 0.470173 12.1047 7.58662 6.03243
178 1 -1.02289 7.28723 2.39235 2.96385
179 2 0.495061 8.01663 2.6476 2.32916
180 2 0.527829 6.63463 3.14601 3.04216
181 1 -0.98002 5.35764 10.255 0.725413
182 2 0.53883 4.94429 10.1208 1.62604
183 2 0.441189 5.3467 11.2281 0.495297
184 1 -0.931575 0.115497 9.07844 9.59411
185 2 0.510151 11.7855 8.41742 9.76776
186 2 0.421424 12.1439 10.0056 9.64162
187 1 -1.09592 10.0181 1.89619 4.93049
188 2 0.557372 9.87314 1.46633 4.0393
189 2 0.538553 10.6692 2.64922 4.83542
190 1 -0.822032 3.40975 1.20527 3.14053
191 2 0.479453 3.88199 1.55487 2.33135
192 2 0.34258 2.50063 1.61755 3.20004
