ITEM: TIMESTEP
0
ITEM: NUMBER OF ATOMS
192
ITEM: BOX BOUNDS pp pp pp
0.0000000000000000e+00 1.2400000000000000e+01
0.0000000000000000e+00 1.2400000000000000e+01
0.0000000000000000e+00 1.2400000000000000e+01
ITEM: ATOMS id type q x y z
1 1 -0.881806 11.4964 5.39491 5.6318
2 2 0.429664 11.4382 5.32499 4.63595
3 2 0.452142 0.0532 5.49896 5.90333
4 1 -0.836701 9.90308 2.70213 11.2097
5 2 0.432147 10.6114 3.32052 11.5501
6 2 0.404554 9.18938 3.23247 10.7521
7 1 -1.06227 8.75887 0.314396 8.58524
8 2 0.508512 8.68089 11.9221 7.98008
9 2 0.553756 9.68324 0.690947 8.52396
10 1 -1.04375 6.55989 0.175806 0.873337
11 2 0.512178 7.47152 0.3034 1.26403
12 2 0.531572 6.48348 0.702169 0.0265144
13 1 -1.00543 0.684596 5.94083 2.0803
14 2 0.483935 12.3013 5.32063 2.12343
15 2 0.521492 0.936943 6.22395 3.00559
16 1 -0.956077 11.3947 1.29616 8.77444
17 2 0.539522 11.6924 2.18946 9.11115
18 2 0.416555 12.1732 0.815907 8.37024
19 1 -0.979529 4.03684 1.32208 11.4324
20 2 0.449034 4.61204 0.561537 11.1312
21 2 0.530496 4.59255 2.1498 11.5103
22 1 -0.831804 3.3399 9.39791 4.4789
23 2 0.397773 3.67939 10.3083 4.24234
24 2 0.434031 3.80862 8.71224 3.92197
25 1 -0.899939 7.97772 9.19077 10.6227
26 2 0.418237 8.73256 9.2445 11.2764
27 2 0.481702 7.23841 8.64111 11.0117
28 1 -1.00507 2.48626 0.249027 9.31331
29 2 0.448636 2.22608 0.876282 8.57924
30 2 0.556435 2.81459 0.773302 10.099
31 1 -1.0119 5.73386 11.3754 4.24657
32 2 0.504801 5.02089 11.8254 3.7089
33 2 0.507098 5.51986 11.4584 5.21987
34 1 -1.06252 1.6191 6.87084 4.60888
35 2 0.526115 1.65505 7.56199 5.3307
36 2 0.536402 2.00096 6.01202 4.95038
37 1 -1.02452 3.59033 12.056 2.07592
38 2 0.546181 2.87326 11.6174 1.53422
39 2 0.478339 4.25029 0.0924 1.46434
40 1 -0.936054 4.95056 11.4143 7.26288
41 2 0.534528 5.18345 11.1244 8.19117
42 2 0.401526 4.42479 12.2641 7.3011
43 1 -0.935656 10.4279 1.42596 2.04751
44 2 0.517922 9.82831 0.760444 2.49208
45 2 0.417735 10.5563 1.17094 1.08914
46 1 -0.972437 5.57995 7.18415 10.7525
47 2 0.48851 4.94394 7.5452 10.0705
48 2 0.483928 5.27448 7.44997 11.6669
49 1 -0.958461 2.43351 3.79637 8.4708
50 2 0.494034 1.6981 3.33255 8.9648
51 2 0.464427 2.40125 3.53789 7.50531
52 1 -0.955671 6.60877 7.84948 7.55214
53 2 0.41795 6.81299 6.91234 7.8351
54 2 0.537722 5.63192 7.93282 7.35512
55 1 -0.930427 5.31669 2.07795 2.50644
56 2 0.420207 5.90798 2.2015 3.30338
57 2 0.510219 5.80797 1.56378 1.80338
58 1 -0.846508 7.74899 5.49346 9.81136
59 2 0.346948 7.50554 5.11866 8.91679
60 2 0.49956 6.97913 6.01917 10.1732
61 1 -1.00734 1.93019 10.338 0.428641
62 2 0.538397 1.55669 9.51785 0.862154
63 2 0.468938 2.33224 10.0947 11.9459
64 1 -0.947168 1.21232 1.28392 6.57534
65 2 0.579649 1.84068 1.2156 5.80042
66 2 0.367519 0.277406 1.39337 6.23776
67 1 -0.911975 11.2404 4.23821 8.46352
68 2 0.381276 11.4638 4.30189 7.49086
69 2 0.530699 11.326 5.14101 8.88498
70 1 -0.769559 0.566682 0.0258 3.38475
71 2 0.363671 0.880022 0.892468 2.99659
72 2 0.405888 0.569181 11.7221 2.67427
73 1 -1.018 3.3736 1.18676 4.73877
74 2 0.509199 3.38777 0.960629 3.76477
75 2 0.508805 4.24402 1.60638 4.99625
76 1 -0.976687 6.16927 12.0088 9.94412
77 2 0.488298 6.23239 0.544147 9.59604
78 2 0.488389 7.08332 11.605 9.9824
79 1 -0.783683 10.2829 5.66028 0.226552
80 2 0.389972 9.6036 5.14149 0.745634
81 2 0.393711 9.82163 6.20934 11.9296
82 1 -0.932075 1.13918 2.93257 11.0909
83 2 0.467959 0.893143 2.11826 11.6166
84 2 0.464115 2.07469 3.20472 11.3162
85 1 -0.950449 5.99778 6.0877 3.87085
86 2 0.42295 6.72067 5.68943 4.43549
87 2 0.527499 6.18238 7.06041 3.73027
88 1 -0.860169 3.8621 4.58889 11.3739
89 2 0.398187 4.26072 5.28625 10.7783
90 2 0.461982 3.4818 5.02494 12.1895
91 1 -0.980517 6.66631 2.34214 8.80232
92 2 0.532929 7.42496 1.86446 8.35927
93 2 0.447588 6.60926 3.27624 8.4499
94 1 -0.975355 8.58219 11.952 3.18891
95 2 0.46257 7.61391 11.862 3.42204
96 2 0.512786 9.06411 11.1114 3.43634
97 1 -0.869777 9.40694 11.9448 11.9503
98 2 0.397591 9.11522 11.4236 11.1483
99 2 0.472186 9.54109 0.502313 11.6949
100 1 -1.09726 1.22965 7.00082 11.9438
101 2 0.47361 0.333555 7.28218 11.6005
102 2 0.623646 1.12973 6.61875 0.462519
103 1 -0.933243 5.14837 4.85119 8.0542
104 2 0.420369 4.93546 5.74392 8.45133
105 2 0.512874 4.38606 4.22434 8.21524
106 1 -0.908567 0.507442 0.269124 11.7083
107 2 0.431428 0.0285786 0.4522 10.8497
108 2 0.477139 0.652561 11.6845 11.8056
109 1 -0.916911 3.70411 9.96561 9.9478
110 2 0.444265 2.95376 9.38728 9.62761
111 2 0.472646 3.47914 10.9257 9.78188
112 1 -0.993482 10.1593 9.74869 8.24939
113 2 0.529163 9.99904 10.1602 7.35221
114 2 0.464319 9.29509 9.69232 8.74942
115 1 -0.944176 1.83544 10.41 7.47936
116 2 0.501014 1.66759 10.7991 8.38513
117 2 0.443163 2.69089 10.7758 7.11273
118 1 -0.953608 9.0421 7.64223 5.68237
119 2 0.422409 9.74509 6.99049 5.96703
120 2 0.531199 8.3122 7.66479 6.36555
121 1 -0.795261 11.3701 11.4667 5.85794
122 2 0.425361 11.4845 12.0431 5.04884
123 2 0.369901 12.1181 11.6394 6.49878
124 1 -0.845648 8.13076 4.97674 6.75328
125 2 0.402625 8.83558 4.90557 7.4591
126 2 0.443023 8.28504 4.27641 6.05634
127 1 -0.92284 7.25604 4.72358 1.16658
128 2 0.492755 6.2855 4.65556 1.39772
129 2 0.430085 7.78311 4.91628 1.99427
130 1 -0.910709 0.877932 9.19814 3.06158
131 2 0.514461 1.16063 8.51225 3.73213
132 2 0.396248 1.34208 10.0629 3.25333
133 1 -1.13483 2.75812 6.71887 9.61253
134 2 0.636832 2.20045 6.83188 10.4349
135 2 0.497997 2.72629 5.76413 9.31678
136 1 -1.04867 6.353 8.77498 2.90897
137 2 0.523524 6.349 9.66697 3.36099
138 2 0.525143 6.07237 8.8833 1.95528
139 1 -1.02937 6.81943 2.5638 11.6295
140 2 0.535285 7.06785 3.44484 12.032
141 2 0.494083 6.68876 2.67258 10.644
142 1 -0.859343 8.67226 8.18608 1.06655
143 2 0.493694 7.97203 8.43968 1.73391
144 2 0.365649 8.53197 7.23835 0.779989
145 1 -0.898066 3.93547 5.74574 2.06061
146 2 0.501232 4.37116 5.91218 2.94518
147 2 0.396834 2.94488 5.6847 2.18317
148 1 -1.00933 9.68074 5.95765 3.20833
149 2 0.49698 9.6323 6.45029 4.07722
150 2 0.512352 9.99764 6.57784 2.49073
151 1 -0.981706 11.1775 9.52592 0.0795229
152 2 0.447982 11.0703 10.4944 0.304555
153 2 0.533725 10.6924 8.971 0.755367
154 1 -0.934817 10.327 9.05309 3.58954
155 2 0.458062 11.3261 9.01171 3.57834
156 2 0.476755 9.9888 8.7056 4.4641
157 1 -0.964701 2.35511 2.40656 1.5982
158 2 0.457705 2.29394 1.5978 1.01325
159 2 0.506996 3.27328 2.46595 1.98993
160 1 -0.955638 3.79482 7.70793 7.02277
161 2 0.495253 3.31466 7.44244 7.85881
162 2 0.460385 3.40416 8.55805 6.66965
163 1 -1.00256 2.15999 4.14768 5.28334
164 2 0.470941 3.05607 3.81516 4.98929
165 2 0.53162 1.45096 3.76078 4.69377
166 1 -0.865657 11.3486 6.99614 9.6822
167 2 0.438014 10.5378 7.57921 9.63064
168 2 0.427644 12.142 7.49718 9.33657
169 1 -0.968168 5.67182 3.04622 5.69717
170 2 0.466241 6.4713 3.16336 5.108
171 2 0.501927 5.71898 3.6957 6.45608
172 1 -0.929613 8.02391 10.7615 6.72968
173 2 0.487389 7.56863 9.90749 6.9814
174 2 0.442224 7.44707 11.2712 6.09133
175 1 -0.921367 0.0358439 8.24615 6.72627
176 2 0.483484 0.692198 8.90846 7.08759
177 2 0.437883 11.5111 8.50932 7.00117
178 1 -1.0263 8.25247 3.58251 4.20093
179 2 0.487525 8.81354 2.82009 4.52331
180 2 0.538772 8.83858 4.2692 3.77087
181 1 -0.998432 5.70341 9.6068 0.223992
182 2 0.485625 5.04048 9.74669 11.8885
183 2 0.512807 6.30383 10.404 0.287646
184 1 -0.97556 0.41536 9.91848 10.1374
185 2 0.468679 12.0391 9.97264 9.50931
186 2 0.506881 0.081 9.77508 11.0689
187 1 -0.798415 10.4824 2.1246 5.67965
188 2 0.378666 11.336 2.49092 5.30917
189 2 0.419749 10.4073 2.36771 6.64674
190 1 -1.08319 0.27871 3.09772 3.35969
191 2 0.557836 1.01388 2.80503 2.74825
192 2 0.525357 11.9041 2.47125 3.27334
