ITEM: TIMESTEP
0
ITEM: NUMBER OF ATOMS
192
ITEM: BOX BOUNDS pp pp pp
0.0000000000000000e+00 1.2400000000000000e+01
0.0000000000000000e+00 1.2400000000000000e+01
0.0000000000000000e+00 1.2400000000000000e+01
ITEM: ATOMS id type q x y z
1 1 -1.03616 10.7581 4.90779 6.89776
2 2 0.498892 10.8716 4.6108 5.94965
3 2 0.537271 9.8983 5.41022 6.98901
4 1 -0.836863 11.289 3.95824 10.4467
5 2 0.377916 12.1232 3.41747 10.5549
6 2 0.458947 10.6259 3.44316 9.9035
7 1 -0.936911 8.80936 2.92424 8.94899
8 2 0.441494 7.93158 2.45248 8.86566
9 2 0.495416 8.87707 3.62949 8.24327
10 1 -1.01009 6.33833 10.6702 1.46516
11 2 0.455862 6.61237 11.4884 0.959821
12 2 0.55423 6.98661 10.5047 2.20836
13 1 -0.84429 0.913875 4.75395 2.00246
14 2 0.428155 12.3873 4.55269 2.32006
15 2 0.416135 1.2676 3.97192 1.48933
16 1 -0.890977 10.9223 0.759618 8.09065
17 2 0.433042 10.4159 1.52364 8.49041
18 2 0.457936 11.5445 1.10368 7.3874
19 1 -0.953563 4.98842 0.716316 11.2934
20 2 0.420723 5.7129 1.15941 11.8214
21 2 0.532841 5.39668 0.115409 10.6062
22 1 -1.07281 1.60508 9.63106 3.78302
23 2 0.583677 1.54377 8.7737 4.29408
24 2 0.489136 2.53567 9.99148 3.84705
25 1 -0.996604 8.49124 10.0867 11.3036
26 2 0.538789 9.33305 9.59398 11.524
27 2 0.457815 7.77204 9.43134 11.0729
28 1 -0.921372 2.46471 0.788723 9.81465
29 2 0.403315 2.27012 12.3843 9.25341
30 2 0.518057 3.17946 0.56735 10.4781
31 1 -0.958826 6.51452 0.160681 6.10357
32 2 0.447791 7.27755 0.571635 5.60466
33 2 0.511034 5.71628 0.103668 5.50393
34 1 -0.913745 0.433538 7.19188 5.18147
35 2 0.467367 11.9022 7.3522 5.50849
36 2 0.446378 0.616496 6.20889 5.16512
37 1 -1.07395 3.71214 11.7511 2.40955
38 2 0.514318 2.89513 11.3418 2.00341
39 2 0.559634 4.52083 11.4566 1.90034
40 1 -1.0083 5.55893 2.47327 7.87765
41 2 0.538517 5.8713 2.25315 6.95354
42 2 0.469778 4.56776 2.35233 7.93213
43 1 -0.850721 9.85032 1.35766 1.20657
44 2 0.351345 9.09966 1.03523 1.78325
45 2 0.499376 9.73148 1.00686 0.277693
46 1 -1.08056 4.48417 6.57773 10.7142
47 2 0.549822 4.08374 6.75814 9.8158
48 2 0.530742 5.09621 7.32835 10.9632
49 1 -0.831146 2.54984 3.08089 7.667
50 2 0.377031 2.37541 2.09768 7.72055
51 2 0.454115 1.6929 3.57914 7.7989
52 1 -0.797393 5.99009 8.21129 7.88718
53 2 0.410597 5.5885 7.31159 7.71607
54 2 0.386796 5.41139 8.71866 8.52568
55 1 -0.849588 6.74439 1.24177 1.93247
56 2 0.427949 7.27887 1.64619 1.19032
57 2 0.421639 6.50314 1.95132 2.59454
58 1 -0.958028 7.7725 6.61018 11.3561
59 2 0.438447 7.31943 7.12085 12.0869
60 2 0.519581 7.08494 6.14382 10.7996
61 1 -0.910526 2.05632 10.3677 0.487837
62 2 0.460669 1.07421 10.556 0.484222
63 2 0.449857 2.30903 9.89915 12.0413
64 1 -0.985138 1.12917 0.570475 5.69704
65 2 0.462245 2.07236 0.786299 5.94968
66 2 0.522893 1.0068 0.710873 4.71454
67 1 -1.10236 0.711897 5.45675 8.39807
68 2 0.660012 12.2424 5.31682 7.92434
69 2 0.442351 0.737133 4.89125 9.22244
70 1 -0.957716 11.8952 10.6845 2.33018
71 2 0.544969 0.350656 10.3786 2.74803
72 2 0.412747 11.5162 9.94831 1.76948
73 1 -1.1626 3.87848 0.649381 5.03935
74 2 0.586419 3.52469 0.175133 4.23317
75 2 0.576176 4.21687 1.55201 4.77334
76 1 -1.01779 6.35466 11.6589 9.2887
77 2 0.499866 6.4514 12.1499 8.42293
78 2 0.517925 6.92482 10.8376 9.2716
79 1 -0.954794 9.93691 5.61028 0.714034
80 2 0.485032 10.6008 5.5453 12.3691
81 2 0.469762 9.19811 6.22992 0.449013
82 1 -1.01767 1.99656 3.27178 11.1624
83 2 0.508401 2.01887 2.5803 11.8844
84 2 0.509266 2.24088 2.84998 10.2892
85 1 -0.950461 7.4869 7.29212 4.90062
86 2 0.461285 7.31683 8.18208 5.32378
87 2 0.489177 7.95024 6.69483 5.55526
88 1 -0.854492 4.55188 4.37089 0.596033
89 2 0.428119 5.48693 4.19087 0.90144
90 2 0.426372 4.57339 4.94089 12.1747
91 1 -0.90302 6.40557 4.47324 9.96398
92 2 0.379497 5.6682 4.59815 10.6278
93 2 0.523524 6.10666 3.84156 9.24869
94 1 -0.842866 8.65344 10.9073 3.34658
95 2 0.411078 9.29995 11.6502 3.52005
96 2 0.431788 9.14983 10.0415 3.28294
97 1 -0.940692 9.11478 0.470851 10.9502
98 2 0.514623 8.9025 11.9012 10.829
99 2 0.42607 9.11952 0.924947 10.0592
100 1 -1.07324 1.73397 6.02414 11.4232
101 2 0.504353 2.71009 6.17976 11.2716
102 2 0.568884 1.54691 5.04188 11.4093
103 1 -0.989206 5.09131 5.20809 6.93999
104 2 0.478159 5.07787 4.24838 7.22067
105 2 0.511047 4.16263 5.57763 6.97149
106 1 -0.789732 11.8196 12.1473 11.7087
107 2 0.379792 10.8755 12.0563 12.0256
108 2 0.40994 11.8956 11.7865 10.7792
109 1 -0.977385 3.31887 9.78394 9.97918
110 2 0.502419 2.53418 9.1688 9.90246
111 2 0.474966 3.60649 10.0728 9.06604
112 1 -0.922294 11.0354 10.5403 9.08051
113 2 0.521552 10.8278 11.3578 8.54339
114 2 0.400741 10.1884 10.0458 9.27593
115 1 -0.925864 3.85151 11.0683 7.49049
116 2 0.415504 4.69379 11.0792 8.02943
117 2 0.51036 3.87308 11.8128 6.82317
118 1 -1.02801 10.468 8.45302 6.24427
119 2 0.538739 10.8006 9.3464 5.94217
120 2 0.489273 10.4791 8.41366 7.24343
121 1 -1.01427 11.2621 11.0484 5.32092
122 2 0.458233 11.1198 10.8982 4.34256
123 2 0.55604 12.2264 11.252 5.49018
124 1 -1.02651 7.93195 5.67921 7.35542
125 2 0.556577 6.96493 5.58136 7.12027
126 2 0.469933 8.06592 6.52642 7.86951
127 1 -0.876938 6.54932 5.14198 3.30885
128 2 0.368744 6.80764 5.31403 2.35823
129 2 0.508193 6.70616 5.96719 3.85147
130 1 -0.985462 0.639172 7.72986 1.59558
131 2 0.512732 0.952251 7.15283 0.84124
132 2 0.47273 1.40262 8.28052 1.93311
133 1 -1.13314 2.88364 6.94923 8.08308
134 2 0.499889 2.64917 7.59727 7.35845
135 2 0.633255 2.11441 6.32918 8.23748
136 1 -0.841162 4.37704 7.92681 1.62097
137 2 0.464223 5.21568 8.43892 1.43537
138 2 0.376939 4.046 7.51102 0.773891
139 1 -0.961787 7.66078 3.61572 0.179666
140 2 0.468795 8.47756 3.99114 0.617771
141 2 0.492992 7.62914 3.91099 11.6248
142 1 -0.908712 7.58341 7.99069 1.75962
143 2 0.430642 8.36971 8.48124 1.384
144 2 0.47807 7.85819 7.50706 2.59064
145 1 -0.931482 2.94041 6.19404 3.67626
146 2 0.447686 3.33479 7.02305 3.27976
147 2 0.483797 2.13951 5.91865 3.14454
148 1 -0.86855 10.1884 4.65772 3.53321
149 2 0.503513 10.1429 5.0662 2.62158
150 2 0.365037 9.84378 3.71973 3.49578
151 1 -1.01537 10.8584 8.69967 12.239
152 2 0.506669 11.5885 8.76735 11.559
153 2 0.508702 11.198 8.2164 0.645864
154 1 -0.953687 10.4005 8.1748 3.06967
155 2 0.506653 11.3692 8.01164 2.88262
156 2 0.447034 10.2378 8.12193 4.05492
157 1 -0.998261 2.72871 2.01309 1.48905
158 2 0.470662 3.31633 2.76546 1.19129
159 2 0.5276 3.23203 1.1514 1.4245
160 1 -0.782561 4.20828 8.64325 5.26442
161 2 0.397451 4.78506 8.49723 6.06817
162 2 0.38511 4.50086 8.03237 4.52874
163 1 -0.863479 1.1789 4.19127 5.11924
164 2 0.444779 1.85172 4.80441 4.70527
165 2 0.4187 1.34846 3.25462 4.81276
166 1 -0.888429 9.77883 7.46111 9.16455
167 2 0.48666 9.13802 7.13947 9.86162
168 2 0.401769 10.6889 7.55764 9.56754
169 1 -0.946827 4.12646 3.1902 3.65932
170 2 0.52251 4.27663 4.16988 3.79225
171 2 0.424316 3.82272 3.0238 2.7212
172 1 -0.827759 8.34373 10.3054 7.38668
173 2 0.408066 8.91937 9.62892 6.92727
174 2 0.419693 8.26157 11.1191 6.81122
175 1 -0.826981 1.06943 9.65646 7.22528
176 2 0.403448 0.723528 10.1243 8.03859
177 2 0.423533 1.75599 10.2295 6.77778
178 1 -0.890518 7.37407 2.96502 5.29883
179 2 0.411176 8.33492 2.81749 5.53336
180 2 0.479343 7.30789 3.66843 4.59112
181 1 -1.06859 5.76284 9.14881 11.39
182 2 0.550252 5.04431 9.80376 11.1559
183 2 0.518337 6.22596 9.44628 12.2249
184 1 -1.00008 0.613274 8.28146 10.0215
185 2 0.461734 0.398173 8.28395 9.04492
186 2 0.538348 0.85913 7.35494 10.3063
187 1 -0.89069 10.1789 1.41238 4.91645
188 2 0.423189 10.9057 1.9686 4.51339
189 2 0.467501 10.5378 0.506107 5.13985
190 1 -1.02553 0.36858 1.24229 2.93709
191 2 0.522141 1.11841 1.26112 2.27572
192 2 0.503388 11.9342 0.925318 2.48611
