ITEM: TIMESTEP
0
ITEM: NUMBER OF ATOMS
192
ITEM: BOX BOUNDS pp pp pp
0.0000000000000000e+00 1.2400000000000000e+01
0.0000000000000000e+00 1.2400000000000000e+01
0.0000000000000000e+00 1.2400000000000000e+01
ITEM: ATOMS id type q x y z
1 1 -0.929295 10.1596 5.84029 5.17591
2 2 0.385464 9.2647 6.28536 5.14338
3 2 0.543831 10.7874 6.30821 4.55389
4 1 -0.870505 9.01323 3.1005 8.5082
5 2 0.380582 8.39154 2.49305 9.00267
6 2 0.489923 9.70603 2.55566 8.03578
7 1 -1.08536 5.88302 1.88517 7.53902
8 2 0.538989 6.49757 1.52033 6.83958
9 2 0.546367 5.07792 1.29692 7.61506
10 1 -0.848225 10.077 11.3985 1.33663
11 2 0.450087 9.34265 11.1665 0.69873
12 2 0.398138 9.72772 12.0252 2.03329
13 1 -0.948411 1.97316 0.927799 4.96402
14 2 0.499589 1.52051 0.492945 4.18555
15 2 0.448822 1.38374 0.865962 5.76948
16 1 -0.837478 0.166662 4.57774 6.44214
17 2 0.38324 11.9011 5.30993 6.58661
18 2 0.454239 1.058 4.97563 6.22486
19 1 -0.969911 7.39985 5.35865 0.108338
20 2 0.511663 7.46149 4.46759 12.0586
21 2 0.458249 8.30993 5.76992 0.159404
22 1 -0.960147 3.68196 8.65777 0.928068
23 2 0.483827 3.34837 9.43243 0.390831
24 2 0.47632 3.15839 8.59104 1.77743
25 1 -1.03608 7.99303 10.3994 11.3741
26 2 0.482302 7.42859 10.4855 10.5531
27 2 0.553775 8.17465 9.43262 11.5538
28 1 -0.839754 10.1736 12.2044 10.422
29 2 0.470203 9.4873 11.744 10.985
30 2 0.369551 10.0321 11.9647 9.46148
31 1 -0.803702 2.43233 9.11185 8.30038
32 2 0.399953 3.02252 8.51342 8.84219
33 2 0.403749 2.90406 9.37107 7.4576
34 1 -0.898158 2.40486 6.33152 6.17556
35 2 0.404555 2.90427 6.86585 6.85753
36 2 0.493603 2.96485 5.55584 5.88445
37 1 -0.941856 6.1886 11.3012 1.13487
38 2 0.442909 6.68716 12.1538 1.29104
39 2 0.498947 6.41415 10.9444 0.228322
40 1 -0.847151 3.5856 0.231354 7.74368
41 2 0.378722 3.44139 11.9755 7.00273
42 2 0.468429 3.15131 12.2923 8.57821
43 1 -1.05753 10.1174 2.78274 4.80963
44 2 0.530315 10.3898 3.6925 5.12292
45 2 0.527217 10.5743 2.57764 3.94405
46 1 -1.00248 4.42534 5.56838 0.383963
47 2 0.49224 5.16449 5.37274 12.1395
48 2 0.51024 3.94062 6.39384 0.0946856
49 1 -0.9343 2.67587 2.34282 11.2309
50 2 0.502525 2.05518 1.87727 10.6001
51 2 0.431774 2.89382 3.25134 10.8745
52 1 -0.987405 5.8186 7.37395 6.77407
53 2 0.487008 6.20933 6.45658 6.69812
54 2 0.500396 5.45772 7.65717 5.8855
55 1 -0.926788 8.1343 1.25333 2.13045
56 2 0.436777 8.9452 1.72708 1.78693
57 2 0.490011 7.31387 1.67052 1.73949
58 1 -1.04906 3.71384 6.92678 10.2497
59 2 0.57762 3.58479 5.98568 9.93718
60 2 0.471437 2.8288 7.31914 10.5003
61 1 -0.979786 10.7921 9.64316 9.16595
62 2 0.58232 10.2448 9.01563 9.71966
63 2 0.397466 10.1884 10.1853 8.58148
64 1 -0.937559 0.584176 10.7427 11.0595
65 2 0.47978 12.1552 10.7211 11.6183
66 2 0.457779 0.401397 10.3129 10.1752
67 1 -1.01662 3.25641 4.33505 8.91432
68 2 0.513857 2.29079 4.1019 9.02936
69 2 0.502762 3.53164 4.15856 7.96928
70 1 -1.02404 12.0504 8.823 0.88127
71 2 0.469005 0.0173 9.65006 1.30715
72 2 0.555035 11.1711 8.59481 1.29922
73 1 -0.950223 5.06762 1.48148 4.35001
74 2 0.459036 4.53106 0.63763 4.35401
75 2 0.491187 4.48742 2.24407 4.06393
76 1 -0.922609 6.2616 0.64274 10.6987
77 2 0.453355 5.44634 0.0705269 10.7878
78 2 0.469254 6.77462 0.367708 9.88553
79 1 -1.11653 0.731675 5.303 9.67389
80 2 0.568412 0.918058 6.09543 10.2547
81 2 0.548118 0.0057 5.52912 9.02441
82 1 -0.957327 11.7835 3.1603 11.0155
83 2 0.410277 11.8114 2.37864 10.3925
84 2 0.54705 12.3027 3.91897 10.622
85 1 -0.930467 5.59163 10.4642 6.45147
86 2 0.461186 4.6708 10.3664 6.07398
87 2 0.469282 6.26567 10.3302 5.72502
88 1 -0.997429 6.57804 8.05775 0.816285
89 2 0.506281 5.66168 8.4381 0.9413
90 2 0.491148 6.52267 7.05994 0.779814
91 1 -0.915106 6.05333 3.61302 10.4027
92 2 0.420942 6.77914 2.92914 10.4769
93 2 0.494164 5.38355 3.31579 9.72226
94 1 -0.884247 11.9302 11.9312 3.79738
95 2 0.401642 11.317 11.981 3.00902
96 2 0.482604 11.3912 11.8218 4.63255
97 1 -0.830671 8.79414 2.77409 11.6723
98 2 0.362642 8.20176 1.96932 11.7103
99 2 0.468029 9.73526 2.48711 11.4936
100 1 -0.982062 1.53926 2.84878 1.32188
101 2 0.523223 1.86166 2.78281 0.377577
102 2 0.458839 2.32426 2.88953 1.94004
103 1 -0.977805 3.52636 3.46896 6.07795
104 2 0.521597 2.91033 2.73541 5.79084
105 2 0.456208 4.43511 3.09097 6.25487
106 1 -0.942658 11.0023 2.29523 1.95734
107 2 0.532863 11.8875 2.7605 1.95478
108 2 0.409795 10.9528 1.66875 1.17948
109 1 -0.872225 0.266051 11.4247 6.69966
110 2 0.484481 11.9926 10.704 6.53511
111 2 0.387743 0.0915999 11.8472 7.58909
112 1 -1.06229 9.70371 11.5586 5.73735
113 2 0.558677 9.02969 12.2715 5.54396
114 2 0.503612 9.29528 10.6606 5.57385
115 1 -1.05291 2.84813 10.2583 5.45354
116 2 0.573519 3.07261 10.9236 4.74145
117 2 0.479392 2.21997 10.6736 6.11156
118 1 -0.809767 8.54001 8.62538 7.39636
119 2 0.419315 7.7786 8.20719 6.90101
120 2 0.390452 9.18176 7.91416 7.68329
121 1 -0.958245 2.15318 8.09599 3.39435
122 2 0.487539 2.21091 9.05009 3.68822
123 2 0.470706 2.69254 7.52371 4.01209
124 1 -1.0149 6.999 4.35621 6.80484
125 2 0.510668 7.8884 4.19686 7.2333
126 2 0.504235 6.38606 3.59482 7.01602
127 1 -1.00625 9.52892 7.97971 1.75269
128 2 0.472331 9.8338 8.4066 2.60406
129 2 0.533915 8.53246 7.89588 1.76004
130 1 -0.895894 3.71418 4.35593 2.88288
131 2 0.381578 3.5981 5.12766 3.50815
132 2 0.514316 3.87279 4.69822 1.95676
133 1 -0.918491 12.2545 8.38147 6.46272
134 2 0.44273 11.8282 8.48363 7.36154
135 2 0.475761 0.823446 8.16192 6.57633
136 1 -0.84356 7.38556 10.1372 3.62741
137 2 0.396433 8.20829 10.5551 3.24205
138 2 0.447127 6.7558 9.89791 2.88839
139 1 -0.876745 10.5095 5.16229 0.261115
140 2 0.486876 10.7342 4.49754 11.9487
141 2 0.389869 10.9241 4.87759 1.12543
142 1 -1.00494 9.41372 7.84756 10.9939
143 2 0.523547 9.74216 7.50841 11.8754
144 2 0.481392 8.6242 7.30759 10.7022
145 1 -0.918658 4.88669 6.89772 4.15171
146 2 0.37681 4.80228 7.80832 3.74712
147 2 0.541848 5.44214 6.31819 3.55536
148 1 -0.953265 12.1458 6.47021 3.21753
149 2 0.433753 11.7932 6.66695 2.30265
150 2 0.519513 0.727135 6.66046 3.24464
151 1 -0.910566 7.76041 11.4467 8.29782
152 2 0.41275 8.44326 11.4739 7.56776
153 2 0.497816 6.93485 10.9908 7.96527
154 1 -0.922122 10.6171 9.03285 4.22158
155 2 0.407311 11.2853 9.53279 3.67067
156 2 0.514811 11.088 8.34403 4.77275
157 1 -0.907559 5.77744 2.5182 0.687391
158 2 0.452534 5.46779 3.4532 0.514488
159 2 0.455024 5.83281 2.02001 12.2221
160 1 -1.08126 3.78729 11.3094 3.0536
161 2 0.568852 4.61605 11.4011 2.50155
162 2 0.512405 2.99901 11.6274 2.52679
163 1 -0.961036 0.927379 0.941904 9.34402
164 2 0.491898 0.161553 1.27008 8.79102
165 2 0.469138 0.621857 0.183586 9.91988
166 1 -0.917427 7.55247 6.12613 9.04967
167 2 0.479491 7.06035 5.51119 9.66583
168 2 0.437935 6.89676 6.6259 8.48375
169 1 -0.868571 7.39656 5.47976 3.88075
170 2 0.426719 7.4858 4.71531 3.24227
171 2 0.441852 7.7208 5.19913 4.78414
172 1 -0.988998 5.47079 9.04874 9.47327
173 2 0.521627 4.9427 8.2132 9.62489
174 2 0.467371 5.64448 9.16037 8.49482
175 1 -0.900484 10.629 6.30693 8.51781
176 2 0.528917 9.79199 5.84421 8.80975
177 2 0.371567 10.606 6.4442 7.52754
178 1 -1.13881 7.7215 1.27664 5.4938
179 2 0.581441 8.4268 1.87881 5.1197
180 2 0.557371 6.8429 1.48527 5.06423
181 1 -0.897582 3.58043 10.6138 11.0252
182 2 0.429789 2.74659 10.1659 10.7026
183 2 0.467794 4.3766 10.1787 10.6047
184 1 -1.08836 0.689857 7.79394 10.9782
185 2 0.639375 0.418882 8.10549 11.889
186 2 0.44899 0.110365 8.23096 10.2903
187 1 -1.01103 11.0451 1.50662 7.42076
188 2 0.459252 10.4614 0.716103 7.23531
189 2 0.551775 11.2705 1.9637 6.56037
190 1 -0.920669 1.52747 12.0753 1.13864
191 2 0.432296 1.76486 0.644476 1.20486
192 2 0.488373 1.46472 11.8125 0.175821
