ITEM: TIMESTEP
0
ITEM: NUMBER OF ATOMS
192
ITEM: BOX BOUNDS pp pp pp
0.0000000000000000e+00 1.2400000000000000e+01
0.0000000000000000e+00 1.2400000000000000e+01
0.0000000000000000e+00 1.2400000000000000e+01
ITEM: ATOMS id type q x y z
1 1 -1.01904 8.8238 7.36388 4.53979
2 2 0.496337 8.26839 8.11555 4.1841
3 2 0.522705 9.73875 7.70127 4.76126
4 1 -1.03835 10.2845 2.82611 9.11554
5 2 0.496719 9.46446 3.0964 8.61105
6 2 0.541633 10.5008 3.52383 9.79847
7 1 -0.930237 5.03951 3.04052 8.9595
8 2 0.466986 5.30123 3.91187 9.37454
9 2 0.463251 5.85978 2.49823 8.77761
10 1 -0.766332 11.3477 12.2034 0.42381
11 2 0.384094 11.5821 0.716428 0.0899758
12 2 0.382238 11.1085 12.2543 1.39344
13 1 -1.03327 2.88816 10.419 2.76256
14 2 0.521314 3.45475 10.0005 3.47236
15 2 0.511954 2.07148 9.86087 2.61575
16 1 -0.88086 9.31558 4.53086 6.76399
17 2 0.433906 9.49723 3.8498 6.05465
18 2 0.446955 9.86853 5.34626 6.59263
19 1 -0.903565 9.87658 5.81067 0.716568
20 2 0.4583 10.6301 5.6027 1.34021
21 2 0.445265 9.21049 6.39398 1.18142
22 1 -0.986077 3.64488 7.633 1.03958
23 2 0.519235 2.73904 7.44606 0.659435
24 2 0.466843 3.90626 6.89192 1.65803
25 1 -1.06004 8.18281 9.69306 11.0657
26 2 0.498114 8.20556 10.4767 11.6865
27 2 0.561927 7.24728 9.34571 11.0015
28 1 -0.96165 9.73476 11.5181 9.4155
29 2 0.391954 10.0506 12.0407 10.2074
30 2 0.569695 9.28208 10.6824 9.72654
31 1 -0.994053 2.33578 7.72155 8.81451
32 2 0.551235 2.96043 8.1486 8.16073
33 2 0.442818 2.45301 6.7288 8.78791
34 1 -0.995227 0.683432 5.33066 4.6816
35 2 0.486715 0.225112 5.40809 5.56701
36 2 0.508511 0.217521 4.6436 4.12403
37 1 -0.868899 7.98034 12.335 0.285892
38 2 0.404087 8.56477 0.580441 0.777615
39 2 0.464812 7.05688 0.31137 0.211428
40 1 -0.913272 3.5968 2.72892 6.29725
41 2 0.437771 2.62143 2.83439 6.10351
42 2 0.475501 3.72796 2.58244 7.27773
43 1 -0.845366 6.26231 5.24579 7.33105
44 2 0.36177 6.09811 5.5588 8.2665
45 2 0.483596 7.15614 4.80023 7.28069
46 1 -1.06277 6.11993 4.76514 1.12678
47 2 0.512916 6.5747 4.19898 0.439286
48 2 0.549856 6.56778 5.65808 1.17255
49 1 -0.925178 2.74131 2.64679 11.1267
50 2 0.492346 2.01145 2.00212 10.8993
51 2 0.432832 3.49043 2.54674 10.4719
52 1 -1.00289 4.92745 8.56577 7.44706
53 2 0.433244 4.74086 8.19202 6.53849
54 2 0.569646 5.91244 8.54834 7.61882
55 1 -0.959505 8.10132 2.48099 2.19739
56 2 0.495505 7.89866 3.26623 2.78247
57 2 0.463999 8.21966 2.79013 1.25376
58 1 -0.873838 4.5572 5.4992 10.6348
59 2 0.446792 4.94511 5.68854 11.5368
60 2 0.427046 3.59355 5.25029 10.7319
61 1 -0.957588 0.028328 9.37211 7.73721
62 2 0.469939 11.4588 9.12949 7.7022
63 2 0.487648 0.544513 8.62337 8.15307
64 1 -0.905279 0.651038 10.8191 10.487
65 2 0.48168 12.1002 10.5295 10.597
66 2 0.423598 1.07884 10.2876 9.7558
67 1 -0.979149 1.52695 4.8762 9.64662
68 2 0.454204 2.02954 4.68325 8.8039
69 2 0.524945 1.6952 4.14668 10.3096
70 1 -0.906097 0.859618 7.90613 2.47894
71 2 0.458062 0.445422 7.30349 1.79684
72 2 0.448036 0.541508 7.64601 3.39062
73 1 -0.9655 5.55068 11.7379 3.30088
74 2 0.510582 4.9402 12.0498 4.02891
75 2 0.454918 6.07333 0.1143 2.94864
76 1 -0.944585 5.10436 0.944951 0.0475959
77 2 0.54878 4.58001 0.094876 0.0968926
78 2 0.395806 4.67824 1.56154 11.7856
79 1 -0.87952 0.672833 2.87037 6.63583
80 2 0.410775 12.3968 2.96956 7.36599
81 2 0.468746 0.877536 1.90094 6.50052
82 1 -1.08209 11.2291 5.22634 10.4069
83 2 0.554622 10.8943 5.9368 11.0259
84 2 0.527465 12.2288 5.24185 10.3914
85 1 -1.02237 6.08479 11.5859 8.36048
86 2 0.431017 5.93924 11.7489 7.38466
87 2 0.591353 6.39651 10.6458 8.49853
88 1 -1.06884 7.39853 7.24666 1.41258
89 2 0.626101 6.90099 8.11229 1.3564
90 2 0.442736 8.12714 7.32452 2.09307
91 1 -1.00044 7.90394 3.25355 11.8111
92 2 0.46848 7.30544 2.63124 11.3066
93 2 0.531959 8.83544 2.88984 11.8154
94 1 -1.05479 9.40911 12.2344 3.50127
95 2 0.485168 8.82904 0.539802 3.09385
96 2 0.569618 10.2794 0.239484 3.78165
97 1 -0.956703 10.8046 3.03815 12.3426
98 2 0.499085 10.7815 3.96515 11.9682
99 2 0.457618 11.7249 2.8371 0.278303
100 1 -0.903945 1.38484 2.41346 1.41277
101 2 0.460314 1.49724 2.05799 2.34068
102 2 0.443631 1.80656 1.78313 0.760976
103 1 -1.01264 2.36716 0.772109 3.89893
104 2 0.528024 2.58508 12.2716 3.5227
105 2 0.484611 3.1984 1.32655 3.93931
106 1 -0.867596 10.8327 3.41706 3.95824
107 2 0.440779 11.167 2.77968 4.65251
108 2 0.426816 9.9717 3.07678 3.58028
109 1 -0.983542 0.641743 12.1088 6.87613
110 2 0.568897 0.32886 11.1927 7.12715
111 2 0.414645 1.25604 0.0569 7.58426
112 1 -1.03691 10.0156 10.9508 6.34617
113 2 0.524572 9.72595 11.6277 5.66944
114 2 0.512336 10.1077 11.3909 7.23942
115 1 -0.905748 4.1161 10.9615 5.81751
116 2 0.467364 4.28348 10.1558 6.38563
117 2 0.438384 3.53542 11.6057 6.3154
118 1 -0.992879 7.40043 4.68714 3.98251
119 2 0.559478 7.73107 5.55606 4.35083
120 2 0.433401 6.76063 4.864 3.23459
121 1 -0.811484 2.18089 8.45053 5.90215
122 2 0.398343 2.38707 7.48438 6.05726
123 2 0.41314 2.81511 8.82203 5.22409
124 1 -0.973002 3.19662 5.5533 7.05737
125 2 0.54359 4.15523 5.27343 7.10976
126 2 0.429412 2.66599 4.84086 6.59817
127 1 -0.878207 10.1793 8.78656 2.13935
128 2 0.466135 11.0646 8.95695 2.57203
129 2 0.412072 9.49244 9.397 2.53386
130 1 -0.967173 3.42666 5.56592 3.81924
131 2 0.532114 2.4998 5.67597 4.17815
132 2 0.435059 3.79895 4.68823 4.12103
133 1 -0.901473 12.0699 5.88521 7.44072
134 2 0.450371 0.568405 6.2139 7.73171
135 2 0.451102 11.747 5.18758 8.08028
136 1 -1.06684 7.76758 9.93976 3.79615
137 2 0.52073 6.89474 10.3809 3.58757
138 2 0.54611 8.50895 10.6033 3.69534
139 1 -1.00444 10.8938 8.64884 11.6085
140 2 0.529699 9.94117 8.62464 11.3054
141 2 0.474745 10.9424 9.0487 0.123785
142 1 -0.975985 9.75252 7.39677 8.54405
143 2 0.437704 10.2239 6.6369 8.09638
144 2 0.538281 9.23472 7.05277 9.32735
145 1 -0.901586 4.71477 8.17168 4.12006
146 2 0.422271 5.47889 8.38089 3.50986
147 2 0.479315 4.67665 7.18535 4.28044
148 1 -0.913501 0.594995 5.21919 1.14047
149 2 0.487728 0.982123 4.38876 1.54112
150 2 0.425773 1.2801 5.6603 0.560766
151 1 -0.985201 7.69776 1.47545 9.1977
152 2 0.507538 8.54204 0.94981 9.30217
153 2 0.477663 6.93949 0.853084 9.00357
154 1 -1.02316 11.3134 8.89554 4.83285
155 2 0.543033 10.7919 9.57928 5.34325
156 2 0.480123 12.1627 8.69219 5.32001
157 1 -0.89438 4.54288 2.8217 2.87343
158 2 0.38951 4.55546 1.98968 2.31882
159 2 0.50487 4.8631 3.59343 2.32399
160 1 -1.07658 5.72154 9.51117 1.31923
161 2 0.547751 4.85079 9.03575 1.19364
162 2 0.528832 5.58451 10.3078 1.90803
163 1 -0.973993 0.178536 1.32644 9.94811
164 2 0.509805 11.7919 1.86896 9.6534
165 2 0.464188 0.0022 0.358665 9.76832
166 1 -0.921605 7.8898 6.26697 10.4618
167 2 0.487895 8.17129 5.75405 11.2727
168 2 0.43371 6.93999 6.56165 10.5668
169 1 -0.955838 6.39982 2.21045 5.27848
170 2 0.474156 5.46926 2.36196 5.6118
171 2 0.481682 6.65836 2.95427 4.66211
172 1 -0.902569 5.51523 8.70007 10.5943
173 2 0.43955 4.98729 9.04857 11.3688
174 2 0.463019 4.891 8.34934 9.89626
175 1 -1.08369 7.68599 9.18425 7.71154
176 2 0.576491 8.27007 8.42605 8.00134
177 2 0.507201 8.06159 9.59587 6.88117
178 1 -0.861875 9.24472 1.3313 6.18859
179 2 0.495528 8.36331 1.80274 6.21799
180 2 0.366347 9.77671 1.56816 7.00154
181 1 -0.869943 3.52275 0.333875 8.59081
182 2 0.386129 3.29271 0.1345 9.54334
183 2 0.483814 4.50591 0.213667 8.45312
184 1 -1.01424 1.25626 7.17726 11.539
185 2 0.517247 0.486236 7.81381 11.5823
186 2 0.496995 1.56904 7.09627 10.5926
187 1 -1.06936 11.928 0.747787 4.3913
188 2 0.569343 0.48537 0.714077 4.10446
189 2 0.500016 11.8481 0.404475 5.32712
190 1 -1.04114 2.94009 11.6156 0.137828
191 2 0.515142 2.11709 11.4188 12.005
192 2 0.525998 3.01468 10.9609 0.890014
