ITEM: TIMESTEP
0
ITEM: NUMBER OF ATOMS
192
ITEM: BOX BOUNDS pp pp pp
0.0000000000000000e+00 1.2400000000000000e+01
0.0000000000000000e+00 1.2400000000000000e+01
0.0000000000000000e+00 1.2400000000000000e+01
ITEM: ATOMS id type q x y z
1 1 -0.880375 7.3418 7.83271 4.26117
2 2 0.507369 7.87696 8.03374 3.44068
3 2 0.373006 7.95975 7.63038 5.02091
4 1 -0.838111 0.980639 2.22377 9.85665
5 2 0.409504 0.185807 2.36205 10.4475
6 2 0.428607 1.30664 3.10866 9.52394
7 1 -0.816263 6.03508 3.9848 8.82015
8 2 0.430249 5.15673 4.28062 9.19566
9 2 0.386014 6.60486 4.78536 8.63456
10 1 -1.00626 11.5587 10.976 1.8383
11 2 0.578902 12.0617 11.8259 1.68085
12 2 0.427358 12.0138 10.2257 1.3588
13 1 -0.962629 2.73981 10.5222 3.60737
14 2 0.446528 2.15374 10.3917 2.80768
15 2 0.516102 3.69374 10.3674 3.35035
16 1 -0.892942 9.26065 4.69841 5.89101
17 2 0.440817 9.64339 5.56478 6.2118
18 2 0.452125 9.95975 3.98532 5.94364
19 1 -0.908789 10.5487 6.63044 1.391
20 2 0.428008 10.0528 7.1401 2.09407
21 2 0.480781 10.8486 7.25862 0.673051
22 1 -0.862867 3.50106 6.37792 2.65861
23 2 0.405706 2.62586 6.80129 2.42456
24 2 0.457161 4.21796 7.07509 2.66322
25 1 -0.960484 7.64992 9.23618 11.3822
26 2 0.535822 6.93287 9.75712 11.8453
27 2 0.424662 7.59005 8.27487 11.6511
28 1 -1.01127 10.3252 12.2887 8.88578
29 2 0.514667 10.1517 0.0589 9.8558
30 2 0.496606 10.5362 11.3207 8.74972
31 1 -0.965934 1.79155 7.99489 8.96106
32 2 0.481644 2.58095 7.4109 8.77184
33 2 0.48429 1.91488 8.44598 9.84499
34 1 -1.0488 11.1346 4.79531 3.49092
35 2 0.570524 11.2389 5.27235 2.61824
36 2 0.478275 11.0909 5.46399 4.23319
37 1 -0.857797 9.86876 12.1148 11.7897
38 2 0.499542 10.343 11.4404 12.3556
39 2 0.358256 9.91213 0.610646 12.232
40 1 -0.850059 2.8599 1.50377 5.62233
41 2 0.477771 2.94913 0.533866 5.84891
42 2 0.372288 3.64235 1.79027 5.06943
43 1 -0.969422 6.94716 6.62078 7.33588
44 2 0.494329 7.05304 7.58613 7.57438
45 2 0.475094 7.84862 6.21118 7.19589
46 1 -1.00227 7.43672 6.42948 12.3585
47 2 0.478439 7.13458 6.18975 0.88112
48 2 0.523829 8.05618 5.72287 12.0165
49 1 -0.977928 4.11866 0.85936 9.54893
50 2 0.46525 3.22362 0.844391 9.1032
51 2 0.512679 4.8363 0.906995 8.85414
52 1 -0.932729 4.43501 6.77893 8.88171
53 2 0.49262 4.91778 6.57817 8.02928
54 2 0.440109 4.98286 7.40615 9.4353
55 1 -1.03281 8.24966 2.81853 1.05087
56 2 0.502007 8.08222 3.61492 1.63202
57 2 0.530808 7.39714 2.54637 0.604615
58 1 -0.871254 3.9294 4.8765 11.1946
59 2 0.430597 4.28526 5.7389 11.5547
60 2 0.440657 3.43016 5.05039 10.3458
61 1 -0.959974 11.0984 9.66203 7.7902
62 2 0.469603 10.7664 8.72003 7.83928
63 2 0.490371 11.9355 9.69242 7.24389
64 1 -0.93087 0.662059 10.6507 10.8307
65 2 0.546844 0.596809 11.4413 11.4395
66 2 0.384026 1.03821 9.87267 11.3339
67 1 -0.898254 2.76958 4.02464 8.12922
68 2 0.417037 2.82292 3.08156 7.80095
69 2 0.481217 2.77011 4.6498 7.34872
70 1 -0.867966 1.16882 8.07191 2.81437
71 2 0.456326 0.447472 7.62544 3.34383
72 2 0.41164 1.76674 8.58388 3.43113
73 1 -0.931437 6.49363 1.81648 3.29533
74 2 0.491256 6.90483 2.23105 4.10715
75 2 0.440181 7.05415 2.0256 2.49402
76 1 -0.975436 5.92369 2.29257 11.8315
77 2 0.467241 5.80329 1.37804 11.4453
78 2 0.508195 5.30199 2.9307 11.3773
79 1 -0.901536 11.7991 3.57163 7.25348
80 2 0.416756 11.7587 3.45275 8.24557
81 2 0.48478 11.7326 2.67889 6.80781
82 1 -0.953685 12.3874 5.85315 10.8759
83 2 0.460215 0.36473 6.58792 10.3123
84 2 0.49347 0.270903 5.98275 11.8261
85 1 -0.992392 6.31257 0.862461 7.79438
86 2 0.466632 6.08482 1.7022 7.30146
87 2 0.52576 7.30648 0.771758 7.8569
88 1 -0.976829 5.07947 9.07351 2.37673
89 2 0.489628 5.05408 9.18173 1.38293
90 2 0.487201 5.98777 9.31871 2.71565
91 1 -0.984724 11.2129 2.97983 12.385
92 2 0.508247 10.2232 3.09191 0.0738813
93 2 0.476477 11.6351 3.8699 12.2131
94 1 -0.888737 8.74132 12.08 2.48722
95 2 0.460176 9.1712 0.527312 2.17528
96 2 0.428561 9.18225 11.7735 3.33079
97 1 -1.17196 0.240266 0.520446 0.173144
98 2 0.563639 12.0294 1.3088 0.0997569
99 2 0.608322 1.18345 0.837626 0.272194
100 1 -1.09956 2.75879 1.52087 0.0797
101 2 0.569464 2.93643 2.17469 0.815227
102 2 0.530092 2.90181 1.96637 11.5959
103 1 -0.856158 0.91851 0.552776 3.38304
104 2 0.391454 1.26688 1.47044 3.19188
105 2 0.464704 1.62218 0.0204 3.85362
106 1 -1.01484 10.2481 1.94132 4.01284
107 2 0.48724 11.0401 1.34901 3.86473
108 2 0.527596 10.4568 2.86412 3.68899
109 1 -1.02179 11.5832 0.335152 6.47351
110 2 0.52292 11.0408 0.243617 7.30862
111 2 0.498868 12.2199 11.9672 6.4037
112 1 -0.856804 7.98974 10.687 6.88276
113 2 0.484577 8.97466 10.8317 6.7878
114 2 0.372226 7.64987 10.1778 6.09205
115 1 -0.848152 4.28073 11.1091 6.99041
116 2 0.461735 5.059 11.7287 6.88852
117 2 0.386417 4.59165 10.164 6.8896
118 1 -0.957916 7.7956 5.08599 2.85743
119 2 0.478086 8.55679 4.85823 3.46465
120 2 0.47983 7.00291 5.35665 3.40368
121 1 -0.944118 1.01449 10.4784 5.95137
122 2 0.427671 1.362 9.82503 5.27881
123 2 0.516447 1.78204 10.8981 6.43587
124 1 -1.0466 2.97576 5.83641 5.67262
125 2 0.533333 3.37574 6.73477 5.85416
126 2 0.51327 2.76656 5.75543 4.6981
127 1 -0.921704 8.731 9.19685 2.10239
128 2 0.390386 8.93826 8.56327 1.35699
129 2 0.531319 8.95921 10.1289 1.82083
130 1 -0.955605 1.55204 3.80396 4.1584
131 2 0.484971 0.56848 3.8985 4.31225
132 2 0.470635 1.94094 3.19665 4.85117
133 1 -1.00352 0.319736 6.6568 6.82014
134 2 0.524133 1.02542 7.1627 7.3162
135 2 0.479387 0.484559 5.67504 6.91494
136 1 -0.84939 6.29458 11.4034 4.35181
137 2 0.498242 6.60894 12.2388 3.90105
138 2 0.351148 6.70836 11.3386 5.25989
139 1 -0.94483 10.504 8.92292 11.8454
140 2 0.475039 9.57553 8.70384 11.5456
141 2 0.469791 11.0227 9.29787 11.077
142 1 -1.03177 10.0603 6.72239 8.11552
143 2 0.467211 10.9926 6.48461 7.84323
144 2 0.56456 9.91004 6.4477 9.06524
145 1 -0.969099 4.43761 8.13825 5.47032
146 2 0.484681 5.3831 7.84282 5.60732
147 2 0.484418 4.40987 8.85435 4.77287
148 1 -0.882581 1.10115 4.89604 1.18338
149 2 0.446202 1.19242 4.82524 2.17669
150 2 0.436378 1.97314 5.18506 0.788271
151 1 -0.910774 8.90283 2.76392 10.5294
152 2 0.451203 8.96503 1.81959 10.8525
153 2 0.459571 7.9471 3.05795 10.541
154 1 -1.01025 10.8209 7.5107 4.57273
155 2 0.53453 10.7248 8.47654 4.33205
156 2 0.47572 11.2915 7.43135 5.45152
157 1 -0.912554 3.72653 2.87755 2.5535
158 2 0.459288 4.51763 2.51889 3.04901
159 2 0.453267 3.12627 3.36208 3.18984
160 1 -0.896546 6.15431 11.401 0.601411
161 2 0.43293 5.3869 12.0179 0.776382
162 2 0.463616 6.90457 11.6168 1.22638
163 1 -0.93565 1.44919 12.0569 8.26072
164 2 0.46214 0.860135 0.437066 8.47125
165 2 0.47351 1.13686 11.256 8.7716
166 1 -1.04181 9.46959 5.51389 10.5426
167 2 0.500172 10.312 5.56966 11.0786
168 2 0.541641 9.31509 4.56657 10.262
169 1 -0.845789 5.63853 4.20646 5.38211
170 2 0.427764 4.67263 4.46441 5.40468
171 2 0.418025 6.16467 4.83411 5.9559
172 1 -0.97865 4.98805 8.0872 11.5897
173 2 0.526342 4.86458 8.65622 10.7767
174 2 0.452308 5.91766 7.71881 11.6007
175 1 -1.00004 6.49736 9.02222 8.796
176 2 0.482221 7.15108 8.80624 9.52126
177 2 0.517817 6.8128 9.82588 8.29138
178 1 -0.953081 8.20067 1.92261 5.85025
179 2 0.429241 8.16568 2.91791 5.94056
180 2 0.52384 9.01492 1.66345 5.33078
181 1 -1.00809 3.86118 10.0742 9.92197
182 2 0.474396 3.53127 9.8159 9.01399
183 2 0.533696 4.2006 11.0146 9.89824
184 1 -0.944563 2.08395 7.92318 12.1321
185 2 0.457738 1.92077 8.3098 0.639838
186 2 0.486825 3.03458 8.08454 11.8671
187 1 -0.96559 10.4087 10.4171 4.59269
188 2 0.501719 10.6848 10.646 3.65918
189 2 0.463871 10.6389 11.1747 5.20354
190 1 -0.931448 2.89647 10.8302 0.441022
191 2 0.461135 3.16336 10.5799 11.9104
192 2 0.470313 2.84328 11.8259 0.516176
