ITEM: TIMESTEP
0
ITEM: NUMBER OF ATOMS
192
ITEM: BOX BOUNDS pp pp pp
0.0000000000000000e+00 1.2400000000000000e+01
0.0000000000000000e+00 1.2400000000000000e+01
0.0000000000000000e+00 1.2400000000000000e+01
ITEM: ATOMS id type q x y z
1 1 -0.848966 6.098 8.19833 4.69985
2 2 0.441865 6.48221 9.0642 4.37947
3 2 0.407101 6.19996 7.50438 3.98708
4 1 -0.750128 0.315288 1.63054 10.1022
5 2 0.412662 0.739499 1.98928 9.27068
6 2 0.337467 0.295152 2.34535 10.8012
7 1 -1.0506 5.01128 5.59439 9.95321
8 2 0.531817 5.45969 5.29028 10.7937
9 2 0.518783 5.56331 5.32425 9.16437
10 1 -1.01004 0.0873567 9.03958 1.4779
11 2 0.544816 0.729724 9.37209 0.787389
12 2 0.465223 0.317351 9.43729 2.36612
13 1 -0.997844 1.07539 9.92599 4.29681
14 2 0.445629 1.56732 10.5459 3.68544
15 2 0.552216 1.63286 9.74493 5.10703
16 1 -1.05531 9.34753 6.18847 6.53208
17 2 0.546559 9.36303 6.68483 7.40006
18 2 0.508755 9.81514 5.31131 6.6413
19 1 -0.859264 11.2087 6.19657 1.45033
20 2 0.449481 11.5475 5.68674 0.659561
21 2 0.409782 11.7391 7.03763 1.55683
22 1 -0.90802 5.20313 5.77381 2.85753
23 2 0.458738 5.67824 5.02251 3.31559
24 2 0.449283 5.87434 6.4039 2.46707
25 1 -1.00909 6.77901 9.35995 10.3779
26 2 0.575313 7.09663 8.45448 10.0964
27 2 0.433774 5.8449 9.29149 10.7283
28 1 -1.05423 9.01845 2.15381 9.39836
29 2 0.547293 8.41438 1.67557 10.0358
30 2 0.506934 9.22328 1.55748 8.62218
31 1 -0.867678 2.26092 6.87147 8.99797
32 2 0.408887 2.46717 7.55816 8.30089
33 2 0.458791 3.10579 6.60063 9.45933
34 1 -0.805808 11.239 4.54198 3.81597
35 2 0.39019 11.3328 5.38816 4.34054
36 2 0.415618 10.3054 4.19528 3.90678
37 1 -0.805642 10.6979 11.2105 12.0559
38 2 0.402224 10.6346 12.079 0.147429
39 2 0.403418 10.6977 11.384 11.0711
40 1 -0.843196 4.46751 0.134243 5.25195
41 2 0.443933 4.40581 12.1911 6.18921
42 2 0.399263 4.18891 11.8156 4.61486
43 1 -1.00887 8.15791 6.92535 9.29291
44 2 0.548334 8.68438 6.42003 9.97664
45 2 0.460533 7.66508 6.28073 8.70845
46 1 -0.959975 6.60667 5.28456 12.3447
47 2 0.460915 7.21087 6.04246 0.19073
48 2 0.499059 7.14862 4.4537 12.2184
49 1 -0.949679 3.75003 1.64403 8.98109
50 2 0.47924 2.9522 1.16435 8.61588
51 2 0.470439 4.40497 0.977918 9.33794
52 1 -0.873682 4.81596 7.75118 7.4162
53 2 0.411192 4.74093 6.85316 7.84972
54 2 0.46249 5.11706 7.64001 6.46911
55 1 -1.05073 8.67139 3.32529 1.61657
56 2 0.468741 8.62173 4.32382 1.63798
57 2 0.581993 9.46041 3.04239 1.07121
58 1 -0.957901 2.45863 4.17503 10.7879
59 2 0.479683 2.59018 4.3699 11.7598
60 2 0.478218 3.34695 4.01886 10.356
61 1 -0.969079 9.08917 9.41344 6.67518
62 2 0.484981 9.66871 9.03797 7.39848
63 2 0.484098 8.59256 8.67042 6.22652
64 1 -0.899514 11.59 8.30227 11.0231
65 2 0.495055 11.8151 8.23079 11.9948
66 2 0.404459 10.6527 8.63583 10.9216
67 1 -0.985171 1.24414 3.95881 7.91881
68 2 0.431914 2.04036 3.36383 7.80906
69 2 0.553257 1.49718 4.75677 8.46584
70 1 -0.913529 2.58394 6.94515 4.37959
71 2 0.453818 3.54543 6.743 4.19341
72 2 0.459711 2.28288 7.69948 3.79618
73 1 -0.969528 5.97971 2.07948 1.87669
74 2 0.530948 6.96806 2.23025 1.8556
75 2 0.43858 5.78561 1.20253 2.31633
76 1 -0.869576 6.78329 2.22456 11.3461
77 2 0.476574 6.46995 1.85397 12.2204
78 2 0.393002 6.13464 1.97559 10.6268
79 1 -0.966231 10.7304 3.57076 7.02145
80 2 0.447881 10.1973 3.19201 7.77801
81 2 0.51835 11.7052 3.5031 7.23387
82 1 -1.0023 0.0324 5.51329 10.9213
83 2 0.48487 0.202203 6.3909 10.473
84 2 0.517432 0.863232 4.9575 10.8915
85 1 -1.07366 6.44742 2.20632 6.22495
86 2 0.509892 5.65277 2.44787 5.66801
87 2 0.563766 6.59921 1.21899 6.17868
88 1 -1.02526 6.17854 8.8435 1.36466
89 2 0.529688 6.57858 9.61868 0.875723
90 2 0.495567 6.88572 8.39141 1.90828
91 1 -0.966254 10.7665 2.64987 12.3235
92 2 0.437713 10.8086 2.50116 11.3355
93 2 0.52854 11.6748 2.89501 0.262658
94 1 -0.962977 9.48552 0.406635 2.12354
95 2 0.447758 8.9926 1.27124 2.02615
96 2 0.515219 9.62548 0.210213 3.09402
97 1 -0.948331 0.392903 0.191836 2.19515
98 2 0.492076 11.9781 12.0205 2.29321
99 2 0.456255 0.269974 0.818522 1.42563
100 1 -0.85957 3.69662 1.06025 11.8818
101 2 0.422692 3.76989 1.88296 0.0454751
102 2 0.436879 3.04158 1.21951 11.1431
103 1 -0.943876 3.23295 12.2827 2.16174
104 2 0.4591 2.30151 0.173022 2.38111
105 2 0.484777 3.39453 12.3939 1.18116
106 1 -0.895679 0.685332 1.9928 4.74866
107 2 0.456076 0.0981804 2.69901 4.35303
108 2 0.439603 0.779005 1.23616 4.10156
109 1 -0.969142 1.81674 0.648872 7.2566
110 2 0.484155 1.50464 12.3055 6.665
111 2 0.484988 1.88833 1.49171 6.72322
112 1 -1.0381 7.3725 11.7614 6.23687
113 2 0.518807 8.19184 11.1934 6.31497
114 2 0.519295 6.96716 11.6389 5.33093
115 1 -0.933804 1.95601 10.9279 9.23512
116 2 0.430494 2.15066 11.8175 8.82191
117 2 0.503309 1.24669 10.4625 8.70573
118 1 -1.00965 8.33758 6.7766 2.33614
119 2 0.549044 9.23082 7.16947 2.11754
120 2 0.460605 8.4017 6.2561 3.1876
121 1 -0.918477 12.3229 10.1273 7.49497
122 2 0.476669 12.3453 9.17257 7.19829
123 2 0.441809 11.3833 10.4671 7.45381
124 1 -0.847043 4.01426 4.40512 7.2439
125 2 0.447763 4.18942 4.06806 6.31886
126 2 0.39928 4.16176 3.66625 7.90141
127 1 -0.907206 9.59494 9.48898 2.21635
128 2 0.452706 10.2852 9.58434 1.49912
129 2 0.4545 10.0279 9.15436 3.05334
130 1 -0.916464 4.09318 3.24601 4.42732
131 2 0.481238 3.35726 2.61134 4.19151
132 2 0.435227 4.20815 3.91182 3.69011
133 1 -0.946739 0.288562 5.99852 6.11039
134 2 0.450037 0.384371 5.05007 6.41249
135 2 0.496702 1.06547 6.24375 5.5305
136 1 -0.970744 6.77573 11.3142 3.376
137 2 0.41329 5.85487 11.6098 3.12177
138 2 0.557454 7.35785 11.3007 2.56301
139 1 -0.878266 8.43716 11.5056 9.59958
140 2 0.453602 8.01461 10.7393 10.0836
141 2 0.424664 8.58262 11.2558 8.64227
142 1 -0.980614 11.0577 7.52595 8.39777
143 2 0.462789 11.5293 6.70282 8.08142
144 2 0.517825 11.5688 7.93273 9.15495
145 1 -0.953886 3.27647 9.93709 6.12043
146 2 0.538471 3.5905 9.63927 7.02192
147 2 0.415415 3.97327 9.72091 5.43651
148 1 -0.983344 0.766689 3.3977 1.48603
149 2 0.454133 0.522029 3.58254 2.43786
150 2 0.529212 1.71489 3.67227 1.32623
151 1 -1.02291 7.295 4.12776 8.23247
152 2 0.482101 7.83131 3.56709 8.86337
153 2 0.54081 6.91942 3.54873 7.50882
154 1 -0.905106 10.6574 7.73976 4.31216
155 2 0.423101 11.6253 7.51822 4.19404
156 2 0.482005 10.2455 7.09936 4.96047
157 1 -1.08154 3.63078 3.78759 1.23882
158 2 0.538949 4.43208 3.26881 1.53679
159 2 0.54259 3.84353 4.76464 1.24907
160 1 -0.97874 7.51271 11.2963 0.528268
161 2 0.537966 8.36974 11.7876 0.683579
162 2 0.440774 7.5522 10.8279 12.0456
163 1 -0.88528 10.3602 12.3983 7.30266
164 2 0.475416 10.274 12.2731 6.31429
165 2 0.409864 11.3272 12.3865 7.55703
166 1 -0.958136 9.44158 4.91013 10.8722
167 2 0.522855 10.4346 4.80784 10.9317
168 2 0.43528 9.0483 4.0992 10.439
169 1 -0.909696 7.4702 4.88293 4.4802
170 2 0.413449 7.07995 3.98332 4.67615
171 2 0.496247 8.01811 5.18565 5.26006
172 1 -0.926546 4.13439 7.74679 11.6022
173 2 0.511911 4.47817 6.98408 11.0543
174 2 0.414635 4.85301 8.06283 12.2216
175 1 -0.909169 5.41881 11.3659 8.40957
176 2 0.442895 5.7808 10.716 9.07778
177 2 0.466275 6.09923 11.5215 7.69343
178 1 -0.836298 9.1014 2.12699 4.80861
179 2 0.436377 9.68693 2.51065 5.52274
180 2 0.399921 8.15682 2.09215 5.13504
181 1 -1.00437 2.09409 10.2027 12.1041
182 2 0.43636 2.84249 9.55526 11.9603
183 2 0.568005 1.8178 10.5932 11.2259
184 1 -0.844408 2.3364 6.37482 1.16482
185 2 0.394739 2.2148 6.55723 2.1405
186 2 0.44967 2.87128 7.11204 0.75201
187 1 -0.929873 10.8227 11.2905 4.64945
188 2 0.420378 10.0996 10.7054 5.01657
189 2 0.509495 11.693 10.7986 4.6717
190 1 -0.93084 3.35637 9.03246 2.31504
191 2 0.459495 4.27995 8.69014 2.14234
192 2 0.471344 3.10725 9.69191 1.60577
