ITEM: TIMESTEP
0
ITEM: NUMBER OF ATOMS
192
ITEM: BOX BOUNDS pp pp pp
0.0000000000000000e+00 1.2400000000000000e+01
0.0000000000000000e+00 1.2400000000000000e+01
0.0000000000000000e+00 1.2400000000000000e+01
ITEM: ATOMS id type q x y z
1 1 -0.862089 6.21404 9.91795 4.12549
2 2 0.460422 6.14177 10.5474 3.35179
3 2 0.401667 6.83902 10.2982 4.80727
4 1 -0.978686 2.00406 11.3178 10.8842
5 2 0.445692 1.62523 10.8471 10.0874
6 2 0.532994 2.95578 11.5659 10.7035
7 1 -1.05791 6.11237 3.93365 10.1068
8 2 0.601262 5.50012 4.06778 9.32763
9 2 0.45665 6.14723 2.96183 10.34
10 1 -0.993129 9.47598 10.2913 3.47229
11 2 0.521971 9.49304 9.31109 3.27485
12 2 0.471158 9.18913 10.4356 4.41934
13 1 -0.938612 0.294838 8.93721 2.75033
14 2 0.446944 11.8282 9.38918 2.53913
15 2 0.491668 1.01124 9.29298 2.15016
16 1 -0.794626 10.2956 5.82387 6.35967
17 2 0.410721 10.9758 5.33119 5.81695
18 2 0.383904 10.6168 5.90462 7.30322
19 1 -0.954735 10.2336 7.276 3.67368
20 2 0.415376 11.0119 6.97573 3.12213
21 2 0.539358 9.48245 6.62356 3.57335
22 1 -0.940733 5.72575 6.46072 4.6687
23 2 0.425775 5.81224 7.41376 4.95896
24 2 0.514958 4.77037 6.17492 4.74337
25 1 -0.841509 6.99545 10.0524 10.9445
26 2 0.41316 7.10181 9.77533 11.8994
27 2 0.428349 7.89512 10.2367 10.5487
28 1 -0.917608 9.37087 4.25172 10.126
29 2 0.470462 8.42014 3.98611 9.96607
30 2 0.447145 9.68626 3.85794 10.9894
31 1 -0.97689 3.61999 7.06627 9.02704
32 2 0.546438 3.36206 6.51467 9.82027
33 2 0.430452 2.88605 7.0379 8.34842
34 1 -0.866998 12.2674 3.24267 4.13402
35 2 0.417772 11.5787 3.18549 3.41122
36 2 0.449226 11.8478 3.01573 5.01292
37 1 -0.945767 11.7388 0.16251 9.37731
38 2 0.458747 10.7837 0.437608 9.26784
39 2 0.48702 11.9777 0.166673 10.3483
40 1 -0.953117 6.88567 0.427044 3.73647
41 2 0.433479 7.46241 0.232251 4.52983
42 2 0.519638 6.71428 1.41077 3.68243
43 1 -0.981418 7.16492 6.79803 9.70764
44 2 0.486688 8.02728 7.304 9.68942
45 2 0.49473 7.15057 6.13666 8.95771
46 1 -1.00118 5.45638 3.13433 3.16796
47 2 0.512066 4.83312 3.66286 3.74435
48 2 0.489111 5.78068 3.70709 2.41511
49 1 -0.96599 3.09021 1.86321 5.95311
50 2 0.509365 2.47654 1.58697 6.69278
51 2 0.456624 3.82872 1.19468 5.86548
52 1 -1.05579 5.80943 8.21442 7.35459
53 2 0.543423 5.95421 7.79872 8.2525
54 2 0.512366 4.89194 7.98894 7.0269
55 1 -1.0501 11.1002 1.04193 12.356
56 2 0.533673 10.4386 1.6696 0.366167
57 2 0.516426 11.8921 1.55847 12.0303
58 1 -0.93298 2.20948 1.54245 8.74095
59 2 0.419058 1.62485 0.77516 9.00452
60 2 0.513922 3.1409 1.37888 9.06607
61 1 -1.00538 8.60134 8.48212 6.273
62 2 0.514455 7.67576 8.16926 6.48615
63 2 0.490926 9.15638 7.70442 5.97784
64 1 -1.04556 4.79062 9.63781 0.905867
65 2 0.602915 4.90844 8.85132 0.299595
66 2 0.442648 4.27145 9.36063 1.71435
67 1 -0.930795 0.21658 4.6014 10.6165
68 2 0.465368 0.48168 3.68522 10.9171
69 2 0.465427 0.954293 5.24529 10.8195
70 1 -0.905998 2.96139 7.97483 6.19176
71 2 0.418181 2.3064 8.72924 6.23484
72 2 0.487817 3.24562 7.8339 5.24341
73 1 -1.10974 9.27441 2.33526 4.31174
74 2 0.542775 9.06059 2.10764 5.26172
75 2 0.566967 9.5407 1.50512 3.82188
76 1 -0.985573 7.65051 1.58023 11.2125
77 2 0.467049 7.5072 0.997356 12.0123
78 2 0.518524 8.23 1.10305 10.5518
79 1 -0.978921 1.31052 4.29016 8.08751
80 2 0.500892 0.817398 4.42255 8.94734
81 2 0.478029 0.914681 3.51709 7.59184
82 1 -0.961612 11.1718 7.56295 0.096537
83 2 0.463765 10.7089 6.95571 11.8508
84 2 0.497847 10.6704 8.4258 0.1607
85 1 -0.888037 5.8532 1.70201 7.75897
86 2 0.464325 5.32823 2.51441 7.50516
87 2 0.423712 6.82906 1.92033 7.75266
88 1 -1.09572 5.30719 7.26482 11.9326
89 2 0.543263 4.47817 6.86744 11.5391
90 2 0.552452 6.06774 7.14969 11.2936
91 1 -1.01886 1.25685 2.27268 12.0449
92 2 0.474158 1.87325 2.1216 11.2721
93 2 0.544704 1.75066 2.11731 0.500472
94 1 -0.900713 10.4 10.4693 12.355
95 2 0.468756 9.62108 11.0955 12.3219
96 2 0.431956 11.1913 10.9417 0.343239
97 1 -1.08873 10.3882 0.249545 2.61071
98 2 0.501031 10.6519 0.403834 1.65854
99 2 0.587696 10.0613 11.7106 2.7181
100 1 -0.934041 4.67632 0.76869 10.3555
101 2 0.471214 5.38243 0.490725 9.7042
102 2 0.462826 4.98561 0.573109 11.2861
103 1 -0.936962 3.96024 0.00474121 0.815079
104 2 0.504046 3.88031 11.4085 0.847133
105 2 0.432917 4.31192 0.33924 1.6894
106 1 -0.965541 0.519229 0.333403 4.24329
107 2 0.456331 0.521033 1.2888 3.94795
108 2 0.50921 12.1366 12.2608 3.83827
109 1 -0.944172 3.27851 11.5446 4.12888
110 2 0.499379 2.37139 11.9546 4.22375
111 2 0.444793 3.84724 11.8097 4.90751
112 1 -1.07466 6.9069 11.0225 7.42431
113 2 0.567167 6.54142 10.1513 7.09648
114 2 0.507493 6.15118 11.6386 7.64632
115 1 -1.05527 0.861335 11.0463 7.3557
116 2 0.486868 0.17586 11.5816 7.84927
117 2 0.568404 0.4158 10.2803 6.89229
118 1 -0.960611 6.69302 4.74651 0.363107
119 2 0.482671 6.3771 5.6952 0.349788
120 2 0.47794 6.62554 4.35976 11.8434
121 1 -1.0254 12.1335 9.09884 5.67044
122 2 0.500515 11.316 8.52289 5.66472
123 2 0.524886 0.057011 9.22771 4.73304
124 1 -1.03224 4.24261 4.31339 7.98507
125 2 0.490707 4.16228 5.21815 7.56679
126 2 0.541529 3.36428 3.83914 7.92486
127 1 -0.944227 0.923035 11.4429 1.38424
128 2 0.463887 1.0643 11.4511 0.394302
129 2 0.48034 1.30563 12.2766 1.78244
130 1 -0.924584 1.24341 6.48172 4.17706
131 2 0.463566 1.15993 5.93146 3.34625
132 2 0.461018 1.10577 7.44655 3.95309
133 1 -0.929293 0.203915 7.31939 7.99741
134 2 0.484257 0.23036 7.92607 7.20289
135 2 0.445036 0.647724 6.45263 7.76989
136 1 -0.934371 7.59276 11.8482 1.1346
137 2 0.507196 7.68019 12.3746 1.98039
138 2 0.427175 6.79046 11.2542 1.19309
139 1 -0.930483 10.5006 9.98039 7.86825
140 2 0.421873 10.9699 9.47838 8.59467
141 2 0.50861 9.73582 9.43437 7.52617
142 1 -0.99498 10.1174 6.97268 9.54131
143 2 0.48895 10.9932 6.94736 9.05927
144 2 0.506029 9.84726 6.04277 9.79094
145 1 -1.00444 3.66196 11.3339 7.07002
146 2 0.526485 2.69584 11.0772 7.09707
147 2 0.477952 4.16865 10.7965 7.74415
148 1 -0.920047 0.892308 5.82607 1.28854
149 2 0.420085 0.520174 4.99579 0.873621
150 2 0.499962 0.253751 6.58305 1.14987
151 1 -0.918601 7.26583 5.32208 6.76014
152 2 0.432888 8.01739 4.98781 6.19143
153 2 0.485713 6.53635 5.67549 6.17451
154 1 -0.990891 8.27422 5.00411 3.63645
155 2 0.511228 8.43965 4.05931 3.91929
156 2 0.479663 7.29667 5.20488 3.70034
157 1 -0.889848 2.78791 2.03993 2.65433
158 2 0.464798 3.71504 2.41454 2.66386
159 2 0.42505 2.26234 2.43163 3.40955
160 1 -0.865964 4.22105 3.25059 0.0381781
161 2 0.436741 4.24644 2.31985 0.402986
162 2 0.429224 4.99623 3.38821 11.8216
163 1 -0.965437 12.2994 1.66601 6.75152
164 2 0.458649 0.0837573 1.10218 7.55657
165 2 0.506788 0.223655 1.19331 5.93213
166 1 -0.96586 9.49796 3.26051 0.987986
167 2 0.473157 9.46813 3.55387 1.94352
168 2 0.492703 8.67133 3.57035 0.518211
169 1 -1.07341 3.54559 4.62542 4.95821
170 2 0.540039 3.36919 3.7933 5.48401
171 2 0.533371 2.6831 5.10294 4.7906
172 1 -0.999394 4.44725 10.0051 9.57655
173 2 0.520991 5.18209 9.956 10.253
174 2 0.478403 3.92523 9.15221 9.589
175 1 -1.01343 8.73874 11.9937 9.42988
176 2 0.438213 9.6358 11.5595 9.34767
177 2 0.575216 8.11949 11.612 8.74374
178 1 -0.845611 8.95503 2.50996 7.20756
179 2 0.40013 8.507 3.29963 7.62671
180 2 0.445482 9.93022 2.52385 7.42849
181 1 -0.813757 1.97929 8.66452 12.2599
182 2 0.430966 2.15936 9.64389 12.1681
183 2 0.382791 1.02688 8.52465 0.130761
184 1 -1.13623 2.89685 5.89747 11.4241
185 2 0.592856 2.43724 6.33852 12.195
186 2 0.543373 3.29491 5.03082 11.7249
187 1 -0.901648 9.22955 12.2172 5.9493
188 2 0.431371 10.0567 11.6696 6.07599
189 2 0.470277 8.46976 11.792 6.44123
190 1 -0.972049 3.63351 8.75976 3.54829
191 2 0.503883 4.54274 8.99699 3.89037
192 2 0.468166 3.13355 9.59594 3.32281
