ITEM: TIMESTEP
0
ITEM: NUMBER OF ATOMS
192
ITEM: BOX BOUNDS pp pp pp
0.0000000000000000e+00 1.2400000000000000e+01
0.0000000000000000e+00 1.2400000000000000e+01
0.0000000000000000e+00 1.2400000000000000e+01
ITEM: ATOMS id type q x y z
1 1 -0.762481 3.9848 9.93917 5.7553
2 2 0.413923 4.21569 10.7073 5.15813
3 2 0.348558 3.71856 9.15237 5.19847
4 1 -0.900261 1.07654 10.1806 2.45425
5 2 0.479157 0.1558 9.82892 2.2851
6 2 0.421104 1.11982 11.1434 2.1876
7 1 -0.926553 3.87965 12.044 11.6007
8 2 0.515887 4.00197 12.2072 10.6217
9 2 0.410666 2.94243 11.7412 11.7736
10 1 -0.891604 7.53606 1.41737 3.59951
11 2 0.374534 8.35238 1.77224 4.05525
12 2 0.51707 6.9411 0.980364 4.27408
13 1 -1.0228 5.23228 8.73144 9.46743
14 2 0.511909 5.4374 7.96097 8.86385
15 2 0.510887 4.94794 9.51791 8.91914
16 1 -0.978056 6.42898 3.08095 6.08529
17 2 0.50075 6.50233 3.14859 7.0803
18 2 0.477306 6.37311 3.99867 5.69201
19 1 -0.978702 9.60281 9.16945 7.04262
20 2 0.473483 9.62897 8.80443 6.11198
21 2 0.505219 10.3915 9.76658 7.18876
22 1 -0.94919 5.39228 5.58972 11.3346
23 2 0.497385 6.35508 5.59232 11.6048
24 2 0.451805 5.0143 6.50964 11.439
25 1 -1.01624 8.21747 5.81128 11.8366
26 2 0.488231 8.64587 4.91779 11.9713
27 2 0.528012 8.43967 6.15318 10.9235
28 1 -1.00447 9.06925 3.03154 11.0416
29 2 0.496288 8.99135 2.67576 11.9729
30 2 0.508183 10.0123 2.93171 10.7244
31 1 -0.984317 6.78917 9.08003 11.6632
32 2 0.400491 6.83181 10.0577 11.8691
33 2 0.583826 6.10867 8.91936 10.9483
34 1 -0.977421 1.89817 7.72652 3.83068
35 2 0.455809 1.51022 8.64527 3.75712
36 2 0.521612 2.07246 7.36399 2.91515
37 1 -0.827583 9.52109 0.507441 7.69398
38 2 0.433404 9.76203 0.0196971 6.85489
39 2 0.394178 8.78071 1.15219 7.50387
40 1 -0.771542 6.43421 4.06493 2.11242
41 2 0.362252 6.44952 4.24261 1.12845
42 2 0.40929 7.31277 4.32649 2.51208
43 1 -0.955118 7.14011 0.671737 10.0164
44 2 0.47519 8.13999 0.682322 10.0276
45 2 0.479928 6.79232 1.29586 10.7161
46 1 -0.878102 3.82525 3.30091 4.78545
47 2 0.435872 3.91225 3.22583 3.79208
48 2 0.44223 4.69304 3.05244 5.2158
49 1 -1.01609 2.56283 6.16286 1.40707
50 2 0.473047 2.71709 5.2283 1.08644
51 2 0.543038 2.57196 6.78863 0.627119
52 1 -0.832141 9.36748 4.02946 7.1943
53 2 0.424453 9.06453 4.46837 8.04023
54 2 0.407688 9.17475 4.63105 6.41909
55 1 -0.931577 9.6357 0.1525 11.5828
56 2 0.493018 9.23041 0.936787 12.0525
57 2 0.438559 10.5856 0.358944 11.348
58 1 -1.14071 2.06273 1.60724 7.23778
59 2 0.593095 1.75327 1.25048 6.35633
60 2 0.547613 1.88772 2.59093 7.27925
61 1 -0.865969 11.5268 6.44583 6.80069
62 2 0.42605 0.0473 6.72429 6.52666
63 2 0.439919 10.8549 7.05438 6.3785
64 1 -0.957735 11.497 0.266614 2.3182
65 2 0.472735 10.9722 11.8206 2.41224
66 2 0.485 12.1562 0.168814 1.57264
67 1 -0.9752 12.1481 3.54991 0.32392
68 2 0.46755 0.244585 3.05571 12.0103
69 2 0.50765 12.0291 4.50364 0.047783
70 1 -1.01835 1.78411 9.92486 10.5269
71 2 0.478887 0.99776 9.36483 10.7877
72 2 0.53946 1.50674 10.584 9.82785
73 1 -1.014 10.6058 2.16456 4.96137
74 2 0.465996 10.5582 2.65097 5.8338
75 2 0.548004 10.7426 1.18857 5.1309
76 1 -1.04811 8.94578 10.1202 10.3011
77 2 0.498615 8.1276 9.62512 10.5934
78 2 0.549496 8.98561 11.0035 10.7683
79 1 -1.0376 3.56629 6.00005 5.8386
80 2 0.521738 3.85642 5.09126 5.53872
81 2 0.515862 3.20927 6.51091 5.05657
82 1 -0.930269 11.6398 6.37954 12.0542
83 2 0.394476 10.804 6.92836 12.0642
84 2 0.535792 11.9714 6.29435 11.1146
85 1 -1.01399 5.80028 0.1767 5.73663
86 2 0.574524 6.00881 11.7832 6.30831
87 2 0.439465 5.72493 0.991297 6.31175
88 1 -1.04592 9.03163 10.9297 2.89983
89 2 0.491939 8.58728 11.1791 2.03941
90 2 0.553978 8.5442 10.1624 3.31652
91 1 -1.09537 0.71266 12.1604 8.78814
92 2 0.610813 1.34836 0.388709 8.33966
93 2 0.484552 12.2109 0.187915 8.85212
94 1 -0.884897 10.8548 9.33466 1.07919
95 2 0.409858 10.7999 8.82866 0.218399
96 2 0.475039 9.94626 9.38691 1.49367
97 1 -0.962082 6.461 11.8892 0.721319
98 2 0.492834 5.96408 12.0308 12.2652
99 2 0.469248 6.37244 0.302301 1.29662
100 1 -0.962757 2.04977 2.48239 10.8632
101 2 0.453491 2.53609 2.6575 11.7192
102 2 0.509266 2.61829 2.76925 10.0921
103 1 -0.955225 0.707244 0.0167719 12.3304
104 2 0.526915 1.05593 0.575414 11.5779
105 2 0.428311 0.56863 11.4787 12.0128
106 1 -0.929153 11.6626 5.5207 2.44363
107 2 0.496937 0.0299 4.88062 2.40292
108 2 0.432216 11.8419 6.29498 1.83672
109 1 -0.892078 3.92333 0.157932 3.43925
110 2 0.420565 2.97098 0.258986 3.72703
111 2 0.471513 4.52758 0.486014 4.16537
112 1 -0.92063 8.6569 7.15678 9.25046
113 2 0.410622 7.69432 7.10968 8.98357
114 2 0.510008 9.08537 7.94816 8.81443
115 1 -0.966406 1.13513 0 5.0259
116 2 0.480441 0.373522 0.292711 4.44772
117 2 0.485964 0.964935 11.4718 5.35676
118 1 -0.896861 11.4789 2.72137 9.16357
119 2 0.422027 11.0947 2.59906 8.24844
120 2 0.474834 11.962 3.59579 9.20814
121 1 -1.08644 10.4771 11.7455 5.25339
122 2 0.484777 10.7062 10.9453 5.80755
123 2 0.601661 9.865 11.4728 4.51114
124 1 -1.07234 6.62354 3.74624 8.92068
125 2 0.521964 6.52935 4.73147 9.06374
126 2 0.550374 7.02577 3.32809 9.73515
127 1 -1.08549 9.20307 2.07631 1.35082
128 2 0.56472 8.48504 2.02199 2.0447
129 2 0.52077 10.0879 1.87287 1.77008
130 1 -1.08951 5.77179 6.31366 7.7023
131 2 0.511339 4.78317 6.23658 7.57305
132 2 0.578172 6.21769 6.41112 6.81254
133 1 -0.996859 1.84259 7.79716 7.34356
134 2 0.533395 2.35321 7.41071 8.11163
135 2 0.463464 2.42837 7.82378 6.53352
136 1 -1.0191 4.62441 9.71029 2.04002
137 2 0.542275 5.30338 10.3638 1.7055
138 2 0.476826 3.75682 10.1821 2.19723
139 1 -0.958888 11.5134 8.88355 9.99267
140 2 0.550968 10.6352 9.36025 10.0322
141 2 0.40792 11.5865 8.39093 9.12549
142 1 -0.913575 5.35145 2.48588 11.49
143 2 0.426252 5.02246 3.14769 10.8164
144 2 0.487323 4.65254 2.34936 12.1921
145 1 -0.892176 4.11537 0.246804 8.87975
146 2 0.407462 5.08719 0.468943 8.80075
147 2 0.484715 3.57067 0.993212 8.49742
148 1 -0.892493 10.7492 8.13269 4.19813
149 2 0.416134 11.6627 7.77208 4.00951
150 2 0.47636 10.1358 7.89765 3.44414
151 1 -1.05337 7.11672 5.88761 5.0939
152 2 0.553621 7.96275 5.50942 4.71813
153 2 0.499749 6.5419 6.2242 4.34805
154 1 -0.955303 8.34388 7.90729 1.7699
155 2 0.470189 7.6029 8.43521 1.35486
156 2 0.485114 8.54588 7.11105 1.19963
157 1 -1.01036 3.32736 6.36483 9.41413
158 2 0.518203 4.06192 5.68628 9.41196
159 2 0.492158 3.46835 7.0063 10.1682
160 1 -0.947011 2.93209 2.80537 1.14708
161 2 0.479734 2.00915 3.12346 1.36389
162 2 0.467276 3.23271 2.1545 1.84422
163 1 -0.897935 1.22285 4.39346 6.49657
164 2 0.465713 1.88634 5.13408 6.60264
165 2 0.432221 0.586072 4.61942 5.75937
166 1 -0.929517 0.49859 3.07615 3.08993
167 2 0.458601 0.1176 2.55469 3.85341
168 2 0.470916 12.3244 2.95051 2.28093
169 1 -0.952046 4.87634 6.97854 2.98326
170 2 0.443717 4.87441 7.97736 2.93475
171 2 0.50833 4.18258 6.61333 2.36252
172 1 -1.09148 3.58541 8.14433 12.0925
173 2 0.53639 3.94962 8.66402 0.465321
174 2 0.555093 3.15361 8.7707 11.4435
175 1 -1.09771 12.3114 10.0861 6.98908
176 2 0.556982 0.342673 10.8235 7.50898
177 2 0.540729 0.498905 9.27707 7.00815
178 1 -0.985114 6.93194 10.7384 7.57052
179 2 0.459883 6.89844 11.3078 8.39184
180 2 0.525231 7.76112 10.1796 7.58593
181 1 -0.958717 3.90255 3.33751 8.80539
182 2 0.525037 4.90079 3.37998 8.76374
183 2 0.433679 3.5471 2.99169 7.93702
184 1 -1.00508 0.308969 5.64134 9.35172
185 2 0.519047 12.2038 5.77756 8.49952
186 2 0.48603 1.21342 6.06075 9.27378
187 1 -1.05185 9.14834 4.32129 3.72148
188 2 0.512493 9.41843 3.41251 4.03956
189 2 0.539352 9.87564 4.7051 3.15251
190 1 -0.876736 7.28316 9.03345 4.15653
191 2 0.418814 6.62319 9.43145 4.79375
192 2 0.457922 6.85195 8.28313 3.65545
