ITEM: TIMESTEP
0
ITEM: NUMBER OF ATOMS
192
ITEM: BOX BOUNDS pp pp pp
0.0000000000000000e+00 1.2400000000000000e+01
0.0000000000000000e+00 1.2400000000000000e+01
0.0000000000000000e+00 1.2400000000000000e+01
ITEM: ATOMS id type q x y z
1 1 -1.01203 4.25919 8.7433 3.22783
2 2 0.450342 3.48058 9.12299 3.72744
3 2 0.561693 4.58771 9.41405 2.56286
4 1 -1.03852 0.766011 7.74606 2.63556
5 2 0.553046 12.2216 7.75771 2.96402
6 2 0.485474 1.27089 7.01735 3.09824
7 1 -1.08944 3.56937 11.261 11.9601
8 2 0.589787 3.00894 10.7857 0.238397
9 2 0.499649 4.51813 11.2924 12.2746
10 1 -0.888157 7.89848 2.71093 5.35779
11 2 0.465805 7.08226 3.28206 5.44497
12 2 0.422352 7.745 1.83742 5.81978
13 1 -0.850597 6.53864 7.35877 8.83335
14 2 0.398729 6.10949 8.14875 8.39544
15 2 0.451868 6.80303 6.69343 8.1352
16 1 -0.986308 7.1507 1.49819 8.02223
17 2 0.502659 8.03297 1.32966 8.46179
18 2 0.483649 6.83703 2.4207 8.24717
19 1 -1.08204 6.94928 10.7879 7.61456
20 2 0.50323 7.15211 11.7577 7.74993
21 2 0.578811 7.77435 10.2482 7.78204
22 1 -0.893581 9.0909 6.18054 10.8558
23 2 0.439759 8.65825 5.90349 11.7137
24 2 0.453823 8.41429 6.62701 10.2702
25 1 -0.996746 11.944 4.82914 10.7042
26 2 0.459592 11.0748 5.14035 10.3199
27 2 0.537155 0.245855 4.83868 9.99191
28 1 -0.989591 11.8935 1.82305 8.98648
29 2 0.530396 0.309263 1.59788 9.51922
30 2 0.459195 11.776 2.81578 8.96029
31 1 -0.831146 5.76321 8.51962 11.83
32 2 0.426931 6.60327 8.92585 11.4705
33 2 0.404216 5.33692 7.95504 11.1233
34 1 -0.9801 2.38224 5.76735 4.16251
35 2 0.509051 2.6474 6.45644 4.83693
36 2 0.471049 3.19721 5.4339 3.68853
37 1 -0.979628 10.535 12.3316 7.12683
38 2 0.483731 11.2445 0.377088 7.67287
39 2 0.495897 10.4182 0.425509 6.2652
40 1 -0.833402 8.1663 4.60043 1.94961
41 2 0.457251 7.94952 3.63928 1.77867
42 2 0.37615 8.26574 4.74986 2.93337
43 1 -0.893238 9.17332 1.11255 10.1821
44 2 0.423188 10.1246 1.33631 9.97002
45 2 0.47005 8.82049 1.7617 10.856
46 1 -0.860552 5.40102 4.28219 5.79044
47 2 0.486918 4.94009 5.13595 6.03262
48 2 0.373635 5.65308 3.79128 6.62439
49 1 -0.917325 4.09863 3.38474 2.61593
50 2 0.439029 4.78464 2.66186 2.6986
51 2 0.478296 4.54402 4.23723 2.34224
52 1 -1.06686 10.4587 3.7275 7.03602
53 2 0.570919 10.4988 4.28456 6.20652
54 2 0.495944 11.1637 3.01937 6.99639
55 1 -1.01547 9.24186 1.51048 2.18629
56 2 0.482325 9.81559 1.95568 1.49881
57 2 0.533142 9.27212 0.519632 2.05476
58 1 -0.959338 3.73318 0.506108 6.22893
59 2 0.483894 3.20458 12.3569 5.58163
60 2 0.475444 3.41908 1.45491 6.19543
61 1 -0.892036 11.9457 9.98132 5.71647
62 2 0.447731 0.49978 9.74491 5.90038
63 2 0.444305 11.7226 10.8441 6.17019
64 1 -1.06592 11.6208 11.7134 3.24975
65 2 0.561474 11.601 11.0311 3.98057
66 2 0.504443 11.2118 0.165022 3.57762
67 1 -1.04061 0.894566 4.67176 8.13896
68 2 0.518796 1.56844 5.37973 8.35031
69 2 0.521817 1.23214 4.10368 7.3884
70 1 -0.979337 0.577728 7.99511 9.92355
71 2 0.502003 1.54695 8.23534 9.86968
72 2 0.477335 0.0852 8.70707 10.424
73 1 -1.04822 10.5498 1.56265 4.68562
74 2 0.557674 9.6098 1.84103 4.48821
75 2 0.490542 11.1732 2.02138 4.05247
76 1 -1.05848 8.80742 9.99083 11.2147
77 2 0.552148 8.22459 10.7656 11.4597
78 2 0.506337 9.20348 10.1448 10.3095
79 1 -1.0126 4.13427 6.99409 6.00826
80 2 0.502357 3.63844 7.03857 6.87553
81 2 0.510248 4.60921 7.85995 5.85102
82 1 -0.857572 10.9483 8.65912 0.160211
83 2 0.368482 10.5829 7.8687 0.651911
84 2 0.489091 10.2271 9.06486 11.9987
85 1 -0.88528 6.10752 11.6638 4.75902
86 2 0.443778 5.54382 12.282 5.30674
87 2 0.441502 6.42159 10.9052 5.32993
88 1 -1.00811 5.46465 10.9184 1.71834
89 2 0.526612 5.74497 11.2095 2.63305
90 2 0.4815 6.23321 11.0186 1.08647
91 1 -0.956557 1.67125 1.16211 10.8283
92 2 0.516384 2.475 0.580479 10.9536
93 2 0.440173 1.13916 1.18229 11.6747
94 1 -0.937451 8.82546 10.8018 1.75966
95 2 0.456644 9.28976 10.1163 1.19874
96 2 0.480808 8.8829 10.5388 2.72277
97 1 -0.872279 6.47582 1.36843 2.65228
98 2 0.384136 6.39383 1.42246 3.64745
99 2 0.488143 7.41111 1.59684 2.38198
100 1 -0.970231 4.95315 2.04382 12.1986
101 2 0.575919 4.27835 2.78062 12.2408
102 2 0.394312 4.50267 1.19461 11.9231
103 1 -1.0359 11.8998 11.9734 0.482025
104 2 0.578553 11.652 11.6718 1.40271
105 2 0.457344 11.5435 0.494681 0.325916
106 1 -0.852782 11.9468 5.34979 1.25348
107 2 0.37766 11.049 5.27799 1.68784
108 2 0.475122 11.8314 5.54989 0.280522
109 1 -0.897545 2.65747 0.808619 1.80289
110 2 0.438387 2.76844 0.0421 1.17033
111 2 0.459158 3.40676 1.45823 1.67412
112 1 -0.982706 8.47628 4.00823 8.99191
113 2 0.536115 9.09606 3.79816 8.23577
114 2 0.446591 8.86996 4.73624 9.55318
115 1 -0.878628 2.05407 11.5631 4.08346
116 2 0.516006 1.36312 11.6589 3.36694
117 2 0.362622 2.96538 11.6555 3.68225
118 1 -0.986208 10.8353 6.76299 8.04052
119 2 0.47799 10.9153 5.77304 7.92387
120 2 0.508218 11.4322 7.06012 8.7858
121 1 -0.916279 9.18558 10.206 4.71482
122 2 0.451151 9.31641 10.8749 5.44659
123 2 0.465128 8.41325 9.61214 4.94022
124 1 -0.872201 4.56063 0.345116 9.31779
125 2 0.39135 4.2595 1.29855 9.30078
126 2 0.480851 4.90514 0.0882019 8.41484
127 1 -0.970983 11.4029 2.47087 0.189389
128 2 0.524878 11.6566 3.21847 11.9756
129 2 0.446105 11.7693 2.65016 1.1024
130 1 -0.843179 5.13466 3.41484 9.13787
131 2 0.397489 5.4494 3.06319 10.0195
132 2 0.44569 4.23528 3.83753 9.24945
133 1 -0.855621 1.1526 7.69689 6.96142
134 2 0.40875 0.292597 7.58221 6.46418
135 2 0.446872 0.958499 7.95107 7.9089
136 1 -1.12737 1.86605 10.019 1.24937
137 2 0.510559 1.04874 10.4049 0.821427
138 2 0.616815 1.60357 9.2602 1.84541
139 1 -0.953763 11.4952 11.0085 9.96335
140 2 0.439801 11.1225 11.8365 9.54445
141 2 0.513962 11.8287 11.2207 10.8819
142 1 -0.920836 7.63056 3.05988 11.597
143 2 0.433692 7.67448 3.087 10.5983
144 2 0.487144 6.73256 2.72481 11.8822
145 1 -1.04862 3.44717 9.16737 9.82737
146 2 0.530431 3.75777 9.75634 9.08129
147 2 0.518191 3.46808 9.67869 10.6865
148 1 -0.97549 10.3121 7.71698 3.35302
149 2 0.436405 9.51901 7.22517 2.99373
150 2 0.539085 10.0112 8.37729 4.04111
151 1 -0.924726 6.73675 8.27578 5.00815
152 2 0.45466 6.67946 7.31713 5.28692
153 2 0.470067 6.15529 8.42572 4.2085
154 1 -0.811004 7.82096 7.66679 1.46327
155 2 0.39973 7.72621 8.01577 0.530944
156 2 0.411274 7.58012 6.6964 1.48206
157 1 -0.957747 3.12866 6.19715 9.27405
158 2 0.498976 3.66475 7.04131 9.27421
159 2 0.458771 2.88382 5.95758 10.2136
160 1 -1.02897 3.13637 4.08854 11.9047
161 2 0.409503 2.26865 3.61009 12.0394
162 2 0.619472 3.07361 5.00823 12.2923
163 1 -0.890488 8.35404 6.05706 6.79482
164 2 0.483439 9.12963 6.6038 7.11033
165 2 0.407049 8.42632 5.13104 7.16532
166 1 -1.00432 0.454527 2.72503 2.89311
167 2 0.529555 1.17633 2.06842 2.67434
168 2 0.474768 0.671519 3.60912 2.47922
169 1 -0.915025 5.0768 6.16717 2.07534
170 2 0.42108 5.37729 6.60901 1.23007
171 2 0.493945 4.69496 6.85449 2.69323
172 1 -1.02337 2.49859 6.65907 0.16028
173 2 0.480107 3.03251 7.43173 0.503673
174 2 0.543267 1.54072 6.77223 0.424255
175 1 -0.783487 1.24551 11.5173 8.01006
176 2 0.404891 0.819002 11.004 8.7548
177 2 0.378596 1.65497 12.354 8.37366
178 1 -0.898367 6.61482 11.9664 11.4037
179 2 0.385691 6.25694 0.0117401 12.2244
180 2 0.512676 6.14801 12.3291 10.5971
181 1 -0.933232 1.71547 3.06718 5.82124
182 2 0.425508 2.40756 3.77033 5.65818
183 2 0.507724 1.15206 2.95775 5.00234
184 1 -0.993025 9.43859 9.46757 8.31402
185 2 0.504032 10.2233 10.0874 8.32257
186 2 0.488993 9.75961 8.52257 8.37658
187 1 -0.880953 11.4515 5.47395 4.95535
188 2 0.442161 11.0393 5.84096 4.12145
189 2 0.438792 12.382 5.82757 5.05074
190 1 -0.956945 4.3673 9.79452 7.09288
191 2 0.453737 3.98706 10.6407 6.71942
192 2 0.503207 5.35998 9.88298 7.17517
