ITEM: TIMESTEP
0
ITEM: NUMBER OF ATOMS
192
ITEM: BOX BOUNDS pp pp pp
0.0000000000000000e+00 1.2400000000000000e+01
0.0000000000000000e+00 1.2400000000000000e+01
0.0000000000000000e+00 1.2400000000000000e+01
ITEM: ATOMS id type q x y z
1 1 -0.812903 3.98553 8.03183 3.67896
2 2 0.421707 4.23399 7.39085 2.95272
3 2 0.391196 3.7443 8.91476 3.27616
4 1 -0.935261 12.164 8.14016 3.42578
5 2 0.466726 0.448515 8.71034 3.88008
6 2 0.468535 11.6757 7.59731 4.10906
7 1 -0.87816 3.63283 12.0209 11.6891
8 2 0.457816 3.02633 11.2633 11.9304
9 2 0.420344 4.41205 11.6714 11.1689
10 1 -0.792539 7.03209 0.967773 6.06797
11 2 0.399128 7.08739 12.388 5.87551
12 2 0.393411 6.54071 1.11152 6.92697
13 1 -0.880952 6.70264 6.19767 8.58591
14 2 0.386548 6.97109 6.01404 7.64028
15 2 0.494405 7.49776 6.51552 9.10241
16 1 -1.02351 10.001 1.77378 7.76334
17 2 0.441135 10.5371 2.5849 7.52944
18 2 0.582377 9.03135 2.01504 7.80269
19 1 -0.967224 6.55639 10.824 8.35574
20 2 0.502936 5.96685 11.6313 8.32701
21 2 0.464287 7.44884 11.049 7.96465
22 1 -0.926056 8.76922 7.66958 11.7276
23 2 0.430197 9.25094 7.92565 0.16567
24 2 0.495859 8.8904 6.69135 11.5591
25 1 -0.8765 11.9653 4.34286 10.0844
26 2 0.433638 0.159173 5.11991 9.87565
27 2 0.442862 11.9558 3.7126 9.30806
28 1 -0.818325 0.666421 3.66458 6.90762
29 2 0.417186 0.324928 4.19544 6.13201
30 2 0.401139 1.60904 3.38238 6.72922
31 1 -0.838161 5.73843 9.32904 10.6809
32 2 0.385827 6.21376 9.65697 11.4973
33 2 0.452334 6.16396 9.72344 9.86644
34 1 -0.993725 2.30424 5.12674 3.48926
35 2 0.587 2.56355 5.35506 4.42768
36 2 0.406725 1.58282 5.74753 3.18236
37 1 -0.850659 0.256382 0.400811 7.46951
38 2 0.375662 0.139867 12.2703 6.62989
39 2 0.474997 11.8281 0.932752 7.64535
40 1 -1.14596 8.11884 2.28768 1.81266
41 2 0.551946 8.5434 2.60159 0.963415
42 2 0.594014 7.77249 3.07483 2.32299
43 1 -0.924842 10.476 0.892773 11.3015
44 2 0.464169 9.69944 0.39277 11.685
45 2 0.460674 10.912 0.33857 10.5925
46 1 -0.876328 5.39605 4.20218 6.39789
47 2 0.470951 5.27299 3.85024 5.46999
48 2 0.405378 5.79889 5.11654 6.35689
49 1 -1.10384 4.6338 3.29149 3.68177
50 2 0.587811 3.81184 3.8088 3.44351
51 2 0.516032 4.37739 2.48528 4.21495
52 1 -0.874099 9.58508 5.27689 7.01465
53 2 0.495251 10.2583 5.2095 6.27827
54 2 0.378848 9.49184 6.23236 7.29464
55 1 -1.03175 9.36736 12.0068 1.40961
56 2 0.509171 9.05161 0.542175 1.56879
57 2 0.522576 8.57813 11.3992 1.32044
58 1 -0.939277 3.01317 1.27347 5.36077
59 2 0.415112 3.31611 0.325334 5.45705
60 2 0.524165 2.05767 1.28984 5.06624
61 1 -0.847465 12.1837 9.55093 6.60332
62 2 0.382356 11.9852 10.2489 7.2914
63 2 0.465109 11.8779 9.87051 5.70646
64 1 -0.970974 10.6335 11.1339 4.16852
65 2 0.468216 10.5412 10.2176 3.77875
66 2 0.502758 10.7359 11.8012 3.4308
67 1 -0.812363 3.43463 3.59368 9.1632
68 2 0.383853 2.80962 3.03755 8.61541
69 2 0.428509 3.7635 4.36299 8.61547
70 1 -0.920513 11.8531 7.6664 10.5305
71 2 0.406809 11.036 7.29468 10.09
72 2 0.513704 11.5879 8.17682 11.3485
73 1 -0.954036 9.57972 1.77513 4.16995
74 2 0.455335 8.91569 1.67346 4.91072
75 2 0.498701 9.10864 2.06789 3.33786
76 1 -0.825955 8.75752 10.4888 10.8675
77 2 0.458714 8.52941 9.69339 11.4289
78 2 0.367241 7.95462 10.7654 10.3394
79 1 -1.02571 2.53525 6.05806 6.13705
80 2 0.551603 1.8208 6.3209 6.78549
81 2 0.474104 3.27281 6.73288 6.16209
82 1 -0.995472 11.3579 9.45437 0.551492
83 2 0.517809 11.176 9.47268 1.53464
84 2 0.477663 10.9134 10.237 0.115612
85 1 -1.00619 4.35657 11.2642 3.483
86 2 0.53142 4.97292 11.9644 3.12258
87 2 0.474769 4.86838 10.6431 4.07654
88 1 -1.01855 6.60379 11.2736 0.541758
89 2 0.59237 6.04425 11.8721 1.11506
90 2 0.426178 6.98888 11.8016 12.1849
91 1 -0.809982 1.16255 1.74573 11.5405
92 2 0.436407 1.87403 1.11193 11.237
93 2 0.373574 0.283499 1.27001 11.5716
94 1 -0.903994 8.81535 9.2191 2.62768
95 2 0.514239 8.7876 8.34938 3.12045
96 2 0.389756 7.88325 9.55408 2.48995
97 1 -1.12664 5.70198 0.956605 2.05811
98 2 0.59041 6.53648 1.38317 1.70931
99 2 0.536228 5.13783 1.64795 2.50953
100 1 -1.10638 5.02897 3.1071 11.8522
101 2 0.596657 4.29978 3.53375 12.3872
102 2 0.509725 4.75629 3.0651 10.891
103 1 -0.987285 12.3046 0.0733279 1.4095
104 2 0.530344 11.3205 0.0209 1.23942
105 2 0.456941 0.32162 0.709361 0.760248
106 1 -0.931258 0.894847 6.73953 0.744453
107 2 0.453379 0.81235 7.14246 12.2329
108 2 0.477879 0.420814 7.31763 1.4086
109 1 -0.892037 2.45604 1.18911 1.61618
110 2 0.489299 3.17603 0.703817 1.12008
111 2 0.402737 1.72157 0.550774 1.84659
112 1 -0.962354 8.67542 5.03649 10.4051
113 2 0.450268 9.31574 4.35052 10.0595
114 2 0.512087 8.38494 4.78599 11.3286
115 1 -0.997785 1.47494 10.5937 4.29045
116 2 0.475816 0.866896 11.3781 4.16795
117 2 0.521969 2.40468 10.8478 4.02397
118 1 -0.841227 9.57736 8.47179 8.54209
119 2 0.436084 9.25491 9.38514 8.29345
120 2 0.405144 9.64551 8.40183 9.53731
121 1 -0.867411 6.4306 10.0714 5.3732
122 2 0.373942 7.36871 10.1809 5.7018
123 2 0.493469 5.99807 9.30537 5.84869
124 1 -0.909316 4.30631 0.388838 8.37384
125 2 0.427479 3.70038 1.05594 8.80724
126 2 0.481836 3.7635 12.1514 7.82704
127 1 -0.928075 10.5198 4.0011 0.048822
128 2 0.446128 10.5786 3.0384 12.1847
129 2 0.481947 10.8691 4.57244 11.7062
130 1 -0.999835 7.4872 3.14109 8.31414
131 2 0.494289 7.81361 4.0473 8.58291
132 2 0.505546 6.64409 3.23401 7.78449
133 1 -0.95981 0.352841 6.90731 7.87128
134 2 0.476847 12.367 7.58496 7.24524
135 2 0.482963 0.170763 7.18354 8.81497
136 1 -0.927872 1.83315 9.81076 0.265584
137 2 0.521924 0.929797 10.1807 0.482551
138 2 0.405949 2.16215 9.26228 1.03431
139 1 -0.897635 0.0748209 11.3488 10.1004
140 2 0.425661 0.154812 11.771 9.19746
141 2 0.471974 0.557609 10.4731 10.1028
142 1 -0.999748 7.13418 4.77868 0.485075
143 2 0.461413 6.73916 5.59528 0.905931
144 2 0.538336 6.40191 4.207 0.114962
145 1 -0.917474 2.58439 9.39041 9.7685
146 2 0.47585 3.04634 9.35783 10.6548
147 2 0.441624 2.51086 8.46501 9.39671
148 1 -0.815905 9.53686 7.86218 5.21488
149 2 0.433011 8.78064 7.2181 5.33018
150 2 0.382893 9.54505 8.50694 5.97923
151 1 -1.05724 6.41294 6.6951 5.04003
152 2 0.537183 5.71242 7.22198 5.52135
153 2 0.520059 6.45983 6.99515 4.08726
154 1 -0.856535 9.28175 6.24848 2.63044
155 2 0.419797 8.68979 5.69765 2.04208
156 2 0.436739 9.97374 5.66133 3.05047
157 1 -0.846281 4.067 6.67112 10.0032
158 2 0.453109 4.80409 6.26929 9.45979
159 2 0.393172 4.1428 6.35908 10.9502
160 1 -0.960804 2.76041 4.26041 0.750378
161 2 0.486839 2.2285 3.46683 0.454921
162 2 0.473966 2.20505 4.82556 1.36045
163 1 -0.990506 7.44135 4.12626 3.88533
164 2 0.510096 7.34763 4.93606 4.4645
165 2 0.48041 6.5605 3.65691 3.8235
166 1 -0.888022 0.211549 3.33419 2.16709
167 2 0.451253 12.362 3.77985 1.30736
168 2 0.43677 1.18226 3.0946 2.14886
169 1 -0.924529 6.41161 7.49491 1.88404
170 2 0.412006 7.27997 7.75604 1.46239
171 2 0.512523 5.6599 7.71333 1.26176
172 1 -0.942289 3.73655 7.37795 0.793215
173 2 0.437568 3.41045 7.81347 12.3542
174 2 0.504721 3.07279 6.69258 1.09272
175 1 -1.00075 3.00203 10.5215 6.99819
176 2 0.524275 2.24081 10.1615 6.4588
177 2 0.476471 2.79126 10.4343 7.97184
178 1 -0.919783 7.36971 1.51153 11.39
179 2 0.395397 7.51205 1.30526 10.4219
180 2 0.524386 6.62359 2.17065 11.4842
181 1 -1.0066 0.432286 1.12643 4.23325
182 2 0.532854 0.26865 1.16722 3.24757
183 2 0.473749 12.0534 1.52539 4.71724
184 1 -1.02856 9.16849 11.3259 6.92463
185 2 0.505946 9.66187 12.088 7.3438
186 2 0.522614 9.43585 11.2435 5.96456
187 1 -0.968221 11.1422 4.78277 4.69185
188 2 0.487446 10.5778 3.95755 4.6708
189 2 0.480775 11.8438 4.72501 3.98154
190 1 -1.05687 4.72898 8.26797 6.91555
191 2 0.56957 4.23772 9.12479 7.07219
192 2 0.4873 4.88514 7.80861 7.78997
