ITEM: TIMESTEP
0
ITEM: NUMBER OF ATOMS
192
ITEM: BOX BOUNDS pp pp pp
0.0000000000000000e+00 1.2400000000000000e+01
0.0000000000000000e+00 1.2400000000000000e+01
0.0000000000000000e+00 1.2400000000000000e+01
ITEM: ATOMS id type q x y z
1 1 -0.941697 10.5629 11.9931 0.576979
2 2 0.451069 10.1493 11.0871 0.48681
3 2 0.490628 11.1393 12.0166 1.39383
4 1 -1.03398 1.45823 8.51911 3.3381
5 2 0.528848 0.547947 8.42408 2.93516
6 2 0.505134 1.37191 8.79731 4.29474
7 1 -1.12 3.71391 0.31295 1.19896
8 2 0.614573 3.64858 1.08771 1.82783
9 2 0.505431 2.81768 0.137998 0.791333
10 1 -0.974286 6.14134 0.62545 4.34888
11 2 0.498389 6.55439 1.43123 4.77329
12 2 0.475897 6.57152 0.458514 3.46171
13 1 -0.878058 10.3344 5.1185 7.95485
14 2 0.4945 10.9263 4.66557 7.28813
15 2 0.383559 9.70987 5.73817 7.47943
16 1 -0.860864 11.6803 0.649153 7.76282
17 2 0.381558 10.7921 1.09925 7.67033
18 2 0.479306 12.3888 1.22207 7.35082
19 1 -0.923081 6.58862 11.0755 10.8374
20 2 0.487189 6.32118 11.8847 10.3143
21 2 0.435892 7.46156 10.7297 10.4933
22 1 -1.00067 5.62293 8.30413 11.6266
23 2 0.468788 5.39455 8.52695 0.174362
24 2 0.531884 6.1735 9.041 11.2343
25 1 -0.955844 0.494151 6.81919 7.54619
26 2 0.53159 0.0639062 6.65851 6.65789
27 2 0.424255 12.3423 6.3967 8.26517
28 1 -1.04991 12.0255 3.91027 5.81575
29 2 0.481411 0.575838 4.2151 5.87867
30 2 0.568503 11.9376 3.2434 5.07577
31 1 -0.974073 5.32663 5.78722 10.2528
32 2 0.505635 5.59789 6.72239 10.4806
33 2 0.468439 5.50074 5.61648 9.28304
34 1 -1.00753 2.09898 5.61063 5.4748
35 2 0.539421 1.78491 5.99558 4.60694
36 2 0.468112 1.78205 6.186 6.2288
37 1 -1.10644 12.2574 11.4506 10.0664
38 2 0.590409 0.311746 10.5937 9.82278
39 2 0.51603 12.2966 12.0808 9.29099
40 1 -0.84822 11.3391 3.14525 1.35033
41 2 0.41725 12.1864 2.6537 1.14895
42 2 0.43097 10.9789 2.84118 2.23225
43 1 -0.957043 8.87544 1.64529 0.019414
44 2 0.482357 9.16657 0.688783 0.0378841
45 2 0.474686 9.63774 2.23112 0.294556
46 1 -0.925386 8.82376 2.29528 5.67999
47 2 0.515209 8.80245 3.21152 5.27994
48 2 0.410176 8.86854 2.36756 6.67637
49 1 -0.923015 5.0926 4.5538 4.32714
50 2 0.502839 6.08117 4.6967 4.27918
51 2 0.420176 4.70601 5.13564 5.0427
52 1 -0.9143 11.4579 7.0167 5.00787
53 2 0.455183 11.0716 7.63059 4.31947
54 2 0.459117 11.3027 6.06782 4.733
55 1 -0.98313 8.69674 10.2589 2.53053
56 2 0.471904 9.01225 10.6936 3.37404
57 2 0.511226 7.95132 10.7969 2.13692
58 1 -0.888291 2.03072 1.55147 6.46951
59 2 0.478922 2.42986 0.635692 6.42425
60 2 0.409369 1.8275 1.77983 7.42165
61 1 -0.978329 8.81268 9.84714 7.46541
62 2 0.475024 8.87146 10.4314 8.27483
63 2 0.503305 8.5446 8.92362 7.73971
64 1 -0.930258 8.57497 8.01689 4.92141
65 2 0.469337 8.04568 8.53973 4.2532
66 2 0.46092 8.78573 8.59766 5.70773
67 1 -1.01342 3.78884 4.59463 7.49366
68 2 0.510289 3.24982 4.89205 6.70563
69 2 0.503136 3.90178 3.60146 7.46457
70 1 -0.821932 5.02546 9.41941 8.73374
71 2 0.447346 5.28717 9.95147 7.92849
72 2 0.374586 5.36535 8.48364 8.63987
73 1 -0.864178 7.51437 2.8151 2.59405
74 2 0.42023 6.57184 3.13554 2.49943
75 2 0.443948 7.85038 2.50099 1.70611
76 1 -0.963506 9.44838 11.7162 10.0876
77 2 0.402612 9.34515 11.9321 11.0586
78 2 0.560894 10.3509 11.3157 9.92931
79 1 -0.92085 3.52249 9.0136 5.81086
80 2 0.42661 3.88457 9.46905 4.99755
81 2 0.49424 4.13497 8.26907 6.07645
82 1 -1.02422 0.763575 8.90863 9.53505
83 2 0.497699 1.50521 8.73875 10.184
84 2 0.526521 0.620835 8.09496 8.97151
85 1 -0.805089 3.43019 11.9098 4.1779
86 2 0.359942 3.22669 11.9814 3.20144
87 2 0.445147 4.40863 12.0538 4.32592
88 1 -1.0462 6.57102 11.8698 1.42437
89 2 0.523179 5.66042 12.2809 1.46689
90 2 0.523025 6.70751 11.4543 0.525081
91 1 -0.945719 0.651237 0.947181 12.113
92 2 0.386168 12.2897 1.01367 0.3577
93 2 0.559551 0.711863 0.0120185 11.764
94 1 -1.00088 11.2074 8.71859 2.06462
95 2 0.511414 10.5359 9.44204 2.22494
96 2 0.489467 10.7343 7.8751 1.8102
97 1 -0.847592 4.96521 4.15614 0.721512
98 2 0.436816 4.1851 4.36612 1.31087
99 2 0.410776 5.0788 4.88518 0.0465
100 1 -0.947933 5.117 1.39282 11.032
101 2 0.430917 5.63324 2.19056 11.3436
102 2 0.517015 4.49814 1.09199 11.7576
103 1 -1.06977 0.235533 11.7701 2.76513
104 2 0.547471 0.393712 11.3261 3.64705
105 2 0.5223 0.595566 11.1931 2.03204
106 1 -1.04107 2.56389 7.74389 11.6094
107 2 0.539976 2.0329 6.89908 11.6753
108 2 0.501089 3.53702 7.53426 11.7046
109 1 -0.965804 3.46604 2.55743 3.09395
110 2 0.507187 3.79802 3.48833 3.24631
111 2 0.458617 2.94622 2.25402 3.89253
112 1 -0.778139 10.9762 2.65164 10.4491
113 2 0.398167 10.802 1.69273 10.2251
114 2 0.379971 11.0825 3.1771 9.60491
115 1 -0.88468 12.313 10.3881 5.95095
116 2 0.37547 11.512 10.0943 6.4725
117 2 0.50921 0.641678 10.6553 6.58152
118 1 -0.854413 8.72858 8.63248 0.0632403
119 2 0.393532 8.91245 7.80177 11.9378
120 2 0.460881 8.1135 8.41772 0.821898
121 1 -0.871402 6.12918 9.45425 3.94534
122 2 0.394121 6.3679 10.112 4.65975
123 2 0.477281 5.98252 9.93792 3.08246
124 1 -0.871735 1.94188 1.89757 9.4379
125 2 0.454555 1.93154 0.994077 9.86638
126 2 0.41718 2.51649 2.51482 9.97534
127 1 -0.916474 1.82365 3.41416 0.643463
128 2 0.438428 2.35685 3.98471 0.0188
129 2 0.478046 1.38097 2.67999 0.128635
130 1 -0.956747 4.93359 1.84563 8.05552
131 2 0.515772 4.98352 1.86746 9.05404
132 2 0.440976 4.22095 1.20423 7.77135
133 1 -0.974076 10.3819 6.62875 10.5192
134 2 0.44917 9.98705 5.71554 10.6198
135 2 0.524906 11.2801 6.65378 10.9582
136 1 -0.948457 1.07958 10.1972 0.248029
137 2 0.448044 0.116049 10.0766 0.0091
138 2 0.500413 1.57798 9.35083 0.0604248
139 1 -0.950488 0.336751 6.16526 12.3038
140 2 0.497536 0.35153 5.16538 12.3092
141 2 0.452953 0.522575 6.5064 0.825265
142 1 -0.853111 8.01862 4.90166 11.8345
143 2 0.424176 8.15325 3.91102 11.8571
144 2 0.428935 7.28457 5.1237 11.1927
145 1 -0.902834 3.15101 10.9756 10.5189
146 2 0.482809 4.02534 10.7577 10.0852
147 2 0.420025 2.9423 10.2865 11.2128
148 1 -0.973766 8.04526 5.13634 4.59942
149 2 0.451695 8.42963 4.83523 3.72672
150 2 0.52207 8.25813 6.10302 4.74161
151 1 -0.934777 5.51198 6.8059 6.70275
152 2 0.440546 6.42424 6.61242 7.0638
153 2 0.49423 4.87107 6.10952 7.02571
154 1 -0.912919 0.599083 4.77351 3.13693
155 2 0.472908 1.42015 4.30058 2.81725
156 2 0.440011 12.2298 4.54657 2.53963
157 1 -0.999435 6.69305 4.18987 8.0919
158 2 0.499256 6.0234 3.4758 7.88774
159 2 0.500179 7.55763 3.76788 8.36474
160 1 -0.84667 3.05613 6.21977 2.31018
161 2 0.480232 2.48758 7.00603 2.55217
162 2 0.366438 3.92345 6.27058 2.80534
163 1 -0.930041 7.24915 7.29529 2.24763
164 2 0.431559 6.67596 6.65553 1.7356
165 2 0.498482 6.77421 7.57369 3.08246
166 1 -0.977441 11.4864 1.58095 3.9476
167 2 0.54898 12.0072 0.812005 3.57683
168 2 0.428462 10.508 1.38993 3.86842
169 1 -0.904221 4.18589 9.64258 1.53419
170 2 0.448036 3.38584 9.16895 1.90243
171 2 0.456185 4.04571 10.6308 1.59546
172 1 -0.915923 2.44738 4.89342 10.3314
173 2 0.404332 1.72641 4.74817 9.65381
174 2 0.511591 3.2567 5.27082 9.8813
175 1 -1.02265 2.26131 11.1675 7.36335
176 2 0.484468 2.34294 10.9085 8.32576
177 2 0.538181 2.73065 10.4916 6.79523
178 1 -0.936331 8.42903 2.28322 8.99677
179 2 0.483423 8.81693 2.38361 9.91299
180 2 0.452908 8.03888 1.36774 8.89843
181 1 -0.927757 9.35533 11.8889 5.11874
182 2 0.490032 9.02915 0.352255 5.50381
183 2 0.437725 9.59098 11.261 5.8605
184 1 -0.843318 6.19372 11.5868 7.22911
185 2 0.447885 5.78737 12.3576 6.73854
186 2 0.395434 6.92865 11.1912 6.67828
187 1 -0.902018 9.74358 5.99369 1.8755
188 2 0.43801 9.72687 5.84105 0.887357
189 2 0.464008 8.91731 6.48504 2.15091
190 1 -0.95643 8.08894 7.53136 9.0487
191 2 0.389886 7.62309 6.64848 8.98945
192 2 0.566544 8.96333 7.41592 9.52
