ITEM: TIMESTEP
0
ITEM: NUMBER OF ATOMS
192
ITEM: BOX BOUNDS pp pp pp
0.0000000000000000e+00 1.2400000000000000e+01
0.0000000000000000e+00 1.2400000000000000e+01
0.0000000000000000e+00 1.2400000000000000e+01
ITEM: ATOMS id type q x y z
1 1 -0.954917 0.852937 11.5508 10.9447
2 2 0.473342 0.572866 12.0576 11.76
3 2 0.481575 0.988328 12.1882 10.1861
4 1 -0.949486 2.89672 9.69621 1.14807
5 2 0.496351 1.93453 9.56023 1.3841
6 2 0.453135 3.45321 9.00181 1.60427
7 1 -0.824124 3.56203 2.43223 7.37973
8 2 0.397035 3.40785 2.13281 8.32131
9 2 0.42709 3.53896 1.63997 6.76998
10 1 -0.910003 5.99612 6.169 7.15931
11 2 0.508659 5.87551 5.32562 6.6357
12 2 0.401345 6.68088 6.02304 7.87331
13 1 -1.13153 8.93373 8.50245 7.81905
14 2 0.558113 9.89742 8.23544 7.8159
15 2 0.573418 8.64982 8.71515 8.75401
16 1 -1.00042 0.912131 0.928399 8.67678
17 2 0.50486 1.34485 1.75685 9.03235
18 2 0.495562 0.168492 1.18027 8.05745
19 1 -1.1803 8.02711 9.19824 10.3376
20 2 0.562413 7.12689 9.61428 10.4661
21 2 0.61789 8.48359 9.11121 11.2231
22 1 -0.999306 1.50614 6.25876 10.7851
23 2 0.471392 2.33026 6.45089 11.318
24 2 0.527914 0.961755 7.09332 10.7006
25 1 -0.948037 9.83824 7.55606 3.00339
26 2 0.449803 9.287 8.30791 3.36513
27 2 0.498234 9.98451 6.87482 3.7207
28 1 -0.857388 11.9531 7.42218 7.85303
29 2 0.487364 0.394009 6.90242 7.70212
30 2 0.370024 11.8034 7.53613 8.83518
31 1 -0.89181 3.03892 7.697 7.59392
32 2 0.435314 3.92741 8.02351 7.91637
33 2 0.456496 3.17112 6.90519 6.99763
34 1 -0.94179 4.14913 6.71802 4.37163
35 2 0.409369 4.94576 6.11361 4.36283
36 2 0.532421 3.42406 6.32208 3.80815
37 1 -0.894116 9.97134 12.1433 11.8714
38 2 0.441615 9.15872 11.561 11.8958
39 2 0.452501 10.6906 11.6899 11.3449
40 1 -0.852318 1.5654 5.10121 6.6953
41 2 0.423415 2.09966 4.39804 7.16448
42 2 0.428903 1.63562 4.9689 5.70658
43 1 -0.825765 3.30039 3.20859 0.83507
44 2 0.374086 3.12727 2.76897 12.3537
45 2 0.451679 3.79616 2.57687 1.43101
46 1 -0.915556 7.05842 2.21701 4.44382
47 2 0.477794 7.8193 2.66049 3.97011
48 2 0.437762 7.35119 1.94091 5.35927
49 1 -0.910119 7.64433 6.21932 1.82847
50 2 0.508961 8.40538 6.817 2.08064
51 2 0.401157 7.81198 5.299 2.18191
52 1 -0.877752 11.4647 5.92596 4.97579
53 2 0.405602 12.1567 5.21479 4.85209
54 2 0.47215 11.8892 6.82558 4.87335
55 1 -0.888076 6.73198 11.8806 0.897278
56 2 0.434009 6.44763 11.2802 0.149873
57 2 0.454067 6.57762 0.433601 0.636424
58 1 -0.986821 1.04994 0.964047 4.09054
59 2 0.546818 1.86571 0.613238 4.55037
60 2 0.440003 1.09232 0.73735 3.11749
61 1 -1.06872 11.177 4.03058 8.12067
62 2 0.611923 10.7419 4.32021 7.26812
63 2 0.456799 10.5423 3.45982 8.64165
64 1 -1.00445 9.31169 9.31462 0.401111
65 2 0.491294 10.0026 8.61284 0.574909
66 2 0.513152 9.40657 10.0494 1.07279
67 1 -0.89726 4.26141 4.63387 9.57618
68 2 0.450511 3.63807 4.37671 8.83771
69 2 0.446749 4.13476 5.60075 9.79778
70 1 -1.00513 5.95273 9.0103 8.11197
71 2 0.469937 6.76861 9.31118 8.60574
72 2 0.535194 6.11764 8.10767 7.7144
73 1 -0.968621 8.01413 5.19215 11.4164
74 2 0.489528 7.84555 4.22063 11.2499
75 2 0.479093 7.59716 5.45863 12.2854
76 1 -0.836565 7.51247 2.56268 0.913236
77 2 0.392544 8.33268 2.19842 0.472131
78 2 0.44402 6.83824 2.80461 0.215457
79 1 -0.919186 4.01059 11.1346 8.58498
80 2 0.532003 4.69954 10.4129 8.51823
81 2 0.387184 3.70702 11.3916 7.66746
82 1 -0.923121 0.977758 10.9989 6.83065
83 2 0.402809 1.41957 10.1037 6.88922
84 2 0.520313 1.01503 11.448 7.72332
85 1 -1.0235 3.30988 12.1184 5.32778
86 2 0.430008 2.61202 11.6379 5.85895
87 2 0.593488 3.93545 11.4531 4.9203
88 1 -1.0681 5.24467 9.65843 11.4092
89 2 0.634883 4.35483 9.45765 10.9994
90 2 0.433221 5.14629 9.72905 0.00180205
91 1 -0.997185 0.569557 0.803213 0.912823
92 2 0.516583 0.174428 1.71619 0.811113
93 2 0.480602 1.55797 0.880438 1.04351
94 1 -0.990755 11.1143 10.7937 4.54304
95 2 0.449496 11.1326 11.776 4.35636
96 2 0.541259 11.6453 10.6013 5.36833
97 1 -0.941432 1.70101 4.74813 3.46912
98 2 0.487716 1.09875 4.94593 2.6957
99 2 0.453716 2.01088 3.79883 3.41604
100 1 -0.817752 7.00843 11.9315 10.0261
101 2 0.421419 6.26337 0.169061 10.2219
102 2 0.396333 7.33816 12.0803 9.09386
103 1 -1.06484 0.248424 10.4687 2.17046
104 2 0.522539 12.0789 10.3555 2.98458
105 2 0.542301 0.299931 11.4385 1.9319
106 1 -1.03353 11.6837 5.32086 1.65365
107 2 0.379069 10.9442 5.03498 1.0443
108 2 0.65446 11.8608 6.29699 1.52783
109 1 -1.00675 3.95445 0.481604 10.9776
110 2 0.449834 3.61832 0.12 11.8473
111 2 0.556918 3.88544 12.1747 10.2737
112 1 -0.891273 9.28594 2.6826 10.4798
113 2 0.412732 10.1013 2.95347 10.9915
114 2 0.47854 9.39368 1.74334 10.1539
115 1 -0.966484 11.335 1.31305 5.89051
116 2 0.432604 10.873 2.17354 5.6757
117 2 0.53388 11.8887 1.02761 5.10821
118 1 -1.06812 12.2806 7.88512 0.845201
119 2 0.526152 12.2844 8.17106 12.287
120 2 0.541965 12.3433 8.6911 1.43382
121 1 -0.928365 6.1981 9.02826 2.29064
122 2 0.440851 6.77302 9.58033 1.68675
123 2 0.487513 6.39211 8.05874 2.141
124 1 -1.00537 5.96571 2.57106 10.7607
125 2 0.518329 5.58182 3.44502 10.4626
126 2 0.487043 5.22342 1.92917 10.953
127 1 -0.950037 12.2487 3.28229 11.744
128 2 0.433617 12.2372 4.07011 12.3598
129 2 0.516419 0.652547 3.33401 11.1515
130 1 -0.916162 7.42759 11.2937 6.87363
131 2 0.440363 7.86873 10.3966 6.89719
132 2 0.475799 6.45393 11.1813 6.67524
133 1 -0.777648 1.271 8.18229 4.69587
134 2 0.412254 1.94623 7.89916 5.37698
135 2 0.365394 1.52886 9.07279 4.321
136 1 -1.09611 12.0194 8.46673 10.3452
137 2 0.558281 11.8808 9.12771 9.60773
138 2 0.537826 11.253 7.82467 10.3657
139 1 -0.844164 4.13962 2.69676 4.16515
140 2 0.356767 3.5188 2.65702 4.9481
141 2 0.487397 5.0841 2.61887 4.48435
142 1 -1.06155 10.4959 6.03606 10.0625
143 2 0.53045 10.7849 5.35594 9.38879
144 2 0.531096 9.74711 5.66433 10.6113
145 1 -1.04929 2.81399 9.01187 10.4261
146 2 0.55273 2.10474 9.56845 10.8588
147 2 0.496559 2.49458 8.70214 9.53052
148 1 -0.891696 6.80563 3.20961 7.66041
149 2 0.436133 6.23198 2.89533 8.41682
150 2 0.455563 7.74961 2.9177 7.81433
151 1 -0.834598 7.19568 5.46039 4.59463
152 2 0.363939 7.16481 5.10124 3.66186
153 2 0.470659 6.99473 6.43991 4.5815
154 1 -1.00105 5.89676 11.956 3.5651
155 2 0.522712 6.35955 11.6204 2.7446
156 2 0.478336 6.29929 0.428698 3.84147
157 1 -1.05211 9.258 3.93132 6.14428
158 2 0.504557 8.4109 4.40824 6.37871
159 2 0.547554 9.46111 4.06962 5.17494
160 1 -1.04746 4.71623 9.58995 4.83754
161 2 0.537636 5.0742 9.69473 3.90971
162 2 0.509824 4.47441 8.63255 4.99539
163 1 -0.901275 3.8381 6.3319 1.32494
164 2 0.470552 4.47103 6.36725 0.551529
165 2 0.430723 3.36253 5.45222 1.32655
166 1 -0.932701 9.04749 1.05956 7.90462
167 2 0.469097 9.76737 1.22777 7.23122
168 2 0.463604 8.41472 0.370629 7.55109
169 1 -1.03246 3.31188 0.156689 1.9271
170 2 0.528113 3.92484 0.277672 2.7079
171 2 0.504349 3.27265 11.5882 1.68105
172 1 -1.16952 1.26469 3.93654 9.39082
173 2 0.575744 0.555069 3.97703 8.6874
174 2 0.593772 1.26151 4.787 9.91687
175 1 -0.844157 10.6744 10.5784 8.68327
176 2 0.416514 9.73557 10.2944 8.87785
177 2 0.427642 10.6635 11.3674 8.06897
178 1 -1.01436 9.7694 3.78115 3.3064
179 2 0.494619 10.0247 2.94134 2.8273
180 2 0.519741 10.4401 4.49562 3.10723
181 1 -0.9283 8.55883 10.6144 3.16246
182 2 0.478182 9.42778 10.6171 3.65736
183 2 0.450119 7.88689 10.0766 3.67162
184 1 -0.983711 7.69653 8.34296 5.23916
185 2 0.5567 8.20128 8.36099 6.10224
186 2 0.427011 6.85737 8.87879 5.33251
187 1 -0.928649 10.2025 0.864526 2.24804
188 2 0.497294 10.2258 0.810264 1.24978
189 2 0.431355 9.30697 0.565267 2.57736
190 1 -0.933916 5.39363 6.78765 11.2393
191 2 0.477653 5.27956 7.77417 11.1219
192 2 0.456263 6.21553 6.48721 10.7554
