ITEM: TIMESTEP
0
ITEM: NUMBER OF ATOMS
192
ITEM: BOX BOUNDS pp pp pp
0.0000000000000000e+00 1.2400000000000000e+01
0.0000000000000000e+00 1.2400000000000000e+01
0.0000000000000000e+00 1.2400000000000000e+01
ITEM: ATOMS id type q x y z
1 1 -1.03556 0.262671 11.9803 12.0536
2 2 0.467505 0.171088 12.0644 0.645821
3 2 0.568058 11.7546 11.9241 11.6386
4 1 -0.946759 3.24899 9.85761 1.2168
5 2 0.479194 2.6571 10.3051 1.88716
6 2 0.467565 3.7135 9.08332 1.64658
7 1 -0.903921 3.5914 2.80658 7.72698
8 2 0.491782 2.72417 3.142 8.09497
9 2 0.412139 3.80568 1.91912 8.13502
10 1 -0.915348 8.55996 4.55633 9.86796
11 2 0.500146 9.20586 3.7995 9.76777
12 2 0.415202 7.74201 4.37078 9.32341
13 1 -0.98307 9.56212 6.81104 7.02147
14 2 0.528097 10.4673 7.20067 7.1911
15 2 0.454973 9.24337 6.33838 7.84305
16 1 -1.00186 0.394153 0.915054 7.65222
17 2 0.546428 0.675591 1.16285 8.57925
18 2 0.455435 0.0657252 1.72989 7.17454
19 1 -0.802704 8.31286 7.81865 10.2803
20 2 0.391146 7.72471 7.2595 9.69592
21 2 0.411558 8.3487 7.4196 11.1965
22 1 -0.954586 2.1833 7.24716 10.0982
23 2 0.475544 2.01101 8.22019 9.9448
24 2 0.479043 2.44785 6.81548 9.23581
25 1 -0.852005 9.09932 5.4969 3.28749
26 2 0.395832 8.23919 5.77588 3.71451
27 2 0.456173 9.714 6.28366 3.23099
28 1 -0.988055 12.0658 8.24071 6.3905
29 2 0.521887 12.2821 7.32404 6.05447
30 2 0.466168 0.496992 8.7966 6.40117
31 1 -0.884082 2.81454 7.89389 7.18772
32 2 0.390397 3.29779 8.72512 6.91288
33 2 0.493685 3.46436 7.13658 7.25269
34 1 -0.773686 2.28913 7.30812 3.66831
35 2 0.412694 2.61363 6.45244 4.07144
36 2 0.360992 1.4236 7.57046 4.09498
37 1 -0.901704 9.71082 11.534 11.4399
38 2 0.44169 9.72583 10.64 11.8876
39 2 0.460014 8.9234 11.5861 10.8256
40 1 -0.955901 4.71416 5.61433 7.38576
41 2 0.477753 5.38903 5.80112 6.67185
42 2 0.478148 4.17697 4.80925 7.13422
43 1 -0.897557 3.1714 3.43176 1.84236
44 2 0.468601 3.03007 2.445 1.92188
45 2 0.428956 2.41346 3.83693 1.33112
46 1 -0.85139 6.69228 2.66115 4.49675
47 2 0.428086 5.8232 2.1665 4.49055
48 2 0.423303 7.44093 2.02187 4.32108
49 1 -1.08742 5.87949 4.36469 11.9181
50 2 0.62109 6.768 3.91567 12.0125
51 2 0.466332 5.49366 4.53439 0.424891
52 1 -0.994894 0.16898 5.5232 5.69182
53 2 0.498227 11.7781 4.92504 5.82125
54 2 0.496667 0.744194 5.16122 4.95826
55 1 -1.0006 7.44824 0.0618096 0.507271
56 2 0.460497 7.97446 12.0121 1.22895
57 2 0.540102 6.88395 11.7847 0.0349
58 1 -0.92431 1.15591 1.07783 2.92502
59 2 0.470693 2.02241 1.41173 3.2961
60 2 0.453617 1.18303 0.0802477 2.86103
61 1 -0.909543 1.42549 4.88446 8.23843
62 2 0.495641 1.1208 4.95935 7.28892
63 2 0.413902 0.972666 5.58493 8.79006
64 1 -0.95625 9.25738 9.07878 0.892432
65 2 0.392968 9.66979 8.455 0.22849
66 2 0.563282 8.30523 8.81654 1.04944
67 1 -0.899738 3.21475 3.88428 10.9126
68 2 0.443538 3.99256 4.05143 11.5184
69 2 0.4562 2.73131 4.74366 10.7459
70 1 -0.987337 5.18548 9.18336 9.15123
71 2 0.578497 4.92454 8.2748 9.47746
72 2 0.40884 6.12059 9.15485 8.79801
73 1 -0.914275 11.1868 6.01208 9.83304
74 2 0.424303 11.36 5.06806 9.55223
75 2 0.489972 10.4949 6.02356 10.5549
76 1 -1.03653 8.13376 2.66745 12.3893
77 2 0.603767 7.70662 1.79807 12.1408
78 2 0.432763 8.88753 2.49899 0.62448
79 1 -0.956524 4.41871 12.1086 8.60001
80 2 0.504645 4.2775 11.1227 8.51007
81 2 0.451879 4.0097 0.0273 9.45509
82 1 -1.15132 1.37929 10.8896 6.53069
83 2 0.555485 1.71494 10.3731 7.31845
84 2 0.595838 0.921487 11.7203 6.84729
85 1 -0.918179 3.27275 0.892286 4.98848
86 2 0.421364 3.25072 0.969381 5.98526
87 2 0.496815 3.85241 0.120665 4.72656
88 1 -0.969463 5.74169 10.3229 11.8437
89 2 0.473494 4.86928 10.2688 12.3295
90 2 0.495969 5.61391 10.0318 10.8956
91 1 -0.869833 11.0718 1.95092 0.97679
92 2 0.435241 10.742 2.22177 0.0723994
93 2 0.434592 11.7614 2.60405 1.28953
94 1 -0.879484 11.0068 10.7587 5.30963
95 2 0.386269 11.3281 11.6922 5.46849
96 2 0.493215 11.4432 10.1402 5.96318
97 1 -0.827111 12.2096 5.02026 2.64457
98 2 0.423303 11.814 5.26439 1.75917
99 2 0.403808 12.1245 5.79394 3.2724
100 1 -0.979485 7.31886 12.2822 9.49018
101 2 0.463003 6.51371 11.7804 9.17395
102 2 0.516483 7.037 0.592017 10.1357
103 1 -0.899312 11.4998 10.8287 2.3569
104 2 0.502894 10.7697 10.2282 2.03053
105 2 0.396419 11.1637 11.7696 2.39884
106 1 -0.956908 9.74604 5.41718 0.0377387
107 2 0.492456 9.22946 5.21857 0.870625
108 2 0.464452 9.49826 4.75895 11.7269
109 1 -1.01908 3.04592 12.0338 11.4483
110 2 0.488098 3.44023 11.9222 12.3604
111 2 0.530986 2.04906 12.071 11.5183
112 1 -1.01737 10.7305 2.55176 9.76596
113 2 0.421477 11.7066 2.40251 9.92387
114 2 0.595889 10.4322 2.00585 8.98302
115 1 -0.882153 12.0741 2.35812 5.36187
116 2 0.388922 11.3756 1.78903 5.79569
117 2 0.493232 12.3334 1.95612 4.48372
118 1 -0.919695 11.3842 7.96106 3.30746
119 2 0.466405 11.9769 8.06961 2.50935
120 2 0.453289 11.5226 8.7294 3.93237
121 1 -0.979455 6.75081 7.52558 0.994063
122 2 0.525591 6.40227 6.73381 1.4957
123 2 0.453864 6.08359 7.80211 0.302437
124 1 -0.954852 5.66926 1.69163 10.8662
125 2 0.489643 5.72276 2.68996 10.8441
126 2 0.465209 4.715 1.41116 10.9698
127 1 -0.865579 0.802447 5.25402 11.9448
128 2 0.381554 12.226 5.25319 11.7292
129 2 0.484025 1.18887 6.15269 11.7373
130 1 -0.933688 7.59605 11.9987 6.40777
131 2 0.442629 8.14658 12.3503 7.16492
132 2 0.491059 7.83285 11.0418 6.23975
133 1 -0.977178 1.9598 10.8505 3.78751
134 2 0.608735 1.69161 10.9464 4.7461
135 2 0.368442 1.14781 10.6783 3.22981
136 1 -0.903324 0.610353 8.13808 0.637387
137 2 0.462676 0.0029 8.16561 12.2435
138 2 0.440648 1.28687 8.87095 0.564996
139 1 -0.862358 2.89353 3.94841 4.96747
140 2 0.476408 3.15212 3.1213 5.4665
141 2 0.38595 2.42941 3.69436 4.11891
142 1 -1.01536 11.6793 8.93773 10.2256
143 2 0.54903 11.0094 9.34695 9.6061
144 2 0.466334 11.6728 7.94396 10.1143
145 1 -0.968601 1.83086 10.2583 9.41387
146 2 0.488228 1.00557 9.8647 9.81879
147 2 0.480374 2.36323 10.7193 10.1238
148 1 -0.885431 6.64452 2.16791 7.80575
149 2 0.408152 6.18709 3.0553 7.74828
150 2 0.477279 5.98451 1.47006 8.08395
151 1 -0.93116 5.89637 5.29861 2.67026
152 2 0.492002 6.09537 5.4174 3.64303
153 2 0.439158 5.17175 4.61851 2.55887
154 1 -1.01587 5.732 11.6464 4.13082
155 2 0.470464 6.48345 11.8234 3.4952
156 2 0.545403 6.06859 11.7084 5.07043
157 1 -1.01232 8.82211 3.8368 5.9162
158 2 0.463682 9.04587 4.76248 5.61115
159 2 0.54864 7.88454 3.61503 5.64826
160 1 -0.91593 5.1205 8.66428 4.13986
161 2 0.470038 5.70449 9.45141 3.9414
162 2 0.445892 4.16087 8.92833 4.04295
163 1 -0.84599 3.41165 6.91102 1.00131
164 2 0.448671 2.60579 7.47125 1.19298
165 2 0.397319 3.28503 5.99978 1.39325
166 1 -1.15254 9.44328 1.65208 7.53215
167 2 0.585348 9.45985 2.36555 6.83165
168 2 0.567194 8.50612 1.52608 7.8575
169 1 -0.875892 4.26962 0.69681 1.7841
170 2 0.405838 4.84077 1.19496 1.1317
171 2 0.470054 4.8498 0.274825 2.48075
172 1 -1.01261 1.26171 1.68402 10.2724
173 2 0.524209 1.63843 2.59858 10.4196
174 2 0.488405 0.958099 1.30398 11.1461
175 1 -0.845566 10.2024 10.6792 8.4921
176 2 0.448294 10.3296 11.6626 8.36316
177 2 0.397272 9.34874 10.5155 8.98655
178 1 -0.985477 9.72307 1.89253 3.65226
179 2 0.485107 10.2554 2.01744 2.81501
180 2 0.50037 9.4581 2.78587 4.01521
181 1 -0.965048 8.55443 9.21033 5.95761
182 2 0.480841 9.33825 9.65709 5.5263
183 2 0.484207 8.86166 8.38866 6.43769
184 1 -1.03019 6.6745 6.36992 5.32263
185 2 0.472089 7.57405 6.71653 5.5885
186 2 0.558097 6.1944 7.06485 4.7873
187 1 -0.916882 8.70043 11.6422 3.42182
188 2 0.407846 9.49096 11.0464 3.27994
189 2 0.509036 9.01407 0.159263 3.66795
190 1 -1.00749 5.07696 6.81716 10.6752
191 2 0.53774 5.42788 5.91064 10.9099
192 2 0.469745 4.21961 6.97944 11.1637
