ITEM: TIMESTEP
0
ITEM: NUMBER OF ATOMS
192
ITEM: BOX BOUNDS pp pp pp
0.0000000000000000e+00 1.2400000000000000e+01
0.0000000000000000e+00 1.2400000000000000e+01
0.0000000000000000e+00 1.2400000000000000e+01
ITEM: ATOMS id type q x y z
1 1 -1.0357 1.37559 12.1794 11.6958
2 2 0.550415 1.44073 11.3752 11.1049
3 2 0.485287 0.523698 12.1411 12.2181
4 1 -0.833761 2.14546 11.1033 2.73459
5 2 0.446153 1.85711 10.1526 2.84846
6 2 0.387608 2.34389 11.501 3.63039
7 1 -0.950244 3.61123 2.87583 7.49603
8 2 0.406289 3.67049 3.7978 7.87873
9 2 0.543955 3.22831 2.25495 8.18005
10 1 -1.05625 9.95602 2.39633 9.05824
11 2 0.52546 10.3341 2.44695 9.98264
12 2 0.530787 8.96763 2.25334 9.10969
13 1 -0.82281 8.0638 8.02167 7.85873
14 2 0.488166 8.67668 7.28514 7.57254
15 2 0.334643 7.59793 7.75835 8.70351
16 1 -0.9161 1.99143 1.64877 9.50358
17 2 0.531673 2.05318 0.849521 10.1014
18 2 0.384427 1.1138 2.10591 9.64782
19 1 -0.911027 9.23946 6.74463 10.8396
20 2 0.457486 9.69857 6.29754 11.6072
21 2 0.453541 9.6566 6.44517 9.98147
22 1 -1.06034 3.12218 6.67377 8.55201
23 2 0.569864 2.88986 6.85616 9.50739
24 2 0.490479 2.39921 6.12521 8.13201
25 1 -0.912341 8.97812 3.88426 3.35791
26 2 0.45546 8.31108 3.34597 2.84283
27 2 0.456881 9.69133 3.27991 3.71303
28 1 -0.894765 12.2978 8.31866 8.13913
29 2 0.435144 11.6613 8.06964 7.40915
30 2 0.459621 11.7884 8.48278 8.9839
31 1 -1.02939 3.18344 9.12633 7.07682
32 2 0.475574 4.15189 9.12022 6.82767
33 2 0.553813 3.00626 8.4026 7.74378
34 1 -1.06148 1.41698 7.76438 2.06013
35 2 0.491653 0.811525 7.97945 2.8264
36 2 0.569823 1.28639 8.43816 1.33282
37 1 -0.901254 11.0601 11.7623 0.352785
38 2 0.404283 10.3703 11.6065 1.05978
39 2 0.496971 10.9447 0.27927 12.3708
40 1 -0.81272 4.71336 6.1313 5.62152
41 2 0.387992 3.97599 6.49413 6.1913
42 2 0.424729 5.53325 6.00271 6.17943
43 1 -1.01295 3.09287 5.22547 1.41876
44 2 0.490107 2.6814 4.7385 0.648335
45 2 0.522839 2.52529 6.01379 1.65628
46 1 -1.04459 4.51749 2.62406 4.59405
47 2 0.498017 4.36828 2.86881 5.55209
48 2 0.546575 4.97145 3.3807 4.1235
49 1 -1.01676 6.46836 5.17673 11.4646
50 2 0.535868 7.46365 5.18519 11.5611
51 2 0.480893 6.08967 6.02192 11.8417
52 1 -0.891556 11.1451 6.89298 5.0759
53 2 0.423114 10.1585 6.75345 4.99111
54 2 0.468442 11.6188 6.02573 4.92263
55 1 -0.934776 6.16658 11.3137 2.28693
56 2 0.482503 5.46347 11.2099 2.9904
57 2 0.452274 6.00823 10.6491 1.55671
58 1 -1.09243 1.87367 1.52999 1.55439
59 2 0.532216 1.99834 1.22119 2.49731
60 2 0.560217 1.85553 0.738129 0.943947
61 1 -0.946203 0.822623 4.49979 8.32432
62 2 0.525049 0.649071 4.56028 7.34135
63 2 0.421153 0.833403 3.53929 8.60242
64 1 -0.923922 8.06263 9.81563 12.3514
65 2 0.519388 7.3459 9.18176 0.2422
66 2 0.404533 8.34669 10.3769 0.72883
67 1 -0.994866 3.96653 3.74927 10.562
68 2 0.4976 4.65047 4.39059 10.9097
69 2 0.497266 4.37673 2.84193 10.4699
70 1 -1.02827 6.22773 8.98879 5.57849
71 2 0.561216 6.65842 8.21387 5.11587
72 2 0.467058 6.89765 9.43872 6.16906
73 1 -0.963343 9.88546 5.79904 7.99394
74 2 0.46248 10.6918 5.47492 8.48859
75 2 0.500863 9.36357 5.01527 7.65727
76 1 -0.926092 8.39134 0.887847 1.53178
77 2 0.49637 8.0156 0.260725 2.21409
78 2 0.429722 7.77309 0.936292 0.747292
79 1 -1.06866 4.56399 11.5808 9.35614
80 2 0.533225 5.36726 11.4671 8.77146
81 2 0.53544 4.66356 0.0132199 9.90122
82 1 -0.913168 1.98718 12.0486 6.66012
83 2 0.444434 2.75245 11.5704 7.09098
84 2 0.468734 1.17218 11.957 7.23228
85 1 -0.953407 1.61724 1.92168 4.59364
86 2 0.495973 2.50092 2.38677 4.64648
87 2 0.457435 1.59895 1.16542 5.24766
88 1 -0.76208 5.96128 8.54136 10.3949
89 2 0.357807 6.71811 8.10299 9.91008
90 2 0.404273 6.28093 9.39204 10.8122
91 1 -0.961054 10.5336 1.39337 3.48245
92 2 0.462667 10.1874 1.30696 2.54826
93 2 0.498387 11.3386 1.98663 3.48611
94 1 -0.887277 11.8531 11.027 5.08095
95 2 0.452311 12.2495 11.8564 4.68719
96 2 0.434966 0.108618 10.611 5.71115
97 1 -0.899691 0.009 3.49317 2.53145
98 2 0.432656 0.486526 2.77116 2.03079
99 2 0.467035 0.663147 4.1989 2.80349
100 1 -0.826332 8.49574 12.2557 10.5837
101 2 0.399464 7.98643 11.9712 9.77145
102 2 0.426868 8.61303 11.4728 11.1947
103 1 -0.853004 11.1992 9.309 2.77189
104 2 0.384378 10.6381 10.0078 2.32817
105 2 0.468626 11.4778 9.63038 3.67694
106 1 -0.89656 9.24118 4.42853 0.385403
107 2 0.487809 9.50886 4.91233 1.21865
108 2 0.40875 10.0588 4.18835 12.2621
109 1 -0.850932 4.15895 10.5913 0.0710295
110 2 0.423938 4.17342 10.6121 11.4713
111 2 0.426994 3.36316 11.0975 0.403479
112 1 -0.961745 11.4547 2.31526 11.8416
113 2 0.566994 12.2733 2.87332 11.7059
114 2 0.394751 11.1858 2.34643 0.40428
115 1 -0.967013 11.9972 3.92255 5.82242
116 2 0.499138 11.6951 2.97022 5.86505
117 2 0.467876 0.454971 3.97759 5.31141
118 1 -0.828928 11.2395 6.38397 2.03452
119 2 0.404149 11.532 7.04242 1.34107
120 2 0.424779 11.1039 6.85559 2.90583
121 1 -0.898772 6.71809 7.47396 1.14609
122 2 0.382194 7.3464 6.81621 1.56154
123 2 0.516578 6.19747 7.93665 1.86364
124 1 -1.03699 5.59809 1.27715 10.8368
125 2 0.487292 6.55303 1.17481 10.5582
126 2 0.549697 5.55956 1.63352 11.7704
127 1 -0.902418 12.0935 6.02408 10.6618
128 2 0.467388 0.18481 5.52445 9.94842
129 2 0.43503 0.294737 6.15771 11.4496
130 1 -0.980819 6.85215 11.8256 7.88764
131 2 0.472269 6.67878 0.265618 7.37356
132 2 0.50855 7.7776 11.5006 7.69288
133 1 -0.971413 1.469 8.71617 4.76806
134 2 0.523857 2.19018 8.96651 5.41399
135 2 0.447556 0.684641 8.3508 5.26935
136 1 -0.963203 0.74188 9.27326 12.18
137 2 0.521001 1.031 9.35776 11.2265
138 2 0.442202 12.3347 9.84283 12.3353
139 1 -0.895573 2.04056 5.54868 4.45944
140 2 0.430938 2.98566 5.22187 4.46116
141 2 0.464635 2.00493 6.46351 4.05718
142 1 -0.92122 10.1866 9.47783 10.3701
143 2 0.432418 9.81985 10.0017 11.1389
144 2 0.488802 9.72822 8.59035 10.3225
145 1 -1.04921 1.88507 10.0988 9.63119
146 2 0.506848 1.32297 9.65527 8.93311
147 2 0.542364 2.77265 10.3416 9.23973
148 1 -0.937122 7.23368 2.81174 8.76385
149 2 0.479664 7.5184 3.52231 8.12039
150 2 0.457458 6.39105 3.09499 9.22183
151 1 -0.9482 5.66066 4.40987 2.89783
152 2 0.428413 6.19331 4.16245 2.08846
153 2 0.519788 4.77008 4.76587 2.61476
154 1 -0.995883 4.6489 11.1011 4.72961
155 2 0.567589 5.17833 10.3619 5.14595
156 2 0.428294 4.07941 11.5367 5.42665
157 1 -0.993331 8.38806 3.81872 6.2284
158 2 0.497345 7.66785 3.13126 6.13511
159 2 0.495986 8.76714 4.02875 5.32718
160 1 -0.876203 4.53318 8.78283 2.57879
161 2 0.404934 4.56993 9.71486 2.9393
162 2 0.471269 3.58153 8.53044 2.40366
163 1 -0.894583 3.05617 7.1306 11.3712
164 2 0.467871 3.77075 7.82618 11.2966
165 2 0.426713 3.25306 6.5323 12.1479
166 1 -1.01779 10.5871 1.41523 6.61895
167 2 0.448054 9.96296 1.43116 5.83781
168 2 0.569737 10.1859 1.92973 7.37678
169 1 -0.927034 5.04492 1.52081 1.26382
170 2 0.449647 4.21163 1.98252 1.56789
171 2 0.477387 5.34931 0.88254 1.9709
172 1 -1.13733 1.62735 3.54004 12.011
173 2 0.590169 2.39175 3.594 11.3685
174 2 0.547164 1.80861 2.82426 0.285402
175 1 -0.853828 11.6827 12.2034 8.84952
176 2 0.394674 11.0441 11.549 9.25472
177 2 0.459155 11.1737 0.479982 8.31742
178 1 -0.908039 7.34845 1.3495 4.90968
179 2 0.430697 7.67592 0.472517 4.558
180 2 0.477342 6.38056 1.45893 4.68337
181 1 -0.946209 9.31458 10.9397 6.59169
182 2 0.522413 10.1569 11.4252 6.35784
183 2 0.423796 9.49216 10.3088 7.34698
184 1 -0.863523 7.94948 6.64449 4.8606
185 2 0.441643 8.06776 5.85121 5.45785
186 2 0.42188 7.86162 6.33799 3.91279
187 1 -0.903425 8.97786 11.0713 3.53991
188 2 0.452171 9.70408 11.6606 3.8939
189 2 0.451255 8.58367 10.5407 4.29029
190 1 -0.910309 6.04141 5.64558 8.60537
191 2 0.427942 6.49062 5.50475 9.48763
192 2 0.482367 5.09466 5.93064 8.75511
