ITEM: TIMESTEP
0
ITEM: NUMBER OF ATOMS
2162
ITEM: BOX BOUNDS pp pp ff
0.0000000000000000e+00 5.2951974149999998e+01
0.0000000000000000e+00 6.1143673049999997e+01
0.0000000000000000e+00 6.0000000000000000e+01
ITEM: ATOMS id mol type q x y z
1 1 1 -0.00275495216226 0.00000000 0.00000000 25.00000000
2 1 1 -0.00484244773003 1.47088817 2.54765304 25.00000000
3 1 1 -0.0150659409861 0.00000000 5.09530609 25.00000000
4 1 1 -0.014936174135 1.47088817 7.64295913 25.00000000
5 1 1 -0.00911921929695 0.00000000 10.19061218 25.00000000
6 1 1 0.00374105239801 1.47088817 12.73826522 25.00000000
7 1 1 0.0151502831297 0.00000000 15.28591827 25.00000000
8 1 1 0.0137131660242 1.47088817 17.83357131 25.00000000
9 1 1 0.00405256247213 2.94177634 0.00000000 25.00000000
10 1 1 0.00646772424858 4.41266451 2.54765304 25.00000000
11 1 1 -0.00590143285363 2.94177634 5.09530609 25.00000000
12 1 1 -0.00115531774669 4.41266451 7.64295913 25.00000000
13 1 1 -0.00524426239504 2.94177634 10.19061218 25.00000000
14 1 1 -0.00133467783388 4.41266451 12.73826522 25.00000000
15 1 1 0.005410783202 2.94177634 15.28591827 25.00000000
16 1 1 -0.00666826117283 4.41266451 17.83357131 25.00000000
17 1 1 0.0101534952368 5.88355268 0.00000000 25.00000000
18 1 1 0.00733096053555 7.35444085 2.54765304 25.00000000
19 1 1 0.00755784928137 5.88355268 5.09530609 25.00000000
20 1 1 0.0089327605981 7.35444085 7.64295913 25.00000000
21 1 1 0.00222801833881 5.88355268 10.19061218 25.00000000
22 1 1 -0.00385325956339 7.35444085 12.73826522 25.00000000
23 1 1 -0.0102504676667 5.88355268 15.28591827 25.00000000
24 1 1 -0.0180871499218 7.35444085 17.83357131 25.00000000
25 1 1 -0.00114687329777 8.82532903 0.00000000 25.00000000
26 1 1 -0.00716698800517 10.29621720 2.54765304 25.00000000
27 1 1 0.0055501213453 8.82532903 5.09530609 25.00000000
28 1 1 0.0049225388907 10.29621720 7.64295913 25.00000000
29 1 1 0.00569542637407 8.82532903 10.19061218 25.00000000
30 1 1 -0.00112642405729 10.29621720 12.73826522 25.00000000
31 1 1 -0.0118460937997 8.82532903 15.28591827 25.00000000
32 1 1 -0.00702778448333 10.29621720 17.83357131 25.00000000
33 1 1 -0.0157559953455 11.76710537 0.00000000 25.00000000
34 1 1 -0.0140319645571 13.23799354 2.54765304 25.00000000
35 1 1 -0.00667369631603 11.76710537 5.09530609 25.00000000
36 1 1 -0.00433067324567 13.23799354 7.64295913 25.00000000
37 1 1 0.00258647448358 11.76710537 10.19061218 25.00000000
38 1 1 0.000812239016724 13.23799354 12.73826522 25.00000000
39 1 1 -0.00203643026362 11.76710537 15.28591827 25.00000000
40 1 1 0.00563597559389 13.23799354 17.83357131 25.00000000
41 1 1 -0.00823398753933 14.70888171 0.00000000 25.00000000
42 1 1 0.000347224302295 16.17976988 2.54765304 25.00000000
43 1 1 -0.00916015601261 14.70888171 5.09530609 25.00000000
44 1 1 -0.00707237865059 16.17976988 7.64295913 25.00000000
45 1 1 -0.00271751017597 14.70888171 10.19061218 25.00000000
46 1 1 -0.00141819512047 16.17976988 12.73826522 25.00000000
47 1 1 0.0015760138538 14.70888171 15.28591827 25.00000000
48 1 1 -0.0002195191745 16.17976988 17.83357131 25.00000000
49 1 1 0.00302793814705 1.47088817 0.84921768 27.40195032
50 1 1 0.00311608476463 2.94177634 3.39687073 27.40195032
51 1 1 -0.00550763245728 1.47088817 5.94452377 27.40195032
52 1 1 -0.000892277237164 2.94177634 8.49217681 27.40195032
53 1 1 0.00202698485515 1.47088817 11.03982986 27.40195032
54 1 1 0.00739518330102 2.94177634 13.58748290 27.40195032
55 1 1 0.0145737878047 1.47088817 16.13513595 27.40195032
56 1 1 0.0074241210324 2.94177634 18.68278899 27.40195032
57 1 1 0.00986341846536 4.41266451 0.84921768 27.40195032
58 1 1 0.010381095506 5.88355268 3.39687073 27.40195032
59 1 1 0.00505269252333 4.41266451 5.94452377 27.40195032
60 1 1 0.00846807481099 5.88355268 8.49217681 27.40195032
61 1 1 0.00437529034656 4.41266451 11.03982986 27.40195032
62 1 1 0.00153911162673 5.88355268 13.58748290 27.40195032
63 1 1 0.00212098270442 4.41266451 16.13513595 27.40195032
64 1 1 -0.00565360191073 5.88355268 18.68278899 27.40195032
65 1 1 0.00844182292227 7.35444085 0.84921768 27.40195032
66 1 1 0.00571829541294 8.82532903 3.39687073 27.40195032
67 1 1 0.011262632802 7.35444085 5.94452377 27.40195032
68 1 1 0.0114128831171 8.82532903 8.49217681 27.40195032
69 1 1 0.00738695901529 7.35444085 11.03982986 27.40195032
70 1 1 0.00186262105709 8.82532903 13.58748290 27.40195032
71 1 1 -0.00516679185066 7.35444085 16.13513595 27.40195032
72 1 1 -0.00292096853249 8.82532903 18.68278899 27.40195032
73 1 1 -0.00329134881334 10.29621720 0.84921768 27.40195032
74 1 1 -0.00399322208954 11.76710537 3.39687073 27.40195032
75 1 1 0.00597539723133 10.29621720 5.94452377 27.40195032
76 1 1 0.00687724558516 11.76710537 8.49217681 27.40195032
77 1 1 0.00864290391086 10.29621720 11.03982986 27.40195032
78 1 1 0.00661892707863 11.76710537 13.58748290 27.40195032
79 1 1 0.00129696839742 10.29621720 16.13513595 27.40195032
80 1 1 0.0108413201099 11.76710537 18.68278899 27.40195032
81 1 1 -0.00726852174902 13.23799354 0.84921768 27.40195032
82 1 1 -0.00231559685922 14.70888171 3.39687073 27.40195032
83 1 1 -0.000735334699647 13.23799354 5.94452377 27.40195032
84 1 1 0.00238688852626 14.70888171 8.49217681 27.40195032
85 1 1 0.00722199686994 13.23799354 11.03982986 27.40195032
86 1 1 0.00842261516694 14.70888171 13.58748290 27.40195032
87 1 1 0.00990985954302 13.23799354 16.13513595 27.40195032
88 1 1 0.0153985006713 14.70888171 18.68278899 27.40195032
89 1 1 0.00603317458454 16.17976988 0.84921768 27.40195032
90 1 1 -0.00274473421886 0.00000000 3.39687073 27.40195032
91 1 1 0.00074980398651 16.17976988 5.94452377 27.40195032
92 1 1 -0.00616020805433 0.00000000 8.49217681 27.40195032
93 1 1 0.00525871925358 16.17976988 11.03982986 27.40195032
94 1 1 0.0112631150288 0.00000000 13.58748290 27.40195032
95 1 1 0.00917135044007 16.17976988 16.13513595 27.40195032
96 1 1 0.0164392533852 0.00000000 18.68278899 27.40195032
97 1 1 -0.000276523540705 2.94177634 1.69843536 29.80390065
98 1 1 -5.24468501788e-05 4.41266451 4.24608841 29.80390065
99 1 1 0.000402192715917 2.94177634 6.79374145 29.80390065
100 1 1 0.000449480583 4.41266451 9.34139450 29.80390065
101 1 1 0.000208139529648 2.94177634 11.88904754 29.80390065
102 1 1 -0.000143492496378 4.41266451 14.43670058 29.80390065
103 1 1 -0.00070372959929 2.94177634 16.98435363 29.80390065
104 1 1 -0.000752772360853 4.41266451 19.53200667 29.80390065
105 1 1 -0.000513737251171 5.88355268 1.69843536 29.80390065
106 1 1 -0.0002581834901 7.35444085 4.24608841 29.80390065
107 1 1 0.000227901297191 5.88355268 6.79374145 29.80390065
108 1 1 0.000462438766859 7.35444085 9.34139450 29.80390065
109 1 1 0.000349394278133 5.88355268 11.88904754 29.80390065
110 1 1 0.000142861199037 7.35444085 14.43670058 29.80390065
111 1 1 -0.000402923401502 5.88355268 16.98435363 29.80390065
112 1 1 -0.000526031509141 7.35444085 19.53200667 29.80390065
113 1 1 -0.000690624726845 8.82532903 1.69843536 29.80390065
114 1 1 -0.000343755048923 10.29621720 4.24608841 29.80390065
115 1 1 0.000165096329541 8.82532903 6.79374145 29.80390065
116 1 1 0.000561426768043 10.29621720 9.34139450 29.80390065
117 1 1 0.000539070214472 8.82532903 11.88904754 29.80390065
118 1 1 0.000326503596772 10.29621720 14.43670058 29.80390065
119 1 1 -0.000167398242431 8.82532903 16.98435363 29.80390065
120 1 1 -0.000469726794907 10.29621720 19.53200667 29.80390065
121 1 1 -0.00080142470305 11.76710537 1.69843536 29.80390065
122 1 1 -0.000375291195342 13.23799354 4.24608841 29.80390065
123 1 1 0.000203020787146 11.76710537 6.79374145 29.80390065
124 1 1 0.000642962153625 13.23799354 9.34139450 29.80390065
125 1 1 0.000663419401893 11.76710537 11.88904754 29.80390065
126 1 1 0.000341278710019 13.23799354 14.43670058 29.80390065
127 1 1 -0.000135334633019 11.76710537 16.98435363 29.80390065
128 1 1 -0.000574624840739 13.23799354 19.53200667 29.80390065
129 1 1 -0.00089529779761 14.70888171 1.69843536 29.80390065
130 1 1 -0.000383248225335 16.17976988 4.24608841 29.80390065
131 1 1 0.000240519005504 14.70888171 6.79374145 29.80390065
132 1 1 0.000656632204107 16.17976988 9.34139450 29.80390065
133 1 1 0.000671060836145 14.70888171 11.88904754 29.80390065
134 1 1 0.000262735719249 16.17976988 14.43670058 29.80390065
135 1 1 -0.000220589251037 14.70888171 16.98435363 29.80390065
136 1 1 -0.000675305701224 16.17976988 19.53200667 29.80390065
137 1 1 -0.000156382985608 0.00000000 1.69843536 29.80390065
138 1 1 0.000157375554161 1.47088817 4.24608841 29.80390065
139 1 1 0.000503553609431 0.00000000 6.79374145 29.80390065
140 1 1 0.000502651741362 1.47088817 9.34139450 29.80390065
141 1 1 0.000162778853894 0.00000000 11.88904754 29.80390065
142 1 1 -0.000350893433129 1.47088817 14.43670058 29.80390065
143 1 1 -0.000838374549568 0.00000000 16.98435363 29.80390065
144 1 1 -0.000953056475038 1.47088817 19.53200667 29.80390065
145 1 1 -0.0087306485636 4.41266451 2.54765304 32.20585097
146 1 1 -0.00983261653254 5.88355268 5.09530609 32.20585097
147 1 1 -0.0038606822181 4.41266451 7.64295913 32.20585097
148 1 1 -0.00670398526185 5.88355268 10.19061218 32.20585097
149 1 1 -0.00418641272564 4.41266451 12.73826522 32.20585097
150 1 1 0.00182403551284 5.88355268 15.28591827 32.20585097
151 1 1 -0.000725956935118 4.41266451 17.83357131 32.20585097
152 1 1 -0.0112246564555 5.88355268 0.00000000 32.20585097
153 1 1 -0.00933426266755 7.35444085 2.54765304 32.20585097
154 1 1 -0.00847252300333 8.82532903 5.09530609 32.20585097
155 1 1 -0.011294781843 7.35444085 7.64295913 32.20585097
156 1 1 -0.00951438133546 8.82532903 10.19061218 32.20585097
157 1 1 -0.00278560419707 7.35444085 12.73826522 32.20585097
158 1 1 0.00227640807175 8.82532903 15.28591827 32.20585097
159 1 1 0.00673245327547 7.35444085 17.83357131 32.20585097
160 1 1 -0.00307491153135 8.82532903 0.00000000 32.20585097
161 1 1 0.0010440062877 10.29621720 2.54765304 32.20585097
162 1 1 0.000164650883776 11.76710537 5.09530609 32.20585097
163 1 1 -0.00862433836 10.29621720 7.64295913 32.20585097
164 1 1 -0.00770764670153 11.76710537 10.19061218 32.20585097
165 1 1 -0.00531812233158 10.29621720 12.73826522 32.20585097
166 1 1 -0.0057573217576 11.76710537 15.28591827 32.20585097
167 1 1 -0.00235484260425 10.29621720 17.83357131 32.20585097
168 1 1 0.00733849779808 11.76710537 0.00000000 32.20585097
169 1 1 0.00582336299867 13.23799354 2.54765304 32.20585097
170 1 1 0.00170805773516 14.70888171 5.09530609 32.20585097
171 1 1 -0.00228230080205 13.23799354 7.64295913 32.20585097
172 1 1 -0.00444318349643 14.70888171 10.19061218 32.20585097
173 1 1 -0.00747305492581 13.23799354 12.73826522 32.20585097
174 1 1 -0.00957235225438 14.70888171 15.28591827 32.20585097
175 1 1 -0.0130585566233 13.23799354 17.83357131 32.20585097
176 1 1 0.00174330383039 14.70888171 0.00000000 32.20585097
177 1 1 -0.00473392804989 16.17976988 2.54765304 32.20585097
178 1 1 0.00654760614366 0.00000000 5.09530609 32.20585097
179 1 1 -0.00069241244844 16.17976988 7.64295913 32.20585097
180 1 1 0.00181332080336 0.00000000 10.19061218 32.20585097
181 1 1 -0.00671537739732 16.17976988 12.73826522 32.20585097
182 1 1 -0.0158170057664 0.00000000 15.28591827 32.20585097
183 1 1 -0.0108313166487 16.17976988 17.83357131 32.20585097
184 1 1 -0.00203122024676 0.00000000 0.00000000 32.20585097
185 1 1 -0.000611895528818 1.47088817 2.54765304 32.20585097
186 1 1 -8.06448148097e-05 2.94177634 5.09530609 32.20585097
187 1 1 0.00618795123302 1.47088817 7.64295913 32.20585097
188 1 1 -0.00108092303145 2.94177634 10.19061218 32.20585097
189 1 1 -0.00758802937402 1.47088817 12.73826522 32.20585097
190 1 1 -0.0089838754044 2.94177634 15.28591827 32.20585097
191 1 1 -0.01496655895 1.47088817 17.83357131 32.20585097
192 1 1 -0.00689940770611 2.94177634 0.00000000 32.20585097
193 1 1 -0.00832799862066 5.88355268 3.39687073 34.60780130
194 1 1 -0.00949172595349 7.35444085 5.94452377 34.60780130
195 1 1 -0.0056366591437 5.88355268 8.49217681 34.60780130
196 1 1 -0.00349350647778 7.35444085 11.03982986 34.60780130
197 1 1 0.00518033515018 5.88355268 13.58748290 34.60780130
198 1 1 0.0157725158391 7.35444085 16.13513595 34.60780130
199 1 1 0.0169680463069 5.88355268 18.68278899 34.60780130
200 1 1 -0.00534486480971 7.35444085 0.84921768 34.60780130
201 1 1 -0.00151779953961 8.82532903 3.39687073 34.60780130
202 1 1 -0.00177939937423 10.29621720 5.94452377 34.60780130
203 1 1 -0.00936545489476 8.82532903 8.49217681 34.60780130
204 1 1 -0.00468185711232 10.29621720 11.03982986 34.60780130
205 1 1 0.00533809707215 8.82532903 13.58748290 34.60780130
206 1 1 0.00788065654294 10.29621720 16.13513595 34.60780130
207 1 1 0.0144020967295 8.82532903 18.68278899 34.60780130
208 1 1 0.0112787474456 10.29621720 0.84921768 34.60780130
209 1 1 0.0122904903001 11.76710537 3.39687073 34.60780130
210 1 1 0.00791317128133 13.23799354 5.94452377 34.60780130
211 1 1 -0.00259182103889 11.76710537 8.49217681 34.60780130
212 1 1 -0.00202982146165 13.23799354 11.03982986 34.60780130
213 1 1 -0.000379886380985 11.76710537 13.58748290 34.60780130
214 1 1 -0.00250577396489 13.23799354 16.13513595 34.60780130
215 1 1 -0.00274038114212 11.76710537 18.68278899 34.60780130
216 1 1 0.017052541973 13.23799354 0.84921768 34.60780130
217 1 1 0.0102342412236 14.70888171 3.39687073 34.60780130
218 1 1 0.00620421808078 16.17976988 5.94452377 34.60780130
219 1 1 0.00413805533297 14.70888171 8.49217681 34.60780130
220 1 1 0.00149621146339 16.17976988 11.03982986 34.60780130
221 1 1 -0.00171979465731 14.70888171 13.58748290 34.60780130
222 1 1 0.000674180470318 16.17976988 16.13513595 34.60780130
223 1 1 -0.00620922854712 14.70888171 18.68278899 34.60780130
224 1 1 -0.00120077461682 16.17976988 0.84921768 34.60780130
225 1 1 0.00959055812031 0.00000000 3.39687073 34.60780130
226 1 1 0.0134605403371 1.47088817 5.94452377 34.60780130
227 1 1 0.0145107225804 0.00000000 8.49217681 34.60780130
228 1 1 0.00352698358084 1.47088817 11.03982986 34.60780130
229 1 1 -0.00866899630309 0.00000000 13.58748290 34.60780130
230 1 1 -0.0124778311146 1.47088817 16.13513595 34.60780130
231 1 1 -0.014415953743 0.00000000 18.68278899 34.60780130
232 1 1 0.00162057335106 1.47088817 0.84921768 34.60780130
233 1 1 0.00152796516915 2.94177634 3.39687073 34.60780130
234 1 1 -0.00111737171289 4.41266451 5.94452377 34.60780130
235 1 1 0.00721381019054 2.94177634 8.49217681 34.60780130
236 1 1 0.000361895765382 4.41266451 11.03982986 34.60780130
237 1 1 -0.00323582838704 2.94177634 13.58748290 34.60780130
238 1 1 0.00503610579981 4.41266451 16.13513595 34.60780130
239 1 1 -0.00176181303113 2.94177634 18.68278899 34.60780130
240 1 1 -0.00766064858738 4.41266451 0.84921768 34.60780130
241 1 1 0.0130034091466 0.00000000 20.38122435 25.00000000
242 1 1 0.0049776394285 1.47088817 22.92887739 25.00000000
243 1 1 0.00522598744417 0.00000000 25.47653044 25.00000000
244 1 1 0.003371571574 1.47088817 28.02418348 25.00000000
245 1 1 0.00569326989901 0.00000000 30.57183653 25.00000000
246 1 1 0.00341659881049 1.47088817 33.11948957 25.00000000
247 1 1 0.00527942649455 0.00000000 35.66714262 25.00000000
248 1 1 0.00500309694737 1.47088817 38.21479566 25.00000000
249 1 1 0.000837493847769 2.94177634 20.38122435 25.00000000
250 1 1 -0.00926726811942 4.41266451 22.92887739 25.00000000
251 1 1 -0.00227347372993 2.94177634 25.47653044 25.00000000
252 1 1 -0.00619585171043 4.41266451 28.02418348 25.00000000
253 1 1 -0.0006816740421 2.94177634 30.57183653 25.00000000
254 1 1 -0.00613642013564 4.41266451 33.11948957 25.00000000
255 1 1 -0.00220631299033 2.94177634 35.66714262 25.00000000
256 1 1 -0.0092181288881 4.41266451 38.21479566 25.00000000
257 1 1 -0.0158643702215 5.88355268 20.38122435 25.00000000
258 1 1 -0.0110720880268 7.35444085 22.92887739 25.00000000
259 1 1 -0.0101318515495 5.88355268 25.47653044 25.00000000
260 1 1 -0.00763839596035 7.35444085 28.02418348 25.00000000
261 1 1 -0.00845694111424 5.88355268 30.57183653 25.00000000
262 1 1 -0.00756394998382 7.35444085 33.11948957 25.00000000
263 1 1 -0.0100377648206 5.88355268 35.66714262 25.00000000
264 1 1 -0.0109974974268 7.35444085 38.21479566 25.00000000
265 1 1 -0.0100255974791 8.82532903 20.38122435 25.00000000
266 1 1 0.00635228275524 10.29621720 22.92887739 25.00000000
267 1 1 -0.00140227664197 8.82532903 25.47653044 25.00000000
268 1 1 0.000306275391717 10.29621720 28.02418348 25.00000000
269 1 1 -0.00557230758489 8.82532903 30.57183653 25.00000000
270 1 1 0.000389079974634 10.29621720 33.11948957 25.00000000
271 1 1 -0.00128903735527 8.82532903 35.66714262 25.00000000
272 1 1 0.00644172356828 10.29621720 38.21479566 25.00000000
273 1 1 0.00887123956693 11.76710537 20.38122435 25.00000000
274 1 1 0.0165461465331 13.23799354 22.92887739 25.00000000
275 1 1 0.0108092180819 11.76710537 25.47653044 25.00000000
276 1 1 -0.00118450698402 13.23799354 28.02418348 25.00000000
277 1 1 -0.0031101023458 11.76710537 30.57183653 25.00000000
278 1 1 -0.00109520646403 13.23799354 33.11948957 25.00000000
279 1 1 0.0109330898745 11.76710537 35.66714262 25.00000000
280 1 1 0.0166452969351 13.23799354 38.21479566 25.00000000
281 1 1 0.0105285902675 14.70888171 20.38122435 25.00000000
282 1 1 0.00272058977228 16.17976988 22.92887739 25.00000000
283 1 1 0.00466679201871 14.70888171 25.47653044 25.00000000
284 1 1 -0.0151585033093 16.17976988 28.02418348 25.00000000
285 1 1 -0.0138554871194 14.70888171 30.57183653 25.00000000
286 1 1 -0.0150632999969 16.17976988 33.11948957 25.00000000
287 1 1 0.00480034241782 14.70888171 35.66714262 25.00000000
288 1 1 0.00282433113041 16.17976988 38.21479566 25.00000000
289 1 1 0.0108951854928 1.47088817 21.23044203 27.40195032
290 1 1 0.00462135165026 2.94177634 23.77809508 27.40195032
291 1 1 0.00902654783573 1.47088817 26.32574812 27.40195032
292 1 1 0.00696691712164 2.94177634 28.87340116 27.40195032
293 1 1 0.0102448314789 1.47088817 31.42105421 27.40195032
294 1 1 0.00612616248229 2.94177634 33.96870725 27.40195032
295 1 1 0.00871089059486 1.47088817 36.51636030 27.40195032
296 1 1 0.00481686663111 2.94177634 39.06401334 27.40195032
297 1 1 -0.000957523611798 4.41266451 21.23044203 27.40195032
298 1 1 -0.00146110829275 5.88355268 23.77809508 27.40195032
299 1 1 0.00234128894951 4.41266451 26.32574812 27.40195032
300 1 1 0.00248773699262 5.88355268 28.87340116 27.40195032
301 1 1 0.00406729244059 4.41266451 31.42105421 27.40195032
302 1 1 0.00179686009399 5.88355268 33.96870725 27.40195032
303 1 1 0.000932988993722 4.41266451 36.51636030 27.40195032
304 1 1 -0.00363073907075 5.88355268 39.06401334 27.40195032
305 1 1 -0.00350955820311 7.35444085 21.23044203 27.40195032
306 1 1 0.00718274291687 8.82532903 23.77809508 27.40195032
307 1 1 0.00346640934848 7.35444085 26.32574812 27.40195032
308 1 1 0.00719514561239 8.82532903 28.87340116 27.40195032
309 1 1 0.00372990539768 7.35444085 31.42105421 27.40195032
310 1 1 0.00813576391509 8.82532903 33.96870725 27.40195032
311 1 1 0.00208353140749 7.35444085 36.51636030 27.40195032
312 1 1 0.00409380325624 8.82532903 39.06401334 27.40195032
313 1 1 0.0103607159909 10.29621720 21.23044203 27.40195032
314 1 1 0.0214802488738 11.76710537 23.77809508 27.40195032
315 1 1 0.014333793953 10.29621720 26.32574812 27.40195032
316 1 1 0.013476074787 11.76710537 28.87340116 27.40195032
317 1 1 0.0103056534463 10.29621720 31.42105421 27.40195032
318 1 1 0.0168310927495 11.76710537 33.96870725 27.40195032
319 1 1 0.0153215936534 10.29621720 36.51636030 27.40195032
320 1 1 0.0197026669284 11.76710537 39.06401334 27.40195032
321 1 1 0.0218615098136 13.23799354 21.23044203 27.40195032
322 1 1 0.0231442636998 14.70888171 23.77809508 27.40195032
323 1 1 0.0200830056662 13.23799354 26.32574812 27.40195032
324 1 1 0.0124531026822 14.70888171 28.87340116 27.40195032
325 1 1 0.0124297546897 13.23799354 31.42105421 27.40195032
326 1 1 0.016482109458 14.70888171 33.96870725 27.40195032
327 1 1 0.0235625357585 13.23799354 36.51636030 27.40195032
328 1 1 0.0224757412586 14.70888171 39.06401334 27.40195032
329 1 1 0.0167441359487 16.17976988 21.23044203 27.40195032
330 1 1 0.0106495937974 0.00000000 23.77809508 27.40195032
331 1 1 0.0167925266647 16.17976988 26.32574812 27.40195032
332 1 1 0.0113005605487 0.00000000 28.87340116 27.40195032
333 1 1 0.011051643522 16.17976988 31.42105421 27.40195032
334 1 1 0.0106740076318 0.00000000 33.96870725 27.40195032
335 1 1 0.0190283191008 16.17976988 36.51636030 27.40195032
336 1 1 0.0120787134254 0.00000000 39.06401334 27.40195032
337 1 1 -0.000667161102874 2.94177634 22.07965971 29.80390065
338 1 1 -0.000164598333968 4.41266451 24.62731276 29.80390065
339 1 1 0.000359306978782 2.94177634 27.17496580 29.80390065
340 1 1 0.000604372080678 4.41266451 29.72261885 29.80390065
341 1 1 0.000564147131512 2.94177634 32.27027189 29.80390065
342 1 1 0.000104313246599 4.41266451 34.81792493 29.80390065
343 1 1 -0.000409605527793 2.94177634 37.36557798 29.80390065
344 1 1 -0.000691124037937 4.41266451 39.91323102 29.80390065
345 1 1 -0.000530104954375 5.88355268 22.07965971 29.80390065
346 1 1 -0.000147117842363 7.35444085 24.62731276 29.80390065
347 1 1 0.00029682609007 5.88355268 27.17496580 29.80390065
348 1 1 0.000497500797784 7.35444085 29.72261885 29.80390065
349 1 1 0.000457729955446 5.88355268 32.27027189 29.80390065
350 1 1 4.47515809607e-05 7.35444085 34.81792493 29.80390065
351 1 1 -0.0003624048744 5.88355268 37.36557798 29.80390065
352 1 1 -0.000552709867249 7.35444085 39.91323102 29.80390065
353 1 1 -0.00046719631126 8.82532903 22.07965971 29.80390065
354 1 1 -0.000224649555069 10.29621720 24.62731276 29.80390065
355 1 1 0.000220041512096 8.82532903 27.17496580 29.80390065
356 1 1 0.000364172146499 10.29621720 29.72261885 29.80390065
357 1 1 0.000343180505932 8.82532903 32.27027189 29.80390065
358 1 1 -8.39154592671e-05 10.29621720 34.81792493 29.80390065
359 1 1 -0.000385007495613 8.82532903 37.36557798 29.80390065
360 1 1 -0.000573863358258 10.29621720 39.91323102 29.80390065
361 1 1 -0.000569889817897 11.76710537 22.07965971 29.80390065
362 1 1 -0.000400608339257 13.23799354 24.62731276 29.80390065
363 1 1 6.29877821495e-05 11.76710537 27.17496580 29.80390065
364 1 1 0.000178228924092 13.23799354 29.72261885 29.80390065
365 1 1 0.000169009965973 11.76710537 32.27027189 29.80390065
366 1 1 -0.000277205145187 13.23799354 34.81792493 29.80390065
367 1 1 -0.000537875954365 11.76710537 37.36557798 29.80390065
368 1 1 -0.000722246096542 13.23799354 39.91323102 29.80390065
369 1 1 -0.000719758603488 14.70888171 22.07965971 29.80390065
370 1 1 -0.000523406597984 16.17976988 24.62731276 29.80390065
371 1 1 -0.000107740148945 14.70888171 27.17496580 29.80390065
372 1 1 6.57473014919e-05 16.17976988 29.72261885 29.80390065
373 1 1 -1.7272502401e-06 14.70888171 32.27027189 29.80390065
374 1 1 -0.000393207996338 16.17976988 34.81792493 29.80390065
375 1 1 -0.000701870111776 14.70888171 37.36557798 29.80390065
376 1 1 -0.000825333525161 16.17976988 39.91323102 29.80390065
377 1 1 -0.000730724634596 0.00000000 22.07965971 29.80390065
378 1 1 -0.000183686185762 1.47088817 24.62731276 29.80390065
379 1 1 0.000396289302593 0.00000000 27.17496580 29.80390065
380 1 1 0.000704422023803 1.47088817 29.72261885 29.80390065
381 1 1 0.000621213734485 0.00000000 32.27027189 29.80390065
382 1 1 0.000146535888775 1.47088817 34.81792493 29.80390065
383 1 1 -0.000433588518196 0.00000000 37.36557798 29.80390065
384 1 1 -0.000830384996972 1.47088817 39.91323102 29.80390065
385 1 1 0.000160469228692 4.41266451 22.92887739 32.20585097
386 1 1 -0.000364837478995 5.88355268 25.47653044 32.20585097
387 1 1 -0.0031043063596 4.41266451 28.02418348 32.20585097
388 1 1 -0.00225235605956 5.88355268 30.57183653 32.20585097
389 1 1 -0.00311745161816 4.41266451 33.11948957 32.20585097
390 1 1 -0.000382964572672 5.88355268 35.66714262 32.20585097
391 1 1 0.000153008352246 4.41266451 38.21479566 32.20585097
392 1 1 0.00506640668489 5.88355268 20.38122435 32.20585097
393 1 1 0.000366459498581 7.35444085 22.92887739 32.20585097
394 1 1 -0.00828267786282 8.82532903 25.47653044 32.20585097
395 1 1 -0.00344477877099 7.35444085 28.02418348 32.20585097
396 1 1 -0.00622995641377 8.82532903 30.57183653 32.20585097
397 1 1 -0.00346249390489 7.35444085 33.11948957 32.20585097
398 1 1 -0.00831224819786 8.82532903 35.66714262 32.20585097
399 1 1 0.00035260527533 7.35444085 38.21479566 32.20585097
400 1 1 -0.000299244762304 8.82532903 20.38122435 32.20585097
401 1 1 -0.0139931962539 10.29621720 22.92887739 32.20585097
402 1 1 -0.0200153660546 11.76710537 25.47653044 32.20585097
403 1 1 -0.0116418384036 10.29621720 28.02418348 32.20585097
404 1 1 -0.011572762804 11.76710537 30.57183653 32.20585097
405 1 1 -0.0116676423642 10.29621720 33.11948957 32.20585097
406 1 1 -0.0200534324851 11.76710537 35.66714262 32.20585097
407 1 1 -0.0140196320319 10.29621720 38.21479566 32.20585097
408 1 1 -0.0157221257948 11.76710537 20.38122435 32.20585097
409 1 1 -0.0243791752604 13.23799354 22.92887739 32.20585097
410 1 1 -0.0206628627918 14.70888171 25.47653044 32.20585097
411 1 1 -0.0151654997567 13.23799354 28.02418348 32.20585097
412 1 1 -0.0103320590656 14.70888171 30.57183653 32.20585097
413 1 1 -0.0151930393101 13.23799354 33.11948957 32.20585097
414 1 1 -0.0206958013884 14.70888171 35.66714262 32.20585097
415 1 1 -0.0244075903566 13.23799354 38.21479566 32.20585097
416 1 1 -0.0195889186156 14.70888171 20.38122435 32.20585097
417 1 1 -0.0190671867975 16.17976988 22.92887739 32.20585097
418 1 1 -0.0101071340549 0.00000000 25.47653044 32.20585097
419 1 1 -0.0130264987933 16.17976988 28.02418348 32.20585097
420 1 1 -0.0109608512328 0.00000000 30.57183653 32.20585097
421 1 1 -0.0130497930089 16.17976988 33.11948957 32.20585097
422 1 1 -0.0101266938786 0.00000000 35.66714262 32.20585097
423 1 1 -0.0190871912309 16.17976988 38.21479566 32.20585097
424 1 1 -0.0147071133203 0.00000000 20.38122435 32.20585097
425 1 1 -0.00949319893358 1.47088817 22.92887739 32.20585097
426 1 1 -0.00506469407172 2.94177634 25.47653044 32.20585097
427 1 1 -0.00925574693874 1.47088817 28.02418348 32.20585097
428 1 1 -0.00676924899894 2.94177634 30.57183653 32.20585097
429 1 1 -0.00927011852398 1.47088817 33.11948957 32.20585097
430 1 1 -0.00508171824159 2.94177634 35.66714262 32.20585097
431 1 1 -0.00950372498135 1.47088817 38.21479566 32.20585097
432 1 1 -0.00622412623784 2.94177634 20.38122435 32.20585097
433 1 1 0.0123056201672 5.88355268 23.77809508 34.60780130
434 1 1 0.00687237347979 7.35444085 26.32574812 34.60780130
435 1 1 0.0071593364548 5.88355268 28.87340116 34.60780130
436 1 1 0.00677008703237 7.35444085 31.42105421 34.60780130
437 1 1 0.00811856494842 5.88355268 33.96870725 34.60780130
438 1 1 0.00860076395573 7.35444085 36.51636030 34.60780130
439 1 1 0.0150768873944 5.88355268 39.06401334 34.60780130
440 1 1 0.0154359650811 7.35444085 21.23044203 34.60780130
441 1 1 0.00259495622045 8.82532903 23.77809508 34.60780130
442 1 1 -0.00458824173268 10.29621720 26.32574812 34.60780130
443 1 1 0.00365773186372 8.82532903 28.87340116 34.60780130
444 1 1 0.00171711895265 10.29621720 31.42105421 34.60780130
445 1 1 0.00219300291619 8.82532903 33.96870725 34.60780130
446 1 1 -0.00656177826451 10.29621720 36.51636030 34.60780130
447 1 1 0.00627851376488 8.82532903 39.06401334 34.60780130
448 1 1 -0.00156524483286 10.29621720 21.23044203 34.60780130
449 1 1 -0.0134920450248 11.76710537 23.77809508 34.60780130
450 1 1 -0.00670689341321 13.23799354 26.32574812 34.60780130
451 1 1 0.000114579335269 11.76710537 28.87340116 34.60780130
452 1 1 0.00555113524081 13.23799354 31.42105421 34.60780130
453 1 1 -0.00502841347871 11.76710537 33.96870725 34.60780130
454 1 1 -0.0128973173173 13.23799354 36.51636030 34.60780130
455 1 1 -0.0122667722191 11.76710537 39.06401334 34.60780130
456 1 1 -0.0140819242015 13.23799354 21.23044203 34.60780130
457 1 1 -0.00996895542117 14.70888171 23.77809508 34.60780130
458 1 1 0.00746523353998 16.17976988 26.32574812 34.60780130
459 1 1 0.0101914641125 14.70888171 28.87340116 34.60780130
460 1 1 0.0191088975503 16.17976988 31.42105421 34.60780130
461 1 1 0.0034286888203 14.70888171 33.96870725 34.60780130
462 1 1 0.0014590239656 16.17976988 36.51636030 34.60780130
463 1 1 -0.0113835988984 14.70888171 39.06401334 34.60780130
464 1 1 -0.00191768299811 16.17976988 21.23044203 34.60780130
465 1 1 -0.00583427097611 0.00000000 23.77809508 34.60780130
466 1 1 -0.00353218821816 1.47088817 26.32574812 34.60780130
467 1 1 -0.00680663622275 0.00000000 28.87340116 34.60780130
468 1 1 -0.00526015318696 1.47088817 31.42105421 34.60780130
469 1 1 -0.00588408443077 0.00000000 33.96870725 34.60780130
470 1 1 -0.00305119985526 1.47088817 36.51636030 34.60780130
471 1 1 -0.00788724299721 0.00000000 39.06401334 34.60780130
472 1 1 -0.00626534852541 1.47088817 21.23044203 34.60780130
473 1 1 0.00279545075939 2.94177634 23.77809508 34.60780130
474 1 1 0.00646788907035 4.41266451 26.32574812 34.60780130
475 1 1 -0.00045097423819 2.94177634 28.87340116 34.60780130
476 1 1 0.00411660533826 4.41266451 31.42105421 34.60780130
477 1 1 0.000765645451346 2.94177634 33.96870725 34.60780130
478 1 1 0.00842079174027 4.41266451 36.51636030 34.60780130
479 1 1 0.00242897690486 2.94177634 39.06401334 34.60780130
480 1 1 0.0106459275932 4.41266451 21.23044203 34.60780130
481 1 1 0.0129698483872 0.00000000 40.76244870 25.00000000
482 1 1 0.0136368737114 1.47088817 43.31010174 25.00000000
483 1 1 0.0150737792319 0.00000000 45.85775479 25.00000000
484 1 1 0.00370956825678 1.47088817 48.40540783 25.00000000
485 1 1 -0.00907087077435 0.00000000 50.95306088 25.00000000
486 1 1 -0.0148254012979 1.47088817 53.50071392 25.00000000
487 1 1 -0.0149337570677 0.00000000 56.04836697 25.00000000
488 1 1 -0.00475524339995 1.47088817 58.59602001 25.00000000
489 1 1 0.000812636391344 2.94177634 40.76244870 25.00000000
490 1 1 -0.00674358364995 4.41266451 43.31010174 25.00000000
491 1 1 0.00532627985438 2.94177634 45.85775479 25.00000000
492 1 1 -0.00138968616814 4.41266451 48.40540783 25.00000000
493 1 1 -0.00521068276283 2.94177634 50.95306088 25.00000000
494 1 1 -0.00106688501276 4.41266451 53.50071392 25.00000000
495 1 1 -0.00577699802735 2.94177634 56.04836697 25.00000000
496 1 1 0.00654809045512 4.41266451 58.59602001 25.00000000
497 1 1 -0.0158713261835 5.88355268 40.76244870 25.00000000
498 1 1 -0.0181592169236 7.35444085 43.31010174 25.00000000
499 1 1 -0.0103500832341 5.88355268 45.85775479 25.00000000
500 1 1 -0.00393393071859 7.35444085 48.40540783 25.00000000
501 1 1 0.00222927677689 5.88355268 50.95306088 25.00000000
502 1 1 0.0089900031883 7.35444085 53.50071392 25.00000000
503 1 1 0.00766213029556 5.88355268 56.04836697 25.00000000
504 1 1 0.00739919375299 7.35444085 58.59602001 25.00000000
505 1 1 -0.0100176747027 8.82532903 40.76244870 25.00000000
506 1 1 -0.00709337080237 10.29621720 43.31010174 25.00000000
507 1 1 -0.0119530111255 8.82532903 45.85775479 25.00000000
508 1 1 -0.0012182631779 10.29621720 48.40540783 25.00000000
509 1 1 0.00566909894472 8.82532903 50.95306088 25.00000000
510 1 1 0.00495562481956 10.29621720 53.50071392 25.00000000
511 1 1 0.00563057908771 8.82532903 56.04836697 25.00000000
512 1 1 -0.00711098460535 10.29621720 58.59602001 25.00000000
513 1 1 0.00888898716052 11.76710537 40.76244870 25.00000000
514 1 1 0.00557662187781 13.23799354 43.31010174 25.00000000
515 1 1 -0.00214056793194 11.76710537 45.85775479 25.00000000
516 1 1 0.000720919199631 13.23799354 48.40540783 25.00000000
517 1 1 0.00254829070804 11.76710537 50.95306088 25.00000000
518 1 1 -0.00430543550015 13.23799354 53.50071392 25.00000000
519 1 1 -0.00660895519278 11.76710537 56.04836697 25.00000000
520 1 1 -0.0139805498606 13.23799354 58.59602001 25.00000000
521 1 1 0.0105515632215 14.70888171 40.76244870 25.00000000
522 1 1 -0.000279879232311 16.17976988 43.31010174 25.00000000
523 1 1 0.00147498231746 14.70888171 45.85775479 25.00000000
524 1 1 -0.00150531031896 16.17976988 48.40540783 25.00000000
525 1 1 -0.00275368672441 14.70888171 50.95306088 25.00000000
526 1 1 -0.00703628528177 16.17976988 53.50071392 25.00000000
527 1 1 -0.00909376605551 14.70888171 56.04836697 25.00000000
528 1 1 0.000406119867025 16.17976988 58.59602001 25.00000000
529 1 1 0.0129859100195 1.47088817 41.61166638 27.40195032
530 1 1 0.00871158196663 2.94177634 44.15931943 27.40195032
531 1 1 0.0122548985354 1.47088817 46.70697247 27.40195032
532 1 1 0.00460960809327 2.94177634 49.25462551 27.40195032
533 1 1 -0.00300470563828 1.47088817 51.80227856 27.40195032
534 1 1 -0.00134967806834 2.94177634 54.34993160 27.40195032
535 1 1 -0.00287423734334 1.47088817 56.89758465 27.40195032
536 1 1 0.00569243544082 2.94177634 59.44523769 27.40195032
537 1 1 -0.000669995744113 4.41266451 41.61166638 27.40195032
538 1 1 -0.00438726182826 5.88355268 44.15931943 27.40195032
539 1 1 0.00359854575707 4.41266451 46.70697247 27.40195032
540 1 1 0.00467245604218 5.88355268 49.25462551 27.40195032
541 1 1 0.00407119978584 4.41266451 51.80227856 27.40195032
542 1 1 0.00927338226445 5.88355268 54.34993160 27.40195032
543 1 1 0.00671830328416 4.41266451 56.89758465 27.40195032
544 1 1 0.0107888962091 5.88355268 59.44523769 27.40195032
545 1 1 -0.00601220298937 7.35444085 41.61166638 27.40195032
546 1 1 -0.0038227692565 8.82532903 44.15931943 27.40195032
547 1 1 -0.00149265840059 7.35444085 46.70697247 27.40195032
548 1 1 0.00639984793512 8.82532903 49.25462551 27.40195032
549 1 1 0.0102990198575 7.35444085 51.80227856 27.40195032
550 1 1 0.0106945013823 8.82532903 54.34993160 27.40195032
551 1 1 0.0102197198064 7.35444085 56.89758465 27.40195032
552 1 1 0.00356230438099 8.82532903 59.44523769 27.40195032
553 1 1 0.00586663332745 10.29621720 41.61166638 27.40195032
554 1 1 0.00735150769261 11.76710537 44.15931943 27.40195032
555 1 1 0.00280853135654 10.29621720 46.70697247 27.40195032
556 1 1 0.00785983759484 11.76710537 49.25462551 27.40195032
557 1 1 0.00989893128862 10.29621720 51.80227856 27.40195032
558 1 1 0.00381887877077 11.76710537 54.34993160 27.40195032
559 1 1 0.00214447195745 10.29621720 56.89758465 27.40195032
560 1 1 -0.00673163399305 11.76710537 59.44523769 27.40195032
561 1 1 0.0174832559571 13.23799354 41.61166638 27.40195032
562 1 1 0.0120075191119 14.70888171 44.15931943 27.40195032
563 1 1 0.00850107909348 13.23799354 46.70697247 27.40195032
564 1 1 0.0070399248585 14.70888171 49.25462551 27.40195032
565 1 1 0.00547298660408 13.23799354 51.80227856 27.40195032
566 1 1 -7.43766015713e-05 14.70888171 54.34993160 27.40195032
567 1 1 -0.00386211244342 13.23799354 56.89758465 27.40195032
568 1 1 -0.00231364480424 14.70888171 59.44523769 27.40195032
569 1 1 0.0135393649057 16.17976988 41.61166638 27.40195032
570 1 1 0.017240926704 0.00000000 44.15931943 27.40195032
571 1 1 0.00829322349538 16.17976988 46.70697247 27.40195032
572 1 1 0.00502765021009 0.00000000 49.25462551 27.40195032
573 1 1 0.00288517037001 16.17976988 51.80227856 27.40195032
574 1 1 -0.00782161720429 0.00000000 54.34993160 27.40195032
575 1 1 0.00213344792191 16.17976988 56.89758465 27.40195032
576 1 1 0.000573760331985 0.00000000 59.44523769 27.40195032
577 1 1 -0.000794462930634 2.94177634 42.46088406 29.80390065
578 1 1 -0.000348626363476 4.41266451 45.00853711 29.80390065
579 1 1 -3.83928071888e-05 2.94177634 47.55619015 29.80390065
580 1 1 0.000366335034676 4.41266451 50.10384320 29.80390065
581 1 1 0.000408228199446 2.94177634 52.65149624 29.80390065
582 1 1 9.54889463678e-05 4.41266451 55.19914928 29.80390065
583 1 1 -0.00016321041151 2.94177634 57.74680233 29.80390065
584 1 1 -0.000487271069098 4.41266451 60.29445537 29.80390065
585 1 1 -0.000530969979602 5.88355268 42.46088406 29.80390065
586 1 1 -3.962739915e-05 7.35444085 45.00853711 29.80390065
587 1 1 0.000211351833295 5.88355268 47.55619015 29.80390065
588 1 1 0.000518716703931 7.35444085 50.10384320 29.80390065
589 1 1 0.000349925061553 5.88355268 52.65149624 29.80390065
590 1 1 -4.05348078687e-05 7.35444085 55.19914928 29.80390065
591 1 1 -0.000382457897842 5.88355268 57.74680233 29.80390065
592 1 1 -0.000700511917514 7.35444085 60.29445537 29.80390065
593 1 1 -0.000354457037575 8.82532903 42.46088406 29.80390065
594 1 1 0.000123077396975 10.29621720 45.00853711 29.80390065
595 1 1 0.000472903525039 8.82532903 47.55619015 29.80390065
596 1 1 0.000695022199069 10.29621720 50.10384320 29.80390065
597 1 1 0.000397712789437 8.82532903 52.65149624 29.80390065
598 1 1 -5.52152119758e-05 10.29621720 55.19914928 29.80390065
599 1 1 -0.000528219925534 8.82532903 57.74680233 29.80390065
600 1 1 -0.000839706457613 10.29621720 60.29445537 29.80390065
601 1 1 -0.000381643093101 11.76710537 42.46088406 29.80390065
602 1 1 9.78831588139e-05 13.23799354 45.00853711 29.80390065
603 1 1 0.000597138080341 11.76710537 47.55619015 29.80390065
604 1 1 0.000778484155904 13.23799354 50.10384320 29.80390065
605 1 1 0.000497961373739 11.76710537 52.65149624 29.80390065
606 1 1 -2.96612970342e-05 13.23799354 55.19914928 29.80390065
607 1 1 -0.000596529060153 11.76710537 57.74680233 29.80390065
608 1 1 -0.000954495763526 13.23799354 60.29445537 29.80390065
609 1 1 -0.000493808215912 14.70888171 42.46088406 29.80390065
610 1 1 2.49377550812e-06 16.17976988 45.00853711 29.80390065
611 1 1 0.000568541543109 14.70888171 47.55619015 29.80390065
612 1 1 0.000746759935002 16.17976988 50.10384320 29.80390065
613 1 1 0.000545065445251 14.70888171 52.65149624 29.80390065
614 1 1 -1.35192727051e-05 16.17976988 55.19914928 29.80390065
615 1 1 -0.000648706821727 14.70888171 57.74680233 29.80390065
616 1 1 -0.00103091021752 16.17976988 60.29445537 29.80390065
617 1 1 -0.000917095163186 0.00000000 42.46088406 29.80390065
618 1 1 -0.000590682364634 1.47088817 45.00853711 29.80390065
619 1 1 -0.000136590668038 0.00000000 47.55619015 29.80390065
620 1 1 0.000304595465757 1.47088817 50.10384320 29.80390065
621 1 1 0.000458955654372 0.00000000 52.65149624 29.80390065
622 1 1 0.000259738099827 1.47088817 55.19914928 29.80390065
623 1 1 -4.89143320437e-05 0.00000000 57.74680233 29.80390065
624 1 1 -0.000290933546986 1.47088817 60.29445537 29.80390065
625 1 1 -0.000706153118455 4.41266451 43.31010174 32.20585097
626 1 1 0.00184836921792 5.88355268 45.85775479 32.20585097
627 1 1 -0.00417298519067 4.41266451 48.40540783 32.20585097
628 1 1 -0.00670406468643 5.88355268 50.95306088 32.20585097
629 1 1 -0.0038819471424 4.41266451 53.50071392 32.20585097
630 1 1 -0.00985374561065 5.88355268 56.04836697 32.20585097
631 1 1 -0.00874823500014 4.41266451 58.59602001 32.20585097
632 1 1 0.00507272956686 5.88355268 40.76244870 32.20585097
633 1 1 0.00675122353571 7.35444085 43.31010174 32.20585097
634 1 1 0.00230400245177 8.82532903 45.85775479 32.20585097
635 1 1 -0.0027655266917 7.35444085 48.40540783 32.20585097
636 1 1 -0.00950728659296 8.82532903 50.95306088 32.20585097
637 1 1 -0.0113067299747 7.35444085 53.50071392 32.20585097
638 1 1 -0.00849070881515 8.82532903 56.04836697 32.20585097
639 1 1 -0.00934699545839 7.35444085 58.59602001 32.20585097
640 1 1 -0.000301111265722 8.82532903 40.76244870 32.20585097
641 1 1 -0.00233958181038 10.29621720 43.31010174 32.20585097
642 1 1 -0.00572792705485 11.76710537 45.85775479 32.20585097
643 1 1 -0.00529189526537 10.29621720 48.40540783 32.20585097
644 1 1 -0.0076981931769 11.76710537 50.95306088 32.20585097
645 1 1 -0.00863524382795 10.29621720 53.50071392 32.20585097
646 1 1 0.000142781578552 11.76710537 56.04836697 32.20585097
647 1 1 0.00102958428599 10.29621720 58.59602001 32.20585097
648 1 1 -0.0157313910012 11.76710537 40.76244870 32.20585097
649 1 1 -0.0130455943023 13.23799354 43.31010174 32.20585097
650 1 1 -0.0095447526195 14.70888171 45.85775479 32.20585097
651 1 1 -0.00744534765887 13.23799354 48.40540783 32.20585097
652 1 1 -0.00443471038804 14.70888171 50.95306088 32.20585097
653 1 1 -0.00229496904408 13.23799354 53.50071392 32.20585097
654 1 1 0.00168649491993 14.70888171 56.04836697 32.20585097
655 1 1 0.00580713533912 13.23799354 58.59602001 32.20585097
656 1 1 -0.0195966770779 14.70888171 40.76244870 32.20585097
657 1 1 -0.0108185946638 16.17976988 43.31010174 32.20585097
658 1 1 -0.015796055224 0.00000000 45.85775479 32.20585097
659 1 1 -0.00669121422716 16.17976988 48.40540783 32.20585097
660 1 1 0.00180010540504 0.00000000 50.95306088 32.20585097
661 1 1 -0.000704282530166 16.17976988 53.50071392 32.20585097
662 1 1 0.00650833992687 0.00000000 56.04836697 32.20585097
663 1 1 -0.0047473193713 16.17976988 58.59602001 32.20585097
664 1 1 -0.0147030236845 0.00000000 40.76244870 32.20585097
665 1 1 -0.0149483205532 1.47088817 43.31010174 32.20585097
666 1 1 -0.00896203250192 2.94177634 45.85775479 32.20585097
667 1 1 -0.00757842974059 1.47088817 48.40540783 32.20585097
668 1 1 -0.00108997172246 2.94177634 50.95306088 32.20585097
669 1 1 0.0061560742511 1.47088817 53.50071392 32.20585097
670 1 1 -0.000113149961911 2.94177634 56.04836697 32.20585097
671 1 1 -0.000636632283197 1.47088817 58.59602001 32.20585097
672 1 1 -0.00621776225368 2.94177634 40.76244870 32.20585097
673 1 1 0.0145773632781 5.88355268 44.15931943 34.60780130
674 1 1 0.00991535929085 7.35444085 46.70697247 34.60780130
675 1 1 0.000269163406625 5.88355268 49.25462551 34.60780130
676 1 1 -0.00789415441358 7.35444085 51.80227856 34.60780130
677 1 1 -0.00680676135068 5.88355268 54.34993160 34.60780130
678 1 1 -0.00792625370352 7.35444085 56.89758465 34.60780130
679 1 1 -0.00877536138497 5.88355268 59.44523769 34.60780130
680 1 1 0.0183058728924 7.35444085 41.61166638 34.60780130
681 1 1 0.0147535572143 8.82532903 44.15931943 34.60780130
682 1 1 0.00479193178084 10.29621720 46.70697247 34.60780130
683 1 1 -0.00164332103534 8.82532903 49.25462551 34.60780130
684 1 1 -0.00688522207385 10.29621720 51.80227856 34.60780130
685 1 1 -0.00847112452025 8.82532903 54.34993160 34.60780130
686 1 1 0.00361456033011 10.29621720 56.89758465 34.60780130
687 1 1 0.00160173682553 8.82532903 59.44523769 34.60780130
688 1 1 0.00360762070508 10.29621720 41.61166638 34.60780130
689 1 1 0.000751391937854 11.76710537 44.15931943 34.60780130
690 1 1 -0.00193182567999 13.23799354 46.70697247 34.60780130
691 1 1 -0.00297352273213 11.76710537 49.25462551 34.60780130
692 1 1 -0.000205379799784 13.23799354 51.80227856 34.60780130
693 1 1 0.00146610677738 11.76710537 54.34993160 34.60780130
694 1 1 0.0122632117778 13.23799354 56.89758465 34.60780130
695 1 1 0.0161846510654 11.76710537 59.44523769 34.60780130
696 1 1 -0.00980472104043 13.23799354 41.61166638 34.60780130
697 1 1 -0.0035584514559 14.70888171 44.15931943 34.60780130
698 1 1 -8.335149645e-05 16.17976988 46.70697247 34.60780130
699 1 1 -0.000982025866822 14.70888171 49.25462551 34.60780130
700 1 1 0.00398055164715 16.17976988 51.80227856 34.60780130
701 1 1 0.0072716390109 14.70888171 54.34993160 34.60780130
702 1 1 0.00423954142032 16.17976988 56.89758465 34.60780130
703 1 1 0.0102883776619 14.70888171 59.44523769 34.60780130
704 1 1 -0.000451772718844 16.17976988 41.61166638 34.60780130
705 1 1 -0.0160067460499 0.00000000 44.15931943 34.60780130
706 1 1 -0.0098175866142 1.47088817 46.70697247 34.60780130
707 1 1 -0.00045995464079 0.00000000 49.25462551 34.60780130
708 1 1 0.0102687282002 1.47088817 51.80227856 34.60780130
709 1 1 0.0167674978451 0.00000000 54.34993160 34.60780130
710 1 1 0.00985494392 1.47088817 56.89758465 34.60780130
711 1 1 0.00502666732584 0.00000000 59.44523769 34.60780130
712 1 1 -0.00945020213312 1.47088817 41.61166638 34.60780130
713 1 1 -0.00405802300085 2.94177634 44.15931943 34.60780130
714 1 1 0.00236298423963 4.41266451 46.70697247 34.60780130
715 1 1 0.000152454252773 2.94177634 49.25462551 34.60780130
716 1 1 0.000499832065756 4.41266451 51.80227856 34.60780130
717 1 1 0.00780430577497 2.94177634 54.34993160 34.60780130
718 1 1 -0.0033329987709 4.41266451 56.89758465 34.60780130
719 1 1 -0.00197727493442 2.94177634 59.44523769 34.60780130
720 1 1 0.00988506023897 4.41266451 41.61166638 34.60780130
721 1 1 0.0153612728916 17.65065805 0.00000000 25.00000000
722 1 1 0.0157915938658 19.12154622 2.54765304 25.00000000
723 1 1 -0.000583008541688 17.65065805 5.09530609 25.00000000
724 1 1 -0.00567484552819 19.12154622 7.64295913 25.00000000
725 1 1 -0.00473906244992 17.65065805 10.19061218 25.00000000
726 1 1 -0.00166490389671 19.12154622 12.73826522 25.00000000
727 1 1 -0.00414874095003 17.65065805 15.28591827 25.00000000
728 1 1 -0.0138397991476 19.12154622 17.83357131 25.00000000
729 1 1 0.0233253368608 20.59243439 0.00000000 25.00000000
730 1 1 0.00915218574868 22.06332256 2.54765304 25.00000000
731 1 1 0.000533422027671 20.59243439 5.09530609 25.00000000
732 1 1 -0.00874145714004 22.06332256 7.64295913 25.00000000
733 1 1 -0.00247746497028 20.59243439 10.19061218 25.00000000
734 1 1 0.00564158056958 22.06332256 12.73826522 25.00000000
735 1 1 -0.00504881791508 20.59243439 15.28591827 25.00000000
736 1 1 -0.0146848307709 22.06332256 17.83357131 25.00000000
737 1 1 0.00709903485612 23.53421073 0.00000000 25.00000000
738 1 1 -0.00828447578218 25.00509890 2.54765304 25.00000000
739 1 1 -0.0120048210723 23.53421073 5.09530609 25.00000000
740 1 1 -0.0146271106149 25.00509890 7.64295913 25.00000000
741 1 1 0.00106131824434 23.53421073 10.19061218 25.00000000
742 1 1 0.0145557272927 25.00509890 12.73826522 25.00000000
743 1 1 0.00437963175878 23.53421073 15.28591827 25.00000000
744 1 1 -0.00602943331933 25.00509890 17.83357131 25.00000000
745 1 1 -0.00503341382878 26.47598708 0.00000000 25.00000000
746 1 1 -0.00828447576785 27.94687525 2.54765304 25.00000000
747 1 1 -0.0205172032542 26.47598708 5.09530609 25.00000000
748 1 1 -0.0146271106164 27.94687525 7.64295913 25.00000000
749 1 1 0.00264190066161 26.47598708 10.19061218 25.00000000
750 1 1 0.0145557272617 27.94687525 12.73826522 25.00000000
751 1 1 0.0108544806025 26.47598708 15.28591827 25.00000000
752 1 1 -0.00602943334425 27.94687525 17.83357131 25.00000000
753 1 1 0.00709903488237 29.41776342 0.00000000 25.00000000
754 1 1 0.00915218574433 30.88865159 2.54765304 25.00000000
755 1 1 -0.0120048210654 29.41776342 5.09530609 25.00000000
756 1 1 -0.00874145715365 30.88865159 7.64295913 25.00000000
757 1 1 0.00106131821562 29.41776342 10.19061218 25.00000000
758 1 1 0.00564158051573 30.88865159 12.73826522 25.00000000
759 1 1 0.00437963170244 29.41776342 15.28591827 25.00000000
760 1 1 -0.0146848308007 30.88865159 17.83357131 25.00000000
761 1 1 0.023325336835 32.35953976 0.00000000 25.00000000
762 1 1 0.0157915937907 33.83042793 2.54765304 25.00000000
763 1 1 0.000533421994941 32.35953976 5.09530609 25.00000000
764 1 1 -0.00567484555351 33.83042793 7.64295913 25.00000000
765 1 1 -0.00247746499493 32.35953976 10.19061218 25.00000000
766 1 1 -0.00166490389993 33.83042793 12.73826522 25.00000000
767 1 1 -0.00504881794851 32.35953976 15.28591827 25.00000000
768 1 1 -0.0138397991253 33.83042793 17.83357131 25.00000000
769 1 1 0.0198916323451 19.12154622 0.84921768 27.40195032
770 1 1 0.0123683635843 20.59243439 3.39687073 27.40195032
771 1 1 0.00448925455075 19.12154622 5.94452377 27.40195032
772 1 1 0.00282827643024 20.59243439 8.49217681 27.40195032
773 1 1 0.00609362140544 19.12154622 11.03982986 27.40195032
774 1 1 0.00995204697125 20.59243439 13.58748290 27.40195032
775 1 1 0.00508215783007 19.12154622 16.13513595 27.40195032
776 1 1 0.0020656721883 20.59243439 18.68278899 27.40195032
777 1 1 0.0159329036403 22.06332256 0.84921768 27.40195032
778 1 1 0.00195201952468 23.53421073 3.39687073 27.40195032
779 1 1 0.000534560282535 22.06332256 5.94452377 27.40195032
780 1 1 0.00133729926607 23.53421073 8.49217681 27.40195032
781 1 1 0.0102845908646 22.06332256 11.03982986 27.40195032
782 1 1 0.0177858849301 23.53421073 13.58748290 27.40195032
783 1 1 0.00864945663552 22.06332256 16.13513595 27.40195032
784 1 1 0.00807023148689 23.53421073 18.68278899 27.40195032
785 1 1 0.00295237387277 25.00509890 0.84921768 27.40195032
786 1 1 -0.00551118507608 26.47598708 3.39687073 27.40195032
787 1 1 -0.00726568093788 25.00509890 5.94452377 27.40195032
788 1 1 3.66015430518e-05 26.47598708 8.49217681 27.40195032
789 1 1 0.0143536916042 25.00509890 11.03982986 27.40195032
790 1 1 0.0223041666974 26.47598708 13.58748290 27.40195032
791 1 1 0.0163924246912 25.00509890 16.13513595 27.40195032
792 1 1 0.013266834522 26.47598708 18.68278899 27.40195032
793 1 1 0.00295237385975 27.94687525 0.84921768 27.40195032
794 1 1 0.00195201949818 29.41776342 3.39687073 27.40195032
795 1 1 -0.00726568094594 27.94687525 5.94452377 27.40195032
796 1 1 0.00133729924338 29.41776342 8.49217681 27.40195032
797 1 1 0.0143536915797 27.94687525 11.03982986 27.40195032
798 1 1 0.017785884872 29.41776342 13.58748290 27.40195032
799 1 1 0.0163924246609 27.94687525 16.13513595 27.40195032
800 1 1 0.00807023147102 29.41776342 18.68278899 27.40195032
801 1 1 0.0159329035895 30.88865159 0.84921768 27.40195032
802 1 1 0.0123683635197 32.35953976 3.39687073 27.40195032
803 1 1 0.000534560251397 30.88865159 5.94452377 27.40195032
804 1 1 0.00282827639985 32.35953976 8.49217681 27.40195032
805 1 1 0.0102845908172 30.88865159 11.03982986 27.40195032
806 1 1 0.00995204692457 32.35953976 13.58748290 27.40195032
807 1 1 0.00864945658503 30.88865159 16.13513595 27.40195032
808 1 1 0.00206567219312 32.35953976 18.68278899 27.40195032
809 1 1 0.0198916322676 33.83042793 0.84921768 27.40195032
810 1 1 0.00916402848357 17.65065805 3.39687073 27.40195032
811 1 1 0.00448925450338 33.83042793 5.94452377 27.40195032
812 1 1 0.00215155571679 17.65065805 8.49217681 27.40195032
813 1 1 0.00609362139203 33.83042793 11.03982986 27.40195032
814 1 1 0.00720906699852 17.65065805 13.58748290 27.40195032
815 1 1 0.00508215782451 33.83042793 16.13513595 27.40195032
816 1 1 0.00712317497491 17.65065805 18.68278899 27.40195032
817 1 1 -0.00073168677992 20.59243439 1.69843536 29.80390065
818 1 1 -8.62839656909e-05 22.06332256 4.24608841 29.80390065
819 1 1 0.000375385175318 20.59243439 6.79374145 29.80390065
820 1 1 0.000619337058041 22.06332256 9.34139450 29.80390065
821 1 1 0.00046796338026 20.59243439 11.88904754 29.80390065
822 1 1 -0.000104361179281 22.06332256 14.43670058 29.80390065
823 1 1 -0.000497533016071 20.59243439 16.98435363 29.80390065
824 1 1 -0.000996049040193 22.06332256 19.53200667 29.80390065
825 1 1 -0.0004832002748 23.53421073 1.69843536 29.80390065
826 1 1 9.01560589999e-05 25.00509890 4.24608841 29.80390065
827 1 1 0.000494640876735 23.53421073 6.79374145 29.80390065
828 1 1 0.000600610087457 25.00509890 9.34139450 29.80390065
829 1 1 0.000309605207106 23.53421073 11.88904754 29.80390065
830 1 1 -0.00031769843232 25.00509890 14.43670058 29.80390065
831 1 1 -0.000775687516513 23.53421073 16.98435363 29.80390065
832 1 1 -0.00125109671962 25.00509890 19.53200667 29.80390065
833 1 1 -0.000364537420669 26.47598708 1.69843536 29.80390065
834 1 1 9.01560162137e-05 27.94687525 4.24608841 29.80390065
835 1 1 0.000549128557644 26.47598708 6.79374145 29.80390065
836 1 1 0.000600610068082 27.94687525 9.34139450 29.80390065
837 1 1 0.000232093195559 26.47598708 11.88904754 29.80390065
838 1 1 -0.000317698455075 27.94687525 14.43670058 29.80390065
839 1 1 -0.000924138765852 26.47598708 16.98435363 29.80390065
840 1 1 -0.00125109669888 27.94687525 19.53200667 29.80390065
841 1 1 -0.000483200380064 29.41776342 1.69843536 29.80390065
842 1 1 -8.62840526723e-05 30.88865159 4.24608841 29.80390065
843 1 1 0.000494640833032 29.41776342 6.79374145 29.80390065
844 1 1 0.000619337018359 30.88865159 9.34139450 29.80390065
845 1 1 0.00030960516683 29.41776342 11.88904754 29.80390065
846 1 1 -0.000104361224568 30.88865159 14.43670058 29.80390065
847 1 1 -0.000775687528313 29.41776342 16.98435363 29.80390065
848 1 1 -0.000996048998358 30.88865159 19.53200667 29.80390065
849 1 1 -0.000731686886889 32.35953976 1.69843536 29.80390065
850 1 1 -0.000290371090888 33.83042793 4.24608841 29.80390065
851 1 1 0.000375385128919 32.35953976 6.79374145 29.80390065
852 1 1 0.000639938078387 33.83042793 9.34139450 29.80390065
853 1 1 0.000467963339392 32.35953976 11.88904754 29.80390065
854 1 1 0.000124272309907 33.83042793 14.43670058 29.80390065
855 1 1 -0.000497533027989 32.35953976 16.98435363 29.80390065
856 1 1 -0.000769732781138 33.83042793 19.53200667 29.80390065
857 1 1 -0.000899847805896 17.65065805 1.69843536 29.80390065
858 1 1 -0.000290371044286 19.12154622 4.24608841 29.80390065
859 1 1 0.000280417738208 17.65065805 6.79374145 29.80390065
860 1 1 0.000639938099743 19.12154622 9.34139450 29.80390065
861 1 1 0.000598470081075 17.65065805 11.88904754 29.80390065
862 1 1 0.00012427233175 19.12154622 14.43670058 29.80390065
863 1 1 -0.000318315077873 17.65065805 16.98435363 29.80390065
864 1 1 -0.00076973280186 19.12154622 19.53200667 29.80390065
865 1 1 -0.0115129276066 22.06332256 2.54765304 32.20585097
866 1 1 0.00302598667772 23.53421073 5.09530609 32.20585097
867 1 1 -0.000133036790878 22.06332256 7.64295913 32.20585097
868 1 1 -0.0085182584551 23.53421073 10.19061218 32.20585097
869 1 1 -0.0132345946425 22.06332256 12.73826522 32.20585097
870 1 1 -0.0151352885559 23.53421073 15.28591827 32.20585097
871 1 1 -0.00480855517366 22.06332256 17.83357131 32.20585097
872 1 1 -0.00992249250105 23.53421073 0.00000000 32.20585097
873 1 1 0.000858616890821 25.00509890 2.54765304 32.20585097
874 1 1 0.00906072009782 26.47598708 5.09530609 32.20585097
875 1 1 0.00392564268077 25.00509890 7.64295913 32.20585097
876 1 1 -0.00978415509149 26.47598708 10.19061218 32.20585097
877 1 1 -0.0200529699386 25.00509890 12.73826522 32.20585097
878 1 1 -0.0201997967493 26.47598708 15.28591827 32.20585097
879 1 1 -0.0124898559781 25.00509890 17.83357131 32.20585097
880 1 1 -0.00129762758427 26.47598708 0.00000000 32.20585097
881 1 1 0.000858616801432 27.94687525 2.54765304 32.20585097
882 1 1 0.0030259865824 29.41776342 5.09530609 32.20585097
883 1 1 0.00392564265028 27.94687525 7.64295913 32.20585097
884 1 1 -0.00851825848562 29.41776342 10.19061218 32.20585097
885 1 1 -0.0200529699512 27.94687525 12.73826522 32.20585097
886 1 1 -0.0151352885617 29.41776342 15.28591827 32.20585097
887 1 1 -0.0124898559561 27.94687525 17.83357131 32.20585097
888 1 1 -0.00992249267892 29.41776342 0.00000000 32.20585097
889 1 1 -0.0115129277631 30.88865159 2.54765304 32.20585097
890 1 1 -0.00578462315136 32.35953976 5.09530609 32.20585097
891 1 1 -0.000133036845947 30.88865159 7.64295913 32.20585097
892 1 1 -0.00563890726852 32.35953976 10.19061218 32.20585097
893 1 1 -0.0132345946732 30.88865159 12.73826522 32.20585097
894 1 1 -0.00734687852741 32.35953976 15.28591827 32.20585097
895 1 1 -0.00480855514282 30.88865159 17.83357131 32.20585097
896 1 1 -0.0213749398368 32.35953976 0.00000000 32.20585097
897 1 1 -0.0160629401156 33.83042793 2.54765304 32.20585097
898 1 1 -0.00473119720543 17.65065805 5.09530609 32.20585097
899 1 1 -0.00205385325837 33.83042793 7.64295913 32.20585097
900 1 1 -0.00354624285996 17.65065805 10.19061218 32.20585097
901 1 1 -0.00732532658219 33.83042793 12.73826522 32.20585097
902 1 1 -0.00674954066904 17.65065805 15.28591827 32.20585097
903 1 1 -0.00324921560115 33.83042793 17.83357131 32.20585097
904 1 1 -0.0154305076109 17.65065805 0.00000000 32.20585097
905 1 1 -0.0160629400867 19.12154622 2.54765304 32.20585097
906 1 1 -0.00578462308123 20.59243439 5.09530609 32.20585097
907 1 1 -0.00205385324094 19.12154622 7.64295913 32.20585097
908 1 1 -0.00563890723415 20.59243439 10.19061218 32.20585097
909 1 1 -0.00732532655184 19.12154622 12.73826522 32.20585097
910 1 1 -0.00734687850688 20.59243439 15.28591827 32.20585097
911 1 1 -0.00324921559372 19.12154622 17.83357131 32.20585097
912 1 1 -0.0213749396953 20.59243439 0.00000000 32.20585097
913 1 1 0.0047650860082 23.53421073 3.39687073 34.60780130
914 1 1 0.0180011172664 25.00509890 5.94452377 34.60780130
915 1 1 0.0069841520805 23.53421073 8.49217681 34.60780130
916 1 1 -0.00899434925868 25.00509890 11.03982986 34.60780130
917 1 1 -0.0106187592966 23.53421073 13.58748290 34.60780130
918 1 1 -0.003046618591 25.00509890 16.13513595 34.60780130
919 1 1 0.0155645105573 23.53421073 18.68278899 34.60780130
920 1 1 0.00322745286999 25.00509890 0.84921768 34.60780130
921 1 1 0.0151135051425 26.47598708 3.39687073 34.60780130
922 1 1 0.0180011172173 27.94687525 5.94452377 34.60780130
923 1 1 0.00890729502199 26.47598708 8.49217681 34.60780130
924 1 1 -0.00899434926886 27.94687525 11.03982986 34.60780130
925 1 1 -0.0164938718971 26.47598708 13.58748290 34.60780130
926 1 1 -0.00304661857818 27.94687525 16.13513595 34.60780130
927 1 1 0.00969718774787 26.47598708 18.68278899 34.60780130
928 1 1 0.00322745276282 27.94687525 0.84921768 34.60780130
929 1 1 0.00476508587465 29.41776342 3.39687073 34.60780130
930 1 1 0.00707459626425 30.88865159 5.94452377 34.60780130
931 1 1 0.0069841520409 29.41776342 8.49217681 34.60780130
932 1 1 -0.00378639797232 30.88865159 11.03982986 34.60780130
933 1 1 -0.0106187593017 29.41776342 13.58748290 34.60780130
934 1 1 0.00632230701417 30.88865159 16.13513595 34.60780130
935 1 1 0.0155645106108 29.41776342 18.68278899 34.60780130
936 1 1 -0.0147368786631 30.88865159 0.84921768 34.60780130
937 1 1 -0.00973524491417 32.35953976 3.39687073 34.60780130
938 1 1 0.00134618154492 33.83042793 5.94452377 34.60780130
939 1 1 0.00456287433018 32.35953976 8.49217681 34.60780130
940 1 1 0.00123964557566 33.83042793 11.03982986 34.60780130
941 1 1 -0.000857542582372 32.35953976 13.58748290 34.60780130
942 1 1 0.00892553341491 33.83042793 16.13513595 34.60780130
943 1 1 0.0204286803863 32.35953976 18.68278899 34.60780130
944 1 1 -0.0202710899272 33.83042793 0.84921768 34.60780130
945 1 1 -0.00545694207317 17.65065805 3.39687073 34.60780130
946 1 1 0.00134618154747 19.12154622 5.94452377 34.60780130
947 1 1 0.00499189959655 17.65065805 8.49217681 34.60780130
948 1 1 0.0012396456054 19.12154622 11.03982986 34.60780130
949 1 1 0.00143080396825 17.65065805 13.58748290 34.60780130
950 1 1 0.00892553344143 19.12154622 16.13513595 34.60780130
951 1 1 0.0091238973059 17.65065805 18.68278899 34.60780130
952 1 1 -0.0202710899065 19.12154622 0.84921768 34.60780130
953 1 1 -0.00973524482914 20.59243439 3.39687073 34.60780130
954 1 1 0.00707459634473 22.06332256 5.94452377 34.60780130
955 1 1 0.00456287436364 20.59243439 8.49217681 34.60780130
956 1 1 -0.00378639794724 22.06332256 11.03982986 34.60780130
957 1 1 -0.0008575425588 20.59243439 13.58748290 34.60780130
958 1 1 0.00632230700474 22.06332256 16.13513595 34.60780130
959 1 1 0.0204286803673 20.59243439 18.68278899 34.60780130
960 1 1 -0.0147368784815 22.06332256 0.84921768 34.60780130
961 1 1 -0.00827582840697 17.65065805 20.38122435 25.00000000
962 1 1 -0.0152952336859 19.12154622 22.92887739 25.00000000
963 1 1 -0.0117827244282 17.65065805 25.47653044 25.00000000
964 1 1 -0.0198119946525 19.12154622 28.02418348 25.00000000
965 1 1 -0.0244331522674 17.65065805 30.57183653 25.00000000
966 1 1 -0.0197198944171 19.12154622 33.11948957 25.00000000
967 1 1 -0.0116477468927 17.65065805 35.66714262 25.00000000
968 1 1 -0.015204889267 19.12154622 38.21479566 25.00000000
969 1 1 -0.0213125786464 20.59243439 20.38122435 25.00000000
970 1 1 -0.0138515268401 22.06332256 22.92887739 25.00000000
971 1 1 -0.0129630481226 20.59243439 25.47653044 25.00000000
972 1 1 -0.00604491336616 22.06332256 28.02418348 25.00000000
973 1 1 -0.0166275853158 20.59243439 30.57183653 25.00000000
974 1 1 -0.00596937838065 22.06332256 33.11948957 25.00000000
975 1 1 -0.0128476747494 20.59243439 35.66714262 25.00000000
976 1 1 -0.0137953601469 22.06332256 38.21479566 25.00000000
977 1 1 -0.0159477812322 23.53421073 20.38122435 25.00000000
978 1 1 -0.00150733821088 25.00509890 22.92887739 25.00000000
979 1 1 0.00239357617829 23.53421073 25.47653044 25.00000000
980 1 1 0.00768091469561 25.00509890 28.02418348 25.00000000
981 1 1 -0.000959794536541 23.53421073 30.57183653 25.00000000
982 1 1 0.00773763950523 25.00509890 33.11948957 25.00000000
983 1 1 0.00247476245175 23.53421073 35.66714262 25.00000000
984 1 1 -0.00148298469029 25.00509890 38.21479566 25.00000000
985 1 1 -0.00948773155232 26.47598708 20.38122435 25.00000000
986 1 1 -0.0015073382133 27.94687525 22.92887739 25.00000000
987 1 1 0.0116420978319 26.47598708 25.47653044 25.00000000
988 1 1 0.00768091468229 27.94687525 28.02418348 25.00000000
989 1 1 0.00468801305381 26.47598708 30.57183653 25.00000000
990 1 1 0.0077376394831 27.94687525 33.11948957 25.00000000
991 1 1 0.0117050614192 26.47598708 35.66714262 25.00000000
992 1 1 -0.00148298468926 27.94687525 38.21479566 25.00000000
993 1 1 -0.0159477812416 29.41776342 20.38122435 25.00000000
994 1 1 -0.0138515268223 30.88865159 22.92887739 25.00000000
995 1 1 0.00239357616851 29.41776342 25.47653044 25.00000000
996 1 1 -0.0060449134058 30.88865159 28.02418348 25.00000000
997 1 1 -0.000959794580392 29.41776342 30.57183653 25.00000000
998 1 1 -0.00596937844656 30.88865159 33.11948957 25.00000000
999 1 1 0.00247476242642 29.41776342 35.66714262 25.00000000
1000 1 1 -0.0137953601215 30.88865159 38.21479566 25.00000000
1001 1 1 -0.021312578616 32.35953976 20.38122435 25.00000000
1002 1 1 -0.0152952336196 33.83042793 22.92887739 25.00000000
1003 1 1 -0.0129630481059 32.35953976 25.47653044 25.00000000
1004 1 1 -0.0198119946502 33.83042793 28.02418348 25.00000000
1005 1 1 -0.0166275853825 32.35953976 30.57183653 25.00000000
1006 1 1 -0.0197198944575 33.83042793 33.11948957 25.00000000
1007 1 1 -0.0128476747655 32.35953976 35.66714262 25.00000000
1008 1 1 -0.015204889196 33.83042793 38.21479566 25.00000000
1009 1 1 0.0072028739395 19.12154622 21.23044203 27.40195032
1010 1 1 0.0192559335651 20.59243439 23.77809508 27.40195032
1011 1 1 0.0214816635707 19.12154622 26.32574812 27.40195032
1012 1 1 0.0370966440405 20.59243439 28.87340116 27.40195032
1013 1 1 0.0236141672074 19.12154622 31.42105421 27.40195032
1014 1 1 0.0337303152958 20.59243439 33.96870725 27.40195032
1015 1 1 0.0177859277183 19.12154622 36.51636030 27.40195032
1016 1 1 0.0105500214979 20.59243439 39.06401334 27.40195032
1017 1 1 0.0104272171625 22.06332256 21.23044203 27.40195032
1018 1 1 0.0362508777682 23.53421073 23.77809508 27.40195032
1019 1 1 0.044074037979 22.06332256 26.32574812 27.40195032
1020 1 1 0.0697672891537 23.53421073 28.87340116 27.40195032
1021 1 1 0.0550208211509 22.06332256 31.42105421 27.40195032
1022 1 1 0.0626871337315 23.53421073 33.96870725 27.40195032
1023 1 1 0.0331979276837 22.06332256 36.51636030 27.40195032
1024 1 1 0.0217852851295 23.53421073 39.06401334 27.40195032
1025 1 1 0.0208579954312 25.00509890 21.23044203 27.40195032
1026 1 1 0.0463820284136 26.47598708 23.77809508 27.40195032
1027 1 1 0.0673281842629 25.00509890 26.32574812 27.40195032
1028 1 1 0.0856541955226 26.47598708 28.87340116 27.40195032
1029 1 1 0.0833918072024 25.00509890 31.42105421 27.40195032
1030 1 1 0.0772313627584 26.47598708 33.96870725 27.40195032
1031 1 1 0.0520782790198 25.00509890 36.51636030 27.40195032
1032 1 1 0.0295967852133 26.47598708 39.06401334 27.40195032
1033 1 1 0.0208579954379 27.94687525 21.23044203 27.40195032
1034 1 1 0.0362508777857 29.41776342 23.77809508 27.40195032
1035 1 1 0.0673281842534 27.94687525 26.32574812 27.40195032
1036 1 1 0.0697672890954 29.41776342 28.87340116 27.40195032
1037 1 1 0.0833918071628 27.94687525 31.42105421 27.40195032
1038 1 1 0.062687133687 29.41776342 33.96870725 27.40195032
1039 1 1 0.0520782790216 27.94687525 36.51636030 27.40195032
1040 1 1 0.0217852851644 29.41776342 39.06401334 27.40195032
1041 1 1 0.0104272171908 30.88865159 21.23044203 27.40195032
1042 1 1 0.0192559336019 32.35953976 23.77809508 27.40195032
1043 1 1 0.0440740379617 30.88865159 26.32574812 27.40195032
1044 1 1 0.037096643972 32.35953976 28.87340116 27.40195032
1045 1 1 0.0550208210589 30.88865159 31.42105421 27.40195032
1046 1 1 0.0337303152381 32.35953976 33.96870725 27.40195032
1047 1 1 0.0331979276911 30.88865159 36.51636030 27.40195032
1048 1 1 0.0105500215622 32.35953976 39.06401334 27.40195032
1049 1 1 0.00720287398395 33.83042793 21.23044203 27.40195032
1050 1 1 0.0158012365274 17.65065805 23.77809508 27.40195032
1051 1 1 0.0214816635746 33.83042793 26.32574812 27.40195032
1052 1 1 0.0151085894673 17.65065805 28.87340116 27.40195032
1053 1 1 0.0236141671358 33.83042793 31.42105421 27.40195032
1054 1 1 0.0164216690504 17.65065805 33.96870725 27.40195032
1055 1 1 0.0177859277303 33.83042793 36.51636030 27.40195032
1056 1 1 0.0128391676698 17.65065805 39.06401334 27.40195032
1057 1 1 -0.000912421233831 20.59243439 22.07965971 29.80390065
1058 1 1 -0.000720573519225 22.06332256 24.62731276 29.80390065
1059 1 1 -0.000207908874001 20.59243439 27.17496580 29.80390065
1060 1 1 -7.86988243708e-05 22.06332256 29.72261885 29.80390065
1061 1 1 -7.18950767165e-05 20.59243439 32.27027189 29.80390065
1062 1 1 -0.000522659404346 22.06332256 34.81792493 29.80390065
1063 1 1 -0.000836252582945 20.59243439 37.36557798 29.80390065
1064 1 1 -0.00106568499474 22.06332256 39.91323102 29.80390065
1065 1 1 -0.00116273748814 23.53421073 22.07965971 29.80390065
1066 1 1 -0.000938615151323 25.00509890 24.62731276 29.80390065
1067 1 1 -0.000436913678902 23.53421073 27.17496580 29.80390065
1068 1 1 -0.00059678619172 25.00509890 29.72261885 29.80390065
1069 1 1 -0.000367338668384 23.53421073 32.27027189 29.80390065
1070 1 1 -0.000744905884651 25.00509890 34.81792493 29.80390065
1071 1 1 -0.00102931048582 23.53421073 37.36557798 29.80390065
1072 1 1 -0.00129182481126 25.00509890 39.91323102 29.80390065
1073 1 1 -0.00131018263097 26.47598708 22.07965971 29.80390065
1074 1 1 -0.000938615099504 27.94687525 24.62731276 29.80390065
1075 1 1 -0.000656327258392 26.47598708 27.17496580 29.80390065
1076 1 1 -0.000596786154795 27.94687525 29.72261885 29.80390065
1077 1 1 -0.00072580894521 26.47598708 32.27027189 29.80390065
1078 1 1 -0.000744905835173 27.94687525 34.81792493 29.80390065
1079 1 1 -0.00115402123477 26.47598708 37.36557798 29.80390065
1080 1 1 -0.00129182476706 27.94687525 39.91323102 29.80390065
1081 1 1 -0.0011627374107 29.41776342 22.07965971 29.80390065
1082 1 1 -0.000720573414565 30.88865159 24.62731276 29.80390065
1083 1 1 -0.000436913601313 29.41776342 27.17496580 29.80390065
1084 1 1 -7.86987510511e-05 30.88865159 29.72261885 29.80390065
1085 1 1 -0.000367338601169 29.41776342 32.27027189 29.80390065
1086 1 1 -0.000522659305143 30.88865159 34.81792493 29.80390065
1087 1 1 -0.00102931039025 29.41776342 37.36557798 29.80390065
1088 1 1 -0.00106568490571 30.88865159 39.91323102 29.80390065
1089 1 1 -0.000912421156379 32.35953976 22.07965971 29.80390065
1090 1 1 -0.000572154443317 33.83042793 24.62731276 29.80390065
1091 1 1 -0.000207908795175 32.35953976 27.17496580 29.80390065
1092 1 1 6.18205358186e-05 33.83042793 29.72261885 29.80390065
1093 1 1 -7.18950085387e-05 32.35953976 32.27027189 29.80390065
1094 1 1 -0.000415059791736 33.83042793 34.81792493 29.80390065
1095 1 1 -0.000836252486215 32.35953976 37.36557798 29.80390065
1096 1 1 -0.000887354231778 33.83042793 39.91323102 29.80390065
1097 1 1 -0.000794413372488 17.65065805 22.07965971 29.80390065
1098 1 1 -0.000572154497326 19.12154622 24.62731276 29.80390065
1099 1 1 -0.000164801982247 17.65065805 27.17496580 29.80390065
1100 1 1 6.18204962563e-05 19.12154622 29.72261885 29.80390065
1101 1 1 -4.67746100058e-05 17.65065805 32.27027189 29.80390065
1102 1 1 -0.000415059842166 19.12154622 34.81792493 29.80390065
1103 1 1 -0.000761978544781 17.65065805 37.36557798 29.80390065
1104 1 1 -0.000887354278154 19.12154622 39.91323102 29.80390065
1105 1 1 -0.0207552247786 22.06332256 22.92887739 32.20585097
1106 1 1 -0.0503779440108 23.53421073 25.47653044 32.20585097
1107 1 1 -0.0503318015525 22.06332256 28.02418348 32.20585097
1108 1 1 -0.0702372502587 23.53421073 30.57183653 32.20585097
1109 1 1 -0.0503530502977 22.06332256 33.11948957 32.20585097
1110 1 1 -0.0504001673596 23.53421073 35.66714262 32.20585097
1111 1 1 -0.0207664097338 22.06332256 38.21479566 32.20585097
1112 1 1 -0.0117412948469 23.53421073 20.38122435 32.20585097
1113 1 1 -0.0351210638865 25.00509890 22.92887739 32.20585097
1114 1 1 -0.0628898422627 26.47598708 25.47653044 32.20585097
1115 1 1 -0.0764003824557 25.00509890 28.02418348 32.20585097
1116 1 1 -0.0858592711315 26.47598708 30.57183653 32.20585097
1117 1 1 -0.0764195628811 25.00509890 33.11948957 32.20585097
1118 1 1 -0.0629097338121 26.47598708 35.66714262 32.20585097
1119 1 1 -0.0351291608655 25.00509890 38.21479566 32.20585097
1120 1 1 -0.0179409362912 26.47598708 20.38122435 32.20585097
1121 1 1 -0.0351210638066 27.94687525 22.92887739 32.20585097
1122 1 1 -0.0503779438478 29.41776342 25.47653044 32.20585097
1123 1 1 -0.0764003823569 27.94687525 28.02418348 32.20585097
1124 1 1 -0.0702372500773 29.41776342 30.57183653 32.20585097
1125 1 1 -0.0764195627752 27.94687525 33.11948957 32.20585097
1126 1 1 -0.0504001671803 29.41776342 35.66714262 32.20585097
1127 1 1 -0.0351291607814 27.94687525 38.21479566 32.20585097
1128 1 1 -0.0117412947593 29.41776342 20.38122435 32.20585097
1129 1 1 -0.0207552246317 30.88865159 22.92887739 32.20585097
1130 1 1 -0.0271021987056 32.35953976 25.47653044 32.20585097
1131 1 1 -0.0503318013465 30.88865159 28.02418348 32.20585097
1132 1 1 -0.0369855166742 32.35953976 30.57183653 32.20585097
1133 1 1 -0.0503530500717 30.88865159 33.11948957 32.20585097
1134 1 1 -0.0271268967028 32.35953976 35.66714262 32.20585097
1135 1 1 -0.0207664095786 30.88865159 38.21479566 32.20585097
1136 1 1 -0.00421906947803 32.35953976 20.38122435 32.20585097
1137 1 1 -0.0124217315482 33.83042793 22.92887739 32.20585097
1138 1 1 -0.0167532703477 17.65065805 25.47653044 32.20585097
1139 1 1 -0.0224315793664 33.83042793 28.02418348 32.20585097
1140 1 1 -0.0137708381645 17.65065805 30.57183653 32.20585097
1141 1 1 -0.0224530389873 33.83042793 33.11948957 32.20585097
1142 1 1 -0.0167791331289 17.65065805 35.66714262 32.20585097
1143 1 1 -0.0124363464629 33.83042793 38.21479566 32.20585097
1144 1 1 -0.00955149725273 17.65065805 20.38122435 32.20585097
1145 1 1 -0.0124217315926 19.12154622 22.92887739 32.20585097
1146 1 1 -0.0271021988586 20.59243439 25.47653044 32.20585097
1147 1 1 -0.0224315794778 19.12154622 28.02418348 32.20585097
1148 1 1 -0.0369855168783 20.59243439 30.57183653 32.20585097
1149 1 1 -0.0224530391271 19.12154622 33.11948957 32.20585097
1150 1 1 -0.0271268968837 20.59243439 35.66714262 32.20585097
1151 1 1 -0.0124363465111 19.12154622 38.21479566 32.20585097
1152 1 1 -0.00421906954132 20.59243439 20.38122435 32.20585097
1153 1 1 0.00434312289139 23.53421073 23.77809508 34.60780130
1154 1 1 -0.0104114852987 25.00509890 26.32574812 34.60780130
1155 1 1 -0.00223951915287 23.53421073 28.87340116 34.60780130
1156 1 1 -0.00620190878277 25.00509890 31.42105421 34.60780130
1157 1 1 -0.00396936213505 23.53421073 33.96870725 34.60780130
1158 1 1 -0.00602807229503 25.00509890 36.51636030 34.60780130
1159 1 1 0.0127614416578 23.53421073 39.06401334 34.60780130
1160 1 1 0.0111121715196 25.00509890 21.23044203 34.60780130
1161 1 1 -0.00443242892959 26.47598708 23.77809508 34.60780130
1162 1 1 -0.0104114852227 27.94687525 26.32574812 34.60780130
1163 1 1 -0.0093406464462 26.47598708 28.87340116 34.60780130
1164 1 1 -0.00620190871005 27.94687525 31.42105421 34.60780130
1165 1 1 -0.0125072039012 26.47598708 33.96870725 34.60780130
1166 1 1 -0.00602807220956 27.94687525 36.51636030 34.60780130
1167 1 1 0.00524489610086 26.47598708 39.06401334 34.60780130
1168 1 1 0.0111121715781 27.94687525 21.23044203 34.60780130
1169 1 1 0.00434312301505 29.41776342 23.77809508 34.60780130
1170 1 1 0.00493647850224 30.88865159 26.32574812 34.60780130
1171 1 1 -0.00223951902361 29.41776342 28.87340116 34.60780130
1172 1 1 0.00652436434052 30.88865159 31.42105421 34.60780130
1173 1 1 -0.00396936198088 29.41776342 33.96870725 34.60780130
1174 1 1 0.00857947956628 30.88865159 36.51636030 34.60780130
1175 1 1 0.0127614417627 29.41776342 39.06401334 34.60780130
1176 1 1 0.0207135083348 30.88865159 21.23044203 34.60780130
1177 1 1 0.0161345877114 32.35953976 23.77809508 34.60780130
1178 1 1 0.0161306467174 33.83042793 26.32574812 34.60780130
1179 1 1 0.0144100483884 32.35953976 28.87340116 34.60780130
1180 1 1 0.0213831086327 33.83042793 31.42105421 34.60780130
1181 1 1 0.0129179906653 32.35953976 33.96870725 34.60780130
1182 1 1 0.0151886076495 33.83042793 36.51636030 34.60780130
1183 1 1 0.0205188741541 32.35953976 39.06401334 34.60780130
1184 1 1 0.0180503443027 33.83042793 21.23044203 34.60780130
1185 1 1 0.00908483755782 17.65065805 23.77809508 34.60780130
1186 1 1 0.0161306466789 19.12154622 26.32574812 34.60780130
1187 1 1 0.021345438619 17.65065805 28.87340116 34.60780130
1188 1 1 0.0213831085339 19.12154622 31.42105421 34.60780130
1189 1 1 0.0167747424618 17.65065805 33.96870725 34.60780130
1190 1 1 0.0151886075986 19.12154622 36.51636030 34.60780130
1191 1 1 0.00883319774004 17.65065805 39.06401334 34.60780130
1192 1 1 0.0180503443106 19.12154622 21.23044203 34.60780130
1193 1 1 0.0161345876237 20.59243439 23.77809508 34.60780130
1194 1 1 0.00493647835179 22.06332256 26.32574812 34.60780130
1195 1 1 0.0144100482472 20.59243439 28.87340116 34.60780130
1196 1 1 0.00652436416663 22.06332256 31.42105421 34.60780130
1197 1 1 0.0129179904996 20.59243439 33.96870725 34.60780130
1198 1 1 0.0085794794031 22.06332256 36.51636030 34.60780130
1199 1 1 0.0205188740965 20.59243439 39.06401334 34.60780130
1200 1 1 0.0207135082428 22.06332256 21.23044203 34.60780130
1201 1 1 -0.00825926446512 17.65065805 40.76244870 25.00000000
1202 1 1 -0.01391077093 19.12154622 43.31010174 25.00000000
1203 1 1 -0.00425099129108 17.65065805 45.85775479 25.00000000
1204 1 1 -0.00174198371051 19.12154622 48.40540783 25.00000000
1205 1 1 -0.00476120750622 17.65065805 50.95306088 25.00000000
1206 1 1 -0.00561210444553 19.12154622 53.50071392 25.00000000
1207 1 1 -0.000496849989439 17.65065805 56.04836697 25.00000000
1208 1 1 0.0158667637387 19.12154622 58.59602001 25.00000000
1209 1 1 -0.0213190372364 20.59243439 40.76244870 25.00000000
1210 1 1 -0.0147698959187 22.06332256 43.31010174 25.00000000
1211 1 1 -0.00515050397809 20.59243439 45.85775479 25.00000000
1212 1 1 0.0055835579396 22.06332256 48.40540783 25.00000000
1213 1 1 -0.00247369123717 20.59243439 50.95306088 25.00000000
1214 1 1 -0.00864616536504 22.06332256 53.50071392 25.00000000
1215 1 1 0.000648462921879 20.59243439 56.04836697 25.00000000
1216 1 1 0.00924404620461 22.06332256 58.59602001 25.00000000
1217 1 1 -0.0159829700852 23.53421073 40.76244870 25.00000000
1218 1 1 -0.00612365470227 25.00509890 43.31010174 25.00000000
1219 1 1 0.00428369467843 23.53421073 45.85775479 25.00000000
1220 1 1 0.0145151550581 25.00509890 48.40540783 25.00000000
1221 1 1 0.00109360779928 23.53421073 50.95306088 25.00000000
1222 1 1 -0.0145091506544 25.00509890 53.50071392 25.00000000
1223 1 1 -0.0118652622899 23.53421073 56.04836697 25.00000000
1224 1 1 -0.00818270491586 25.00509890 58.59602001 25.00000000
1225 1 1 -0.00953600310012 26.47598708 40.76244870 25.00000000
1226 1 1 -0.00612365471118 27.94687525 43.31010174 25.00000000
1227 1 1 0.0107623760773 26.47598708 45.85775479 25.00000000
1228 1 1 0.0145151550227 27.94687525 48.40540783 25.00000000
1229 1 1 0.00268698914381 26.47598708 50.95306088 25.00000000
1230 1 1 -0.0145091506538 27.94687525 53.50071392 25.00000000
1231 1 1 -0.0203681871824 26.47598708 56.04836697 25.00000000
1232 1 1 -0.00818270489136 27.94687525 58.59602001 25.00000000
1233 1 1 -0.0159829700662 29.41776342 40.76244870 25.00000000
1234 1 1 -0.0147698959069 30.88865159 43.31010174 25.00000000
1235 1 1 0.00428369463302 29.41776342 45.85775479 25.00000000
1236 1 1 0.00558355786879 30.88865159 48.40540783 25.00000000
1237 1 1 0.00109360775823 29.41776342 50.95306088 25.00000000
1238 1 1 -0.00864616537366 30.88865159 53.50071392 25.00000000
1239 1 1 -0.0118652622619 29.41776342 56.04836697 25.00000000
1240 1 1 0.00924404622988 30.88865159 58.59602001 25.00000000
1241 1 1 -0.0213190371596 32.35953976 40.76244870 25.00000000
1242 1 1 -0.0139107708559 33.83042793 43.31010174 25.00000000
1243 1 1 -0.00515050399993 32.35953976 45.85775479 25.00000000
1244 1 1 -0.00174198375137 33.83042793 48.40540783 25.00000000
1245 1 1 -0.0024736912908 32.35953976 50.95306088 25.00000000
1246 1 1 -0.00561210446722 33.83042793 53.50071392 25.00000000
1247 1 1 0.000648462928572 32.35953976 56.04836697 25.00000000
1248 1 1 0.0158667637091 33.83042793 58.59602001 25.00000000
1249 1 1 0.00379261897716 19.12154622 41.61166638 27.40195032
1250 1 1 0.00394592651858 20.59243439 44.15931943 27.40195032
1251 1 1 0.00722505181656 19.12154622 46.70697247 27.40195032
1252 1 1 0.00932885400923 20.59243439 49.25462551 27.40195032
1253 1 1 0.00356107153695 19.12154622 51.80227856 27.40195032
1254 1 1 0.00230068341289 20.59243439 54.34993160 27.40195032
1255 1 1 0.00960485789434 19.12154622 56.89758465 27.40195032
1256 1 1 0.0184549830248 20.59243439 59.44523769 27.40195032
1257 1 1 0.00476583030106 22.06332256 41.61166638 27.40195032
1258 1 1 0.0104808260776 23.53421073 44.15931943 27.40195032
1259 1 1 0.0126961477763 22.06332256 46.70697247 27.40195032
1260 1 1 0.0155554829274 23.53421073 49.25462551 27.40195032
1261 1 1 0.00477756648556 22.06332256 51.80227856 27.40195032
1262 1 1 -0.00332950384246 23.53421073 54.34993160 27.40195032
1263 1 1 0.00492387946595 22.06332256 56.89758465 27.40195032
1264 1 1 0.00731355461025 23.53421073 59.44523769 27.40195032
1265 1 1 0.0129295195872 25.00509890 41.61166638 27.40195032
1266 1 1 0.0154711491734 26.47598708 44.15931943 27.40195032
1267 1 1 0.020496429819 25.00509890 46.70697247 27.40195032
1268 1 1 0.0188418243548 26.47598708 49.25462551 27.40195032
1269 1 1 0.00500343627034 25.00509890 51.80227856 27.40195032
1270 1 1 -0.00718326979167 26.47598708 54.34993160 27.40195032
1271 1 1 -0.00566817336272 25.00509890 56.89758465 27.40195032
1272 1 1 -0.000985278599352 26.47598708 59.44523769 27.40195032
1273 1 1 0.0129295195976 27.94687525 41.61166638 27.40195032
1274 1 1 0.010480826062 29.41776342 44.15931943 27.40195032
1275 1 1 0.0204964297891 27.94687525 46.70697247 27.40195032
1276 1 1 0.0155554828743 29.41776342 49.25462551 27.40195032
1277 1 1 0.0050034362539 27.94687525 51.80227856 27.40195032
1278 1 1 -0.00332950385101 29.41776342 54.34993160 27.40195032
1279 1 1 -0.00566817336408 27.94687525 56.89758465 27.40195032
1280 1 1 0.00731355459066 29.41776342 59.44523769 27.40195032
1281 1 1 0.00476583034427 30.88865159 41.61166638 27.40195032
1282 1 1 0.00394592653131 32.35953976 44.15931943 27.40195032
1283 1 1 0.0126961477224 30.88865159 46.70697247 27.40195032
1284 1 1 0.00932885395101 32.35953976 49.25462551 27.40195032
1285 1 1 0.00477756644624 30.88865159 51.80227856 27.40195032
1286 1 1 0.00230068339226 32.35953976 54.34993160 27.40195032
1287 1 1 0.00492387945043 30.88865159 56.89758465 27.40195032
1288 1 1 0.0184549829745 32.35953976 59.44523769 27.40195032
1289 1 1 0.00379261905141 33.83042793 41.61166638 27.40195032
1290 1 1 0.00651238043023 17.65065805 44.15931943 27.40195032
1291 1 1 0.00722505180038 33.83042793 46.70697247 27.40195032
1292 1 1 0.00619754635932 17.65065805 49.25462551 27.40195032
1293 1 1 0.00356107150281 33.83042793 51.80227856 27.40195032
1294 1 1 0.00212754658734 17.65065805 54.34993160 27.40195032
1295 1 1 0.00960485786687 33.83042793 56.89758465 27.40195032
1296 1 1 0.0132457417022 17.65065805 59.44523769 27.40195032
1297 1 1 -0.000719442113861 20.59243439 42.46088406 29.80390065
1298 1 1 -0.000369213882635 22.06332256 45.00853711 29.80390065
1299 1 1 0.000269076225579 20.59243439 47.55619015 29.80390065
1300 1 1 0.000509167253127 22.06332256 50.10384320 29.80390065
1301 1 1 0.000531279328265 20.59243439 52.65149624 29.80390065
1302 1 1 0.000168314337479 22.06332256 55.19914928 29.80390065
1303 1 1 -0.000487278261632 20.59243439 57.74680233 29.80390065
1304 1 1 -0.000731826186595 22.06332256 60.29445537 29.80390065
1305 1 1 -0.000980367049194 23.53421073 42.46088406 29.80390065
1306 1 1 -0.000605562894116 25.00509890 45.00853711 29.80390065
1307 1 1 3.94279160407e-05 23.53421073 47.55619015 29.80390065
1308 1 1 0.000396355130476 25.00509890 50.10384320 29.80390065
1309 1 1 0.000529087834295 23.53421073 52.65149624 29.80390065
1310 1 1 0.000270942686589 25.00509890 55.19914928 29.80390065
1311 1 1 -0.000279720241998 23.53421073 57.74680233 29.80390065
1312 1 1 -0.000526604991199 25.00509890 60.29445537 29.80390065
1313 1 1 -0.0011287478 26.47598708 42.46088406 29.80390065
1314 1 1 -0.000605562898965 27.94687525 45.00853711 29.80390065
1315 1 1 -7.39750397968e-05 26.47598708 47.55619015 29.80390065
1316 1 1 0.000396355115335 27.94687525 50.10384320 29.80390065
1317 1 1 0.000527688785224 26.47598708 52.65149624 29.80390065
1318 1 1 0.00027094265835 27.94687525 55.19914928 29.80390065
1319 1 1 -0.000182030475066 26.47598708 57.74680233 29.80390065
1320 1 1 -0.000526605054929 27.94687525 60.29445537 29.80390065
1321 1 1 -0.000980367015465 29.41776342 42.46088406 29.80390065
1322 1 1 -0.000369213891329 30.88865159 45.00853711 29.80390065
1323 1 1 3.94278887768e-05 29.41776342 47.55619015 29.80390065
1324 1 1 0.000509167222936 30.88865159 50.10384320 29.80390065
1325 1 1 0.000529087806724 29.41776342 52.65149624 29.80390065
1326 1 1 0.000168314280736 30.88865159 55.19914928 29.80390065
1327 1 1 -0.000279720327143 29.41776342 57.74680233 29.80390065
1328 1 1 -0.000731826314503 30.88865159 60.29445537 29.80390065
1329 1 1 -0.000719442077797 32.35953976 42.46088406 29.80390065
1330 1 1 -0.000131624732193 33.83042793 45.00853711 29.80390065
1331 1 1 0.000269076199873 32.35953976 47.55619015 29.80390065
1332 1 1 0.000646197473768 33.83042793 50.10384320 29.80390065
1333 1 1 0.000531279300674 32.35953976 52.65149624 29.80390065
1334 1 1 4.68290787204e-05 33.83042793 55.19914928 29.80390065
1335 1 1 -0.000487278346524 32.35953976 57.74680233 29.80390065
1336 1 1 -0.000958521777283 33.83042793 60.29445537 29.80390065
1337 1 1 -0.000574757928639 17.65065805 42.46088406 29.80390065
1338 1 1 -0.000131624731058 19.12154622 45.00853711 29.80390065
1339 1 1 0.000455528044816 17.65065805 47.55619015 29.80390065
1340 1 1 0.000646197488728 19.12154622 50.10384320 29.80390065
1341 1 1 0.000539678264101 17.65065805 52.65149624 29.80390065
1342 1 1 4.6829107236e-05 19.12154622 55.19914928 29.80390065
1343 1 1 -0.00063526630188 17.65065805 57.74680233 29.80390065
1344 1 1 -0.000958521713097 19.12154622 60.29445537 29.80390065
1345 1 1 -0.00479013686998 22.06332256 43.31010174 32.20585097
1346 1 1 -0.0151087221612 23.53421073 45.85775479 32.20585097
1347 1 1 -0.0132170042937 22.06332256 48.40540783 32.20585097
1348 1 1 -0.0085265678388 23.53421073 50.95306088 32.20585097
1349 1 1 -0.000158205418601 22.06332256 53.50071392 32.20585097
1350 1 1 0.0029883509526 23.53421073 56.04836697 32.20585097
1351 1 1 -0.0115315232168 22.06332256 58.59602001 32.20585097
1352 1 1 -0.0117352643647 23.53421073 40.76244870 32.20585097
1353 1 1 -0.0124701314306 25.00509890 43.31010174 32.20585097
1354 1 1 -0.0201723451119 26.47598708 45.85775479 32.20585097
1355 1 1 -0.0200361276583 25.00509890 48.40540783 32.20585097
1356 1 1 -0.00979636872391 26.47598708 50.95306088 32.20585097
1357 1 1 0.00388791108313 25.00509890 53.50071392 32.20585097
1358 1 1 0.0090146568013 26.47598708 56.04836697 32.20585097
1359 1 1 0.000831022111597 25.00509890 58.59602001 32.20585097
1360 1 1 -0.0179345747129 26.47598708 40.76244870 32.20585097
1361 1 1 -0.0124701314075 27.94687525 43.31010174 32.20585097
1362 1 1 -0.0151087221521 29.41776342 45.85775479 32.20585097
1363 1 1 -0.0200361276566 27.94687525 48.40540783 32.20585097
1364 1 1 -0.00852656784687 29.41776342 50.95306088 32.20585097
1365 1 1 0.00388791105551 27.94687525 53.50071392 32.20585097
1366 1 1 0.00298835084587 29.41776342 56.04836697 32.20585097
1367 1 1 0.000831022015432 27.94687525 58.59602001 32.20585097
1368 1 1 -0.0117352642798 29.41776342 40.76244870 32.20585097
1369 1 1 -0.00479013684182 30.88865159 43.31010174 32.20585097
1370 1 1 -0.00732248865194 32.35953976 45.85775479 32.20585097
1371 1 1 -0.0132170042891 30.88865159 48.40540783 32.20585097
1372 1 1 -0.00563938077087 32.35953976 50.95306088 32.20585097
1373 1 1 -0.000158205466931 30.88865159 53.50071392 32.20585097
1374 1 1 -0.00580762874388 32.35953976 56.04836697 32.20585097
1375 1 1 -0.0115315233921 30.88865159 58.59602001 32.20585097
1376 1 1 -0.00421655031147 32.35953976 40.76244870 32.20585097
1377 1 1 -0.00323452765696 33.83042793 43.31010174 32.20585097
1378 1 1 -0.00672513263475 17.65065805 45.85775479 32.20585097
1379 1 1 -0.0073055260765 33.83042793 48.40540783 32.20585097
1380 1 1 -0.00354076034235 17.65065805 50.95306088 32.20585097
1381 1 1 -0.00206783519669 33.83042793 53.50071392 32.20585097
1382 1 1 -0.00474922097232 17.65065805 56.04836697 32.20585097
1383 1 1 -0.0160748953613 33.83042793 58.59602001 32.20585097
1384 1 1 -0.0095539716688 17.65065805 40.76244870 32.20585097
1385 1 1 -0.00323452763056 19.12154622 43.31010174 32.20585097
1386 1 1 -0.00732248864836 20.59243439 45.85775479 32.20585097
1387 1 1 -0.00730552608506 19.12154622 48.40540783 32.20585097
1388 1 1 -0.00563938077219 20.59243439 50.95306088 32.20585097
1389 1 1 -0.00206783518464 19.12154622 53.50071392 32.20585097
1390 1 1 -0.00580762865293 20.59243439 56.04836697 32.20585097
1391 1 1 -0.016074895305 19.12154622 58.59602001 32.20585097
1392 1 1 -0.00421655036212 20.59243439 40.76244870 32.20585097
1393 1 1 0.0067685175345 23.53421073 44.15931943 34.60780130
1394 1 1 -0.0125853983108 25.00509890 46.70697247 34.60780130
1395 1 1 -0.00990904478283 23.53421073 49.25462551 34.60780130
1396 1 1 0.00255545348935 25.00509890 51.80227856 34.60780130
1397 1 1 0.0128139680642 23.53421073 54.34993160 34.60780130
1398 1 1 0.0155212356653 25.00509890 56.89758465 34.60780130
1399 1 1 -0.00273600075597 23.53421073 59.44523769 34.60780130
1400 1 1 0.0133023622167 25.00509890 41.61166638 34.60780130
1401 1 1 0.000717803410625 26.47598708 44.15931943 34.60780130
1402 1 1 -0.0125853982979 27.94687525 46.70697247 34.60780130
1403 1 1 -0.0141906744233 26.47598708 49.25462551 34.60780130
1404 1 1 0.00255545348164 27.94687525 51.80227856 34.60780130
1405 1 1 0.0182292419627 26.47598708 54.34993160 34.60780130
1406 1 1 0.0155212355837 27.94687525 56.89758465 34.60780130
1407 1 1 0.00874660460029 26.47598708 59.44523769 34.60780130
1408 1 1 0.013302362254 27.94687525 41.61166638 34.60780130
1409 1 1 0.00676851756011 29.41776342 44.15931943 34.60780130
1410 1 1 -0.00270770643593 30.88865159 46.70697247 34.60780130
1411 1 1 -0.00990904476636 29.41776342 49.25462551 34.60780130
1412 1 1 0.00256374620642 30.88865159 51.80227856 34.60780130
1413 1 1 0.0128139679957 29.41776342 54.34993160 34.60780130
1414 1 1 0.000792718899172 30.88865159 56.89758465 34.60780130
1415 1 1 -0.00273600093507 29.41776342 59.44523769 34.60780130
1416 1 1 0.0215027322877 30.88865159 41.61166638 34.60780130
1417 1 1 0.0134942310194 32.35953976 44.15931943 34.60780130
1418 1 1 0.00323577508637 33.83042793 46.70697247 34.60780130
1419 1 1 -0.00205333972906 32.35953976 49.25462551 34.60780130
1420 1 1 0.00369175613835 33.83042793 51.80227856 34.60780130
1421 1 1 0.00477019971403 32.35953976 54.34993160 34.60780130
1422 1 1 -0.00585811311243 33.83042793 56.89758465 34.60780130
1423 1 1 -0.0181913768331 32.35953976 59.44523769 34.60780130
1424 1 1 0.0179801186077 33.83042793 41.61166638 34.60780130
1425 1 1 0.00689626700047 17.65065805 44.15931943 34.60780130
1426 1 1 0.00323577509203 19.12154622 46.70697247 34.60780130
1427 1 1 0.00122181203818 17.65065805 49.25462551 34.60780130
1428 1 1 0.00369175612422 19.12154622 51.80227856 34.60780130
1429 1 1 0.0046325786697 17.65065805 54.34993160 34.60780130
1430 1 1 -0.00585811306709 19.12154622 56.89758465 34.60780130
1431 1 1 -0.0110918573862 17.65065805 59.44523769 34.60780130
1432 1 1 0.0179801186637 19.12154622 41.61166638 34.60780130
1433 1 1 0.0134942310332 20.59243439 44.15931943 34.60780130
1434 1 1 -0.0027077064536 22.06332256 46.70697247 34.60780130
1435 1 1 -0.00205333975184 20.59243439 49.25462551 34.60780130
1436 1 1 0.0025637462137 22.06332256 51.80227856 34.60780130
1437 1 1 0.00477019976671 20.59243439 54.34993160 34.60780130
1438 1 1 0.00079271904502 22.06332256 56.89758465 34.60780130
1439 1 1 -0.018191376696 20.59243439 59.44523769 34.60780130
1440 1 1 0.0215027322455 22.06332256 41.61166638 34.60780130
1441 1 1 0.0153612728128 35.30131610 0.00000000 25.00000000
1442 1 1 0.000347224223704 36.77220427 2.54765304 25.00000000
1443 1 1 -0.000583008608315 35.30131610 5.09530609 25.00000000
1444 1 1 -0.00707237864987 36.77220427 7.64295913 25.00000000
1445 1 1 -0.00473906242896 35.30131610 10.19061218 25.00000000
1446 1 1 -0.00141819505534 36.77220427 12.73826522 25.00000000
1447 1 1 -0.00414874091673 35.30131610 15.28591827 25.00000000
1448 1 1 -0.000219519146352 36.77220427 17.83357131 25.00000000
1449 1 1 -0.00823398754916 38.24309244 0.00000000 25.00000000
1450 1 1 -0.0140319645317 39.71398061 2.54765304 25.00000000
1451 1 1 -0.00916015603259 38.24309244 5.09530609 25.00000000
1452 1 1 -0.0043306731949 39.71398061 7.64295913 25.00000000
1453 1 1 -0.00271751010416 38.24309244 10.19061218 25.00000000
1454 1 1 0.000812239091116 39.71398061 12.73826522 25.00000000
1455 1 1 0.00157601389563 38.24309244 15.28591827 25.00000000
1456 1 1 0.00563597553539 39.71398061 17.83357131 25.00000000
1457 1 1 -0.0157559952342 41.18486878 0.00000000 25.00000000
1458 1 1 -0.00716698791984 42.65575695 2.54765304 25.00000000
1459 1 1 -0.00667369626428 41.18486878 5.09530609 25.00000000
1460 1 1 0.00492253893855 42.65575695 7.64295913 25.00000000
1461 1 1 0.0025864745592 41.18486878 10.19061218 25.00000000
1462 1 1 -0.00112642402238 42.65575695 12.73826522 25.00000000
1463 1 1 -0.00203643027527 41.18486878 15.28591827 25.00000000
1464 1 1 -0.00702778459178 42.65575695 17.83357131 25.00000000
1465 1 1 -0.00114687314749 44.12664513 0.00000000 25.00000000
1466 1 1 0.00733096051568 45.59753330 2.54765304 25.00000000
1467 1 1 0.00555012139723 44.12664513 5.09530609 25.00000000
1468 1 1 0.00893276055852 45.59753330 7.64295913 25.00000000
1469 1 1 0.00569542639644 44.12664513 10.19061218 25.00000000
1470 1 1 -0.00385325955436 45.59753330 12.73826522 25.00000000
1471 1 1 -0.0118460938426 44.12664513 15.28591827 25.00000000
1472 1 1 -0.018087149929 45.59753330 17.83357131 25.00000000
1473 1 1 0.0101534951623 47.06842147 0.00000000 25.00000000
1474 1 1 0.00646772409692 48.53930964 2.54765304 25.00000000
1475 1 1 0.00755784917187 47.06842147 5.09530609 25.00000000
1476 1 1 -0.00115531786287 48.53930964 7.64295913 25.00000000
1477 1 1 0.00222801829651 47.06842147 10.19061218 25.00000000
1478 1 1 -0.00133467782208 48.53930964 12.73826522 25.00000000
1479 1 1 -0.0102504676194 47.06842147 15.28591827 25.00000000
1480 1 1 -0.00666826104864 48.53930964 17.83357131 25.00000000
1481 1 1 0.00405256232906 50.01019781 0.00000000 25.00000000
1482 1 1 -0.00484244782418 51.48108598 2.54765304 25.00000000
1483 1 1 -0.00590143299623 50.01019781 5.09530609 25.00000000
1484 1 1 -0.014936174201 51.48108598 7.64295913 25.00000000
1485 1 1 -0.00524426244865 50.01019781 10.19061218 25.00000000
1486 1 1 0.00374105240618 51.48108598 12.73826522 25.00000000
1487 1 1 0.00541078327903 50.01019781 15.28591827 25.00000000
1488 1 1 0.0137131661064 51.48108598 17.83357131 25.00000000
1489 1 1 0.0060331745593 36.77220427 0.84921768 27.40195032
1490 1 1 -0.0023155968491 38.24309244 3.39687073 27.40195032
1491 1 1 0.000749803969453 36.77220427 5.94452377 27.40195032
1492 1 1 0.00238688857038 38.24309244 8.49217681 27.40195032
1493 1 1 0.00525871930322 36.77220427 11.03982986 27.40195032
1494 1 1 0.00842261523374 38.24309244 13.58748290 27.40195032
1495 1 1 0.00917135047142 36.77220427 16.13513595 27.40195032
1496 1 1 0.0153985006413 38.24309244 18.68278899 27.40195032
1497 1 1 -0.00726852166288 39.71398061 0.84921768 27.40195032
1498 1 1 -0.00399322200831 41.18486878 3.39687073 27.40195032
1499 1 1 -0.000735334655256 39.71398061 5.94452377 27.40195032
1500 1 1 0.00687724564722 41.18486878 8.49217681 27.40195032
1501 1 1 0.00722199694851 39.71398061 11.03982986 27.40195032
1502 1 1 0.00661892712352 41.18486878 13.58748290 27.40195032
1503 1 1 0.00990985954536 39.71398061 16.13513595 27.40195032
1504 1 1 0.0108413200076 41.18486878 18.68278899 27.40195032
1505 1 1 -0.00329134870293 42.65575695 0.84921768 27.40195032
1506 1 1 0.00571829547495 44.12664513 3.39687073 27.40195032
1507 1 1 0.00597539727877 42.65575695 5.94452377 27.40195032
1508 1 1 0.0114128831338 44.12664513 8.49217681 27.40195032
1509 1 1 0.00864290395769 42.65575695 11.03982986 27.40195032
1510 1 1 0.00186262104936 44.12664513 13.58748290 27.40195032
1511 1 1 0.00129696836104 42.65575695 16.13513595 27.40195032
1512 1 1 -0.00292096864105 44.12664513 18.68278899 27.40195032
1513 1 1 0.00844182289963 45.59753330 0.84921768 27.40195032
1514 1 1 0.010381095395 47.06842147 3.39687073 27.40195032
1515 1 1 0.011262632757 45.59753330 5.94452377 27.40195032
1516 1 1 0.00846807474262 47.06842147 8.49217681 27.40195032
1517 1 1 0.00738695900304 45.59753330 11.03982986 27.40195032
1518 1 1 0.00153911162349 47.06842147 13.58748290 27.40195032
1519 1 1 -0.00516679185677 45.59753330 16.13513595 27.40195032
1520 1 1 -0.00565360185274 47.06842147 18.68278899 27.40195032
1521 1 1 0.00986341831036 48.53930964 0.84921768 27.40195032
1522 1 1 0.00311608462004 50.01019781 3.39687073 27.40195032
1523 1 1 0.00505269239641 48.53930964 5.94452377 27.40195032
1524 1 1 -0.000892277318531 50.01019781 8.49217681 27.40195032
1525 1 1 0.00437529030207 48.53930964 11.03982986 27.40195032
1526 1 1 0.00739518330611 50.01019781 13.58748290 27.40195032
1527 1 1 0.00212098275633 48.53930964 16.13513595 27.40195032
1528 1 1 0.00742412114061 50.01019781 18.68278899 27.40195032
1529 1 1 0.00302793805369 51.48108598 0.84921768 27.40195032
1530 1 1 0.00916402841844 35.30131610 3.39687073 27.40195032
1531 1 1 -0.00550763252886 51.48108598 5.94452377 27.40195032
1532 1 1 0.00215155571277 35.30131610 8.49217681 27.40195032
1533 1 1 0.00202698483128 51.48108598 11.03982986 27.40195032
1534 1 1 0.00720906702089 35.30131610 13.58748290 27.40195032
1535 1 1 0.0145737878412 51.48108598 16.13513595 27.40195032
1536 1 1 0.00712317499728 35.30131610 18.68278899 27.40195032
1537 1 1 -0.000895297691165 38.24309244 1.69843536 29.80390065
1538 1 1 -0.000375291108424 39.71398061 4.24608841 29.80390065
1539 1 1 0.00024051904846 38.24309244 6.79374145 29.80390065
1540 1 1 0.000642962197188 39.71398061 9.34139450 29.80390065
1541 1 1 0.000671060881825 38.24309244 11.88904754 29.80390065
1542 1 1 0.000341278762109 39.71398061 14.43670058 29.80390065
1543 1 1 -0.000220589236651 38.24309244 16.98435363 29.80390065
1544 1 1 -0.000574624883111 39.71398061 19.53200667 29.80390065
1545 1 1 -0.000801424593418 41.18486878 1.69843536 29.80390065
1546 1 1 -0.000343755003101 42.65575695 4.24608841 29.80390065
1547 1 1 0.000203020833983 41.18486878 6.79374145 29.80390065
1548 1 1 0.000561426793421 42.65575695 9.34139450 29.80390065
1549 1 1 0.000663419450244 41.18486878 11.88904754 29.80390065
1550 1 1 0.000326503625263 42.65575695 14.43670058 29.80390065
1551 1 1 -0.000135334618489 41.18486878 16.98435363 29.80390065
1552 1 1 -0.000469726817034 42.65575695 19.53200667 29.80390065
1553 1 1 -0.000690624723741 44.12664513 1.69843536 29.80390065
1554 1 1 -0.000258183533849 45.59753330 4.24608841 29.80390065
1555 1 1 0.000165096331725 44.12664513 6.79374145 29.80390065
1556 1 1 0.000462438748579 45.59753330 9.34139450 29.80390065
1557 1 1 0.000539070218848 44.12664513 11.88904754 29.80390065
1558 1 1 0.000142861177023 45.59753330 14.43670058 29.80390065
1559 1 1 -0.000167398242386 44.12664513 16.98435363 29.80390065
1560 1 1 -0.000526031489891 45.59753330 19.53200667 29.80390065
1561 1 1 -0.00051373735889 47.06842147 1.69843536 29.80390065
1562 1 1 -5.24469408655e-05 48.53930964 4.24608841 29.80390065
1563 1 1 0.000227901250561 47.06842147 6.79374145 29.80390065
1564 1 1 0.000449480540206 48.53930964 9.34139450 29.80390065
1565 1 1 0.000349394236121 47.06842147 11.88904754 29.80390065
1566 1 1 -0.000143492545312 48.53930964 14.43670058 29.80390065
1567 1 1 -0.000402923415713 47.06842147 16.98435363 29.80390065
1568 1 1 -0.000752772320313 48.53930964 19.53200667 29.80390065
1569 1 1 -0.000276523650005 50.01019781 1.69843536 29.80390065
1570 1 1 0.000157375508375 51.48108598 4.24608841 29.80390065
1571 1 1 0.000402192667929 50.01019781 6.79374145 29.80390065
1572 1 1 0.000502651719174 51.48108598 9.34139450 29.80390065
1573 1 1 0.000208139485721 50.01019781 11.88904754 29.80390065
1574 1 1 -0.000350893458208 51.48108598 14.43670058 29.80390065
1575 1 1 -0.000703729613524 50.01019781 16.98435363 29.80390065
1576 1 1 -0.000953056454544 51.48108598 19.53200667 29.80390065
1577 1 1 -0.000899847807874 35.30131610 1.69843536 29.80390065
1578 1 1 -0.000383248185576 36.77220427 4.24608841 29.80390065
1579 1 1 0.000280417734352 35.30131610 6.79374145 29.80390065
1580 1 1 0.000656632223628 36.77220427 9.34139450 29.80390065
1581 1 1 0.000598470082219 35.30131610 11.88904754 29.80390065
1582 1 1 0.000262735745744 36.77220427 14.43670058 29.80390065
1583 1 1 -0.000318315076753 35.30131610 16.98435363 29.80390065
1584 1 1 -0.000675305722454 36.77220427 19.53200667 29.80390065
1585 1 1 0.00582336314371 39.71398061 2.54765304 32.20585097
1586 1 1 0.0001646509412 41.18486878 5.09530609 32.20585097
1587 1 1 -0.00228230076967 39.71398061 7.64295913 32.20585097
1588 1 1 -0.00770764669246 41.18486878 10.19061218 32.20585097
1589 1 1 -0.0074730548958 39.71398061 12.73826522 32.20585097
1590 1 1 -0.00575732169034 41.18486878 15.28591827 32.20585097
1591 1 1 -0.0130585565795 39.71398061 17.83357131 32.20585097
1592 1 1 0.00733849788747 41.18486878 0.00000000 32.20585097
1593 1 1 0.00104400631119 42.65575695 2.54765304 32.20585097
1594 1 1 -0.00847252303882 44.12664513 5.09530609 32.20585097
1595 1 1 -0.00862433835551 42.65575695 7.64295913 32.20585097
1596 1 1 -0.0095143813423 44.12664513 10.19061218 32.20585097
1597 1 1 -0.00531812230878 42.65575695 12.73826522 32.20585097
1598 1 1 0.00227640811256 44.12664513 15.28591827 32.20585097
1599 1 1 -0.00235484252408 42.65575695 17.83357131 32.20585097
1600 1 1 -0.00307491163427 44.12664513 0.00000000 32.20585097
1601 1 1 -0.009334262735 45.59753330 2.54765304 32.20585097
1602 1 1 -0.00983261655104 47.06842147 5.09530609 32.20585097
1603 1 1 -0.0112947818467 45.59753330 7.64295913 32.20585097
1604 1 1 -0.00670398528461 47.06842147 10.19061218 32.20585097
1605 1 1 -0.00278560423402 45.59753330 12.73826522 32.20585097
1606 1 1 0.0018240354316 47.06842147 15.28591827 32.20585097
1607 1 1 0.00673245328523 45.59753330 17.83357131 32.20585097
1608 1 1 -0.0112246565659 47.06842147 0.00000000 32.20585097
1609 1 1 -0.00873064862268 48.53930964 2.54765304 32.20585097
1610 1 1 -8.06448111808e-05 50.01019781 5.09530609 32.20585097
1611 1 1 -0.00386068220578 48.53930964 7.64295913 32.20585097
1612 1 1 -0.00108092304968 50.01019781 10.19061218 32.20585097
1613 1 1 -0.00418641280723 48.53930964 12.73826522 32.20585097
1614 1 1 -0.00898387550952 50.01019781 15.28591827 32.20585097
1615 1 1 -0.000725957018922 48.53930964 17.83357131 32.20585097
1616 1 1 -0.00689940776985 50.01019781 0.00000000 32.20585097
1617 1 1 -0.000611895545797 51.48108598 2.54765304 32.20585097
1618 1 1 -0.00473119716301 35.30131610 5.09530609 32.20585097
1619 1 1 0.00618795124404 51.48108598 7.64295913 32.20585097
1620 1 1 -0.00354624287423 35.30131610 10.19061218 32.20585097
1621 1 1 -0.00758802941768 51.48108598 12.73826522 32.20585097
1622 1 1 -0.00674954068675 35.30131610 15.28591827 32.20585097
1623 1 1 -0.0149665590068 51.48108598 17.83357131 32.20585097
1624 1 1 -0.0154305075535 35.30131610 0.00000000 32.20585097
1625 1 1 -0.00473392791533 36.77220427 2.54765304 32.20585097
1626 1 1 0.00170805783894 38.24309244 5.09530609 32.20585097
1627 1 1 -0.000692412418573 36.77220427 7.64295913 32.20585097
1628 1 1 -0.00444318348951 38.24309244 10.19061218 32.20585097
1629 1 1 -0.00671537740141 36.77220427 12.73826522 32.20585097
1630 1 1 -0.00957235222683 38.24309244 15.28591827 32.20585097
1631 1 1 -0.0108313166642 36.77220427 17.83357131 32.20585097
1632 1 1 0.00174330400309 38.24309244 0.00000000 32.20585097
1633 1 1 0.0122904903647 41.18486878 3.39687073 34.60780130
1634 1 1 -0.00177939937356 42.65575695 5.94452377 34.60780130
1635 1 1 -0.00259182104634 41.18486878 8.49217681 34.60780130
1636 1 1 -0.00468185712252 42.65575695 11.03982986 34.60780130
1637 1 1 -0.000379886350142 41.18486878 13.58748290 34.60780130
1638 1 1 0.00788065662033 42.65575695 16.13513595 34.60780130
1639 1 1 -0.00274038104972 41.18486878 18.68278899 34.60780130
1640 1 1 0.0112787474289 42.65575695 0.84921768 34.60780130
1641 1 1 -0.001517799623 44.12664513 3.39687073 34.60780130
1642 1 1 -0.00949172595376 45.59753330 5.94452377 34.60780130
1643 1 1 -0.00936545491411 44.12664513 8.49217681 34.60780130
1644 1 1 -0.00349350650331 45.59753330 11.03982986 34.60780130
1645 1 1 0.00533809708465 44.12664513 13.58748290 34.60780130
1646 1 1 0.0157725158157 45.59753330 16.13513595 34.60780130
1647 1 1 0.0144020968648 44.12664513 18.68278899 34.60780130
1648 1 1 -0.00534486490338 45.59753330 0.84921768 34.60780130
1649 1 1 -0.00832799864477 47.06842147 3.39687073 34.60780130
1650 1 1 -0.00111737166898 48.53930964 5.94452377 34.60780130
1651 1 1 -0.00563665912489 47.06842147 8.49217681 34.60780130
1652 1 1 0.000361895731293 48.53930964 11.03982986 34.60780130
1653 1 1 0.00518033506608 47.06842147 13.58748290 34.60780130
1654 1 1 0.00503610566639 48.53930964 16.13513595 34.60780130
1655 1 1 0.0169680462585 47.06842147 18.68278899 34.60780130
1656 1 1 -0.00766064863332 48.53930964 0.84921768 34.60780130
1657 1 1 0.00152796518819 50.01019781 3.39687073 34.60780130
1658 1 1 0.0134605403692 51.48108598 5.94452377 34.60780130
1659 1 1 0.00721381022363 50.01019781 8.49217681 34.60780130
1660 1 1 0.00352698356486 51.48108598 11.03982986 34.60780130
1661 1 1 -0.00323582848494 50.01019781 13.58748290 34.60780130
1662 1 1 -0.0124778311956 51.48108598 16.13513595 34.60780130
1663 1 1 -0.0017618131453 50.01019781 18.68278899 34.60780130
1664 1 1 0.00162057334871 51.48108598 0.84921768 34.60780130
1665 1 1 -0.00545694198918 35.30131610 3.39687073 34.60780130
1666 1 1 0.00620421815832 36.77220427 5.94452377 34.60780130
1667 1 1 0.00499189959585 35.30131610 8.49217681 34.60780130
1668 1 1 0.00149621143882 36.77220427 11.03982986 34.60780130
1669 1 1 0.00143080393473 35.30131610 13.58748290 34.60780130
1670 1 1 0.000674180450051 36.77220427 16.13513595 34.60780130
1671 1 1 0.0091238972614 35.30131610 18.68278899 34.60780130
1672 1 1 -0.00120077445534 36.77220427 0.84921768 34.60780130
1673 1 1 0.0102342413795 38.24309244 3.39687073 34.60780130
1674 1 1 0.00791317134306 39.71398061 5.94452377 34.60780130
1675 1 1 0.00413805534273 38.24309244 8.49217681 34.60780130
1676 1 1 -0.00202982147346 39.71398061 11.03982986 34.60780130
1677 1 1 -0.00171979466114 38.24309244 13.58748290 34.60780130
1678 1 1 -0.00250577391346 39.71398061 16.13513595 34.60780130
1679 1 1 -0.00620922855602 38.24309244 18.68278899 34.60780130
1680 1 1 0.0170525421141 39.71398061 0.84921768 34.60780130
1681 1 1 -0.00827582835115 35.30131610 20.38122435 25.00000000
1682 1 1 0.00272058982271 36.77220427 22.92887739 25.00000000
1683 1 1 -0.0117827243559 35.30131610 25.47653044 25.00000000
1684 1 1 -0.0151585032303 36.77220427 28.02418348 25.00000000
1685 1 1 -0.0244331522557 35.30131610 30.57183653 25.00000000
1686 1 1 -0.0150632999731 36.77220427 33.11948957 25.00000000
1687 1 1 -0.0116477468694 35.30131610 35.66714262 25.00000000
1688 1 1 0.00282433117878 36.77220427 38.21479566 25.00000000
1689 1 1 0.0105285902375 38.24309244 20.38122435 25.00000000
1690 1 1 0.01654614646 39.71398061 22.92887739 25.00000000
1691 1 1 0.00466679206557 38.24309244 25.47653044 25.00000000
1692 1 1 -0.00118450693331 39.71398061 28.02418348 25.00000000
1693 1 1 -0.0138554870531 38.24309244 30.57183653 25.00000000
1694 1 1 -0.00109520647367 39.71398061 33.11948957 25.00000000
1695 1 1 0.00480034240448 38.24309244 35.66714262 25.00000000
1696 1 1 0.016645296856 39.71398061 38.21479566 25.00000000
1697 1 1 0.00887123941754 41.18486878 20.38122435 25.00000000
1698 1 1 0.00635228261584 42.65575695 22.92887739 25.00000000
1699 1 1 0.0108092180279 41.18486878 25.47653044 25.00000000
1700 1 1 0.000306275370537 42.65575695 28.02418348 25.00000000
1701 1 1 -0.0031101023376 41.18486878 30.57183653 25.00000000
1702 1 1 0.000389079897014 42.65575695 33.11948957 25.00000000
1703 1 1 0.0109330897594 41.18486878 35.66714262 25.00000000
1704 1 1 0.00644172342551 42.65575695 38.21479566 25.00000000
1705 1 1 -0.0100255976453 44.12664513 20.38122435 25.00000000
1706 1 1 -0.0110720880342 45.59753330 22.92887739 25.00000000
1707 1 1 -0.00140227674353 44.12664513 25.47653044 25.00000000
1708 1 1 -0.00763839594273 45.59753330 28.02418348 25.00000000
1709 1 1 -0.00557230763338 44.12664513 30.57183653 25.00000000
1710 1 1 -0.00756395001088 45.59753330 33.11948957 25.00000000
1711 1 1 -0.00128903750814 44.12664513 35.66714262 25.00000000
1712 1 1 -0.0109974974309 45.59753330 38.21479566 25.00000000
1713 1 1 -0.0158643701374 47.06842147 20.38122435 25.00000000
1714 1 1 -0.00926726795873 48.53930964 22.92887739 25.00000000
1715 1 1 -0.0101318514605 47.06842147 25.47653044 25.00000000
1716 1 1 -0.00619585160061 48.53930964 28.02418348 25.00000000
1717 1 1 -0.00845694107009 47.06842147 30.57183653 25.00000000
1718 1 1 -0.0061364200539 48.53930964 33.11948957 25.00000000
1719 1 1 -0.0100377647665 47.06842147 35.66714262 25.00000000
1720 1 1 -0.00921812872056 48.53930964 38.21479566 25.00000000
1721 1 1 0.000837494009384 50.01019781 20.38122435 25.00000000
1722 1 1 0.00497763953365 51.48108598 22.92887739 25.00000000
1723 1 1 -0.00227347358389 50.01019781 25.47653044 25.00000000
1724 1 1 0.00337157164465 51.48108598 28.02418348 25.00000000
1725 1 1 -0.000681673953961 50.01019781 30.57183653 25.00000000
1726 1 1 0.00341659887163 51.48108598 33.11948957 25.00000000
1727 1 1 -0.00220631286139 50.01019781 35.66714262 25.00000000
1728 1 1 0.00500309705599 51.48108598 38.21479566 25.00000000
1729 1 1 0.016744135943 36.77220427 21.23044203 27.40195032
1730 1 1 0.0231442636539 38.24309244 23.77809508 27.40195032
1731 1 1 0.0167925266749 36.77220427 26.32574812 27.40195032
1732 1 1 0.0124531026871 38.24309244 28.87340116 27.40195032
1733 1 1 0.0110516435031 36.77220427 31.42105421 27.40195032
1734 1 1 0.0164821094049 38.24309244 33.96870725 27.40195032
1735 1 1 0.019028319074 36.77220427 36.51636030 27.40195032
1736 1 1 0.0224757412086 38.24309244 39.06401334 27.40195032
1737 1 1 0.0218615097012 39.71398061 21.23044203 27.40195032
1738 1 1 0.0214802487479 41.18486878 23.77809508 27.40195032
1739 1 1 0.0200830056219 39.71398061 26.32574812 27.40195032
1740 1 1 0.0134760747553 41.18486878 28.87340116 27.40195032
1741 1 1 0.0124297546608 39.71398061 31.42105421 27.40195032
1742 1 1 0.0168310926462 41.18486878 33.96870725 27.40195032
1743 1 1 0.0235625356412 39.71398061 36.51636030 27.40195032
1744 1 1 0.0197026667911 41.18486878 39.06401334 27.40195032
1745 1 1 0.010360715853 42.65575695 21.23044203 27.40195032
1746 1 1 0.007182742799 44.12664513 23.77809508 27.40195032
1747 1 1 0.0143337938831 42.65575695 26.32574812 27.40195032
1748 1 1 0.00719514556318 44.12664513 28.87340116 27.40195032
1749 1 1 0.0103056533902 42.65575695 31.42105421 27.40195032
1750 1 1 0.00813576380936 44.12664513 33.96870725 27.40195032
1751 1 1 0.0153215935167 42.65575695 36.51636030 27.40195032
1752 1 1 0.00409380313663 44.12664513 39.06401334 27.40195032
1753 1 1 -0.00350955820423 45.59753330 21.23044203 27.40195032
1754 1 1 -0.00146110819311 47.06842147 23.77809508 27.40195032
1755 1 1 0.00346640937346 45.59753330 26.32574812 27.40195032
1756 1 1 0.00248773705865 47.06842147 28.87340116 27.40195032
1757 1 1 0.00372990539732 45.59753330 31.42105421 27.40195032
1758 1 1 0.00179686014776 47.06842147 33.96870725 27.40195032
1759 1 1 0.00208353140542 45.59753330 36.51636030 27.40195032
1760 1 1 -0.0036307389578 47.06842147 39.06401334 27.40195032
1761 1 1 -0.000957523468981 48.53930964 21.23044203 27.40195032
1762 1 1 0.00462135180258 50.01019781 23.77809508 27.40195032
1763 1 1 0.00234128908188 48.53930964 26.32574812 27.40195032
1764 1 1 0.00696691722015 50.01019781 28.87340116 27.40195032
1765 1 1 0.00406729252268 48.53930964 31.42105421 27.40195032
1766 1 1 0.006126162587 50.01019781 33.96870725 27.40195032
1767 1 1 0.000932989133002 48.53930964 36.51636030 27.40195032
1768 1 1 0.00481686679759 50.01019781 39.06401334 27.40195032
1769 1 1 0.0108951855837 51.48108598 21.23044203 27.40195032
1770 1 1 0.0158012365585 35.30131610 23.77809508 27.40195032
1771 1 1 0.00902654791593 51.48108598 26.32574812 27.40195032
1772 1 1 0.0151085894493 35.30131610 28.87340116 27.40195032
1773 1 1 0.0102448315333 51.48108598 31.42105421 27.40195032
1774 1 1 0.0164216690131 35.30131610 33.96870725 27.40195032
1775 1 1 0.00871089068347 51.48108598 36.51636030 27.40195032
1776 1 1 0.0128391677177 35.30131610 39.06401334 27.40195032
1777 1 1 -0.000719758681581 38.24309244 22.07965971 29.80390065
1778 1 1 -0.000400608442048 39.71398061 24.62731276 29.80390065
1779 1 1 -0.000107740221101 38.24309244 27.17496580 29.80390065
1780 1 1 0.000178228855521 39.71398061 29.72261885 29.80390065
1781 1 1 -1.72731497583e-06 38.24309244 32.27027189 29.80390065
1782 1 1 -0.00027720524644 39.71398061 34.81792493 29.80390065
1783 1 1 -0.000701870208537 38.24309244 37.36557798 29.80390065
1784 1 1 -0.000722246184221 39.71398061 39.91323102 29.80390065
1785 1 1 -0.000569889897073 41.18486878 22.07965971 29.80390065
1786 1 1 -0.000224649606851 42.65575695 24.62731276 29.80390065
1787 1 1 6.29877077269e-05 41.18486878 27.17496580 29.80390065
1788 1 1 0.000364172111259 42.65575695 29.72261885 29.80390065
1789 1 1 0.000169009898398 41.18486878 32.27027189 29.80390065
1790 1 1 -8.39155123418e-05 42.65575695 34.81792493 29.80390065
1791 1 1 -0.000537876052825 41.18486878 37.36557798 29.80390065
1792 1 1 -0.000573863402604 42.65575695 39.91323102 29.80390065
1793 1 1 -0.00046719631249 44.12664513 22.07965971 29.80390065
1794 1 1 -0.000147117789002 45.59753330 24.62731276 29.80390065
1795 1 1 0.000220041513967 44.12664513 27.17496580 29.80390065
1796 1 1 0.000497500834626 45.59753330 29.72261885 29.80390065
1797 1 1 0.000343180504651 44.12664513 32.27027189 29.80390065
1798 1 1 4.47516292722e-05 45.59753330 34.81792493 29.80390065
1799 1 1 -0.000385007496983 44.12664513 37.36557798 29.80390065
1800 1 1 -0.000552709821552 45.59753330 39.91323102 29.80390065
1801 1 1 -0.000530104876365 47.06842147 22.07965971 29.80390065
1802 1 1 -0.000164598226936 48.53930964 24.62731276 29.80390065
1803 1 1 0.000296826169876 47.06842147 27.17496580 29.80390065
1804 1 1 0.000604372155138 48.53930964 29.72261885 29.80390065
1805 1 1 0.000457730022634 47.06842147 32.27027189 29.80390065
1806 1 1 0.000104313347635 48.53930964 34.81792493 29.80390065
1807 1 1 -0.000362404777038 47.06842147 37.36557798 29.80390065
1808 1 1 -0.000691123946171 48.53930964 39.91323102 29.80390065
1809 1 1 -0.000667161024065 50.01019781 22.07965971 29.80390065
1810 1 1 -0.000183686131977 51.48108598 24.62731276 29.80390065
1811 1 1 0.000359307058671 50.01019781 27.17496580 29.80390065
1812 1 1 0.000704422061327 51.48108598 29.72261885 29.80390065
1813 1 1 0.000564147200222 50.01019781 32.27027189 29.80390065
1814 1 1 0.000146535939783 51.48108598 34.81792493 29.80390065
1815 1 1 -0.000409605429032 50.01019781 37.36557798 29.80390065
1816 1 1 -0.000830384950933 51.48108598 39.91323102 29.80390065
1817 1 1 -0.000794413372253 35.30131610 22.07965971 29.80390065
1818 1 1 -0.000523406647605 36.77220427 24.62731276 29.80390065
1819 1 1 -0.000164801977566 35.30131610 27.17496580 29.80390065
1820 1 1 6.57472706834e-05 36.77220427 29.72261885 29.80390065
1821 1 1 -4.67746072353e-05 35.30131610 32.27027189 29.80390065
1822 1 1 -0.000393208045515 36.77220427 34.81792493 29.80390065
1823 1 1 -0.000761978544108 35.30131610 37.36557798 29.80390065
1824 1 1 -0.000825333566998 36.77220427 39.91323102 29.80390065
1825 1 1 -0.0243791753364 39.71398061 22.92887739 32.20585097
1826 1 1 -0.0200153661248 41.18486878 25.47653044 32.20585097
1827 1 1 -0.0151654998835 39.71398061 28.02418348 32.20585097
1828 1 1 -0.0115727628793 41.18486878 30.57183653 32.20585097
1829 1 1 -0.0151930394035 39.71398061 33.11948957 32.20585097
1830 1 1 -0.020053432525 41.18486878 35.66714262 32.20585097
1831 1 1 -0.0244075904419 39.71398061 38.21479566 32.20585097
1832 1 1 -0.0157221257573 41.18486878 20.38122435 32.20585097
1833 1 1 -0.0139931962174 42.65575695 22.92887739 32.20585097
1834 1 1 -0.00828267777207 44.12664513 25.47653044 32.20585097
1835 1 1 -0.0116418384319 42.65575695 28.02418348 32.20585097
1836 1 1 -0.00622995636043 44.12664513 30.57183653 32.20585097
1837 1 1 -0.0116676423603 42.65575695 33.11948957 32.20585097
1838 1 1 -0.00831224807651 44.12664513 35.66714262 32.20585097
1839 1 1 -0.0140196320004 42.65575695 38.21479566 32.20585097
1840 1 1 -0.000299244635172 44.12664513 20.38122435 32.20585097
1841 1 1 0.000366459579767 45.59753330 22.92887739 32.20585097
1842 1 1 -0.000364837408796 47.06842147 25.47653044 32.20585097
1843 1 1 -0.00344477871506 45.59753330 28.02418348 32.20585097
1844 1 1 -0.00225235599573 47.06842147 30.57183653 32.20585097
1845 1 1 -0.00346249382063 45.59753330 33.11948957 32.20585097
1846 1 1 -0.000382964475219 47.06842147 35.66714262 32.20585097
1847 1 1 0.000352605360726 45.59753330 38.21479566 32.20585097
1848 1 1 0.00506640670166 47.06842147 20.38122435 32.20585097
1849 1 1 0.000160469260139 48.53930964 22.92887739 32.20585097
1850 1 1 -0.00506469404457 50.01019781 25.47653044 32.20585097
1851 1 1 -0.00310430631238 48.53930964 28.02418348 32.20585097
1852 1 1 -0.00676924896808 50.01019781 30.57183653 32.20585097
1853 1 1 -0.00311745155094 48.53930964 33.11948957 32.20585097
1854 1 1 -0.00508171819759 50.01019781 35.66714262 32.20585097
1855 1 1 0.000153008392903 48.53930964 38.21479566 32.20585097
1856 1 1 -0.00622412627697 50.01019781 20.38122435 32.20585097
1857 1 1 -0.00949319893589 51.48108598 22.92887739 32.20585097
1858 1 1 -0.0167532703642 35.30131610 25.47653044 32.20585097
1859 1 1 -0.00925574692692 51.48108598 28.02418348 32.20585097
1860 1 1 -0.0137708381211 35.30131610 30.57183653 32.20585097
1861 1 1 -0.00927011850489 51.48108598 33.11948957 32.20585097
1862 1 1 -0.0167791331143 35.30131610 35.66714262 32.20585097
1863 1 1 -0.00950372497903 51.48108598 38.21479566 32.20585097
1864 1 1 -0.0095514972822 35.30131610 20.38122435 32.20585097
1865 1 1 -0.0190671868855 36.77220427 22.92887739 32.20585097
1866 1 1 -0.0206628629243 38.24309244 25.47653044 32.20585097
1867 1 1 -0.0130264988675 36.77220427 28.02418348 32.20585097
1868 1 1 -0.0103320591673 38.24309244 30.57183653 32.20585097
1869 1 1 -0.0130497930506 36.77220427 33.11948957 32.20585097
1870 1 1 -0.0206958014904 38.24309244 35.66714262 32.20585097
1871 1 1 -0.0190871913233 36.77220427 38.21479566 32.20585097
1872 1 1 -0.0195889186603 38.24309244 20.38122435 32.20585097
1873 1 1 -0.0134920450466 41.18486878 23.77809508 34.60780130
1874 1 1 -0.00458824174644 42.65575695 26.32574812 34.60780130
1875 1 1 0.000114579227855 41.18486878 28.87340116 34.60780130
1876 1 1 0.00171711893603 42.65575695 31.42105421 34.60780130
1877 1 1 -0.00502841352137 41.18486878 33.96870725 34.60780130
1878 1 1 -0.00656177820682 42.65575695 36.51636030 34.60780130
1879 1 1 -0.0122667722181 41.18486878 39.06401334 34.60780130
1880 1 1 -0.00156524473349 42.65575695 21.23044203 34.60780130
1881 1 1 0.0025949563605 44.12664513 23.77809508 34.60780130
1882 1 1 0.00687237353352 45.59753330 26.32574812 34.60780130
1883 1 1 0.00365773190418 44.12664513 28.87340116 34.60780130
1884 1 1 0.00677008709359 45.59753330 31.42105421 34.60780130
1885 1 1 0.00219300302949 44.12664513 33.96870725 34.60780130
1886 1 1 0.00860076405648 45.59753330 36.51636030 34.60780130
1887 1 1 0.00627851390991 44.12664513 39.06401334 34.60780130
1888 1 1 0.0154359651493 45.59753330 21.23044203 34.60780130
1889 1 1 0.0123056202037 47.06842147 23.77809508 34.60780130
1890 1 1 0.00646788907924 48.53930964 26.32574812 34.60780130
1891 1 1 0.00715933649138 47.06842147 28.87340116 34.60780130
1892 1 1 0.00411660536863 48.53930964 31.42105421 34.60780130
1893 1 1 0.00811856502493 47.06842147 33.96870725 34.60780130
1894 1 1 0.00842079176586 48.53930964 36.51636030 34.60780130
1895 1 1 0.0150768874083 47.06842147 39.06401334 34.60780130
1896 1 1 0.010645927545 48.53930964 21.23044203 34.60780130
1897 1 1 0.0027954507285 50.01019781 23.77809508 34.60780130
1898 1 1 -0.00353218823129 51.48108598 26.32574812 34.60780130
1899 1 1 -0.000450974240543 50.01019781 28.87340116 34.60780130
1900 1 1 -0.00526015318791 51.48108598 31.42105421 34.60780130
1901 1 1 0.000765645465688 50.01019781 33.96870725 34.60780130
1902 1 1 -0.00305119986644 51.48108598 36.51636030 34.60780130
1903 1 1 0.00242897685012 50.01019781 39.06401334 34.60780130
1904 1 1 -0.00626534857467 51.48108598 21.23044203 34.60780130
1905 1 1 0.00908483748393 35.30131610 23.77809508 34.60780130
1906 1 1 0.00746523339897 36.77220427 26.32574812 34.60780130
1907 1 1 0.0213454385916 35.30131610 28.87340116 34.60780130
1908 1 1 0.0191088974615 36.77220427 31.42105421 34.60780130
1909 1 1 0.016774742463 35.30131610 33.96870725 34.60780130
1910 1 1 0.00145902386138 36.77220427 36.51636030 34.60780130
1911 1 1 0.00883319765247 35.30131610 39.06401334 34.60780130
1912 1 1 -0.00191768308672 36.77220427 21.23044203 34.60780130
1913 1 1 -0.00996895555765 38.24309244 23.77809508 34.60780130
1914 1 1 -0.0067068935628 39.71398061 26.32574812 34.60780130
1915 1 1 0.0101914639458 38.24309244 28.87340116 34.60780130
1916 1 1 0.00555113510772 39.71398061 31.42105421 34.60780130
1917 1 1 0.00342868870176 38.24309244 33.96870725 34.60780130
1918 1 1 -0.0128973174002 39.71398061 36.51636030 34.60780130
1919 1 1 -0.0113835990192 38.24309244 39.06401334 34.60780130
1920 1 1 -0.0140819242158 39.71398061 21.23044203 34.60780130
1921 1 1 -0.00825926435735 35.30131610 40.76244870 25.00000000
1922 1 1 -0.000279879154463 36.77220427 43.31010174 25.00000000
1923 1 1 -0.00425099125683 35.30131610 45.85775479 25.00000000
1924 1 1 -0.00150531031484 36.77220427 48.40540783 25.00000000
1925 1 1 -0.00476120753481 35.30131610 50.95306088 25.00000000
1926 1 1 -0.00703628528327 36.77220427 53.50071392 25.00000000
1927 1 1 -0.000496850004345 35.30131610 56.04836697 25.00000000
1928 1 1 0.00040611984383 36.77220427 58.59602001 25.00000000
1929 1 1 0.0105515632415 38.24309244 40.76244870 25.00000000
1930 1 1 0.00557662186521 39.71398061 43.31010174 25.00000000
1931 1 1 0.00147498234723 38.24309244 45.85775479 25.00000000
1932 1 1 0.000720919200474 39.71398061 48.40540783 25.00000000
1933 1 1 -0.00275368671949 38.24309244 50.95306088 25.00000000
1934 1 1 -0.00430543545702 39.71398061 53.50071392 25.00000000
1935 1 1 -0.00909376601985 38.24309244 56.04836697 25.00000000
1936 1 1 -0.0139805497775 39.71398061 58.59602001 25.00000000
1937 1 1 0.00888898706037 41.18486878 40.76244870 25.00000000
1938 1 1 -0.00709337086256 42.65575695 43.31010174 25.00000000
1939 1 1 -0.00214056795733 41.18486878 45.85775479 25.00000000
1940 1 1 -0.00121826320745 42.65575695 48.40540783 25.00000000
1941 1 1 0.0025482907141 41.18486878 50.95306088 25.00000000
1942 1 1 0.0049556248613 42.65575695 53.50071392 25.00000000
1943 1 1 -0.00660895508747 41.18486878 56.04836697 25.00000000
1944 1 1 -0.00711098446642 42.65575695 58.59602001 25.00000000
1945 1 1 -0.0100176748181 44.12664513 40.76244870 25.00000000
1946 1 1 -0.0181592168788 45.59753330 43.31010174 25.00000000
1947 1 1 -0.0119530111694 44.12664513 45.85775479 25.00000000
1948 1 1 -0.003933930748 45.59753330 48.40540783 25.00000000
1949 1 1 0.00566909891393 44.12664513 50.95306088 25.00000000
1950 1 1 0.00899000315066 45.59753330 53.50071392 25.00000000
1951 1 1 0.00563057918837 44.12664513 56.04836697 25.00000000
1952 1 1 0.00739919377766 45.59753330 58.59602001 25.00000000
1953 1 1 -0.0158713260522 47.06842147 40.76244870 25.00000000
1954 1 1 -0.00674358348165 48.53930964 43.31010174 25.00000000
1955 1 1 -0.0103500831728 47.06842147 45.85775479 25.00000000
1956 1 1 -0.00138968616966 48.53930964 48.40540783 25.00000000
1957 1 1 0.00222927670683 47.06842147 50.95306088 25.00000000
1958 1 1 -0.00106688512122 48.53930964 53.50071392 25.00000000
1959 1 1 0.00766213022597 47.06842147 56.04836697 25.00000000
1960 1 1 0.00654809033371 48.53930964 58.59602001 25.00000000
1961 1 1 0.000812636582686 50.01019781 40.76244870 25.00000000
1962 1 1 0.0136368738114 51.48108598 43.31010174 25.00000000
1963 1 1 0.00532627994629 50.01019781 45.85775479 25.00000000
1964 1 1 0.00370956826319 51.48108598 48.40540783 25.00000000
1965 1 1 -0.00521068282495 50.01019781 50.95306088 25.00000000
1966 1 1 -0.0148254013595 51.48108598 53.50071392 25.00000000
1967 1 1 -0.00577699814642 50.01019781 56.04836697 25.00000000
1968 1 1 -0.00475524348323 51.48108598 58.59602001 25.00000000
1969 1 1 0.0135393649448 36.77220427 41.61166638 27.40195032
1970 1 1 0.0120075191342 38.24309244 44.15931943 27.40195032
1971 1 1 0.00829322351952 36.77220427 46.70697247 27.40195032
1972 1 1 0.00703992487125 38.24309244 49.25462551 27.40195032
1973 1 1 0.00288517036813 36.77220427 51.80227856 27.40195032
1974 1 1 -7.43765669413e-05 38.24309244 54.34993160 27.40195032
1975 1 1 0.00213344793562 36.77220427 56.89758465 27.40195032
1976 1 1 -0.00231364475053 38.24309244 59.44523769 27.40195032
1977 1 1 0.0174832559006 39.71398061 41.61166638 27.40195032
1978 1 1 0.00735150765755 41.18486878 44.15931943 27.40195032
1979 1 1 0.0085010791037 39.71398061 46.70697247 27.40195032
1980 1 1 0.00785983759556 41.18486878 49.25462551 27.40195032
1981 1 1 0.00547298662753 39.71398061 51.80227856 27.40195032
1982 1 1 0.00381887883686 41.18486878 54.34993160 27.40195032
1983 1 1 -0.003862112349 39.71398061 56.89758465 27.40195032
1984 1 1 -0.00673163385623 41.18486878 59.44523769 27.40195032
1985 1 1 0.00586663324489 42.65575695 41.61166638 27.40195032
1986 1 1 -0.00382276930328 44.12664513 44.15931943 27.40195032
1987 1 1 0.00280853133486 42.65575695 46.70697247 27.40195032
1988 1 1 0.00639984789866 44.12664513 49.25462551 27.40195032
1989 1 1 0.00989893129563 42.65575695 51.80227856 27.40195032
1990 1 1 0.010694501417 44.12664513 54.34993160 27.40195032
1991 1 1 0.00214447206219 42.65575695 56.89758465 27.40195032
1992 1 1 0.00356230449688 44.12664513 59.44523769 27.40195032
1993 1 1 -0.0060122029521 45.59753330 41.61166638 27.40195032
1994 1 1 -0.00438726175395 47.06842147 44.15931943 27.40195032
1995 1 1 -0.00149265840824 45.59753330 46.70697247 27.40195032
1996 1 1 0.00467245600276 47.06842147 49.25462551 27.40195032
1997 1 1 0.0102990198134 45.59753330 51.80227856 27.40195032
1998 1 1 0.00927338219236 47.06842147 54.34993160 27.40195032
1999 1 1 0.010219719799 45.59753330 56.89758465 27.40195032
2000 1 1 0.0107888961214 47.06842147 59.44523769 27.40195032
2001 1 1 -0.000669995584773 48.53930964 41.61166638 27.40195032
2002 1 1 0.00871158206923 50.01019781 44.15931943 27.40195032
2003 1 1 0.00359854578777 48.53930964 46.70697247 27.40195032
2004 1 1 0.00460960806813 50.01019781 49.25462551 27.40195032
2005 1 1 0.00407119971054 48.53930964 51.80227856 27.40195032
2006 1 1 -0.00134967816179 50.01019781 54.34993160 27.40195032
2007 1 1 0.00671830316628 48.53930964 56.89758465 27.40195032
2008 1 1 0.00569243530079 50.01019781 59.44523769 27.40195032
2009 1 1 0.0129859101138 51.48108598 41.61166638 27.40195032
2010 1 1 0.00651238047856 35.30131610 44.15931943 27.40195032
2011 1 1 0.0122548985584 51.48108598 46.70697247 27.40195032
2012 1 1 0.00619754634074 35.30131610 49.25462551 27.40195032
2013 1 1 -0.0030047056768 51.48108598 51.80227856 27.40195032
2014 1 1 0.00212754657677 35.30131610 54.34993160 27.40195032
2015 1 1 -0.00287423741631 51.48108598 56.89758465 27.40195032
2016 1 1 0.0132457416627 35.30131610 59.44523769 27.40195032
2017 1 1 -0.000493808244929 38.24309244 42.46088406 29.80390065
2018 1 1 9.7883172049e-05 39.71398061 45.00853711 29.80390065
2019 1 1 0.000568541572339 38.24309244 47.55619015 29.80390065
2020 1 1 0.000778484184422 39.71398061 50.10384320 29.80390065
2021 1 1 0.000545065471411 38.24309244 52.65149624 29.80390065
2022 1 1 -2.96612384288e-05 39.71398061 55.19914928 29.80390065
2023 1 1 -0.000648706732667 38.24309244 57.74680233 29.80390065
2024 1 1 -0.000954495630289 39.71398061 60.29445537 29.80390065
2025 1 1 -0.000381643123935 41.18486878 42.46088406 29.80390065
2026 1 1 0.000123077403026 42.65575695 45.00853711 29.80390065
2027 1 1 0.000597138107458 41.18486878 47.55619015 29.80390065
2028 1 1 0.000695022211705 42.65575695 50.10384320 29.80390065
2029 1 1 0.000497961399877 41.18486878 52.65149624 29.80390065
2030 1 1 -5.52151812959e-05 42.65575695 55.19914928 29.80390065
2031 1 1 -0.000596528969065 41.18486878 57.74680233 29.80390065
2032 1 1 -0.00083970638779 42.65575695 60.29445537 29.80390065
2033 1 1 -0.000354457036187 44.12664513 42.46088406 29.80390065
2034 1 1 -3.96274032451e-05 45.59753330 45.00853711 29.80390065
2035 1 1 0.000472903523176 44.12664513 47.55619015 29.80390065
2036 1 1 0.000518716687601 45.59753330 50.10384320 29.80390065
2037 1 1 0.000397712788436 44.12664513 52.65149624 29.80390065
2038 1 1 -4.05348346336e-05 45.59753330 55.19914928 29.80390065
2039 1 1 -0.000528219920986 44.12664513 57.74680233 29.80390065
2040 1 1 -0.00070051197968 45.59753330 60.29445537 29.80390065
2041 1 1 -0.000530969943705 47.06842147 42.46088406 29.80390065
2042 1 1 -0.000348626371626 48.53930964 45.00853711 29.80390065
2043 1 1 0.000211351806197 47.06842147 47.55619015 29.80390065
2044 1 1 0.000366335005116 48.53930964 50.10384320 29.80390065
2045 1 1 0.000349925034867 47.06842147 52.65149624 29.80390065
2046 1 1 9.54888903514e-05 48.53930964 55.19914928 29.80390065
2047 1 1 -0.000382457982348 47.06842147 57.74680233 29.80390065
2048 1 1 -0.000487271199248 48.53930964 60.29445537 29.80390065
2049 1 1 -0.000794462894889 50.01019781 42.46088406 29.80390065
2050 1 1 -0.000590682368473 51.48108598 45.00853711 29.80390065
2051 1 1 -3.83928338584e-05 50.01019781 47.55619015 29.80390065
2052 1 1 0.000304595451418 51.48108598 50.10384320 29.80390065
2053 1 1 0.000408228172776 50.01019781 52.65149624 29.80390065
2054 1 1 0.000259738071626 51.48108598 55.19914928 29.80390065
2055 1 1 -0.000163210497883 50.01019781 57.74680233 29.80390065
2056 1 1 -0.000290933612629 51.48108598 60.29445537 29.80390065
2057 1 1 -0.000574757924179 35.30131610 42.46088406 29.80390065
2058 1 1 2.49378533104e-06 36.77220427 45.00853711 29.80390065
2059 1 1 0.000455528047419 35.30131610 47.55619015 29.80390065
2060 1 1 0.00074675994978 36.77220427 50.10384320 29.80390065
2061 1 1 0.000539678263313 35.30131610 52.65149624 29.80390065
2062 1 1 -1.35192436077e-05 36.77220427 55.19914928 29.80390065
2063 1 1 -0.000635266300704 35.30131610 57.74680233 29.80390065
2064 1 1 -0.00103091015175 36.77220427 60.29445537 29.80390065
2065 1 1 -0.0130455943119 39.71398061 43.31010174 32.20585097
2066 1 1 -0.00572792700603 41.18486878 45.85775479 32.20585097
2067 1 1 -0.00744534761098 39.71398061 48.40540783 32.20585097
2068 1 1 -0.00769819314635 41.18486878 50.95306088 32.20585097
2069 1 1 -0.00229496901993 39.71398061 53.50071392 32.20585097
2070 1 1 0.000142781596866 41.18486878 56.04836697 32.20585097
2071 1 1 0.00580713544748 39.71398061 58.59602001 32.20585097
2072 1 1 -0.0157313910112 41.18486878 40.76244870 32.20585097
2073 1 1 -0.00233958177451 42.65575695 43.31010174 32.20585097
2074 1 1 0.00230400248994 44.12664513 45.85775479 32.20585097
2075 1 1 -0.005291895221 42.65575695 48.40540783 32.20585097
2076 1 1 -0.00950728657115 44.12664513 50.95306088 32.20585097
2077 1 1 -0.00863524382979 42.65575695 53.50071392 32.20585097
2078 1 1 -0.00849070888249 44.12664513 56.04836697 32.20585097
2079 1 1 0.00102958427472 42.65575695 58.59602001 32.20585097
2080 1 1 -0.00030111117048 44.12664513 40.76244870 32.20585097
2081 1 1 0.00675122352549 45.59753330 43.31010174 32.20585097
2082 1 1 0.00184836915351 47.06842147 45.85775479 32.20585097
2083 1 1 -0.00276552669361 45.59753330 48.40540783 32.20585097
2084 1 1 -0.00670406467264 47.06842147 50.95306088 32.20585097
2085 1 1 -0.0113067299744 45.59753330 53.50071392 32.20585097
2086 1 1 -0.00985374564748 47.06842147 56.04836697 32.20585097
2087 1 1 -0.00934699555267 45.59753330 58.59602001 32.20585097
2088 1 1 0.00507272957219 47.06842147 40.76244870 32.20585097
2089 1 1 -0.000706153202078 48.53930964 43.31010174 32.20585097
2090 1 1 -0.00896203258886 50.01019781 45.85775479 32.20585097
2091 1 1 -0.00417298523417 48.53930964 48.40540783 32.20585097
2092 1 1 -0.00108997171351 50.01019781 50.95306088 32.20585097
2093 1 1 -0.00388194711861 48.53930964 53.50071392 32.20585097
2094 1 1 -0.000113149965068 50.01019781 56.04836697 32.20585097
2095 1 1 -0.00874823507487 48.53930964 58.59602001 32.20585097
2096 1 1 -0.00621776229287 50.01019781 40.76244870 32.20585097
2097 1 1 -0.0149483206068 51.48108598 43.31010174 32.20585097
2098 1 1 -0.00672513264995 35.30131610 45.85775479 32.20585097
2099 1 1 -0.00757842976723 51.48108598 48.40540783 32.20585097
2100 1 1 -0.00354076032211 35.30131610 50.95306088 32.20585097
2101 1 1 0.00615607426834 51.48108598 53.50071392 32.20585097
2102 1 1 -0.00474922095971 35.30131610 56.04836697 32.20585097
2103 1 1 -0.000636632305124 51.48108598 58.59602001 32.20585097
2104 1 1 -0.00955397172925 35.30131610 40.76244870 32.20585097
2105 1 1 -0.0108185947204 36.77220427 43.31010174 32.20585097
2106 1 1 -0.00954475260707 38.24309244 45.85775479 32.20585097
2107 1 1 -0.00669121420313 36.77220427 48.40540783 32.20585097
2108 1 1 -0.00443471035574 38.24309244 50.95306088 32.20585097
2109 1 1 -0.000704282501772 36.77220427 53.50071392 32.20585097
2110 1 1 0.00168649498641 38.24309244 56.04836697 32.20585097
2111 1 1 -0.00474731927015 36.77220427 58.59602001 32.20585097
2112 1 1 -0.0195966771692 38.24309244 40.76244870 32.20585097
2113 1 1 0.000751391974615 41.18486878 44.15931943 34.60780130
2114 1 1 0.00479193183266 42.65575695 46.70697247 34.60780130
2115 1 1 -0.00297352268466 41.18486878 49.25462551 34.60780130
2116 1 1 -0.00688522205859 42.65575695 51.80227856 34.60780130
2117 1 1 0.00146610676673 41.18486878 54.34993160 34.60780130
2118 1 1 0.00361456027774 42.65575695 56.89758465 34.60780130
2119 1 1 0.0161846510961 41.18486878 59.44523769 34.60780130
2120 1 1 0.00360762075491 42.65575695 41.61166638 34.60780130
2121 1 1 0.0147535572708 44.12664513 44.15931943 34.60780130
2122 1 1 0.00991535927128 45.59753330 46.70697247 34.60780130
2123 1 1 -0.00164332099278 44.12664513 49.25462551 34.60780130
2124 1 1 -0.00789415438415 45.59753330 51.80227856 34.60780130
2125 1 1 -0.00847112456773 44.12664513 54.34993160 34.60780130
2126 1 1 -0.00792625377288 45.59753330 56.89758465 34.60780130
2127 1 1 0.00160173667276 44.12664513 59.44523769 34.60780130
2128 1 1 0.0183058728945 45.59753330 41.61166638 34.60780130
2129 1 1 0.0145773631838 47.06842147 44.15931943 34.60780130
2130 1 1 0.00236298414402 48.53930964 46.70697247 34.60780130
2131 1 1 0.000269163404825 47.06842147 49.25462551 34.60780130
2132 1 1 0.000499832111302 48.53930964 51.80227856 34.60780130
2133 1 1 -0.0068067613293 47.06842147 54.34993160 34.60780130
2134 1 1 -0.00333299877673 48.53930964 56.89758465 34.60780130
2135 1 1 -0.00877536147205 47.06842147 59.44523769 34.60780130
2136 1 1 0.00988506013472 48.53930964 41.61166638 34.60780130
2137 1 1 -0.00405802313171 50.01019781 44.15931943 34.60780130
2138 1 1 -0.00981758667153 51.48108598 46.70697247 34.60780130
2139 1 1 0.000152454233622 50.01019781 49.25462551 34.60780130
2140 1 1 0.0102687282247 51.48108598 51.80227856 34.60780130
2141 1 1 0.00780430582464 50.01019781 54.34993160 34.60780130
2142 1 1 0.00985494393547 51.48108598 56.89758465 34.60780130
2143 1 1 -0.00197727495372 50.01019781 59.44523769 34.60780130
2144 1 1 -0.00945020220415 51.48108598 41.61166638 34.60780130
2145 1 1 0.00689626693236 35.30131610 44.15931943 34.60780130
2146 1 1 -8.33515030031e-05 36.77220427 46.70697247 34.60780130
2147 1 1 0.00122181206105 35.30131610 49.25462551 34.60780130
2148 1 1 0.00398055167497 36.77220427 51.80227856 34.60780130
2149 1 1 0.0046325786828 35.30131610 54.34993160 34.60780130
2150 1 1 0.00423954148821 36.77220427 56.89758465 34.60780130
2151 1 1 -0.0110918573298 35.30131610 59.44523769 34.60780130
2152 1 1 -0.000451772836841 36.77220427 41.61166638 34.60780130
2153 1 1 -0.00355845149571 38.24309244 44.15931943 34.60780130
2154 1 1 -0.00193182564263 39.71398061 46.70697247 34.60780130
2155 1 1 -0.000982025833636 38.24309244 49.25462551 34.60780130
2156 1 1 -0.000205379778089 39.71398061 51.80227856 34.60780130
2157 1 1 0.00727163904206 38.24309244 54.34993160 34.60780130
2158 1 1 0.0122632118225 39.71398061 56.89758465 34.60780130
2159 1 1 0.0102883778026 38.24309244 59.44523769 34.60780130
2160 1 1 -0.00980472108289 39.71398061 41.61166638 34.60780130
2161 2 2 1 26.47598707 30.57183653 42.60780130
2162 3 2 -1 26.47598707 30.57183653 17.00000000
