LAMMPS (2 Sep 2026)
OMP_NUM_THREADS environment is not set. Defaulting to 1 thread.
  using 1 OpenMP thread(s) per MPI task
# referee item 4: NVE of SPC-FQ water, arm mismatched_tol1e-5 (run_nve.py)
units        metal
atom_style   full
boundary     p p p
lattice      sc 3.1
Lattice spacing in x,y,z = 3.1 3.1 3.1
region       box block 0 4 0 4 0 4
create_box   2 box
Created orthogonal box = (0 0 0) to (12.4 12.4 12.4)
  1 by 1 by 1 MPI processor grid
mass         1 15.9994
mass         2 1.008
molecule     h2o spcfq.mol
Read molecule template h2o:
# SPC-FQ 3-site water: O(type1) + 2H(type2), all charged via samqeq. SPC geom rOH=1.0 theta=109.47.
  1 molecules
  0 fragments
  0 bodies
  3 atoms with max type 2
  0 bonds with max type 0
  0 angles with max type 0
  0 dihedrals with max type 0
  0 impropers with max type 0
create_atoms 0 box mol h2o 12345
Created 192 atoms
  using lattice units in orthogonal box = (0 0 0) to (12.4 12.4 12.4)
  create_atoms CPU = 0.004 seconds
group        fq type 1 2
192 atoms in group fq
set          type 1 charge -0.85
Setting atom values ...
  64 settings made for charge
set          type 2 charge  0.425
Setting atom values ...
  128 settings made for charge
pair_style   hybrid/overlay lj/cut 10.0 coul/long 10.0 coul/shield/intra 5.0 all
pair_coeff   1 1 lj/cut 0.01275 3.176
pair_coeff   1 2 lj/cut 0.0 1.0
pair_coeff   2 2 lj/cut 0.0 1.0
pair_coeff   * * coul/long
pair_coeff   * * coul/shield/intra 1.11

kspace_style pppm/samqeq 1.0e-6
neighbor     2.0 bin
neigh_modify every 1 delay 0 check yes
fix          chg fq qeq/sam 1 0.0 10.0 1.0e-5 spcfq_expt.param
fix_modify   chg energy yes

compute      dip fq dipole/samqeq
timestep     0.001
velocity     all create 298 123456 mom yes rot yes dist gaussian
fix          integ all rigid/nvt/small molecule temp 298 298 0.1
Fix rigid/nvt/small setup ...
  create bodies CPU = 0.000 seconds
  64 rigid bodies with 192 atoms
  1.0000026 = max distance from body owner to body atom
thermo_style custom step temp pe etotal c_dip
thermo       1000
run          2000

CITE-CITE-CITE-CITE-CITE-CITE-CITE-CITE-CITE-CITE-CITE-CITE-CITE

Your simulation uses code contributions which should be cited:

- fix acks2/reaxff command: https://doi.org/10.1137/18M1224684

@Article{O'Hearn2020,
 author = {K. A. {O'Hearn} and A. Alperen and H. M. Aktulga},
 title = {Fast Solvers for Charge Distribution Models on Shared Memory Platforms},
 journal = {SIAM J.\ Sci.\ Comput.},
 year =    2020,
 volume =  42,
 number =  1,
 pages =   {1--22}
}

CITE-CITE-CITE-CITE-CITE-CITE-CITE-CITE-CITE-CITE-CITE-CITE-CITE

PPPM initialization ...
  using 12-bit tables for long-range coulomb
  G vector (1/distance) = 0.33957131
  grid = 18 18 18
  stencil order = 5
  estimated absolute RMS force accuracy = 1.4063135e-05
  estimated relative force accuracy = 9.7663066e-07
  using double precision FFTW3
  3d grid and FFT values/proc = 15625 5832
Generated 0 of 1 mixed pair_coeff terms from geometric mixing rule
samqeq: E_self = sum(chi q + 1/2 eta qs^2) INCLUDED in pe/etotal (fix_modify chg energy yes; eselfref qs = q - q0) -- pe + E_self is the energy the forces integrate
Neighbor list info ...
  update: every = 1 steps, delay = 0 steps, check = yes
  max neighbors/atom: 2000, page size: 100000
  master list distance cutoff = 12
  ghost atom cutoff = 12
  binsize = 6, bins = 3 3 3
  5 neighbor lists, perpetual/occasional/extra = 5 0 0
  (1) pair lj/cut, perpetual, half/full from (5)
      attributes: half, newton on
      pair build: halffull/newton
      stencil: none
      bin: none
  (2) pair coul/long, perpetual, copy from (1)
      attributes: half, newton on
      pair build: copy
      stencil: none
      bin: none
  (3) pair coul/shield/intra, perpetual, trim from (2)
      attributes: half, newton on, cut 7
      pair build: trim
      stencil: none
      bin: none
  (4) fix qeq/sam, perpetual, half/full from (5)
      attributes: half, newton off
      pair build: halffull/newtoff
      stencil: none
      bin: none
  (5) fix qeq/sam, perpetual
      attributes: full, newton on
      pair build: full/bin
      stencil: full/bin/3d
      bin: standard
samqeq: recip_self ACTIVE at run start (step 0): not yet calibrated -- measured at the first solve by the K=16 deterministic-probe route
samqeq: calibrated grid reciprocal self-term recip_self=0.38207 +/- 0.00000 (raw, K=16 deterministic probes) = 5.5016 eV/e (subtracted so the QEq diagonal stays = eta)
samqeq SOLVER-DIAG step 0: CG 12 iters (=12 matvecs), resid/b=8.15e-06
Per MPI rank memory allocation (min/avg/max) = 24.9 | 24.9 | 24.9 Mbytes
   Step          Temp          PotEng         TotEng         c_dip     
         0   295.15635     -45.810188     -40.96489       2.0333777    
samqeq SOLVER-DIAG step 200: CG 12 iters (=12 matvecs), resid/b=8.14e-06
samqeq SOLVER-DIAG step 400: CG 12 iters (=12 matvecs), resid/b=9.88e-06
samqeq SOLVER-DIAG step 600: CG 13 iters (=13 matvecs), resid/b=2.97e-06
samqeq SOLVER-DIAG step 800: CG 13 iters (=13 matvecs), resid/b=3.50e-06
samqeq SOLVER-DIAG step 1000: CG 13 iters (=13 matvecs), resid/b=3.33e-06
      1000   284.27814     -72.030749     -67.364028      2.8234217    
samqeq SOLVER-DIAG step 1200: CG 13 iters (=13 matvecs), resid/b=6.35e-06
samqeq SOLVER-DIAG step 1400: CG 13 iters (=13 matvecs), resid/b=3.58e-06
samqeq SOLVER-DIAG step 1600: CG 13 iters (=13 matvecs), resid/b=5.02e-06
samqeq SOLVER-DIAG step 1800: CG 13 iters (=13 matvecs), resid/b=4.11e-06
samqeq SOLVER-DIAG step 2000: CG 13 iters (=13 matvecs), resid/b=3.62e-06
      2000   289.47001     -72.569649     -67.817698      2.8247803    
Loop time of 24.8725 on 1 procs for 2000 steps with 192 atoms

Performance: 6.947 ns/day, 3.455 hours/ns, 80.410 timesteps/s, 15.439 katom-step/s
99.8% CPU use with 1 MPI tasks x 1 OpenMP threads

MPI task timing breakdown:
Section |  min time  |  avg time  |  max time  |%varavg| %total
---------------------------------------------------------------
Pair    | 4.0763     | 4.0763     | 4.0763     |   0.0 | 16.39
Bond    | 0.00035239 | 0.00035239 | 0.00035239 |   0.0 |  0.00
Kspace  | 1.1285     | 1.1285     | 1.1285     |   0.0 |  4.54
Neigh   | 0.37155    | 0.37155    | 0.37155    |   0.0 |  1.49
Comm    | 0.049323   | 0.049323   | 0.049323   |   0.0 |  0.20
Output  | 5.0618e-05 | 5.0618e-05 | 5.0618e-05 |   0.0 |  0.00
Modify  | 19.231     | 19.231     | 19.231     |   0.0 | 77.32
Other   |            | 0.01493    |            |       |  0.06

Nlocal:            192 ave         192 max         192 min
Histogram: 1 0 0 0 0 0 0 0 0 0
Nghost:           4692 ave        4692 max        4692 min
Histogram: 1 0 0 0 0 0 0 0 0 0
Neighs:          69653 ave       69653 max       69653 min
Histogram: 1 0 0 0 0 0 0 0 0 0
FullNghs:       139306 ave      139306 max      139306 min
Histogram: 1 0 0 0 0 0 0 0 0 0

Total # of neighbors = 139306
Ave neighs/atom = 725.55208
Ave special neighs/atom = 0
Neighbor list builds = 79
Dangerous builds = 0
unfix        integ
reset_timestep 0
fix          integ all rigid/nve/small molecule
Fix rigid/nve/small setup ...
  create bodies CPU = 0.000 seconds
  64 rigid bodies with 192 atoms
  1.0000026 = max distance from body owner to body atom
thermo       100
run          5000
PPPM initialization ...
  using 12-bit tables for long-range coulomb
  G vector (1/distance) = 0.34588129
  grid = 20 20 20
  stencil order = 5
  estimated absolute RMS force accuracy = 1.2922418e-05
  estimated relative force accuracy = 8.9741224e-07
  using double precision FFTW3
  3d grid and FFT values/proc = 24389 8000
Generated 0 of 1 mixed pair_coeff terms from geometric mixing rule
samqeq: E_self = sum(chi q + 1/2 eta qs^2) INCLUDED in pe/etotal (fix_modify chg energy yes; eselfref qs = q - q0) -- pe + E_self is the energy the forces integrate
samqeq: recip_self ACTIVE at run start (step 0): 0.38207 raw = 5.5016 eV/e, K=16 deterministic-probe route, calibration #1 at step 0 on the 18x18x18 mesh; first at this mesh 0.38207 (step 0), drift +0.000%
samqeq: calibrated grid reciprocal self-term recip_self=0.38919 +/- 0.00000 (raw, K=16 deterministic probes) = 5.6042 eV/e (subtracted so the QEq diagonal stays = eta)
samqeq SOLVER-DIAG step 0: CG 13 iters (=13 matvecs), resid/b=3.62e-06
Per MPI rank memory allocation (min/avg/max) = 25.44 | 25.44 | 25.44 Mbytes
   Step          Temp          PotEng         TotEng         c_dip     
         0   289.47001     -72.569694     -67.817744      2.8248302    
       100   296.43383     -72.611125     -67.744856      2.797064     
samqeq SOLVER-DIAG step 200: CG 13 iters (=13 matvecs), resid/b=4.83e-06
       200   315.72568     -72.987543     -67.804578      2.8710591    
       300   312.40807     -72.897722     -67.769219      2.8502292    
samqeq SOLVER-DIAG step 400: CG 13 iters (=13 matvecs), resid/b=5.34e-06
       400   275.22683     -72.372645     -67.854511      2.8187527    
       500   305.83092     -72.816836     -67.796304      2.8428568    
samqeq SOLVER-DIAG step 600: CG 13 iters (=13 matvecs), resid/b=5.86e-06
       600   276.04232     -72.327096     -67.795575      2.8288592    
       700   304.42107     -72.835317     -67.837929      2.8786009    
samqeq SOLVER-DIAG step 800: CG 13 iters (=13 matvecs), resid/b=3.97e-06
       800   301.22442     -72.843579     -67.898667      2.8882762    
       900   309.42757     -72.899359     -67.819784      2.8692925    
samqeq SOLVER-DIAG step 1000: CG 13 iters (=13 matvecs), resid/b=3.72e-06
      1000   280.12862     -72.403082     -67.80448       2.859158     
      1100   300.36964     -72.744513     -67.813634      2.852847     
samqeq SOLVER-DIAG step 1200: CG 13 iters (=13 matvecs), resid/b=3.81e-06
      1200   311.14084     -72.954984     -67.847284      2.8939626    
      1300   306.41171     -72.82935      -67.799284      2.8677828    
samqeq SOLVER-DIAG step 1400: CG 13 iters (=13 matvecs), resid/b=4.68e-06
      1400   295.0674      -72.56385      -67.720013      2.8499953    
      1500   291.07615     -72.575432     -67.797114      2.8054694    
samqeq SOLVER-DIAG step 1600: CG 13 iters (=13 matvecs), resid/b=5.05e-06
      1600   281.70294     -72.497116     -67.87267       2.8414606    
      1700   290.38768     -72.603791     -67.836776      2.8573099    
samqeq SOLVER-DIAG step 1800: CG 13 iters (=13 matvecs), resid/b=3.84e-06
      1800   319.43677     -73.071161     -67.827275      2.824401     
      1900   303.45906     -72.819099     -67.837504      2.8241194    
samqeq SOLVER-DIAG step 2000: CG 13 iters (=13 matvecs), resid/b=3.31e-06
      2000   261.02856     -72.080883     -67.795828      2.7907798    
      2100   275.49551     -72.397321     -67.874776      2.8636968    
samqeq SOLVER-DIAG step 2200: CG 13 iters (=13 matvecs), resid/b=5.30e-06
      2200   286.15172     -72.599929     -67.902452      2.8244059    
      2300   304.37316     -72.845668     -67.849066      2.8077528    
samqeq SOLVER-DIAG step 2400: CG 13 iters (=13 matvecs), resid/b=5.53e-06
      2400   275.48051     -72.329232     -67.806934      2.8130846    
      2500   278.55168     -72.315259     -67.742544      2.8197919    
samqeq SOLVER-DIAG step 2600: CG 13 iters (=13 matvecs), resid/b=4.76e-06
      2600   304.60317     -72.722135     -67.721757      2.8361486    
      2700   295.84777     -72.650404     -67.793755      2.8372509    
samqeq SOLVER-DIAG step 2800: CG 13 iters (=13 matvecs), resid/b=5.29e-06
      2800   275.60772     -72.299404     -67.775017      2.8398087    
      2900   289.72504     -72.606319     -67.850182      2.845964     
samqeq SOLVER-DIAG step 3000: CG 13 iters (=13 matvecs), resid/b=4.97e-06
      3000   255.31586     -71.971618     -67.780343      2.8143275    
      3100   270.49329     -72.227083     -67.786655      2.7921416    
samqeq SOLVER-DIAG step 3200: CG 13 iters (=13 matvecs), resid/b=3.22e-06
      3200   274.97903     -72.217223     -67.703157      2.7948246    
      3300   297.0048      -72.682429     -67.806787      2.8433451    
samqeq SOLVER-DIAG step 3400: CG 13 iters (=13 matvecs), resid/b=3.20e-06
      3400   322.61283     -73.127073     -67.831048      2.8530541    
      3500   285.79215     -72.495782     -67.804207      2.8237756    
samqeq SOLVER-DIAG step 3600: CG 13 iters (=13 matvecs), resid/b=4.30e-06
      3600   273.16434     -72.285615     -67.801339      2.8210499    
      3700   260.69743     -72.019776     -67.740157      2.8072114    
samqeq SOLVER-DIAG step 3800: CG 13 iters (=13 matvecs), resid/b=4.08e-06
      3800   261.51578     -72.073813     -67.78076       2.813194     
      3900   291.86025     -72.651349     -67.86016       2.8691662    
samqeq SOLVER-DIAG step 4000: CG 13 iters (=13 matvecs), resid/b=4.53e-06
      4000   320.58175     -72.983565     -67.720883      2.85386      
      4100   281.82737     -72.38819      -67.761701      2.8462028    
samqeq SOLVER-DIAG step 4200: CG 13 iters (=13 matvecs), resid/b=4.98e-06
      4200   287.06978     -72.522453     -67.809905      2.850344     
      4300   295.60792     -72.644695     -67.791984      2.8054113    
samqeq SOLVER-DIAG step 4400: CG 13 iters (=13 matvecs), resid/b=3.45e-06
      4400   290.57282     -72.603856     -67.833801      2.8089262    
      4500   272.66952     -72.381684     -67.905531      2.8210831    
samqeq SOLVER-DIAG step 4600: CG 13 iters (=13 matvecs), resid/b=2.87e-06
      4600   269.98186     -72.242271     -67.810239      2.8146063    
      4700   284.67698     -72.434484     -67.761216      2.8214641    
samqeq SOLVER-DIAG step 4800: CG 13 iters (=13 matvecs), resid/b=3.50e-06
      4800   255.23451     -72.046767     -67.856828      2.8406311    
      4900   269.07731     -72.294716     -67.877533      2.8532331    
samqeq SOLVER-DIAG step 5000: CG 13 iters (=13 matvecs), resid/b=3.90e-06
      5000   306.44459     -72.934842     -67.904236      2.8578064    
Loop time of 61.2503 on 1 procs for 5000 steps with 192 atoms

Performance: 7.053 ns/day, 3.403 hours/ns, 81.632 timesteps/s, 15.673 katom-step/s
99.9% CPU use with 1 MPI tasks x 1 OpenMP threads

MPI task timing breakdown:
Section |  min time  |  avg time  |  max time  |%varavg| %total
---------------------------------------------------------------
Pair    | 10.169     | 10.169     | 10.169     |   0.0 | 16.60
Bond    | 0.0012639  | 0.0012639  | 0.0012639  |   0.0 |  0.00
Kspace  | 2.7539     | 2.7539     | 2.7539     |   0.0 |  4.50
Neigh   | 0.7625     | 0.7625     | 0.7625     |   0.0 |  1.24
Comm    | 0.12951    | 0.12951    | 0.12951    |   0.0 |  0.21
Output  | 0.0014687  | 0.0014687  | 0.0014687  |   0.0 |  0.00
Modify  | 47.396     | 47.396     | 47.396     |   0.0 | 77.38
Other   |            | 0.03579    |            |       |  0.06

Nlocal:            192 ave         192 max         192 min
Histogram: 1 0 0 0 0 0 0 0 0 0
Nghost:           4629 ave        4629 max        4629 min
Histogram: 1 0 0 0 0 0 0 0 0 0
Neighs:          69672 ave       69672 max       69672 min
Histogram: 1 0 0 0 0 0 0 0 0 0
FullNghs:       139344 ave      139344 max      139344 min
Histogram: 1 0 0 0 0 0 0 0 0 0

Total # of neighbors = 139344
Ave neighs/atom = 725.75
Ave special neighs/atom = 0
Neighbor list builds = 164
Dangerous builds = 0
print        "NVE_DONE" file done.txt screen no
Total wall time: 0:01:26
