ITEM: TIMESTEP
0
ITEM: NUMBER OF ATOMS
564
ITEM: BOX BOUNDS pp pp ff
0.0000000000000000e+00 1.7650658050000001e+01
0.0000000000000000e+00 2.0381224350000000e+01
0.0000000000000000e+00 6.0000000000000000e+01
ITEM: ATOMS id mol type q x y z
1 1 2 0 8.24512 15.5811 22.6078
2 1 3 0.603182 8.99931 15.9949 23.0275
3 1 3 0.526237 7.50381 16.1396 22.8419
4 1 4 -1.12942 8.24677 15.7056 22.6915
5 2 2 0 15.9474 18.3987 22.6904
6 2 3 0.604848 16.7177 18.4609 22.1255
7 2 3 0.450955 15.5517 17.5568 22.4646
8 2 4 -1.0558 15.9953 18.2989 22.5891
9 3 2 0 17.4336 10.1601 22.7313
10 3 3 0.375623 17.0473 9.37133 22.3508
11 3 3 0.546495 0.666335 9.89505 22.9876
12 3 4 -0.922118 17.4973 10.0252 22.7154
13 4 2 0 1.34938 4.55603 22.8066
14 4 3 0.479097 2.25303 4.29537 22.6286
15 4 3 0.532792 1.36125 4.85803 23.7149
16 4 4 -1.01189 1.46658 4.56132 22.9001
17 5 2 0 13.7945 8.69815 22.9189
18 5 3 0.55892 13.7682 9.65499 22.9198
19 5 3 0.610727 14.3148 8.47168 23.6898
20 5 4 -1.16965 13.8578 8.79165 23.0177
21 6 2 0 2.45384 11.1318 23.0093
22 6 3 0.488088 3.34523 10.8882 23.2589
23 6 3 0.55368 2.56798 11.7872 22.3211
24 6 4 -1.04177 2.58256 11.1845 22.9532
25 7 2 0 5.78675 16.9269 23.0964
26 7 3 0.418175 5.28323 16.4758 23.774
27 7 3 0.521567 5.17678 17.0172 22.3643
28 7 4 -0.939741 5.64421 16.8807 23.0894
29 8 2 0 9.01 19.5718 23.1809
30 8 3 0.49143 8.78239 19.2523 24.054
31 8 3 0.47974 8.18499 19.553 22.6959
32 8 4 -0.97117 8.87525 19.5285 23.2306
33 9 2 0 8.83043 2.85816 23.1944
34 9 3 0.620194 9.21769 2.02206 23.4536
35 9 3 0.479627 9.56649 3.46996 23.1819
36 9 4 -1.09982 8.97423 2.82945 23.2259
37 10 2 0 6.02784 0.121735 23.207
38 10 3 0.499894 5.47822 0.331622 22.452
39 10 3 0.617037 5.79198 19.6032 23.4328
40 10 4 -1.11693 5.92729 0.03342 23.1393
41 11 2 0 4.18398 8.35953 23.2649
42 11 3 0.652211 5.05229 7.96143 23.3264
43 11 3 0.409308 3.81528 8.0072 22.4549
44 11 4 -1.06152 4.24793 8.26346 23.1691
45 12 2 0 0.455538 19.5148 23.3731
46 12 3 0.441206 0.121261 20.358 23.6789
47 12 3 0.490423 0.154066 18.8853 24.0281
48 12 4 -0.931629 0.374155 19.5422 23.4961
49 13 2 0 15.0973 11.5452 23.4974
50 13 3 0.714154 15.2885 12.4294 23.8101
51 13 3 0.49901 15.9118 11.2543 23.0872
52 13 4 -1.21316 15.2261 11.6211 23.4849
53 14 2 0 10.7461 16.7668 23.5645
54 14 3 0.579237 10.7994 17.511 24.1641
55 14 3 0.444293 11.0965 16.0299 24.0649
56 14 4 -1.02353 10.7978 16.7678 23.7053
57 15 2 0 10.921 4.4994 23.5767
58 15 3 0.522614 10.7333 5.43784 23.5955
59 15 3 0.563856 11.4399 4.37429 22.7822
60 15 4 -1.08647 10.9634 4.60351 23.4774
61 16 2 0 11.2076 7.43499 23.639
62 16 3 0.550832 12.0804 7.79234 23.4753
63 16 3 0.572813 10.72 8.16114 24.0278
64 16 4 -1.12364 11.2569 7.57369 23.6678
65 17 2 0 2.77487 2.13963 23.8056
66 17 3 0.480297 1.87563 2.20241 24.1275
67 17 3 0.609591 3.06143 1.26345 24.0633
68 17 4 -1.08989 2.69644 2.0355 23.8798
69 18 2 0 6.66557 7.03158 23.8598
70 18 3 0.71912 7.1212 7.12855 24.696
71 18 3 0.498125 7.35394 7.11666 23.2001
72 18 4 -1.21724 6.81202 7.05488 23.8824
73 19 2 0 13.6469 1.83258 24.1953
74 19 3 0.556915 12.8577 1.41329 24.5381
75 19 3 0.423892 13.9692 2.36706 24.921
76 19 4 -0.980807 13.5871 1.84732 24.3321
77 20 2 0 5.00715 4.70371 24.2236
78 20 3 0.55274 5.69863 5.36155 24.1506
79 20 3 0.479524 4.7139 4.56278 23.3234
80 20 4 -1.03226 5.05813 4.76988 24.099
81 21 2 0 15.0774 5.32895 24.2771
82 21 3 0.476601 15.7355 6.01264 24.4026
83 21 3 0.475376 14.9344 5.30425 23.331
84 21 4 -0.951977 15.1433 5.41331 24.172
85 22 2 0 1.93369 15.4749 24.3177
86 22 3 0.472007 2.65042 14.8675 24.5009
87 22 3 0.586391 2.23596 15.9827 23.5647
88 22 4 -1.0584 2.06413 15.4622 24.2447
89 23 2 0 9.6367 9.69834 24.3185
90 23 3 0.545739 8.68004 9.72352 24.2988
91 23 3 0.520739 9.90755 10.4084 23.7365
92 23 4 -1.06648 9.54891 9.79246 24.2415
93 24 2 0 4.31715 14.0659 24.39
94 24 3 0.52726 4.78989 13.851 23.5859
95 24 3 0.510082 4.04767 13.2182 24.7438
96 24 4 -1.03734 4.34317 13.9299 24.3324
97 25 2 0 8.26061 12.8318 24.4457
98 25 3 0.666535 9.17833 13.1021 24.4768
99 25 3 0.67808 7.78735 13.5382 24.8853
100 25 4 -1.34462 8.31751 12.9568 24.5059
101 26 2 0 3.49509 18.9521 24.4756
102 26 3 0.48248 2.58902 18.6657 24.3604
103 26 3 0.539031 3.69139 18.7642 25.3934
104 26 4 -1.02151 3.40423 18.8914 24.5783
105 27 2 0 6.70189 10.4889 24.5724
106 27 3 0.409441 6.4601 10.3188 23.662
107 27 3 0.747056 7.31297 11.2241 24.525
108 27 4 -1.1565 6.74916 10.5612 24.4498
109 28 2 0 15.2988 14.0888 24.76
110 28 3 0.746166 14.6094 14.7458 24.8572
111 28 3 0.500595 16.086 14.5151 25.0989
112 28 4 -1.24676 15.3113 14.2275 24.8158
113 29 2 0 10.7718 14.1551 24.806
114 29 3 0.600278 10.5783 14.6285 25.6151
115 29 3 0.519587 11.4787 13.5546 25.0425
116 29 4 -1.11987 10.8376 14.1388 24.9398
117 30 2 0 16.9127 2.62313 24.9699
118 30 3 0.439217 16.9991 3.50638 25.3285
119 30 3 0.497914 16.3092 2.72118 24.2334
120 30 4 -0.937131 16.8465 2.74875 24.9215
121 31 2 0 6.30171 2.2317 24.986
122 31 3 0.493138 5.83234 3.00106 24.6635
123 31 3 0.73581 6.3327 1.63768 24.2361
124 31 4 -1.22895 6.24559 2.25415 24.8487
125 32 2 0 11.0113 1.83247 25.2033
126 32 3 0.555235 10.72 2.0168 26.0962
127 32 3 0.489894 11.1065 2.6949 24.799
128 32 4 -1.04513 10.9862 1.96647 25.2658
129 33 2 0 13.3281 15.9054 25.2163
130 33 3 0.61394 13.8555 16.6134 25.5864
131 33 3 0.498889 12.9724 15.4477 25.978
132 33 4 -1.11283 13.3501 15.9375 25.3612
133 34 2 0 12.5202 12.012 25.2517
134 34 3 0.525311 13.1685 11.765 24.5922
135 34 3 0.557669 12.465 11.2516 25.8305
136 34 4 -1.08298 12.5961 11.8831 25.2414
137 35 2 0 16.4084 19.4574 25.2643
138 35 3 0.527594 16.4595 0.0160557 25.0903
139 35 3 0.687922 16.0168 19.0878 24.4729
140 35 4 -1.21552 16.3648 19.5304 25.1407
141 36 2 0 8.47518 18.0613 25.4228
142 36 3 0.515807 9.37482 18.03 25.7482
143 36 3 0.578403 8.14607 17.1703 25.5409
144 36 4 -1.09421 8.54821 17.9432 25.4795
145 37 2 0 15.1933 8.74581 25.5353
146 37 3 0.641058 15.441 8.06498 26.1609
147 37 3 0.55955 15.7833 9.47464 25.7277
148 37 4 -1.20061 15.3006 8.75196 25.64
149 38 2 0 0.849383 5.70515 25.5358
150 38 3 0.487868 1.03248 6.5923 25.8451
151 38 3 0.615122 1.58163 5.1816 25.8613
152 38 4 -1.10299 0.966558 5.7517 25.6171
153 39 2 0 11.2248 18.6822 25.5988
154 39 3 0.569782 11.2233 19.6021 25.3342
155 39 3 0.546654 12.0392 18.5752 26.0902
156 39 4 -1.11644 11.3289 18.7863 25.6279
157 40 2 0 0.411834 11.5579 25.6059
158 40 3 0.50018 0.646138 10.6415 25.7526
159 40 3 0.518721 1.16805 11.9291 25.1514
160 40 4 -1.0189 0.538633 11.4881 25.5665
161 41 2 0 8.12633 4.17882 25.8171
162 41 3 0.513633 8.77925 3.69358 26.3215
163 41 3 0.720907 7.91021 3.60076 25.0854
164 41 4 -1.23454 8.18225 4.0427 25.788
165 42 2 0 7.56909 15.3645 25.8381
166 42 3 0.575559 8.22538 15.1392 26.4975
167 42 3 0.550529 6.7305 15.2491 26.285
168 42 4 -1.12609 7.54575 15.3209 25.9797
169 43 2 0 0.993709 8.71986 25.8512
170 43 3 0.362173 0.751348 8.66391 24.9269
171 43 3 0.699485 1.94997 8.7619 25.8464
172 43 4 -1.06166 1.0851 8.71808 25.7322
173 44 2 0 12.8093 5.16015 25.9068
174 44 3 0.552487 12.1585 4.87924 25.2635
175 44 3 0.588441 13.6088 5.29227 25.3974
176 44 4 -1.14093 12.8283 5.14111 25.7593
177 45 2 0 8.66085 7.03337 26.0497
178 45 3 0.671383 8.59535 6.07872 26.0738
179 45 3 0.661288 9.58679 7.21455 26.2111
180 45 4 -1.33267 8.771 6.93436 26.0734
181 46 2 0 3.89554 11.6023 26.0632
182 46 3 0.531729 4.36256 11.8708 26.8544
183 46 3 0.558329 4.10647 10.674 25.9633
184 46 4 -1.09006 3.98232 11.5179 26.1517
185 47 2 0 3.62979 8.71462 26.079
186 47 3 0.73162 4.19972 8.1061 26.5492
187 47 3 0.496507 3.81499 8.551 25.1542
188 47 4 -1.22813 3.72645 8.61578 26.0208
189 48 2 0 3.21465 4.26028 26.4933
190 48 3 0.496053 3.37191 4.89379 27.1934
191 48 3 0.547583 3.82221 4.51448 25.7987
192 48 4 -1.04364 3.31256 4.37391 26.494
193 49 2 0 14.1833 18.3928 26.573
194 49 3 0.498612 14.0528 18.7079 27.4674
195 49 3 0.676451 14.9661 18.852 26.2687
196 49 4 -1.17506 14.2668 18.4919 26.6486
197 50 2 0 6.69367 8.81958 26.694
198 50 3 0.578949 6.66206 9.56284 26.0916
199 50 3 0.59772 7.4921 8.34957 26.4535
200 50 4 -1.17667 6.79183 8.85456 26.5861
201 51 2 0 9.63566 11.0181 26.7854
202 51 3 0.500263 9.80181 10.8072 25.8667
203 51 3 0.534436 8.84713 11.5605 26.7683
204 51 4 -1.0347 9.55599 11.0606 26.6656
205 52 2 0 2.56207 1.3178 26.8614
206 52 3 0.525228 2.86473 2.03251 26.3012
207 52 3 0.62427 3.10343 1.38371 27.648
208 52 4 -1.1495 2.67012 1.41773 26.8904
209 53 2 0 1.35573 16.7658 26.9744
210 53 3 0.401936 0.761873 16.1909 27.4572
211 53 3 0.558146 1.52887 16.2996 26.1565
212 53 4 -0.960082 1.30187 16.6325 26.9315
213 54 2 0 15.2029 12.0084 26.9958
214 54 3 0.474713 16.0244 11.6363 26.6749
215 54 3 0.585807 15.0191 12.7342 26.3993
216 54 4 -1.06052 15.2846 12.0537 26.8783
217 55 2 0 14.2005 2.9421 26.9987
218 55 3 0.511933 13.9477 3.86531 27.0028
219 55 3 0.474875 14.8959 2.88072 27.6536
220 55 4 -0.986807 14.2572 3.05242 27.083
221 56 2 0 11.2498 7.42906 27.0286
222 56 3 0.570505 11.6552 6.82977 26.4019
223 56 3 0.63301 10.9878 6.87013 27.7602
224 56 4 -1.20351 11.2681 7.2808 27.0421
225 57 2 0 4.12557 17.8566 27.0474
226 57 3 0.554423 4.62033 17.0373 27.0354
227 57 3 0.508527 3.20873 17.5839 27.0121
228 57 4 -1.06295 4.07154 17.7168 27.0414
229 58 2 0 13.0276 9.70643 27.0728
230 58 3 0.608315 12.4523 8.95603 26.9238
231 58 3 0.549799 13.8432 9.47563 26.6282
232 58 4 -1.15811 13.0583 9.58083 26.9968
233 59 2 0 5.09464 15.28 27.1594
234 59 3 0.531155 4.68903 14.9903 26.3422
235 59 3 0.568811 5.01627 14.5278 27.7461
236 59 4 -1.09997 5.03268 15.1466 27.1299
237 60 2 0 6.66158 0.627939 27.1878
238 60 3 0.636045 6.64215 1.2715 26.4795
239 60 3 0.608841 6.86267 20.1802 26.7534
240 60 4 -1.24489 6.68483 0.60421 27.0415
241 61 2 0 9.88209 14.9365 27.2976
242 61 3 0.458551 9.67707 14.1418 27.7902
243 61 3 0.687569 10.3756 15.4793 27.9124
244 61 4 -1.14612 9.91902 14.9042 27.4393
245 62 2 0 7.39682 12.8253 27.5178
246 62 3 0.582562 6.44357 12.8815 27.584
247 62 3 0.450794 7.67312 12.4423 28.3504
248 62 4 -1.03336 7.31016 12.7834 27.6328
249 63 2 0 10.3271 2.90882 27.5535
250 63 3 0.682507 9.59638 2.71213 28.1396
251 63 3 0.562112 10.4709 3.84955 27.6564
252 63 4 -1.24462 10.252 3.00407 27.6417
253 64 2 0 13.0864 14.7025 27.7565
254 64 3 0.482142 13.8495 14.8337 28.3192
255 64 3 0.754435 12.8916 13.7682 27.8303
256 64 4 -1.23658 13.1591 14.5997 27.838
257 65 2 0 15.8689 6.9906 27.7592
258 65 3 0.512529 15.2977 7.08061 28.5219
259 65 3 0.506314 16.6647 7.46601 27.9978
260 65 4 -1.01884 15.8977 7.06298 27.8874
261 66 2 0 5.11344 6.80446 27.879
262 66 3 0.485408 5.75586 7.32599 27.3978
263 66 3 0.667912 5.57738 5.9971 28.1007
264 66 4 -1.15332 5.25507 6.76787 27.8458
265 67 2 0 0.211954 1.70798 27.8963
266 67 3 0.669188 1.01377 1.56701 27.3929
267 67 3 0.404465 17.3435 0.917692 27.7472
268 67 4 -1.07365 0.248149 1.58877 27.8128
269 68 2 0 12.4 12.2025 28.078
270 68 3 0.665359 13.0635 11.5883 27.7639
271 68 3 0.539846 11.6385 12.0385 27.5217
272 68 4 -1.20521 12.3874 12.1029 27.9666
273 69 2 0 12.13 1.09928 28.3372
274 69 3 0.49887 12.9972 1.38319 28.0481
275 69 3 0.558441 11.5346 1.77162 28.006
276 69 4 -1.05731 12.1648 1.22169 28.2578
277 70 2 0 4.82941 12.9409 28.4631
278 70 3 0.512657 5.04059 12.1379 28.9394
279 70 3 0.705468 3.90801 13.1041 28.6646
280 70 4 -1.21812 4.73849 12.859 28.5498
281 71 2 0 6.39772 4.46443 28.6396
282 71 3 0.651691 7.00223 3.77492 28.9142
283 71 3 0.45229 6.37639 4.39875 27.6849
284 71 4 -1.10398 6.47237 4.36776 28.5526
285 72 2 0 1.91487 13.2385 28.6604
286 72 3 0.50262 1.83367 12.4644 28.1032
287 72 3 0.549664 1.06628 13.6755 28.5891
288 72 4 -1.05228 1.79584 13.1953 28.58
289 73 2 0 9.81652 18.7515 28.7025
290 73 3 0.535828 10.301 17.9839 29.0061
291 73 3 0.559562 10.4067 19.1774 28.0808
292 73 4 -1.09539 9.9541 18.7078 28.6618
293 74 2 0 11.3866 16.466 28.8776
294 74 3 0.711291 12.1494 16.0075 28.5251
295 74 3 0.466638 11.2219 16.0444 29.721
296 74 4 -1.17793 11.4632 16.3533 28.9405
297 75 2 0 4.50753 1.14806 28.9451
298 75 3 0.583125 5.27862 1.26248 28.3896
299 75 3 0.505782 4.52804 0.224816 29.1969
300 75 4 -1.08891 4.60886 1.04452 28.9062
301 76 2 0 10.1626 5.47986 28.9569
302 76 3 0.564761 9.46083 5.86992 29.4781
303 76 3 0.516055 10.7844 5.14589 29.6034
304 76 4 -1.08082 10.1524 5.48704 29.1064
305 77 2 0 8.19493 2.24313 29.0867
306 77 3 0.698148 7.9238 1.55035 28.4844
307 77 3 0.551477 8.54769 1.77743 29.8449
308 77 4 -1.24963 8.20538 2.09483 29.1067
309 78 2 0 15.0516 19.3119 29.1214
310 78 3 0.446314 14.4723 19.2936 29.8832
311 78 3 0.488076 15.3583 20.2174 29.0749
312 78 4 -0.934391 15.0167 19.4255 29.213
313 79 2 0 2.52582 9.94933 29.3324
314 79 3 0.45565 2.51448 10.6325 30.0028
315 79 3 0.45562 3.45518 9.79256 29.1653
316 79 4 -0.91127 2.64334 10.0167 29.3968
317 80 2 0 7.65495 9.21183 29.3654
318 80 3 0.421764 8.27486 9.81541 29.7748
319 80 3 0.517905 7.81335 9.30574 28.426
320 80 4 -0.939668 7.75458 9.30112 29.2975
321 81 2 0 7.30022 17.6751 29.5017
322 81 3 0.57979 8.09222 18.0895 29.1592
323 81 3 0.372109 7.51513 16.7433 29.542
324 81 4 -0.951899 7.42912 17.6089 29.463
325 82 1 -0.312734 0 0 10
326 82 1 -0.171641 1.47089 2.54765 10
327 82 1 0.098577 0 5.09531 10
328 82 1 0.372214 1.47089 7.64296 10
329 82 1 0.392657 0 10.1906 10
330 82 1 0.311894 1.47089 12.7383 10
331 82 1 -0.0137332 0 15.2859 10
332 82 1 -0.220133 1.47089 17.8336 10
333 82 1 -0.331566 2.94178 0 10
334 82 1 -0.148469 4.41266 2.54765 10
335 82 1 0.156542 2.94178 5.09531 10
336 82 1 0.504157 4.41266 7.64296 10
337 82 1 0.50585 2.94178 10.1906 10
338 82 1 0.306036 4.41266 12.7383 10
339 82 1 0.0211179 2.94178 15.2859 10
340 82 1 -0.33525 4.41266 17.8336 10
341 82 1 -0.431191 5.88355 0 10
342 82 1 -0.11751 7.35444 2.54765 10
343 82 1 0.281098 5.88355 5.09531 10
344 82 1 0.591098 7.35444 7.64296 10
345 82 1 0.541448 5.88355 10.1906 10
346 82 1 0.145895 7.35444 12.7383 10
347 82 1 -0.169409 5.88355 15.2859 10
348 82 1 -0.552709 7.35444 17.8336 10
349 82 1 -0.512432 8.82533 0 10
350 82 1 -0.108696 10.2962 2.54765 10
351 82 1 0.347287 8.82533 5.09531 10
352 82 1 0.54696 10.2962 7.64296 10
353 82 1 0.463739 8.82533 10.1906 10
354 82 1 -0.00718449 10.2962 12.7383 10
355 82 1 -0.394914 8.82533 15.2859 10
356 82 1 -0.653897 10.2962 17.8336 10
357 82 1 -0.492513 11.7671 0 10
358 82 1 -0.130393 13.238 2.54765 10
359 82 1 0.290215 11.7671 5.09531 10
360 82 1 0.416101 13.238 7.64296 10
361 82 1 0.351552 11.7671 10.1906 10
362 82 1 -0.000118131 13.238 12.7383 10
363 82 1 -0.428527 11.7671 15.2859 10
364 82 1 -0.537308 13.238 17.8336 10
365 82 1 -0.392454 14.7089 0 10
366 82 1 -0.162334 16.1798 2.54765 10
367 82 1 0.166055 14.7089 5.09531 10
368 82 1 0.328293 16.1798 7.64296 10
369 82 1 0.316035 14.7089 10.1906 10
370 82 1 0.158831 16.1798 12.7383 10
371 82 1 -0.237887 14.7089 15.2859 10
372 82 1 -0.321016 16.1798 17.8336 10
373 82 1 0.0661972 1.47089 0.849218 12.402
374 82 1 -0.0824255 2.94178 3.39687 12.402
375 82 1 -0.191412 1.47089 5.94452 12.402
376 82 1 -0.171876 2.94178 8.49218 12.402
377 82 1 -0.103811 1.47089 11.0398 12.402
378 82 1 0.0464912 2.94178 13.5875 12.402
379 82 1 0.170649 1.47089 16.1351 12.402
380 82 1 0.150731 2.94178 18.6828 12.402
381 82 1 0.0411289 4.41266 0.849218 12.402
382 82 1 -0.0227818 5.88355 3.39687 12.402
383 82 1 -0.12717 4.41266 5.94452 12.402
384 82 1 -0.0929506 5.88355 8.49218 12.402
385 82 1 -0.0738881 4.41266 11.0398 12.402
386 82 1 -0.00990526 5.88355 13.5875 12.402
387 82 1 0.106448 4.41266 16.1351 12.402
388 82 1 0.075219 5.88355 18.6828 12.402
389 82 1 0.0475251 7.35444 0.849218 12.402
390 82 1 0.0504013 8.82533 3.39687 12.402
391 82 1 -0.0254038 7.35444 5.94452 12.402
392 82 1 -0.0494441 8.82533 8.49218 12.402
393 82 1 -0.0749989 7.35444 11.0398 12.402
394 82 1 -0.0780263 8.82533 13.5875 12.402
395 82 1 0.00527118 7.35444 16.1351 12.402
396 82 1 0.0340158 8.82533 18.6828 12.402
397 82 1 0.081447 10.2962 0.849218 12.402
398 82 1 0.0673063 11.7671 3.39687 12.402
399 82 1 0.0143503 10.2962 5.94452 12.402
400 82 1 -0.0823737 11.7671 8.49218 12.402
401 82 1 -0.103309 10.2962 11.0398 12.402
402 82 1 -0.0867661 11.7671 13.5875 12.402
403 82 1 -0.0285756 10.2962 16.1351 12.402
404 82 1 0.0722733 11.7671 18.6828 12.402
405 82 1 0.11035 13.238 0.849218 12.402
406 82 1 0.00868376 14.7089 3.39687 12.402
407 82 1 -0.04699 13.238 5.94452 12.402
408 82 1 -0.161176 14.7089 8.49218 12.402
409 82 1 -0.130743 13.238 11.0398 12.402
410 82 1 -0.0303588 14.7089 13.5875 12.402
411 82 1 0.0393044 13.238 16.1351 12.402
412 82 1 0.148972 14.7089 18.6828 12.402
413 82 1 0.101441 16.1798 0.849218 12.402
414 82 1 -0.0679246 0 3.39687 12.402
415 82 1 -0.151006 16.1798 5.94452 12.402
416 82 1 -0.207183 0 8.49218 12.402
417 82 1 -0.132337 16.1798 11.0398 12.402
418 82 1 0.0347067 0 13.5875 12.402
419 82 1 0.137415 16.1798 16.1351 12.402
420 82 1 0.186237 0 18.6828 12.402
421 82 1 0.184696 2.94178 1.69844 14.8039
422 82 1 -0.144327 4.41266 4.24609 14.8039
423 82 1 -0.419924 2.94178 6.79374 14.8039
424 82 1 -0.519879 4.41266 9.34139 14.8039
425 82 1 -0.352734 2.94178 11.889 14.8039
426 82 1 0.00145512 4.41266 14.4367 14.8039
427 82 1 0.283174 2.94178 16.9844 14.8039
428 82 1 0.388529 4.41266 19.532 14.8039
429 82 1 0.213477 5.88355 1.69844 14.8039
430 82 1 -0.132506 7.35444 4.24609 14.8039
431 82 1 -0.437718 5.88355 6.79374 14.8039
432 82 1 -0.486636 7.35444 9.34139 14.8039
433 82 1 -0.31614 5.88355 11.889 14.8039
434 82 1 0.0953719 7.35444 14.4367 14.8039
435 82 1 0.355517 5.88355 16.9844 14.8039
436 82 1 0.465696 7.35444 19.532 14.8039
437 82 1 0.261852 8.82533 1.69844 14.8039
438 82 1 -0.0901614 10.2962 4.24609 14.8039
439 82 1 -0.406487 8.82533 6.79374 14.8039
440 82 1 -0.419892 10.2962 9.34139 14.8039
441 82 1 -0.227977 8.82533 11.889 14.8039
442 82 1 0.184123 10.2962 14.4367 14.8039
443 82 1 0.452375 8.82533 16.9844 14.8039
444 82 1 0.522349 10.2962 19.532 14.8039
445 82 1 0.291872 11.7671 1.69844 14.8039
446 82 1 -0.0570149 13.238 4.24609 14.8039
447 82 1 -0.351155 11.7671 6.79374 14.8039
448 82 1 -0.386511 13.238 9.34139 14.8039
449 82 1 -0.170031 11.7671 11.889 14.8039
450 82 1 0.178153 13.238 14.4367 14.8039
451 82 1 0.486959 11.7671 16.9844 14.8039
452 82 1 0.505273 13.238 19.532 14.8039
453 82 1 0.266873 14.7089 1.69844 14.8039
454 82 1 -0.0748522 16.1798 4.24609 14.8039
455 82 1 -0.331412 14.7089 6.79374 14.8039
456 82 1 -0.42436 16.1798 9.34139 14.8039
457 82 1 -0.208124 14.7089 11.889 14.8039
458 82 1 0.0751117 16.1798 14.4367 14.8039
459 82 1 0.416592 14.7089 16.9844 14.8039
460 82 1 0.421852 16.1798 19.532 14.8039
461 82 1 0.208507 0 1.69844 14.8039
462 82 1 -0.120354 1.47089 4.24609 14.8039
463 82 1 -0.369011 0 6.79374 14.8039
464 82 1 -0.491115 1.47089 9.34139 14.8039
465 82 1 -0.302383 0 11.889 14.8039
466 82 1 -0.0130377 1.47089 14.4367 14.8039
467 82 1 0.309964 0 16.9844 14.8039
468 82 1 0.361472 1.47089 19.532 14.8039
469 82 1 0.0796854 4.41266 2.54765 17.2059
470 82 1 -0.0857682 5.88355 5.09531 17.2059
471 82 1 -0.122172 4.41266 7.64296 17.2059
472 82 1 -0.190684 5.88355 10.1906 17.2059
473 82 1 -0.14585 4.41266 12.7383 17.2059
474 82 1 0.0587577 5.88355 15.2859 17.2059
475 82 1 0.0996186 4.41266 17.8336 17.2059
476 82 1 0.178308 5.88355 0 17.2059
477 82 1 0.0302414 7.35444 2.54765 17.2059
478 82 1 -0.17805 8.82533 5.09531 17.2059
479 82 1 -0.226633 7.35444 7.64296 17.2059
480 82 1 -0.150174 8.82533 10.1906 17.2059
481 82 1 -0.033842 7.35444 12.7383 17.2059
482 82 1 0.213451 8.82533 15.2859 17.2059
483 82 1 0.251472 7.35444 17.8336 17.2059
484 82 1 0.211713 8.82533 0 17.2059
485 82 1 0.00160838 10.2962 2.54765 17.2059
486 82 1 -0.128335 11.7671 5.09531 17.2059
487 82 1 -0.21582 10.2962 7.64296 17.2059
488 82 1 -0.0670288 11.7671 10.1906 17.2059
489 82 1 0.0840331 10.2962 12.7383 17.2059
490 82 1 0.249062 11.7671 15.2859 17.2059
491 82 1 0.308837 10.2962 17.8336 17.2059
492 82 1 0.182274 11.7671 0 17.2059
493 82 1 0.0295474 13.238 2.54765 17.2059
494 82 1 -0.00148207 14.7089 5.09531 17.2059
495 82 1 -0.0982299 13.238 7.64296 17.2059
496 82 1 -0.0370047 14.7089 10.1906 17.2059
497 82 1 0.0823638 13.238 12.7383 17.2059
498 82 1 0.103591 14.7089 15.2859 17.2059
499 82 1 0.221313 13.238 17.8336 17.2059
500 82 1 0.103028 14.7089 0 17.2059
501 82 1 0.0619061 16.1798 2.54765 17.2059
502 82 1 0.0686379 0 5.09531 17.2059
503 82 1 -0.00144776 16.1798 7.64296 17.2059
504 82 1 -0.0863396 0 10.1906 17.2059
505 82 1 -0.0531308 16.1798 12.7383 17.2059
506 82 1 -0.0765124 0 15.2859 17.2059
507 82 1 0.0513422 16.1798 17.8336 17.2059
508 82 1 0.0441446 0 0 17.2059
509 82 1 0.0813351 1.47089 2.54765 17.2059
510 82 1 0.03376 2.94178 5.09531 17.2059
511 82 1 -0.0158949 1.47089 7.64296 17.2059
512 82 1 -0.157032 2.94178 10.1906 17.2059
513 82 1 -0.164727 1.47089 12.7383 17.2059
514 82 1 -0.0867604 2.94178 15.2859 17.2059
515 82 1 -0.0144671 1.47089 17.8336 17.2059
516 82 1 0.0880529 2.94178 0 17.2059
517 82 1 0.0161246 5.88355 3.39687 19.6078
518 82 1 0.223077 7.35444 5.94452 19.6078
519 82 1 0.468828 5.88355 8.49218 19.6078
520 82 1 0.323548 7.35444 11.0398 19.6078
521 82 1 0.0291896 5.88355 13.5875 19.6078
522 82 1 -0.253142 7.35444 16.1351 19.6078
523 82 1 -0.365303 5.88355 18.6828 19.6078
524 82 1 -0.308081 7.35444 0.849218 19.6078
525 82 1 -0.152785 8.82533 3.39687 19.6078
526 82 1 0.117548 10.2962 5.94452 19.6078
527 82 1 0.345193 8.82533 8.49218 19.6078
528 82 1 0.325162 10.2962 11.0398 19.6078
529 82 1 0.0495427 8.82533 13.5875 19.6078
530 82 1 -0.253285 10.2962 16.1351 19.6078
531 82 1 -0.401555 8.82533 18.6828 19.6078
532 82 1 -0.406739 10.2962 0.849218 19.6078
533 82 1 -0.167181 11.7671 3.39687 19.6078
534 82 1 0.234544 13.238 5.94452 19.6078
535 82 1 0.353452 11.7671 8.49218 19.6078
536 82 1 0.341723 13.238 11.0398 19.6078
537 82 1 0.0784278 11.7671 13.5875 19.6078
538 82 1 -0.290183 13.238 16.1351 19.6078
539 82 1 -0.466265 11.7671 18.6828 19.6078
540 82 1 -0.436616 13.238 0.849218 19.6078
541 82 1 -0.0574274 14.7089 3.39687 19.6078
542 82 1 0.41958 16.1798 5.94452 19.6078
543 82 1 0.480126 14.7089 8.49218 19.6078
544 82 1 0.339594 16.1798 11.0398 19.6078
545 82 1 0.0151424 14.7089 13.5875 19.6078
546 82 1 -0.387679 16.1798 16.1351 19.6078
547 82 1 -0.539077 14.7089 18.6828 19.6078
548 82 1 -0.419754 16.1798 0.849218 19.6078
549 82 1 0.047254 0 3.39687 19.6078
550 82 1 0.502518 1.47089 5.94452 19.6078
551 82 1 0.593187 0 8.49218 19.6078
552 82 1 0.354067 1.47089 11.0398 19.6078
553 82 1 -0.0563092 0 13.5875 19.6078
554 82 1 -0.392567 1.47089 16.1351 19.6078
555 82 1 -0.56265 0 18.6828 19.6078
556 82 1 -0.345489 1.47089 0.849218 19.6078
557 82 1 0.101919 2.94178 3.39687 19.6078
558 82 1 0.429038 4.41266 5.94452 19.6078
559 82 1 0.589708 2.94178 8.49218 19.6078
560 82 1 0.357093 4.41266 11.0398 19.6078
561 82 1 -0.0176594 2.94178 13.5875 19.6078
562 82 1 -0.289662 4.41266 16.1351 19.6078
563 82 1 -0.459905 2.94178 18.6828 19.6078
564 82 1 -0.257832 4.41266 0.849218 19.6078
ITEM: TIMESTEP
2500
ITEM: NUMBER OF ATOMS
564
ITEM: BOX BOUNDS pp pp ff
0.0000000000000000e+00 1.7650658050000001e+01
0.0000000000000000e+00 2.0381224350000000e+01
0.0000000000000000e+00 6.0000000000000000e+01
ITEM: ATOMS id mol type q x y z
1 1 2 0 8.27156 15.3103 22.3782
2 1 3 0.592064 8.77733 16.1203 22.4449
3 1 3 0.525167 8.22805 14.98 23.2755
4 1 4 -1.11723 8.33074 15.3717 22.5016
5 2 2 0 12.9143 17.8173 22.2573
6 2 3 0.574312 12.9647 18.1054 21.3458
7 2 3 0.627189 13.0707 16.8737 22.2198
8 2 4 -1.2015 12.9408 17.7334 22.1358
9 3 2 0 16.7213 9.94344 22.2879
10 3 3 0.658654 16.7764 9.90396 23.2427
11 3 3 0.616489 -0.0431692 9.74136 21.9877
12 3 4 -1.27514 16.8418 9.91252 22.3717
13 4 2 0 1.47524 4.33414 22.1958
14 4 3 0.572538 0.773444 4.95712 22.3845
15 4 3 0.507973 2.2786 4.80033 22.4271
16 4 4 -1.08051 1.48824 4.47356 22.2496
17 5 2 0 13.7781 9.00856 22.8894
18 5 3 0.522794 13.1337 9.71599 22.8665
19 5 3 0.619263 14.6006 9.44048 23.1202
20 5 4 -1.14206 13.8009 9.15441 22.916
21 6 2 0 1.73347 8.90715 22.4375
22 6 3 0.595699 2.41552 8.44401 22.9239
23 6 3 0.495801 2.18951 9.28506 21.6856
24 6 4 -1.0915 1.87916 8.89624 22.4035
25 7 2 0 6.07758 17.2513 22.3576
26 7 3 0.517148 6.62167 16.4888 22.1607
27 7 3 0.605786 5.80858 17.1256 23.2676
28 7 4 -1.12293 6.1128 17.1376 22.4489
29 8 2 0 9.54387 0.623903 22.7269
30 8 3 0.630243 10.0953 0.990537 23.418
31 8 3 0.501374 10.1533 0.415643 22.0187
32 8 4 -1.13162 9.69247 0.644177 22.7247
33 9 2 0 7.58204 3.49524 22.7064
34 9 3 0.581979 8.1533 2.79598 22.3887
35 9 3 0.543075 7.94846 4.29475 22.3285
36 9 4 -1.12505 7.70207 3.50807 22.6173
37 10 2 0 6.25683 20.4503 22.3213
38 10 3 0.49855 5.5701 19.7851 22.274
39 10 3 0.570321 6.98691 20.0108 22.7573
40 10 4 -1.06887 6.26238 20.3089 22.3711
41 11 2 0 4.28474 7.19462 22.7838
42 11 3 0.566834 5.12228 7.58468 22.5336
43 11 3 0.515973 4.40196 6.25679 22.6322
44 11 4 -1.08281 4.40696 7.1245 22.7324
45 12 2 0 3.29523 18.9957 22.571
46 12 3 0.548857 2.4897 18.6638 22.1745
47 12 3 0.521206 3.11121 19.0126 23.5102
48 12 4 -1.07006 3.16855 18.9554 22.6405
49 13 2 0 14.7781 11.7679 22.1932
50 13 3 0.527941 15.1136 12.5514 22.629
51 13 3 0.613809 15.5496 11.2164 22.0638
52 13 4 -1.14175 14.9198 11.7976 22.2324
53 14 2 0 9.91218 17.9183 22.2953
54 14 3 0.544934 9.57997 18.6905 22.753
55 14 3 0.602523 10.8392 17.8801 22.5306
56 14 4 -1.14746 9.98832 18.0122 22.384
57 15 2 0 12.4917 4.32868 22.4611
58 15 3 0.615565 12.0043 4.86649 21.837
59 15 3 0.501771 12.8588 3.62039 21.9321
60 15 4 -1.11734 12.4763 4.30685 22.3135
61 16 2 0 11.668 7.15104 22.6974
62 16 3 0.540555 12.5402 7.53331 22.7941
63 16 3 0.624926 11.0794 7.90453 22.6518
64 16 4 -1.16548 11.7043 7.29643 22.704
65 17 2 0 3.20722 1.51614 22.775
66 17 3 0.604218 2.4614 1.41426 23.3663
67 17 3 0.522602 3.69905 0.700055 22.8662
68 17 4 -1.12682 3.1747 1.39863 22.8624
69 18 2 0 7.48023 7.66352 22.3419
70 18 3 0.484673 8.17727 7.10603 21.9961
71 18 3 0.527276 7.14643 8.13256 21.5771
72 18 4 -1.01195 7.52673 7.6522 22.1997
73 19 2 0 15.3488 1.88986 22.3225
74 19 3 0.461431 15.3218 2.82811 22.1349
75 19 3 0.537933 14.8342 1.49003 21.6213
76 19 4 -0.999364 15.2795 1.95878 22.2087
77 20 2 0 4.42028 4.05723 22.2711
78 20 3 0.533639 5.34185 3.7994 22.2495
79 20 3 0.61268 3.96221 3.28335 22.599
80 20 4 -1.14632 4.47961 3.92515 22.3103
81 21 2 0 16.7573 5.9569 22.6468
82 21 3 0.627369 17.0612 5.81295 23.5429
83 21 3 0.531869 15.8042 5.88746 22.7025
84 21 4 -1.15924 16.6742 5.92958 22.7686
85 22 2 0 0.394862 15.0576 22.5416
86 22 3 0.545261 0.524409 14.6006 21.7105
87 22 3 0.458905 -0.112213 15.836 22.3109
88 22 4 -1.00417 0.346533 15.0988 22.4057
89 23 2 0 9.96451 9.21584 22.2765
90 23 3 0.545522 9.29501 8.67372 21.8593
91 23 3 0.588939 9.6003 9.42789 23.1359
92 23 4 -1.13446 9.83219 9.17359 22.3331
93 24 2 0 4.42358 13.4838 22.6114
94 24 3 0.594566 4.75503 12.6523 22.2722
95 24 3 0.569398 3.73005 13.7328 22.0005
96 24 4 -1.16396 4.37723 13.4092 22.4898
97 25 2 0 8.55859 12.4165 22.4361
98 25 3 0.508401 8.12027 13.2609 22.3313
99 25 3 0.466026 9.05008 12.501 23.2531
100 25 4 -0.974428 8.56539 12.5354 22.5273
101 26 2 0 4.96664 19.4235 25.0143
102 26 3 0.525478 4.93642 20.32 24.6802
103 26 3 0.545952 5.83301 19.103 24.7634
104 26 4 -1.07143 5.07368 19.4972 24.9394
105 27 2 0 5.758 10.6242 22.4169
106 27 3 0.579042 5.34593 10.2817 21.6237
107 27 3 0.54855 6.68833 10.6806 22.1988
108 27 4 -1.12759 5.82434 10.5876 22.2874
109 28 2 0 15.587 13.9887 24.1201
110 28 3 0.585279 14.8372 14.2333 23.5776
111 28 3 0.583036 16.3506 14.2584 23.6099
112 28 4 -1.16832 15.5887 14.0546 23.9853
113 29 2 0 11.0655 13.7175 23.6615
114 29 3 0.614189 10.3516 13.9821 24.2417
115 29 3 0.672059 11.1956 12.7881 23.8497
116 29 4 -1.28625 10.9907 13.6324 23.7599
117 30 2 0 17.5538 19.9038 22.8273
118 30 3 0.556586 16.9138 19.3393 23.2608
119 30 3 0.524383 17.0553 -0.0310703 22.1428
120 30 4 -1.08097 17.4081 19.8886 22.7951
121 31 2 0 5.63655 2.53302 24.7175
122 31 3 0.606909 4.92214 3.15716 24.8452
123 31 3 0.578031 6.2968 3.02131 24.2257
124 31 4 -1.18494 5.62962 2.67543 24.6709
125 32 2 0 11.0679 2.28132 24.3459
126 32 3 0.536311 10.603 2.6726 25.0855
127 32 3 0.624644 11.5589 3.00679 23.9602
128 32 4 -1.16096 11.0712 2.42428 24.3912
129 33 2 0 13.2637 14.9894 22.8896
130 33 3 0.508066 13.6233 15.305 23.7187
131 33 3 0.737102 12.4567 14.5367 23.1349
132 33 4 -1.24517 13.2064 14.9719 23.0271
133 34 2 0 11.4552 10.9899 24.1314
134 34 3 0.613259 12.0766 10.6694 24.7851
135 34 3 0.591606 10.7102 10.3923 24.1951
136 34 4 -1.20487 11.4394 10.8724 24.2232
137 35 2 0 14.7558 19.5045 23.5831
138 35 3 0.519892 14.6582 20.3424 23.1308
139 35 3 0.597028 14.2789 18.8798 23.0365
140 35 4 -1.11692 14.6823 19.5318 23.4552
141 36 2 0 7.85401 18.4678 24.638
142 36 3 0.576897 8.75117 18.7971 24.5835
143 36 3 0.612286 7.91052 17.713 25.2238
144 36 4 -1.18918 7.97609 18.4133 24.706
145 37 2 0 15.9485 9.75295 24.9156
146 37 3 0.560494 15.9579 8.98637 25.4888
147 37 3 0.677089 16.0045 10.4994 25.5122
148 37 4 -1.23758 15.9569 9.75037 25.0654
149 38 2 0 0.507311 5.55962 25.1148
150 38 3 0.502653 0.424366 6.34398 25.6571
151 38 3 0.610185 1.44112 5.50613 24.9114
152 38 4 -1.11284 0.616232 5.65318 25.1582
153 39 2 0 10.6894 19.2074 25.1012
154 39 3 0.586885 11.3747 19.8505 25.283
155 39 3 0.588592 11.1568 18.3765 25.0152
156 39 4 -1.17548 10.837 19.1833 25.1135
157 40 2 0 1.57627 11.2378 26.6823
158 40 3 0.560382 1.86282 10.3527 26.4573
159 40 3 0.617105 2.24843 11.8094 26.3111
160 40 4 -1.17749 1.69899 11.1977 26.606
161 41 2 0 7.25882 4.30492 26.3205
162 41 3 0.619711 8.02037 3.75974 26.5181
163 41 3 0.529108 6.79132 3.82534 25.6366
164 41 4 -1.14882 7.29646 4.17374 26.2583
165 42 2 0 7.42112 16.2008 26.4324
166 42 3 0.615569 7.2123 16.4282 27.3384
167 42 3 0.588632 6.60779 16.3565 25.9523
168 42 4 -1.2042 7.29027 16.2498 26.4869
169 43 2 0 0.781058 8.01075 26.8228
170 43 3 0.535008 1.24672 7.67272 26.0578
171 43 3 0.570395 1.47277 8.23275 27.4461
172 43 4 -1.1054 0.929216 7.99589 26.8046
173 44 2 0 14.4277 5.3128 24.3223
174 44 3 0.530413 14.0867 4.88819 25.1095
175 44 3 0.548942 13.8011 5.08431 23.6358
176 44 4 -1.07935 14.3039 5.2292 24.3352
177 45 2 0 8.04109 6.97508 25.6708
178 45 3 0.560622 7.65639 6.10009 25.7221
179 45 3 0.579506 8.58983 7.04219 26.4522
180 45 4 -1.14013 8.06209 6.87166 25.7774
181 46 2 0 3.37204 12.4703 24.8686
182 46 3 0.478383 4.05574 12.2924 25.5145
183 46 3 0.637998 3.84206 12.5571 24.0393
184 46 4 -1.11638 3.51973 12.4586 24.8451
185 47 2 0 3.11463 9.15889 25.0535
186 47 3 0.590006 4.06766 9.22386 25.1148
187 47 3 0.522755 2.84802 9.95984 24.6022
188 47 4 -1.11276 3.2025 9.26974 25.0036
189 48 2 0 3.39837 5.75214 25.1863
190 48 3 0.611201 3.96009 5.88134 25.9505
191 48 3 0.550112 3.70968 6.39424 24.5483
192 48 4 -1.16131 3.51013 5.85087 25.2024
193 49 2 0 12.8016 17.4024 25.1224
194 49 3 0.564098 13.6561 17.3086 25.5434
195 49 3 0.525367 12.9034 18.1532 24.5375
196 49 4 -1.08947 12.924 17.4865 25.1014
197 50 2 0 6 9.3304 25.0073
198 50 3 0.627305 5.84872 9.77172 24.1714
199 50 3 0.575431 6.33931 8.46859 24.7656
200 50 4 -1.20274 6.02407 9.27657 24.8693
201 51 2 0 9.02807 9.66544 25.0217
202 51 3 0.564092 8.54432 10.3558 25.4751
203 51 3 0.637036 8.49932 8.87793 25.1501
204 51 4 -1.20113 8.89846 9.65301 25.0962
205 52 2 0 2.7303 0.90373 25.6292
206 52 3 0.53376 2.39423 1.52387 26.2762
207 52 3 0.533389 2.98384 0.136021 26.1416
208 52 4 -1.06715 2.71973 0.884839 25.7776
209 53 2 0 2.12425 17.686 26.1674
210 53 3 0.528654 1.38021 17.5388 25.5835
211 53 3 0.447512 2.59803 18.418 25.7725
212 53 4 -0.976165 2.08966 17.7609 26.0421
213 54 2 0 16.4168 12.1677 26.1761
214 54 3 0.642165 17.3594 12.0078 26.2235
215 54 3 0.615338 16.3127 12.7734 25.4423
216 54 4 -1.2575 16.5241 12.2247 26.0882
217 55 2 0 14.1629 2.86342 26.1721
218 55 3 0.511334 14.3548 2.09075 26.7035
219 55 3 0.456846 14.7912 2.82091 25.4512
220 55 4 -0.96818 14.2679 2.75907 26.1479
221 56 2 0 11.613 7.00097 25.5715
222 56 3 0.580106 11.8605 6.7887 24.6716
223 56 3 0.486234 10.8667 6.43065 25.756
224 56 4 -1.06634 11.5492 6.90079 25.4799
225 57 2 0 3.77136 19.4068 27.759
226 57 3 0.579833 4.63197 19.1175 27.4559
227 57 3 0.565704 3.1917 18.6671 27.577
228 57 4 -1.14554 3.80733 19.2751 27.6969
229 58 2 0 13.1432 9.30495 26.0779
230 58 3 0.617228 12.7675 8.42829 25.9969
231 58 3 0.542908 14.0633 9.19482 25.8379
232 58 4 -1.16014 13.2129 9.17863 26.0368
233 59 2 0 5.05 15.9416 24.5779
234 59 3 0.634749 4.87778 15.2345 23.9561
235 59 3 0.542192 4.21591 16.0732 25.0287
236 59 4 -1.17694 4.92118 15.8679 24.556
237 60 2 0 6.9387 0.873479 26.4324
238 60 3 0.614369 6.3514 1.40601 25.896
239 60 3 0.535682 7.04274 20.4411 25.939
240 60 4 -1.15005 6.87683 0.837497 26.3006
241 61 2 0 9.07489 14.1113 25.7114
242 61 3 0.540445 8.66596 13.3081 26.0338
243 61 3 0.62632 8.52161 14.815 26.0503
244 61 4 -1.16677 8.95171 14.0986 25.7961
245 62 2 0 7.42646 11.3514 26.5068
246 62 3 0.684363 6.63476 11.5403 27.0105
247 62 3 0.580892 7.1341 10.7605 25.8129
248 62 4 -1.26526 7.28769 11.3 26.4824
249 63 2 0 9.44902 2.53476 26.8776
250 63 3 0.556469 8.84742 1.92381 26.4521
251 63 3 0.598784 9.05558 2.70164 27.7341
252 63 4 -1.15525 9.32164 2.47792 26.9328
253 64 2 0 14.2067 13.4166 27.2736
254 64 3 0.619298 15.0418 13.1348 26.9
255 64 3 0.412519 14.3076 13.2818 28.2158
256 64 4 -1.03182 14.3265 13.3633 27.3464
257 65 2 0 15.6669 7.82458 27.2256
258 65 3 0.471552 15.6231 6.86838 27.2267
259 65 3 0.560753 16.6 8.02216 27.3065
260 65 4 -1.03231 15.7808 7.72747 27.2361
261 66 2 0 5.20236 5.97114 27.5092
262 66 3 0.632699 6.02291 5.49277 27.3905
263 66 3 0.512229 4.68572 5.41942 28.0965
264 66 4 -1.14493 5.24126 5.83928 27.5691
265 67 2 0 16.9157 0.89951 25.5003
266 67 3 0.549813 17.2729 0.801714 24.6176
267 67 3 0.40363 16.1256 1.4268 25.3823
268 67 4 -0.953443 16.8603 0.954491 25.3722
269 68 2 0 12.188 11.2277 28.2022
270 68 3 0.544514 12.3048 10.5774 27.5096
271 68 3 0.519121 12.7155 11.9753 27.9211
272 68 4 -1.06363 12.2704 11.2401 28.0776
273 69 2 0 12.2054 0.751699 26.8242
274 69 3 0.559986 11.9631 1.35756 26.1239
275 69 3 0.528947 11.7257 1.06648 27.5904
276 69 4 -1.08893 12.113 0.869553 26.8327
277 70 2 0 4.81814 11.4142 27.4579
278 70 3 0.575712 4.80641 10.4602 27.5358
279 70 3 0.568015 4.28593 11.7214 28.1918
280 70 4 -1.14373 4.74851 11.3314 27.5618
281 71 2 0 3.26548 3.51713 27.3272
282 71 3 0.456133 2.44126 3.73721 27.7613
283 71 3 0.550131 3.69365 2.90214 27.9227
284 71 4 -1.00626 3.21478 3.46658 27.459
285 72 2 0 2.39237 13.1362 28.9106
286 72 3 0.526531 1.72416 12.5118 28.6279
287 72 3 0.449027 1.97411 13.6335 29.6134
288 72 4 -0.975558 2.25329 13.1199 28.9644
289 73 2 0 9.57057 18.8953 27.7782
290 73 3 0.618524 10.3454 18.3727 27.9852
291 73 3 0.533383 9.73947 19.2376 26.9004
292 73 4 -1.15191 9.69138 18.8722 27.6923
293 74 2 0 12.1292 17.7353 28.213
294 74 3 0.545735 12.5794 17.949 27.3958
295 74 3 0.509009 12.6843 17.0745 28.6271
296 74 4 -1.05474 12.2579 17.6781 28.1614
297 75 2 0 5.08628 1.49855 28.6743
298 75 3 0.584782 5.71346 1.18184 28.0243
299 75 3 0.56467 4.42906 0.804984 28.7315
300 75 4 -1.14945 5.08243 1.36922 28.5984
301 76 2 0 9.33906 7.3065 28.322
302 76 3 0.465685 10.0446 7.02964 28.9067
303 76 3 0.614147 9.30547 8.25805 28.4202
304 76 4 -1.07983 9.42507 7.39287 28.4094
305 77 2 0 7.86259 2.60468 29.6671
306 77 3 0.467917 8.00622 2.62862 30.6131
307 77 3 0.547998 7.01182 2.17824 29.5642
308 77 4 -1.01591 7.77207 2.55315 29.775
309 78 2 0 14.6007 18.938 26.9531
310 78 3 0.500354 13.9348 19.5028 27.3453
311 78 3 0.535283 14.9322 19.4394 26.2082
312 78 4 -1.03564 14.5579 19.0745 26.908
313 79 2 0 3.99943 8.49256 28.1322
314 79 3 0.443298 3.96507 8.42384 29.0863
315 79 3 0.609066 4.67815 7.87016 27.8711
316 79 4 -1.05236 4.08192 8.40409 28.2209
317 80 2 0 9.00561 10.2388 28.5086
318 80 3 0.539221 9.88391 10.6191 28.4945
319 80 3 0.581481 8.58121 10.5859 27.724
320 80 4 -1.1207 9.06371 10.3319 28.4064
321 81 2 0 6.67623 18.238 28.0216
322 81 3 0.639064 7.61314 18.4311 28.0556
323 81 3 0.473338 6.37555 18.3485 28.9236
324 81 4 -1.1124 6.75768 18.2769 28.1414
325 82 1 0.156124 0 0 10
326 82 1 -0.32151 1.47089 2.54765 10
327 82 1 -0.319005 0 5.09531 10
328 82 1 -0.130895 1.47089 7.64296 10
329 82 1 -0.120378 0 10.1906 10
330 82 1 0.345218 1.47089 12.7383 10
331 82 1 0.35451 0 15.2859 10
332 82 1 0.161758 1.47089 17.8336 10
333 82 1 -0.346033 2.94178 0 10
334 82 1 -0.388893 4.41266 2.54765 10
335 82 1 -0.236325 2.94178 5.09531 10
336 82 1 0.290256 4.41266 7.64296 10
337 82 1 0.369042 2.94178 10.1906 10
338 82 1 0.40637 4.41266 12.7383 10
339 82 1 0.257815 2.94178 15.2859 10
340 82 1 -0.264447 4.41266 17.8336 10
341 82 1 -0.446421 5.88355 0 10
342 82 1 -0.0149689 7.35444 2.54765 10
343 82 1 0.115788 5.88355 5.09531 10
344 82 1 0.425969 7.35444 7.64296 10
345 82 1 0.472368 5.88355 10.1906 10
346 82 1 0.0430728 7.35444 12.7383 10
347 82 1 -0.0909135 5.88355 15.2859 10
348 82 1 -0.389026 7.35444 17.8336 10
349 82 1 -0.0449678 8.82533 0 10
350 82 1 0.426463 10.2962 2.54765 10
351 82 1 0.384475 8.82533 5.09531 10
352 82 1 0.140485 10.2962 7.64296 10
353 82 1 0.0859242 8.82533 10.1906 10
354 82 1 -0.381061 10.2962 12.7383 10
355 82 1 -0.342892 8.82533 15.2859 10
356 82 1 -0.086877 10.2962 17.8336 10
357 82 1 0.457556 11.7671 0 10
358 82 1 0.494588 13.238 2.54765 10
359 82 1 0.301716 11.7671 5.09531 10
360 82 1 -0.280041 13.238 7.64296 10
361 82 1 -0.403401 11.7671 10.1906 10
362 82 1 -0.441841 13.238 12.7383 10
363 82 1 -0.245735 11.7671 15.2859 10
364 82 1 0.339863 13.238 17.8336 10
365 82 1 0.558258 14.7089 0 10
366 82 1 0.120538 16.1798 2.54765 10
367 82 1 -0.0496071 14.7089 5.09531 10
368 82 1 -0.415697 16.1798 7.64296 10
369 82 1 -0.506353 14.7089 10.1906 10
370 82 1 -0.0788319 16.1798 12.7383 10
371 82 1 0.102952 14.7089 15.2859 10
372 82 1 0.463954 16.1798 17.8336 10
373 82 1 -0.178225 1.47089 0.849218 12.402
374 82 1 -0.273322 2.94178 3.39687 12.402
375 82 1 -0.19231 1.47089 5.94452 12.402
376 82 1 0.104606 2.94178 8.49218 12.402
377 82 1 0.128396 1.47089 11.0398 12.402
378 82 1 0.219183 2.94178 13.5875 12.402
379 82 1 0.145349 1.47089 16.1351 12.402
380 82 1 -0.145502 2.94178 18.6828 12.402
381 82 1 -0.328188 4.41266 0.849218 12.402
382 82 1 -0.130223 5.88355 3.39687 12.402
383 82 1 -0.00219706 4.41266 5.94452 12.402
384 82 1 0.2544 5.88355 8.49218 12.402
385 82 1 0.279955 4.41266 11.0398 12.402
386 82 1 0.0762757 5.88355 13.5875 12.402
387 82 1 -0.0428971 4.41266 16.1351 12.402
388 82 1 -0.2938 5.88355 18.6828 12.402
389 82 1 -0.186235 7.35444 0.849218 12.402
390 82 1 0.107387 8.82533 3.39687 12.402
391 82 1 0.166157 7.35444 5.94452 12.402
392 82 1 0.133406 8.82533 8.49218 12.402
393 82 1 0.135189 7.35444 11.0398 12.402
394 82 1 -0.162239 8.82533 13.5875 12.402
395 82 1 -0.210464 7.35444 16.1351 12.402
396 82 1 -0.176443 8.82533 18.6828 12.402
397 82 1 0.106428 10.2962 0.849218 12.402
398 82 1 0.204101 11.7671 3.39687 12.402
399 82 1 0.143913 10.2962 5.94452 12.402
400 82 1 -0.135615 11.7671 8.49218 12.402
401 82 1 -0.16079 10.2962 11.0398 12.402
402 82 1 -0.257042 11.7671 13.5875 12.402
403 82 1 -0.188498 10.2962 16.1351 12.402
404 82 1 0.0906785 11.7671 18.6828 12.402
405 82 1 0.258383 13.238 0.849218 12.402
406 82 1 0.063112 14.7089 3.39687 12.402
407 82 1 -0.04418 13.238 5.94452 12.402
408 82 1 -0.283475 14.7089 8.49218 12.402
409 82 1 -0.311163 13.238 11.0398 12.402
410 82 1 -0.114373 14.7089 13.5875 12.402
411 82 1 0.000580397 13.238 16.1351 12.402
412 82 1 0.238972 14.7089 18.6828 12.402
413 82 1 0.115634 16.1798 0.849218 12.402
414 82 1 -0.176698 0 3.39687 12.402
415 82 1 -0.212105 16.1798 5.94452 12.402
416 82 1 -0.164137 0 8.49218 12.402
417 82 1 -0.166774 16.1798 11.0398 12.402
418 82 1 0.123407 0 13.5875 12.402
419 82 1 0.166683 16.1798 16.1351 12.402
420 82 1 0.120165 0 18.6828 12.402
421 82 1 0.0765838 2.94178 1.69844 14.8039
422 82 1 0.0267956 4.41266 4.24609 14.8039
423 82 1 0.00794879 2.94178 6.79374 14.8039
424 82 1 -0.0938072 4.41266 9.34139 14.8039
425 82 1 -0.0960927 2.94178 11.889 14.8039
426 82 1 -0.0490144 4.41266 14.4367 14.8039
427 82 1 -0.0178629 2.94178 16.9844 14.8039
428 82 1 0.0920645 4.41266 19.532 14.8039
429 82 1 0.0528097 5.88355 1.69844 14.8039
430 82 1 -0.076923 7.35444 4.24609 14.8039
431 82 1 -0.0814808 5.88355 6.79374 14.8039
432 82 1 -0.0806734 7.35444 9.34139 14.8039
433 82 1 -0.0759528 5.88355 11.889 14.8039
434 82 1 0.0466905 7.35444 14.4367 14.8039
435 82 1 0.0746942 5.88355 16.9844 14.8039
436 82 1 0.0650421 7.35444 19.532 14.8039
437 82 1 -0.0825012 8.82533 1.69844 14.8039
438 82 1 -0.145172 10.2962 4.24609 14.8039
439 82 1 -0.0971093 8.82533 6.79374 14.8039
440 82 1 0.0301663 10.2962 9.34139 14.8039
441 82 1 0.0383734 8.82533 11.889 14.8039
442 82 1 0.102835 10.2962 14.4367 14.8039
443 82 1 0.0751681 8.82533 16.9844 14.8039
444 82 1 -0.0692407 10.2962 19.532 14.8039
445 82 1 -0.188408 11.7671 1.69844 14.8039
446 82 1 -0.102409 13.238 4.24609 14.8039
447 82 1 -0.0193282 11.7671 6.79374 14.8039
448 82 1 0.132554 13.238 9.34139 14.8039
449 82 1 0.13492 11.7671 11.889 14.8039
450 82 1 0.0609823 13.238 14.4367 14.8039
451 82 1 -0.014509 11.7671 16.9844 14.8039
452 82 1 -0.175985 13.238 19.532 14.8039
453 82 1 -0.160423 14.7089 1.69844 14.8039
454 82 1 0.00283532 16.1798 4.24609 14.8039
455 82 1 0.0770531 14.7089 6.79374 14.8039
456 82 1 0.120031 16.1798 9.34139 14.8039
457 82 1 0.114789 14.7089 11.889 14.8039
458 82 1 -0.0380683 16.1798 14.4367 14.8039
459 82 1 -0.109381 14.7089 16.9844 14.8039
460 82 1 -0.153182 16.1798 19.532 14.8039
461 82 1 -0.0310035 0 1.69844 14.8039
462 82 1 0.0640211 1.47089 4.24609 14.8039
463 82 1 0.0881775 0 6.79374 14.8039
464 82 1 0.00497518 1.47089 9.34139 14.8039
465 82 1 -0.00147539 0 11.889 14.8039
466 82 1 -0.09189 1.47089 14.4367 14.8039
467 82 1 -0.112046 0 16.9844 14.8039
468 82 1 -0.0192334 1.47089 19.532 14.8039
469 82 1 0.382991 4.41266 2.54765 17.2059
470 82 1 -0.0516902 5.88355 5.09531 17.2059
471 82 1 -0.206952 4.41266 7.64296 17.2059
472 82 1 -0.376482 5.88355 10.1906 17.2059
473 82 1 -0.337087 4.41266 12.7383 17.2059
474 82 1 0.103284 5.88355 15.2859 17.2059
475 82 1 0.284838 4.41266 17.8336 17.2059
476 82 1 0.447794 5.88355 0 17.2059
477 82 1 0.0640253 7.35444 2.54765 17.2059
478 82 1 -0.27768 8.82533 5.09531 17.2059
479 82 1 -0.315549 7.35444 7.64296 17.2059
480 82 1 -0.0562481 8.82533 10.1906 17.2059
481 82 1 -0.0302743 7.35444 12.7383 17.2059
482 82 1 0.327504 8.82533 15.2859 17.2059
483 82 1 0.389383 7.35444 17.8336 17.2059
484 82 1 0.0941671 8.82533 0 17.2059
485 82 1 -0.315537 10.2962 2.54765 17.2059
486 82 1 -0.203735 11.7671 5.09531 17.2059
487 82 1 -0.0819121 10.2962 7.64296 17.2059
488 82 1 0.360818 11.7671 10.1906 17.2059
489 82 1 0.339864 10.2962 12.7383 17.2059
490 82 1 0.256595 11.7671 15.2859 17.2059
491 82 1 0.134104 10.2962 17.8336 17.2059
492 82 1 -0.332877 11.7671 0 17.2059
493 82 1 -0.359714 13.238 2.54765 17.2059
494 82 1 0.105399 14.7089 5.09531 17.2059
495 82 1 0.280749 13.238 7.64296 17.2059
496 82 1 0.45346 14.7089 10.1906 17.2059
497 82 1 0.399485 13.238 12.7383 17.2059
498 82 1 -0.0483945 14.7089 15.2859 17.2059
499 82 1 -0.230005 13.238 17.8336 17.2059
500 82 1 -0.415249 14.7089 0 17.2059
501 82 1 -0.0413423 16.1798 2.54765 17.2059
502 82 1 0.317686 0 5.09531 17.2059
503 82 1 0.395887 16.1798 7.64296 17.2059
504 82 1 0.123942 0 10.1906 17.2059
505 82 1 0.0856458 16.1798 12.7383 17.2059
506 82 1 -0.27214 0 15.2859 17.2059
507 82 1 -0.345993 16.1798 17.8336 17.2059
508 82 1 -0.0745385 0 0 17.2059
509 82 1 0.322839 1.47089 2.54765 17.2059
510 82 1 0.236161 2.94178 5.09531 17.2059
511 82 1 0.144182 1.47089 7.64296 17.2059
512 82 1 -0.290731 2.94178 10.1906 17.2059
513 82 1 -0.279866 1.47089 12.7383 17.2059
514 82 1 -0.192729 2.94178 15.2859 17.2059
515 82 1 -0.0843764 1.47089 17.8336 17.2059
516 82 1 0.362325 2.94178 0 17.2059
517 82 1 0.150784 5.88355 3.39687 19.6078
518 82 1 -0.245382 7.35444 5.94452 19.6078
519 82 1 -0.381129 5.88355 8.49218 19.6078
520 82 1 -0.263713 7.35444 11.0398 19.6078
521 82 1 -0.187383 5.88355 13.5875 19.6078
522 82 1 0.254008 7.35444 16.1351 19.6078
523 82 1 0.400764 5.88355 18.6828 19.6078
524 82 1 0.237852 7.35444 0.849218 19.6078
525 82 1 -0.177481 8.82533 3.39687 19.6078
526 82 1 -0.229882 10.2962 5.94452 19.6078
527 82 1 -0.23202 8.82533 8.49218 19.6078
528 82 1 0.136348 10.2962 11.0398 19.6078
529 82 1 0.153428 8.82533 13.5875 19.6078
530 82 1 0.243185 10.2962 16.1351 19.6078
531 82 1 0.22795 8.82533 18.6828 19.6078
532 82 1 -0.180375 10.2962 0.849218 19.6078
533 82 1 -0.305219 11.7671 3.39687 19.6078
534 82 1 0.0407605 13.238 5.94452 19.6078
535 82 1 0.121931 11.7671 8.49218 19.6078
536 82 1 0.354693 13.238 11.0398 19.6078
537 82 1 0.306871 11.7671 13.5875 19.6078
538 82 1 -0.0197371 13.238 16.1351 19.6078
539 82 1 -0.139991 11.7671 18.6828 19.6078
540 82 1 -0.372875 13.238 0.849218 19.6078
541 82 1 -0.0876024 14.7089 3.39687 19.6078
542 82 1 0.27003 16.1798 5.94452 19.6078
543 82 1 0.337454 14.7089 8.49218 19.6078
544 82 1 0.156059 16.1798 11.0398 19.6078
545 82 1 0.104565 14.7089 13.5875 19.6078
546 82 1 -0.264378 16.1798 16.1351 19.6078
547 82 1 -0.35232 14.7089 18.6828 19.6078
548 82 1 -0.177641 16.1798 0.849218 19.6078
549 82 1 0.213346 0 3.39687 19.6078
550 82 1 0.209245 1.47089 5.94452 19.6078
551 82 1 0.166633 0 8.49218 19.6078
552 82 1 -0.246218 1.47089 11.0398 19.6078
553 82 1 -0.230159 0 13.5875 19.6078
554 82 1 -0.236407 1.47089 16.1351 19.6078
555 82 1 -0.186123 0 18.6828 19.6078
556 82 1 0.228895 1.47089 0.849218 19.6078
557 82 1 0.328651 2.94178 3.39687 19.6078
558 82 1 -0.040397 4.41266 5.94452 19.6078
559 82 1 -0.196546 2.94178 8.49218 19.6078
560 82 1 -0.452813 4.41266 11.0398 19.6078
561 82 1 -0.375573 2.94178 13.5875 19.6078
562 82 1 0.0174616 4.41266 16.1351 19.6078
563 82 1 0.200915 2.94178 18.6828 19.6078
564 82 1 0.446769 4.41266 0.849218 19.6078
ITEM: TIMESTEP
5000
ITEM: NUMBER OF ATOMS
564
ITEM: BOX BOUNDS pp pp ff
0.0000000000000000e+00 1.7650658050000001e+01
0.0000000000000000e+00 2.0381224350000000e+01
0.0000000000000000e+00 6.0000000000000000e+01
ITEM: ATOMS id mol type q x y z
1 1 2 0 8.52998 15.651 22.3856
2 1 3 0.630178 9.1417 16.3094 22.7152
3 1 3 0.675086 8.32504 15.1105 23.1486
4 1 4 -1.30526 8.58206 15.6661 22.5255
5 2 2 0 13.3684 18.019 22.3115
6 2 3 0.484894 14.1052 17.4083 22.3342
7 2 3 0.691887 13.3473 18.3361 21.4086
8 2 4 -1.17678 13.4601 17.9814 22.1988
9 3 2 0 16.1448 9.41183 22.0642
10 3 3 0.663135 15.6902 8.86059 22.7011
11 3 3 0.689011 16.9463 9.6839 22.5111
12 3 4 -1.35215 16.1892 9.37609 22.2029
13 4 2 0 1.58536 4.20014 22.4148
14 4 3 0.548411 1.00226 4.57062 23.0774
15 4 3 0.553672 2.45716 4.50714 22.6637
16 4 4 -1.10208 1.62232 4.28686 22.5315
17 5 2 0 13.2202 8.97725 22.0902
18 5 3 0.640141 12.6789 9.72455 22.3446
19 5 3 0.608192 12.7151 8.2112 22.3627
20 5 4 -1.24833 13.0862 8.97485 22.1576
21 6 2 0 0.818499 10.4627 23.3446
22 6 3 0.494512 0.994684 9.91839 24.112
23 6 3 0.673269 1.67186 10.8249 23.1063
24 6 4 -1.16778 0.950295 10.4394 23.4123
25 7 2 0 5.89422 17.2051 22.3
26 7 3 0.530101 6.72508 16.8644 22.6315
27 7 3 0.671405 5.22608 16.737 22.8008
28 7 4 -1.20151 5.91505 17.1015 22.4066
29 8 2 0 8.80503 20.1324 22.3258
30 8 3 0.535086 8.89526 19.5102 23.0476
31 8 3 0.780961 9.33966 0.500925 22.587
32 8 4 -1.31605 8.88502 20.1487 22.4517
33 9 2 0 8.93104 4.40105 22.5837
34 9 3 0.594665 9.1943 4.85477 21.783
35 9 3 0.469836 8.59742 5.09399 23.1536
36 9 4 -1.0645 8.92203 4.54784 22.5542
37 10 2 0 6.13095 20.1869 22.2305
38 10 3 0.662259 7.08389 20.1376 22.3061
39 10 3 0.6103 5.88975 0.580577 22.7381
40 10 4 -1.27256 6.22206 20.2798 22.3052
41 11 2 0 4.2847 7.43321 22.4764
42 11 3 0.646449 4.51383 7.5666 21.5567
43 11 3 0.533437 4.60833 8.21699 22.9205
44 11 4 -1.17989 4.35546 7.55062 22.4155
45 12 2 0 2.93376 19.4605 22.5966
46 12 3 0.672075 2.24549 18.799 22.5262
47 12 3 0.518473 3.35265 19.2823 23.4386
48 12 4 -1.19055 2.89928 19.353 22.6954
49 13 2 0 14.4743 11.8403 22.3034
50 13 3 0.580821 14.7957 12.6167 22.7618
51 13 3 0.607776 15.1455 11.1755 22.4575
52 13 4 -1.1886 14.6014 11.8546 22.3818
53 14 2 0 10.6095 17.5297 22.2777
54 14 3 0.598324 10.7254 18.3692 21.8326
55 14 3 0.632276 11.5 17.211 22.4246
56 14 4 -1.2306 10.7383 17.5964 22.2395
57 15 2 0 13.4437 4.08984 22.3953
58 15 3 0.619797 12.6897 4.48587 21.9584
59 15 3 0.689599 13.5964 3.27424 21.9181
60 15 4 -1.3094 13.3667 4.03613 22.2783
61 16 2 0 11.8589 6.4875 22.4175
62 16 3 0.592564 11.1158 7.03302 22.1599
63 16 3 0.507266 12.0957 6.80118 23.2903
64 16 4 -1.09983 11.7941 6.59749 22.4963
65 17 2 0 3.24372 1.87894 22.2054
66 17 3 0.566224 2.87949 2.61389 22.6988
67 17 3 0.579247 2.82222 1.10571 22.5805
68 17 4 -1.14547 3.14313 1.87404 22.3166
69 18 2 0 7.42525 7.08917 22.4711
70 18 3 0.616084 7.28638 7.19012 21.5295
71 18 3 0.4683 6.57641 7.29564 22.8624
72 18 4 -1.08438 7.29881 7.12852 22.4007
73 19 2 0 14.7656 1.36027 22.2636
74 19 3 0.600953 14.2257 0.915662 21.6101
75 19 3 0.485654 15.469 0.740177 22.4559
76 19 4 -1.08661 14.7866 1.22398 22.2046
77 20 2 0 4.51558 4.69148 22.4821
78 20 3 0.651632 4.47523 5.64697 22.5227
79 20 3 0.527612 5.25296 4.5069 21.9003
80 20 4 -1.17924 4.60481 4.79016 22.4128
81 21 2 0 0.354462 7.03873 22.1702
82 21 3 0.535621 1.17796 7.07727 22.6566
83 21 3 0.593649 17.3433 6.84433 22.8338
84 21 4 -1.12927 0.375156 7.01878 22.3174
85 22 2 0 0.353554 14.6634 22.218
86 22 3 0.531089 1.11544 14.087 22.1588
87 22 3 0.624044 0.0223635 14.7163 21.3215
88 22 4 -1.15513 0.408688 14.5964 22.0957
89 23 2 0 9.97749 8.60352 22.5719
90 23 3 0.690877 9.30965 8.17203 22.039
91 23 3 0.580399 9.75084 8.37368 23.4731
92 23 4 -1.27128 9.86298 8.51886 22.6191
93 24 2 0 3.1327 11.6404 22.241
94 24 3 0.495974 3.85737 11.0675 22.4918
95 24 3 0.676831 3.12464 11.6124 21.2843
96 24 4 -1.17281 3.22443 11.5634 22.1507
97 25 2 0 8.5999 11.3869 23.0162
98 25 3 0.632488 7.81664 11.2596 22.4809
99 25 3 0.550698 9.08903 10.5693 22.9241
100 25 4 -1.18319 8.56225 11.2659 22.9359
101 26 2 0 5.29652 19.0753 24.8252
102 26 3 0.599339 5.67155 19.1383 23.9468
103 26 3 0.574098 5.43083 18.162 25.0785
104 26 4 -1.17344 5.36172 18.9664 24.7452
105 27 2 0 5.97264 10.5448 22.3511
106 27 3 0.732249 6.03668 10.1283 21.4917
107 27 3 0.523388 5.62602 11.4183 22.1692
108 27 4 -1.25564 5.93647 10.6033 22.2178
109 28 2 0 15.7405 13.8001 23.8756
110 28 3 0.58685 15.5512 14.7228 24.0464
111 28 3 0.667201 16.5328 13.8131 23.3386
112 28 4 -1.25405 15.8177 13.9199 23.8287
113 29 2 0 10.4265 13.3699 22.2147
114 29 3 0.673829 10.1854 12.5348 22.6156
115 29 3 0.526074 9.59323 13.8221 22.0827
116 29 4 -1.1999 10.289 13.3209 22.2491
117 30 2 0 1.05537 17.4138 22.614
118 30 3 0.673554 0.37674 17.8667 22.1135
119 30 3 0.605898 0.845705 16.4849 22.5166
120 30 4 -1.27945 0.941659 17.3528 22.5375
121 31 2 0 6.54344 2.60411 22.7243
122 31 3 0.51179 5.76633 3.04258 23.0708
123 31 3 0.654732 7.22742 3.2733 22.7485
124 31 4 -1.16652 6.53152 2.7459 22.7717
125 32 2 0 10.7113 1.72311 22.6434
126 32 3 0.558371 10.426 2.55343 23.0248
127 32 3 0.5928 10.9767 1.94727 21.7515
128 32 4 -1.15117 10.7087 1.85809 22.5781
129 33 2 0 13.2032 14.5434 22.6113
130 33 3 0.476693 13.844 13.9391 22.9861
131 33 3 0.52711 12.3645 14.0915 22.7037
132 33 4 -1.0038 13.1779 14.4082 22.6711
133 34 2 0 11.5972 10.7879 23.346
134 34 3 0.683989 11.8266 11.0333 24.2423
135 34 3 0.58506 11.0668 9.99695 23.442
136 34 4 -1.26905 11.5587 10.7181 23.473
137 35 2 0 16.3588 19.2204 22.4627
138 35 3 0.468342 15.7843 18.516 22.7628
139 35 3 0.673571 16.1452 19.3257 21.5356
140 35 4 -1.14191 16.2579 19.1437 22.3824
141 36 2 0 8.46666 18.1469 24.4698
142 36 3 0.645456 9.40929 18.2309 24.6134
143 36 3 0.522585 8.18374 17.4935 25.1095
144 36 4 -1.16804 8.55111 18.074 24.57
145 37 2 0 15.3529 8.46539 24.5788
146 37 3 0.567837 15.8871 8.07929 25.2729
147 37 3 0.602008 15.1744 9.35605 24.8806
148 37 4 -1.16985 15.3984 8.52998 24.7063
149 38 2 0 17.0957 5.78041 24.7023
150 38 3 0.59702 16.4942 5.35097 25.3106
151 38 3 0.539764 0.253149 5.89247 25.2029
152 38 4 -1.13678 17.1221 5.73978 24.8442
153 39 2 0 11.0366 18.9213 24.8561
154 39 3 0.671743 11.9405 19.0804 25.1277
155 39 3 0.500242 11.1141 18.4888 24.0057
156 39 4 -1.17198 11.1622 18.8863 24.782
157 40 2 0 0.198651 11.6783 26.5514
158 40 3 0.538531 0.333938 10.7344 26.635
159 40 3 0.631332 0.987104 11.9957 26.1111
160 40 4 -1.16986 0.316901 11.5981 26.5057
161 41 2 0 7.08739 3.83858 25.7223
162 41 3 0.554364 7.20492 3.68694 26.66
163 41 3 0.516874 7.02383 2.9618 25.3435
164 41 4 -1.07124 7.0943 3.70693 25.7938
165 42 2 0 5.88819 16.245 25.5127
166 42 3 0.584961 6.073 16.4558 26.4279
167 42 3 0.519133 5.2647 15.52 25.5546
168 42 4 -1.10409 5.83203 16.1792 25.6352
169 43 2 0 1.17427 9.02874 26.7769
170 43 3 0.627724 1.88819 8.85476 26.1635
171 43 3 0.492671 1.47145 8.65057 27.6045
172 43 4 -1.1204 1.30371 8.95805 26.8043
173 44 2 0 15.3295 5.99089 22.5286
174 44 3 0.555407 15.4333 6.24898 23.4445
175 44 3 0.661454 14.6938 5.27561 22.5513
176 44 4 -1.21686 15.2614 5.93236 22.6488
177 45 2 0 9.28747 5.99128 26.0847
178 45 3 0.552575 8.4221 5.58293 26.06
179 45 3 0.577058 9.27383 6.53501 26.8723
180 45 4 -1.12963 9.17495 6.00861 26.1824
181 46 2 0 2.65282 12.5151 25.1716
182 46 3 0.549582 3.41484 12.2554 25.6894
183 46 3 0.569107 2.98786 12.6037 24.2793
184 46 4 -1.11869 2.79325 12.4932 25.1237
185 47 2 0 3.17179 9.35461 24.7565
186 47 3 0.643497 4.08468 9.078 24.8361
187 47 3 0.516658 3.21321 10.31 24.7157
188 47 4 -1.16016 3.29395 9.4415 24.7615
189 48 2 0 2.43886 6.57765 24.526
190 48 3 0.575406 3.16268 6.38244 25.1212
191 48 3 0.561939 2.78091 7.25937 23.9477
192 48 4 -1.13734 2.5753 6.63993 24.5282
193 49 2 0 14.1279 16.662 24.9838
194 49 3 0.542489 14.8981 17.23 25.004
195 49 3 0.587595 13.5763 17.0302 24.2936
196 49 4 -1.13008 14.1558 16.7819 24.898
197 50 2 0 5.98138 9.10747 24.5279
198 50 3 0.644774 5.94852 9.67556 23.7582
199 50 3 0.591693 6.85281 8.71257 24.4977
200 50 4 -1.23647 6.08873 9.12964 24.4255
201 51 2 0 8.84085 8.7293 25.2081
202 51 3 0.552806 9.46032 8.94855 25.9041
203 51 3 0.560022 8.92565 7.78189 25.101
204 51 4 -1.11283 8.931 8.63608 25.2834
205 52 2 0 1.83974 0.736003 25.3186
206 52 3 0.684004 1.17653 0.860281 24.6396
207 52 3 0.418595 2.66944 0.928015 24.8816
208 52 4 -1.1026 1.86105 0.776492 25.1757
209 53 2 0 2.12994 18.0103 25.7139
210 53 3 0.530929 1.36972 17.7463 25.1956
211 53 3 0.581812 2.10033 18.9671 25.7132
212 53 4 -1.11274 2.02883 18.099 25.6475
213 54 2 0 15.3475 11.2602 25.0758
214 54 3 0.639751 16.0445 11.3762 25.7215
215 54 3 0.595676 15.3104 12.0956 24.61
216 54 4 -1.23543 15.432 11.382 25.0988
217 55 2 0 14.6594 4.52534 24.9443
218 55 3 0.650251 14.3361 3.66611 25.2154
219 55 3 0.617046 14.4238 4.58932 24.0188
220 55 4 -1.2673 14.5878 4.42354 24.8606
221 56 2 0 12.152 5.10784 26.1629
222 56 3 0.55676 12.9528 4.67834 25.8622
223 56 3 0.560051 11.4889 4.85644 25.5199
224 56 4 -1.11681 12.1696 5.02068 26.0421
225 57 2 0 4.03027 18.0522 28.0489
226 57 3 0.450976 3.71546 17.7873 28.9132
227 57 3 0.553216 3.33995 17.7747 27.4466
228 57 4 -1.00419 3.9016 17.9827 28.0824
229 58 2 0 12.0335 7.81666 25.261
230 58 3 0.621405 11.8318 7.00297 25.723
231 58 3 0.503853 12.9823 7.91144 25.3449
232 58 4 -1.12526 12.1292 7.72464 25.3309
233 59 2 0 3.49429 16.4141 23.6222
234 59 3 0.620437 2.61156 16.4404 23.2529
235 59 3 0.527964 3.37352 16.6249 24.548
236 59 4 -1.1484 3.36583 16.4445 23.6934
237 60 2 0 8.4735 0.506912 25.9366
238 60 3 0.584225 8.30126 -0.394772 25.6654
239 60 3 0.46346 8.92171 20.8042 26.7782
240 60 4 -1.04768 8.50883 0.380738 26.0096
241 61 2 0 8.05878 14.3814 24.7515
242 61 3 0.661218 7.97286 13.4515 24.9619
243 61 3 0.533436 7.56468 14.8294 25.4381
244 61 4 -1.19465 7.98453 14.3197 24.8663
245 62 2 0 7.69439 11.8142 25.9496
246 62 3 0.584895 6.95445 11.6263 26.527
247 62 3 0.611692 7.59937 11.1928 25.2278
248 62 4 -1.19659 7.58751 11.7106 25.9311
249 63 2 0 10.1509 3.09218 25.3299
250 63 3 0.554543 9.5139 2.38896 25.456
251 63 3 0.554564 9.64572 3.89707 25.4445
252 63 4 -1.10911 10.0047 3.10519 25.3607
253 64 2 0 13.5438 14.0939 26.3112
254 64 3 0.495151 14.031 14.0369 27.1331
255 64 3 0.614384 13.9319 14.8395 25.8533
256 64 4 -1.10954 13.6558 14.182 26.3578
257 65 2 0 14.5029 6.64565 27.2116
258 65 3 0.524639 14.3075 5.92393 26.614
259 65 3 0.472585 13.6587 6.86703 27.6047
260 65 4 -0.997224 14.3698 6.5816 27.1854
261 66 2 0 4.38267 5.54607 26.4518
262 66 3 0.486396 4.73473 5.31328 25.5927
263 66 3 0.643827 4.0114 4.7304 26.7881
264 66 4 -1.13022 4.38021 5.41186 26.3849
265 67 2 0 0.0839897 1.34165 23.2903
266 67 3 0.628965 17.2697 0.530337 23.0857
267 67 3 0.552509 17.0847 2.03129 23.1552
268 67 4 -1.18147 17.5919 1.32607 23.2468
269 68 2 0 12.3311 11.4225 25.8532
270 68 3 0.544588 13.1008 10.9164 25.5934
271 68 3 0.659725 12.6652 12.3067 26.0046
272 68 4 -1.20431 12.4724 11.4709 25.8393
273 69 2 0 13.0005 2.3176 25.1717
274 69 3 0.564518 13.2458 2.35888 24.2474
275 69 3 0.656682 12.0683 2.53483 25.1826
276 69 4 -1.2212 12.9126 2.35069 25.0548
277 70 2 0 4.75676 11.2428 26.9533
278 70 3 0.596845 5.01482 10.3215 26.9792
279 70 3 0.569023 3.99222 11.2942 27.5269
280 70 4 -1.16587 4.69192 11.1315 27.03
281 71 2 0 3.23151 3.01601 27.0467
282 71 3 0.544679 2.42715 2.52554 26.8773
283 71 3 0.555346 3.92364 2.35501 27.0301
284 71 4 -1.10003 3.21714 2.86861 27.0229
285 72 2 0 2.28239 11.6057 28.7245
286 72 3 0.534811 1.51662 11.1963 28.3217
287 72 3 0.47367 2.00315 12.5011 28.9157
288 72 4 -1.00848 2.14861 11.6679 28.6975
289 73 2 0 9.95898 18.3777 28.0996
290 73 3 0.623191 10.2933 17.5496 27.7551
291 73 3 0.483882 10.5296 19.0445 27.7175
292 73 4 -1.10707 10.0748 18.3571 28.0066
293 74 2 0 11.3083 16.1143 27.0899
294 74 3 0.527148 12.0623 16.3901 26.5687
295 74 3 0.529401 11.2712 15.1648 26.9745
296 74 4 -1.05655 11.4001 16.028 27.0084
297 75 2 0 5.59997 1.17108 26.6307
298 75 3 0.636277 5.25559 0.386466 26.2041
299 75 3 0.492818 6.49766 0.940026 26.8695
300 75 4 -1.12909 5.6708 1.04106 26.6067
301 76 2 0 8.76676 8.08949 28.3819
302 76 3 0.475615 8.92479 8.04823 29.3251
303 76 3 0.614126 9.15299 8.92205 28.1101
304 76 4 -1.08974 8.83643 8.19079 28.4679
305 77 2 0 7.01784 2.87919 28.3844
306 77 3 0.537715 6.5168 2.33011 27.7813
307 77 3 0.486195 7.22781 2.30071 29.1176
308 77 4 -1.02391 6.98058 2.73485 28.4011
309 78 2 0 13.6311 19.9371 24.6493
310 78 3 0.599073 13.3988 0.479956 24.741
311 78 3 0.569458 13.5458 19.7601 23.7125
312 78 4 -1.16853 13.5904 20.0328 24.5411
313 79 2 0 5.23405 8.42516 27.8517
314 79 3 0.508732 6.18004 8.34829 27.9759
315 79 3 0.547665 4.96068 7.55939 27.5485
316 79 4 -1.0564 5.32015 8.30449 27.8288
317 80 2 0 9.88728 10.4675 27.4749
318 80 3 0.574272 10.716 10.6363 27.0266
319 80 3 0.608997 9.25787 11.0432 27.0406
320 80 4 -1.18327 9.9128 10.5628 27.3619
321 81 2 0 7.3036 17.3554 28.0067
322 81 3 0.600012 8.13849 17.8051 28.137
323 81 3 0.477842 6.64525 18.0467 28.0761
324 81 4 -1.07785 7.3262 17.5014 28.0323
325 82 1 0.276648 0 0 10
326 82 1 -0.51763 1.47089 2.54765 10
327 82 1 -0.632035 0 5.09531 10
328 82 1 -0.233866 1.47089 7.64296 10
329 82 1 -0.27743 0 10.1906 10
330 82 1 0.516845 1.47089 12.7383 10
331 82 1 0.62605 0 15.2859 10
332 82 1 0.23792 1.47089 17.8336 10
333 82 1 -0.6285 2.94178 0 10
334 82 1 -0.63963 4.41266 2.54765 10
335 82 1 -0.296843 2.94178 5.09531 10
336 82 1 0.672709 4.41266 7.64296 10
337 82 1 0.649863 2.94178 10.1906 10
338 82 1 0.679675 4.41266 12.7383 10
339 82 1 0.31294 2.94178 15.2859 10
340 82 1 -0.626409 4.41266 17.8336 10
341 82 1 -0.946302 5.88355 0 10
342 82 1 -0.177682 7.35444 2.54765 10
343 82 1 0.313651 5.88355 5.09531 10
344 82 1 0.946783 7.35444 7.64296 10
345 82 1 1.01739 5.88355 10.1906 10
346 82 1 0.261289 7.35444 12.7383 10
347 82 1 -0.2481 5.88355 15.2859 10
348 82 1 -0.855573 7.35444 17.8336 10
349 82 1 -0.359097 8.82533 0 10
350 82 1 0.406558 10.2962 2.54765 10
351 82 1 0.588749 8.82533 5.09531 10
352 82 1 0.314676 10.2962 7.64296 10
353 82 1 0.457446 8.82533 10.1906 10
354 82 1 -0.319941 10.2962 12.7383 10
355 82 1 -0.496172 8.82533 15.2859 10
356 82 1 -0.220404 10.2962 17.8336 10
357 82 1 0.546228 11.7671 0 10
358 82 1 0.529063 13.238 2.54765 10
359 82 1 0.253949 11.7671 5.09531 10
360 82 1 -0.591326 13.238 7.64296 10
361 82 1 -0.469631 11.7671 10.1906 10
362 82 1 -0.482594 13.238 12.7383 10
363 82 1 -0.183132 11.7671 15.2859 10
364 82 1 0.64409 13.238 17.8336 10
365 82 1 0.864175 14.7089 0 10
366 82 1 0.0668164 16.1798 2.54765 10
367 82 1 -0.356333 14.7089 5.09531 10
368 82 1 -0.865806 16.1798 7.64296 10
369 82 1 -0.836956 14.7089 10.1906 10
370 82 1 -0.0641886 16.1798 12.7383 10
371 82 1 0.378085 14.7089 15.2859 10
372 82 1 0.873242 16.1798 17.8336 10
373 82 1 -0.152241 1.47089 0.849218 12.402
374 82 1 -0.302618 2.94178 3.39687 12.402
375 82 1 -0.270204 1.47089 5.94452 12.402
376 82 1 0.172119 2.94178 8.49218 12.402
377 82 1 0.0982045 1.47089 11.0398 12.402
378 82 1 0.2409 2.94178 13.5875 12.402
379 82 1 0.212192 1.47089 16.1351 12.402
380 82 1 -0.222889 2.94178 18.6828 12.402
381 82 1 -0.472327 4.41266 0.849218 12.402
382 82 1 -0.114811 5.88355 3.39687 12.402
383 82 1 0.122896 4.41266 5.94452 12.402
384 82 1 0.505097 5.88355 8.49218 12.402
385 82 1 0.416871 4.41266 11.0398 12.402
386 82 1 0.0493008 5.88355 13.5875 12.402
387 82 1 -0.181055 4.41266 16.1351 12.402
388 82 1 -0.555712 5.88355 18.6828 12.402
389 82 1 -0.329985 7.35444 0.849218 12.402
390 82 1 0.172894 8.82533 3.39687 12.402
391 82 1 0.368759 7.35444 5.94452 12.402
392 82 1 0.297684 8.82533 8.49218 12.402
393 82 1 0.271132 7.35444 11.0398 12.402
394 82 1 -0.241518 8.82533 13.5875 12.402
395 82 1 -0.428785 7.35444 16.1351 12.402
396 82 1 -0.349615 8.82533 18.6828 12.402
397 82 1 0.133276 10.2962 0.849218 12.402
398 82 1 0.274588 11.7671 3.39687 12.402
399 82 1 0.223119 10.2962 5.94452 12.402
400 82 1 -0.240873 11.7671 8.49218 12.402
401 82 1 -0.192551 10.2962 11.0398 12.402
402 82 1 -0.3407 11.7671 13.5875 12.402
403 82 1 -0.283695 10.2962 16.1351 12.402
404 82 1 0.189714 11.7671 18.6828 12.402
405 82 1 0.454535 13.238 0.849218 12.402
406 82 1 0.0871826 14.7089 3.39687 12.402
407 82 1 -0.167817 13.238 5.94452 12.402
408 82 1 -0.573297 14.7089 8.49218 12.402
409 82 1 -0.51032 13.238 11.0398 12.402
410 82 1 -0.149031 14.7089 13.5875 12.402
411 82 1 0.109327 13.238 16.1351 12.402
412 82 1 0.522815 14.7089 18.6828 12.402
413 82 1 0.311407 16.1798 0.849218 12.402
414 82 1 -0.202316 0 3.39687 12.402
415 82 1 -0.41523 16.1798 5.94452 12.402
416 82 1 -0.367661 0 8.49218 12.402
417 82 1 -0.365304 16.1798 11.0398 12.402
418 82 1 0.14186 0 13.5875 12.402
419 82 1 0.35744 16.1798 16.1351 12.402
420 82 1 0.316337 0 18.6828 12.402
421 82 1 0.235575 2.94178 1.69844 14.8039
422 82 1 0.0879278 4.41266 4.24609 14.8039
423 82 1 -0.0148927 2.94178 6.79374 14.8039
424 82 1 -0.281074 4.41266 9.34139 14.8039
425 82 1 -0.246094 2.94178 11.889 14.8039
426 82 1 -0.126925 4.41266 14.4367 14.8039
427 82 1 0.00637858 2.94178 16.9844 14.8039
428 82 1 0.260477 4.41266 19.532 14.8039
429 82 1 0.213495 5.88355 1.69844 14.8039
430 82 1 -0.0679717 7.35444 4.24609 14.8039
431 82 1 -0.21221 5.88355 6.79374 14.8039
432 82 1 -0.300526 7.35444 9.34139 14.8039
433 82 1 -0.270834 5.88355 11.889 14.8039
434 82 1 -0.0138885 7.35444 14.4367 14.8039
435 82 1 0.165319 5.88355 16.9844 14.8039
436 82 1 0.241601 7.35444 19.532 14.8039
437 82 1 0.0340712 8.82533 1.69844 14.8039
438 82 1 -0.119572 10.2962 4.24609 14.8039
439 82 1 -0.210776 8.82533 6.79374 14.8039
440 82 1 -0.0821565 10.2962 9.34139 14.8039
441 82 1 -0.119977 8.82533 11.889 14.8039
442 82 1 0.0332496 10.2962 14.4367 14.8039
443 82 1 0.13872 8.82533 16.9844 14.8039
444 82 1 0.0196904 10.2962 19.532 14.8039
445 82 1 -0.119621 11.7671 1.69844 14.8039
446 82 1 -0.0136015 13.238 4.24609 14.8039
447 82 1 -0.00626115 11.7671 6.79374 14.8039
448 82 1 0.15661 13.238 9.34139 14.8039
449 82 1 0.0566848 11.7671 11.889 14.8039
450 82 1 -0.0317157 13.238 14.4367 14.8039
451 82 1 -0.0472537 11.7671 16.9844 14.8039
452 82 1 -0.182475 13.238 19.532 14.8039
453 82 1 -0.0965962 14.7089 1.69844 14.8039
454 82 1 0.138959 16.1798 4.24609 14.8039
455 82 1 0.192753 14.7089 6.79374 14.8039
456 82 1 0.172974 16.1798 9.34139 14.8039
457 82 1 0.0822295 14.7089 11.889 14.8039
458 82 1 -0.142367 16.1798 14.4367 14.8039
459 82 1 -0.205256 14.7089 16.9844 14.8039
460 82 1 -0.164275 16.1798 19.532 14.8039
461 82 1 0.0794417 0 1.69844 14.8039
462 82 1 0.188864 1.47089 4.24609 14.8039
463 82 1 0.185633 0 6.79374 14.8039
464 82 1 -0.0465764 1.47089 9.34139 14.8039
465 82 1 -0.0695973 0 11.889 14.8039
466 82 1 -0.190461 1.47089 14.4367 14.8039
467 82 1 -0.178007 0 16.9844 14.8039
468 82 1 0.056834 1.47089 19.532 14.8039
469 82 1 0.547833 4.41266 2.54765 17.2059
470 82 1 -0.241366 5.88355 5.09531 17.2059
471 82 1 -0.506691 4.41266 7.64296 17.2059
472 82 1 -0.773274 5.88355 10.1906 17.2059
473 82 1 -0.495607 4.41266 12.7383 17.2059
474 82 1 0.281852 5.88355 15.2859 17.2059
475 82 1 0.578486 4.41266 17.8336 17.2059
476 82 1 0.829233 5.88355 0 17.2059
477 82 1 0.151122 7.35444 2.54765 17.2059
478 82 1 -0.480238 8.82533 5.09531 17.2059
479 82 1 -0.734417 7.35444 7.64296 17.2059
480 82 1 -0.294083 8.82533 10.1906 17.2059
481 82 1 -0.135198 7.35444 12.7383 17.2059
482 82 1 0.49848 8.82533 15.2859 17.2059
483 82 1 0.787883 7.35444 17.8336 17.2059
484 82 1 0.330302 8.82533 0 17.2059
485 82 1 -0.348067 10.2962 2.54765 17.2059
486 82 1 -0.191278 11.7671 5.09531 17.2059
487 82 1 -0.195677 10.2962 7.64296 17.2059
488 82 1 0.497744 11.7671 10.1906 17.2059
489 82 1 0.360491 10.2962 12.7383 17.2059
490 82 1 0.223955 11.7671 15.2859 17.2059
491 82 1 0.245911 10.2962 17.8336 17.2059
492 82 1 -0.4437 11.7671 0 17.2059
493 82 1 -0.449221 13.238 2.54765 17.2059
494 82 1 0.324751 14.7089 5.09531 17.2059
495 82 1 0.572309 13.238 7.64296 17.2059
496 82 1 0.802162 14.7089 10.1906 17.2059
497 82 1 0.498286 13.238 12.7383 17.2059
498 82 1 -0.260858 14.7089 15.2859 17.2059
499 82 1 -0.504254 13.238 17.8336 17.2059
500 82 1 -0.723587 14.7089 0 17.2059
501 82 1 -0.0604288 16.1798 2.54765 17.2059
502 82 1 0.54906 0 5.09531 17.2059
503 82 1 0.788357 16.1798 7.64296 17.2059
504 82 1 0.316016 0 10.1906 17.2059
505 82 1 0.142132 16.1798 12.7383 17.2059
506 82 1 -0.472449 0 15.2859 17.2059
507 82 1 -0.710727 16.1798 17.8336 17.2059
508 82 1 -0.228314 0 0 17.2059
509 82 1 0.436934 1.47089 2.54765 17.2059
510 82 1 0.270894 2.94178 5.09531 17.2059
511 82 1 0.247249 1.47089 7.64296 17.2059
512 82 1 -0.469356 2.94178 10.1906 17.2059
513 82 1 -0.356267 1.47089 12.7383 17.2059
514 82 1 -0.205976 2.94178 15.2859 17.2059
515 82 1 -0.169637 1.47089 17.8336 17.2059
516 82 1 0.549202 2.94178 0 17.2059
517 82 1 0.0642288 5.88355 3.39687 19.6078
518 82 1 -0.567393 7.35444 5.94452 19.6078
519 82 1 -0.707074 5.88355 8.49218 19.6078
520 82 1 -0.370186 7.35444 11.0398 19.6078
521 82 1 -0.0713925 5.88355 13.5875 19.6078
522 82 1 0.583601 7.35444 16.1351 19.6078
523 82 1 0.722843 5.88355 18.6828 19.6078
524 82 1 0.370728 7.35444 0.849218 19.6078
525 82 1 -0.348936 8.82533 3.39687 19.6078
526 82 1 -0.363053 10.2962 5.94452 19.6078
527 82 1 -0.414977 8.82533 8.49218 19.6078
528 82 1 0.277232 10.2962 11.0398 19.6078
529 82 1 0.330537 8.82533 13.5875 19.6078
530 82 1 0.378041 10.2962 16.1351 19.6078
531 82 1 0.452117 8.82533 18.6828 19.6078
532 82 1 -0.275063 10.2962 0.849218 19.6078
533 82 1 -0.481699 11.7671 3.39687 19.6078
534 82 1 0.180824 13.238 5.94452 19.6078
535 82 1 0.337181 11.7671 8.49218 19.6078
536 82 1 0.717743 13.238 11.0398 19.6078
537 82 1 0.46187 11.7671 13.5875 19.6078
538 82 1 -0.186484 13.238 16.1351 19.6078
539 82 1 -0.306783 11.7671 18.6828 19.6078
540 82 1 -0.725873 13.238 0.849218 19.6078
541 82 1 -0.21915 14.7089 3.39687 19.6078
542 82 1 0.500053 16.1798 5.94452 19.6078
543 82 1 0.771013 14.7089 8.49218 19.6078
544 82 1 0.503977 16.1798 11.0398 19.6078
545 82 1 0.199623 14.7089 13.5875 19.6078
546 82 1 -0.538324 16.1798 16.1351 19.6078
547 82 1 -0.794402 14.7089 18.6828 19.6078
548 82 1 -0.535287 16.1798 0.849218 19.6078
549 82 1 0.177429 0 3.39687 19.6078
550 82 1 0.293622 1.47089 5.94452 19.6078
551 82 1 0.459744 0 8.49218 19.6078
552 82 1 -0.146421 1.47089 11.0398 19.6078
553 82 1 -0.202285 0 13.5875 19.6078
554 82 1 -0.342532 1.47089 16.1351 19.6078
555 82 1 -0.51699 0 18.6828 19.6078
556 82 1 0.114033 1.47089 0.849218 19.6078
557 82 1 0.322372 2.94178 3.39687 19.6078
558 82 1 -0.22608 4.41266 5.94452 19.6078
559 82 1 -0.26827 2.94178 8.49218 19.6078
560 82 1 -0.579543 4.41266 11.0398 19.6078
561 82 1 -0.348987 2.94178 13.5875 19.6078
562 82 1 0.21725 4.41266 16.1351 19.6078
563 82 1 0.238578 2.94178 18.6828 19.6078
564 82 1 0.567699 4.41266 0.849218 19.6078
ITEM: TIMESTEP
7500
ITEM: NUMBER OF ATOMS
564
ITEM: BOX BOUNDS pp pp ff
0.0000000000000000e+00 1.7650658050000001e+01
0.0000000000000000e+00 2.0381224350000000e+01
0.0000000000000000e+00 6.0000000000000000e+01
ITEM: ATOMS id mol type q x y z
1 1 2 0 8.29509 17.5105 22.2911
2 1 3 0.686018 9.20029 17.8142 22.3588
3 1 3 0.555872 8.25457 16.7468 22.8667
4 1 4 -1.24189 8.40578 17.4516 22.3734
5 2 2 0 13.2201 18.6902 22.3683
6 2 3 0.853238 13.5874 18.9139 21.5132
7 2 3 0.378985 12.2845 18.5719 22.2041
8 2 4 -1.23222 13.1473 18.7037 22.2378
9 3 2 0 16.2234 9.20791 22.1778
10 3 3 0.561687 15.8855 8.67214 22.8955
11 3 3 0.695363 17.1597 9.28936 22.3593
12 3 4 -1.25705 16.3 9.14975 22.2929
13 4 2 0 1.95638 4.29003 22.1641
14 4 3 0.688832 1.12486 4.14915 22.6168
15 4 3 0.640244 2.15924 5.213 22.3165
16 4 4 -1.32908 1.87591 4.39015 22.2416
17 5 2 0 13.2334 9.19746 22.0157
18 5 3 0.676396 12.2933 9.11183 22.1739
19 5 3 0.688413 13.6343 8.55021 22.5959
20 5 4 -1.36481 13.1644 9.10364 22.1102
21 6 2 0 1.51637 9.46095 22.1628
22 6 3 0.395599 1.87037 9.20647 23.015
23 6 3 0.723279 2.26641 9.82033 21.689
24 6 4 -1.11888 1.6577 9.47438 22.2112
25 7 2 0 5.39975 17.3627 22.0555
26 7 3 0.555042 5.89285 17.621 22.8342
27 7 3 0.733257 4.645 16.8834 22.3974
28 7 4 -1.2883 5.36626 17.3344 22.1989
29 8 2 0 8.91473 0.474659 22.466
30 8 3 0.687209 9.14089 1.23235 23.0055
31 8 3 0.488695 9.73278 0.238741 22.0286
32 8 4 -1.1759 9.0484 0.541453 22.4791
33 9 2 0 8.85816 5.07033 22.1785
34 9 3 0.599478 9.13753 5.18441 21.2702
35 9 3 0.667181 8.30324 5.82977 22.3561
36 9 4 -1.26666 8.82289 5.18215 22.085
37 10 2 0 5.92482 -0.132452 22.0582
38 10 3 0.701475 6.28236 19.598 22.6622
39 10 3 0.687996 5.74126 0.62959 22.6076
40 10 4 -1.38947 5.94709 -0.118212 22.2058
41 11 2 0 4.64552 9.59108 22.1761
42 11 3 0.824513 4.6813 9.55161 21.2204
43 11 3 0.476075 5.15086 10.3717 22.4031
44 11 4 -1.30059 4.71479 9.68595 22.0828
45 12 2 0 2.58275 19.7788 22.2962
46 12 3 0.652636 1.63903 19.6501 22.3914
47 12 3 0.683892 2.96051 19.37 23.0749
48 12 4 -1.33653 2.5103 19.71 22.4081
49 13 2 0 14.8068 12.0639 22.2132
50 13 3 0.737374 15.3107 12.8364 22.469
51 13 3 0.669536 14.8433 11.4894 22.978
52 13 4 -1.40691 14.876 12.0892 22.3438
53 14 2 0 10.6481 18.4245 22.7711
54 14 3 0.555626 10.2254 19.2399 22.5014
55 14 3 0.80235 11.5696 18.5446 22.5417
56 14 4 -1.35798 10.7119 18.5443 22.7072
57 15 2 0 13.2213 4.27749 22.471
58 15 3 0.597515 12.383 4.11705 22.0376
59 15 3 0.704982 13.8291 3.66925 22.0505
60 15 4 -1.3025 13.1918 4.17909 22.3616
61 16 2 0 11.4337 6.54452 22.289
62 16 3 0.616965 10.5114 6.29001 22.3195
63 16 3 0.538705 11.9039 5.78421 22.6311
64 16 4 -1.15567 11.3758 6.41461 22.3367
65 17 2 0 3.45232 1.95908 22.3048
66 17 3 0.680379 3.04026 2.7908 22.5386
67 17 3 0.666422 2.77173 1.3032 22.456
68 17 4 -1.3468 3.31245 1.98159 22.3541
69 18 2 0 7.23231 7.21611 22.2454
70 18 3 0.784718 7.05597 7.61657 21.3941
71 18 3 0.4773 6.82308 7.80672 22.8778
72 18 4 -1.26202 7.15735 7.34298 22.2174
73 19 2 0 14.6607 1.83262 22.2799
74 19 3 0.775379 14.4781 1.56656 21.3787
75 19 3 0.419542 15.4326 1.32412 22.5286
76 19 4 -1.19492 14.7361 1.73347 22.1964
77 20 2 0 5.26457 5.30508 22.6422
78 20 3 0.670554 5.96224 5.95865 22.5939
79 20 3 0.618399 4.45555 5.81227 22.5754
80 20 4 -1.28895 5.25032 5.45367 22.6275
81 21 2 0 -0.014809 6.57053 22.4737
82 21 3 0.542864 16.7962 6.53284 22.9317
83 21 3 0.588321 0.623537 6.76946 23.1586
84 21 4 -1.13118 -0.0405764 6.59117 22.62
85 22 2 0 1.34959 13.5502 22.3759
86 22 3 0.555404 2.19115 13.2217 22.6924
87 22 3 0.578966 1.37248 13.3979 21.4312
88 22 4 -1.13437 1.46025 13.4886 22.2955
89 23 2 0 10.3973 9.40428 22.3999
90 23 3 0.51719 9.72109 10.0186 22.1142
91 23 3 0.719367 9.93619 8.78708 22.968
92 23 4 -1.23656 10.2517 9.40392 22.4361
93 24 2 0 4.1688 12.5536 22.2035
94 24 3 0.493586 4.31489 11.6121 22.295
95 24 3 0.826495 4.06369 12.6897 21.2618
96 24 4 -1.32008 4.17404 12.4505 22.0946
97 25 2 0 9.095 12.2718 22.4152
98 25 3 0.780217 8.29278 11.7564 22.3312
99 25 3 0.501796 8.79175 13.1559 22.6219
100 25 4 -1.28201 8.95349 12.319 22.4309
101 26 2 0 3.41564 18.3596 24.6423
102 26 3 0.698162 2.73192 17.6977 24.7458
103 26 3 0.521665 3.56792 18.688 25.5284
104 26 4 -1.21983 3.34761 18.3169 24.7689
105 27 2 0 6.77369 11.2143 22.6454
106 27 3 0.711516 6.69901 10.5645 21.9465
107 27 3 0.708967 6.0525 11.823 22.4853
108 27 4 -1.42048 6.67181 11.209 22.5354
109 28 2 0 16.3606 14.4168 22.4242
110 28 3 0.579965 16.1432 15.1627 21.8651
111 28 3 0.676182 17.3175 14.405 22.4472
112 28 4 -1.25615 16.4553 14.5108 22.3556
113 29 2 0 10.6057 14.6969 22.2127
114 29 3 0.59252 10.4689 13.7775 22.4413
115 29 3 0.62705 10.2085 15.1852 22.9338
116 29 4 -1.21957 10.5373 14.6417 22.3342
117 30 2 0 0.343421 17.6457 22.7113
118 30 3 0.728527 17.2594 18.0919 22.2901
119 30 3 0.45656 0.542511 16.9109 22.131
120 30 4 -1.18509 0.274854 17.6088 22.5831
121 31 2 0 6.83774 2.86645 22.1649
122 31 3 0.594412 6.29107 3.50913 22.617
123 31 3 0.687363 7.64362 3.33983 21.9583
124 31 4 -1.28178 6.87092 3.00932 22.1963
125 32 2 0 11.733 1.07979 22.1952
126 32 3 0.45307 12.5896 0.921842 22.5922
127 32 3 0.771931 11.9154 1.17366 21.2603
128 32 4 -1.225 11.866 1.07159 22.1264
129 33 2 0 13.3877 14.5375 22.2033
130 33 3 0.65322 13.7786 15.2691 22.6809
131 33 3 0.547812 12.4551 14.5844 22.4137
132 33 4 -1.20103 13.3184 14.6371 22.2914
133 34 2 0 11.9632 12.1068 22.0612
134 34 3 0.696118 12.7747 12.3801 22.4891
135 34 3 0.648938 11.4316 11.7391 22.7672
136 34 4 -1.34506 11.999 12.0947 22.2064
137 35 2 0 16.097 19.5762 22.4039
138 35 3 0.449015 15.5414 18.9247 22.8316
139 35 3 0.712534 15.7113 19.6872 21.5349
140 35 4 -1.16155 15.9765 19.507 22.3474
141 36 2 0 6.20296 18.801 24.6563
142 36 3 0.671941 6.50391 18.361 25.4513
143 36 3 0.545168 5.26939 18.5954 24.607
144 36 4 -1.21711 6.12198 18.7183 24.7518
145 37 2 0 15.9998 7.11274 24.829
146 37 3 0.596088 16.7884 7.40732 25.2845
147 37 3 0.647399 15.4081 6.83528 25.5285
148 37 4 -1.24349 16.025 7.11493 24.9769
149 38 2 0 0.334857 4.56842 24.5008
150 38 3 0.624612 17.0316 4.50311 24.5458
151 38 3 0.51173 0.535414 5.42159 24.8857
152 38 4 -1.13634 0.238419 4.66928 24.5558
153 39 2 0 11.0977 0.240321 25.1055
154 39 3 0.657434 11.8323 0.853797 25.0908
155 39 3 0.579783 10.969 20.3791 24.1885
156 39 4 -1.23722 11.1752 0.28782 24.9863
157 40 2 0 0.303002 10.3698 24.8457
158 40 3 0.519093 0.460751 10.4108 25.7889
159 40 3 0.663269 0.951489 10.9639 24.4679
160 40 4 -1.18236 0.40621 10.4511 24.9181
161 41 2 0 6.42754 4.95177 25.1323
162 41 3 0.552505 5.66165 4.88804 25.7029
163 41 3 0.565695 6.08409 5.29393 24.3069
164 41 4 -1.1182 6.28553 4.98741 25.0997
165 42 2 0 4.74899 14.9001 24.0443
166 42 3 0.563568 3.86035 15.2301 24.1773
167 42 3 0.593126 4.62915 14.0582 23.6048
168 42 4 -1.15669 4.61989 14.8346 24.005
169 43 2 0 1.3021 7.34099 24.9283
170 43 3 0.491366 1.34725 7.97728 24.2146
171 43 3 0.68209 2.19265 7.30875 25.2778
172 43 4 -1.17346 1.42188 7.41831 24.8817
173 44 2 0 14.799 6.57021 22.305
174 44 3 0.571231 15.1824 6.61602 23.1809
175 44 3 0.735745 14.1857 5.83663 22.3496
176 44 4 -1.30698 14.7696 6.48217 22.4229
177 45 2 0 9.02706 5.9861 26.2268
178 45 3 0.637323 8.16862 5.66876 25.9464
179 45 3 0.590262 8.83513 6.75559 26.7628
180 45 4 -1.22758 8.8926 6.04398 26.2595
181 46 2 0 2.69627 12.1512 24.4634
182 46 3 0.531783 3.51229 12.0289 24.9486
183 46 3 0.618721 2.96564 12.1857 23.5455
184 46 4 -1.1505 2.83521 12.14 24.408
185 47 2 0 3.73096 8.86623 24.5197
186 47 3 0.581779 4.63132 8.98166 24.8235
187 47 3 0.680266 3.73747 9.19287 23.62
188 47 4 -1.26205 3.84705 8.92282 24.4434
189 48 2 0 3.08334 6.92567 22.4519
190 48 3 0.58739 3.28394 7.52115 23.174
191 48 3 0.680593 3.53925 7.30025 21.6982
192 48 4 -1.26798 3.16738 7.04985 22.4479
193 49 2 0 14.0235 16.6021 24.1887
194 49 3 0.481912 14.692 17.0699 24.6892
195 49 3 0.611336 13.553 17.2888 23.7163
196 49 4 -1.09325 14.0489 16.7499 24.1923
197 50 2 0 6.7726 9.04597 24.7199
198 50 3 0.620478 6.90416 9.6042 23.9535
199 50 3 0.551785 7.50827 8.43389 24.7001
200 50 4 -1.17226 6.88362 9.03907 24.6192
201 51 2 0 9.55601 8.08833 24.6537
202 51 3 0.582087 9.67912 8.75893 25.3255
203 51 3 0.668774 9.39085 7.28372 25.1452
204 51 4 -1.25086 9.55063 8.07117 24.8026
205 52 2 0 -0.106445 0.68753 25.0538
206 52 3 0.496322 17.7034 1.10642 25.8996
207 52 3 0.687772 16.6394 0.379535 25.1051
208 52 4 -1.18409 17.4488 0.701726 25.1687
209 53 2 0 0.100051 18.4338 25.602
210 53 3 0.512613 -0.0581331 18.0518 24.7387
211 53 3 0.570373 0.0259407 19.378 25.4639
212 53 4 -1.08299 0.0703144 18.5058 25.4738
213 54 2 0 15.2345 10.809 24.6757
214 54 3 0.683486 16.1882 10.7574 24.74
215 54 3 0.526323 15.013 11.6541 25.0668
216 54 4 -1.20981 15.3283 10.9106 24.734
217 55 2 0 15.3595 3.75066 24.3865
218 55 3 0.56864 15.1999 2.86353 24.0644
219 55 3 0.533802 14.486 4.12386 24.5046
220 55 4 -1.10244 15.2272 3.68487 24.3604
221 56 2 0 11.8446 4.92796 25.3557
222 56 3 0.622765 11.9776 4.03573 25.0356
223 56 3 0.575838 10.9015 4.99057 25.5068
224 56 4 -1.1986 11.7409 4.82176 25.3341
225 57 2 0 1.94138 15.7379 25.3182
226 57 3 0.532193 1.9355 14.8147 25.0653
227 57 3 0.513826 1.01899 15.9559 25.4521
228 57 4 -1.04602 1.82255 15.6476 25.303
229 58 2 0 12.6653 8.0961 24.5211
230 58 3 0.616149 11.9201 7.5664 24.2376
231 58 3 0.503951 13.005 7.63982 25.291
232 58 4 -1.1201 12.6134 7.96988 24.5834
233 59 2 0 2.80775 16.4234 22.1276
234 59 3 0.608255 2.69112 15.7094 21.5009
235 59 3 0.594373 1.94595 16.8361 22.1844
236 59 4 -1.20263 2.6825 16.3848 22.0547
237 60 2 0 8.41533 1.15573 25.9173
238 60 3 0.633638 9.32547 0.869816 25.8389
239 60 3 0.46533 8.47271 2.09727 26.0799
240 60 4 -1.09897 8.53919 1.23965 25.9281
241 61 2 0 7.59012 14.8246 23.6961
242 61 3 0.63271 7.80163 14.1781 24.3695
243 61 3 0.688939 6.63507 14.8863 23.7141
244 61 4 -1.32165 7.49494 14.7498 23.7846
245 62 2 0 7.93394 12.5595 25.1084
246 62 3 0.679599 7.09268 12.2857 25.4739
247 62 3 0.582418 7.89861 12.2841 24.1924
248 62 4 -1.26202 7.82173 12.4892 25.038
249 63 2 0 9.94112 2.8008 23.683
250 63 3 0.597813 10.5569 2.31999 23.13
251 63 3 0.589504 9.79421 3.62473 23.2185
252 63 4 -1.18732 10.0011 2.84473 23.5527
253 64 2 0 15.0839 13.6487 25.0404
254 64 3 0.508666 14.5536 14.2753 25.5327
255 64 3 0.600412 15.5937 14.1883 24.4362
256 64 4 -1.10908 15.0813 13.798 25.0261
257 65 2 0 14.0679 6.1076 26.6432
258 65 3 0.637297 13.2132 5.8689 26.2845
259 65 3 0.497419 13.9093 6.23171 27.579
260 65 4 -1.13472 13.9382 6.09293 26.7171
261 66 2 0 3.74769 6.32495 26.1803
262 66 3 0.459114 4.04074 6.54629 25.2963
263 66 3 0.656393 3.74112 5.36794 26.1983
264 66 4 -1.11551 3.78437 6.23078 26.0694
265 67 2 0 0.485161 1.62903 22.3261
266 67 3 0.627672 0.225825 1.49467 23.2377
267 67 3 0.580364 17.3573 1.3993 21.8188
268 67 4 -1.20804 0.352306 1.58242 22.3779
269 68 2 0 12.3136 11.3894 24.9201
270 68 3 0.554778 12.3068 10.4409 24.7917
271 68 3 0.546949 13.1513 11.5678 25.3475
272 68 4 -1.10173 12.4199 11.2909 24.9584
273 69 2 0 12.933 2.17396 24.9659
274 69 3 0.507559 13.7401 1.72977 25.2257
275 69 3 0.664462 13.0467 2.35153 24.0322
276 69 4 -1.17202 13.0509 2.13983 24.8796
277 70 2 0 5.49002 11.5313 26.1307
278 70 3 0.535838 5.85854 10.6617 25.9752
279 70 3 0.599376 4.76757 11.3803 26.7402
280 70 4 -1.13521 5.44471 11.4007 26.1888
281 71 2 0 4.17216 3.60263 26.3349
282 71 3 0.596152 4.52783 3.05453 25.6354
283 71 3 0.585473 4.21768 3.0529 27.1172
284 71 4 -1.18162 4.22352 3.4621 26.3455
285 72 2 0 3.01146 10.525 27.229
286 72 3 0.53652 3.00522 10.2597 26.3093
287 72 3 0.532897 3.73187 10.0283 27.6171
288 72 4 -1.06942 3.10288 10.4274 27.1609
289 73 2 0 9.74423 18.5986 26.5059
290 73 3 0.616043 10.2783 19.3585 26.2744
291 73 3 0.504627 10.3191 17.8475 26.3589
292 73 4 -1.12067 9.88619 18.5997 26.4575
293 74 2 0 9.83163 16.0943 24.6697
294 74 3 0.547916 9.85214 16.9701 24.284
295 74 3 0.572935 8.92478 15.8067 24.564
296 74 4 -1.12085 9.71817 16.1696 24.6068
297 75 2 0 5.86493 1.56376 24.5712
298 75 3 0.638582 6.52501 1.09887 25.0854
299 75 3 0.533024 6.3684 2.05329 23.9207
300 75 4 -1.17161 6.01388 1.56691 24.5537
301 76 2 0 8.32826 8.30686 27.6543
302 76 3 0.531173 8.20766 8.4511 28.5928
303 76 3 0.58469 8.80755 9.07852 27.3525
304 76 4 -1.11586 8.37418 8.4241 27.7358
305 77 2 0 6.31699 2.3281 28.1104
306 77 3 0.511825 6.97226 1.97526 27.5084
307 77 3 0.458622 6.80174 2.50328 28.917
308 77 4 -0.970447 6.46293 2.30536 28.1366
309 78 2 0 15.0073 20.2994 24.9913
310 78 3 0.477633 14.2209 20.3945 25.5287
311 78 3 0.673314 14.6796 20.2468 24.0935
312 78 4 -1.15095 14.8647 20.3048 24.9452
313 79 2 0 5.3767 8.70823 27.5273
314 79 3 0.543223 6.16539 8.64625 26.9885
315 79 3 0.548221 4.893 7.90419 27.3382
316 79 4 -1.09144 5.41574 8.59737 27.4341
317 80 2 0 9.74692 10.5542 26.1962
318 80 3 0.556305 10.6255 10.8689 25.9833
319 80 3 0.645175 9.16015 11.1335 25.71
320 80 4 -1.20148 9.78427 10.6687 26.1067
321 81 2 0 7.16522 17.4656 26.9218
322 81 3 0.618998 7.9837 17.9528 26.827
323 81 3 0.499901 7.41497 16.6639 27.3813
324 81 4 -1.1189 7.30197 17.4253 26.9685
325 82 1 0.394252 0 0 10
326 82 1 -0.631615 1.47089 2.54765 10
327 82 1 -0.476484 0 5.09531 10
328 82 1 -0.0412226 1.47089 7.64296 10
329 82 1 -0.31324 0 10.1906 10
330 82 1 0.71146 1.47089 12.7383 10
331 82 1 0.529307 0 15.2859 10
332 82 1 0.121312 1.47089 17.8336 10
333 82 1 -1.02244 2.94178 0 10
334 82 1 -1.10679 4.41266 2.54765 10
335 82 1 -0.380284 2.94178 5.09531 10
336 82 1 0.928197 4.41266 7.64296 10
337 82 1 1.12437 2.94178 10.1906 10
338 82 1 1.19544 4.41266 12.7383 10
339 82 1 0.454841 2.94178 15.2859 10
340 82 1 -0.83829 4.41266 17.8336 10
341 82 1 -1.3667 5.88355 0 10
342 82 1 -0.432466 7.35444 2.54765 10
343 82 1 0.125429 5.88355 5.09531 10
344 82 1 0.995384 7.35444 7.64296 10
345 82 1 1.46306 5.88355 10.1906 10
346 82 1 0.501712 7.35444 12.7383 10
347 82 1 -0.0564175 5.88355 15.2859 10
348 82 1 -0.923931 7.35444 17.8336 10
349 82 1 -0.294271 8.82533 0 10
350 82 1 0.71755 10.2962 2.54765 10
351 82 1 0.534661 8.82533 5.09531 10
352 82 1 0.0937414 10.2962 7.64296 10
353 82 1 0.3642 8.82533 10.1906 10
354 82 1 -0.675426 10.2962 12.7383 10
355 82 1 -0.49285 8.82533 15.2859 10
356 82 1 -0.049389 10.2962 17.8336 10
357 82 1 1.12295 11.7671 0 10
358 82 1 1.19338 13.238 2.54765 10
359 82 1 0.439018 11.7671 5.09531 10
360 82 1 -0.874939 13.238 7.64296 10
361 82 1 -1.07281 11.7671 10.1906 10
362 82 1 -1.1591 13.238 12.7383 10
363 82 1 -0.417829 11.7671 15.2859 10
364 82 1 0.910508 13.238 17.8336 10
365 82 1 1.46717 14.7089 0 10
366 82 1 0.518543 16.1798 2.54765 10
367 82 1 -0.0664704 14.7089 5.09531 10
368 82 1 -0.942727 16.1798 7.64296 10
369 82 1 -1.41156 14.7089 10.1906 10
370 82 1 -0.465952 16.1798 12.7383 10
371 82 1 0.0930729 14.7089 15.2859 10
372 82 1 0.99559 16.1798 17.8336 10
373 82 1 -0.345884 1.47089 0.849218 12.402
374 82 1 -0.560141 2.94178 3.39687 12.402
375 82 1 -0.27989 1.47089 5.94452 12.402
376 82 1 0.379933 2.94178 8.49218 12.402
377 82 1 0.286544 1.47089 11.0398 12.402
378 82 1 0.471964 2.94178 13.5875 12.402
379 82 1 0.182854 1.47089 16.1351 12.402
380 82 1 -0.446648 2.94178 18.6828 12.402
381 82 1 -0.852281 4.41266 0.849218 12.402
382 82 1 -0.408234 5.88355 3.39687 12.402
383 82 1 0.057919 4.41266 5.94452 12.402
384 82 1 0.691368 5.88355 8.49218 12.402
385 82 1 0.793088 4.41266 11.0398 12.402
386 82 1 0.318514 5.88355 13.5875 12.402
387 82 1 -0.152922 4.41266 16.1351 12.402
388 82 1 -0.756476 5.88355 18.6828 12.402
389 82 1 -0.540032 7.35444 0.849218 12.402
390 82 1 0.103621 8.82533 3.39687 12.402
391 82 1 0.28794 7.35444 5.94452 12.402
392 82 1 0.280026 8.82533 8.49218 12.402
393 82 1 0.47966 7.35444 11.0398 12.402
394 82 1 -0.194699 8.82533 13.5875 12.402
395 82 1 -0.383424 7.35444 16.1351 12.402
396 82 1 -0.344369 8.82533 18.6828 12.402
397 82 1 0.280312 10.2962 0.849218 12.402
398 82 1 0.465855 11.7671 3.39687 12.402
399 82 1 0.181823 10.2962 5.94452 12.402
400 82 1 -0.44036 11.7671 8.49218 12.402
401 82 1 -0.338189 10.2962 11.0398 12.402
402 82 1 -0.5545 11.7671 13.5875 12.402
403 82 1 -0.277207 10.2962 16.1351 12.402
404 82 1 0.378229 11.7671 18.6828 12.402
405 82 1 0.788798 13.238 0.849218 12.402
406 82 1 0.314736 14.7089 3.39687 12.402
407 82 1 -0.153471 13.238 5.94452 12.402
408 82 1 -0.751302 14.7089 8.49218 12.402
409 82 1 -0.843348 13.238 11.0398 12.402
410 82 1 -0.402428 14.7089 13.5875 12.402
411 82 1 0.0582738 13.238 16.1351 12.402
412 82 1 0.687647 14.7089 18.6828 12.402
413 82 1 0.474796 16.1798 0.849218 12.402
414 82 1 -0.199665 0 3.39687 12.402
415 82 1 -0.385104 16.1798 5.94452 12.402
416 82 1 -0.342353 0 8.49218 12.402
417 82 1 -0.531905 16.1798 11.0398 12.402
418 82 1 0.110764 0 13.5875 12.402
419 82 1 0.287833 16.1798 16.1351 12.402
420 82 1 0.274751 0 18.6828 12.402
421 82 1 0.263262 2.94178 1.69844 14.8039
422 82 1 0.0940012 4.41266 4.24609 14.8039
423 82 1 -0.0860746 2.94178 6.79374 14.8039
424 82 1 -0.363906 4.41266 9.34139 14.8039
425 82 1 -0.314367 2.94178 11.889 14.8039
426 82 1 -0.186287 4.41266 14.4367 14.8039
427 82 1 0.00416844 2.94178 16.9844 14.8039
428 82 1 0.323562 4.41266 19.532 14.8039
429 82 1 0.275873 5.88355 1.69844 14.8039
430 82 1 -0.0663281 7.35444 4.24609 14.8039
431 82 1 -0.241225 5.88355 6.79374 14.8039
432 82 1 -0.284887 7.35444 9.34139 14.8039
433 82 1 -0.326231 5.88355 11.889 14.8039
434 82 1 -0.0161038 7.35444 14.4367 14.8039
435 82 1 0.166793 5.88355 16.9844 14.8039
436 82 1 0.259032 7.35444 19.532 14.8039
437 82 1 -0.0176553 8.82533 1.69844 14.8039
438 82 1 -0.204479 10.2962 4.24609 14.8039
439 82 1 -0.18641 8.82533 6.79374 14.8039
440 82 1 0.0822322 10.2962 9.34139 14.8039
441 82 1 -0.0137138 8.82533 11.889 14.8039
442 82 1 0.144629 10.2962 14.4367 14.8039
443 82 1 0.13297 8.82533 16.9844 14.8039
444 82 1 -0.0816645 10.2962 19.532 14.8039
445 82 1 -0.318035 11.7671 1.69844 14.8039
446 82 1 -0.180248 13.238 4.24609 14.8039
447 82 1 0.029676 11.7671 6.79374 14.8039
448 82 1 0.371163 13.238 9.34139 14.8039
449 82 1 0.312505 11.7671 11.889 14.8039
450 82 1 0.130366 13.238 14.4367 14.8039
451 82 1 -0.0649812 11.7671 16.9844 14.8039
452 82 1 -0.358423 13.238 19.532 14.8039
453 82 1 -0.329093 14.7089 1.69844 14.8039
454 82 1 -0.023295 16.1798 4.24609 14.8039
455 82 1 0.187607 14.7089 6.79374 14.8039
456 82 1 0.287115 16.1798 9.34139 14.8039
457 82 1 0.321694 14.7089 11.889 14.8039
458 82 1 -0.0427781 16.1798 14.4367 14.8039
459 82 1 -0.230894 14.7089 16.9844 14.8039
460 82 1 -0.297541 16.1798 19.532 14.8039
461 82 1 -0.0415207 0 1.69844 14.8039
462 82 1 0.112469 1.47089 4.24609 14.8039
463 82 1 0.12629 0 6.79374 14.8039
464 82 1 -0.0811408 1.47089 9.34139 14.8039
465 82 1 0.00697275 0 11.889 14.8039
466 82 1 -0.198915 1.47089 14.4367 14.8039
467 82 1 -0.195988 0 16.9844 14.8039
468 82 1 0.0436272 1.47089 19.532 14.8039
469 82 1 1.02567 4.41266 2.54765 17.2059
470 82 1 -0.0562294 5.88355 5.09531 17.2059
471 82 1 -0.719674 4.41266 7.64296 17.2059
472 82 1 -1.16405 5.88355 10.1906 17.2059
473 82 1 -0.959951 4.41266 12.7383 17.2059
474 82 1 0.0856636 5.88355 15.2859 17.2059
475 82 1 0.787098 4.41266 17.8336 17.2059
476 82 1 1.26705 5.88355 0 17.2059
477 82 1 0.436436 7.35444 2.54765 17.2059
478 82 1 -0.420025 8.82533 5.09531 17.2059
479 82 1 -0.78232 7.35444 7.64296 17.2059
480 82 1 -0.231696 8.82533 10.1906 17.2059
481 82 1 -0.378862 7.35444 12.7383 17.2059
482 82 1 0.456208 8.82533 15.2859 17.2059
483 82 1 0.860413 7.35444 17.8336 17.2059
484 82 1 0.345055 8.82533 0 17.2059
485 82 1 -0.552456 10.2962 2.54765 17.2059
486 82 1 -0.34102 11.7671 5.09531 17.2059
487 82 1 -0.0207972 10.2962 7.64296 17.2059
488 82 1 1.00023 11.7671 10.1906 17.2059
489 82 1 0.62693 10.2962 12.7383 17.2059
490 82 1 0.384999 11.7671 15.2859 17.2059
491 82 1 0.113832 10.2962 17.8336 17.2059
492 82 1 -0.860674 11.7671 0 17.2059
493 82 1 -0.94886 13.238 2.54765 17.2059
494 82 1 0.0960903 14.7089 5.09531 17.2059
495 82 1 0.809271 13.238 7.64296 17.2059
496 82 1 1.29036 14.7089 10.1906 17.2059
497 82 1 1.04092 13.238 12.7383 17.2059
498 82 1 -0.0552244 14.7089 15.2859 17.2059
499 82 1 -0.712808 13.238 17.8336 17.2059
500 82 1 -1.15188 14.7089 0 17.2059
501 82 1 -0.370623 16.1798 2.54765 17.2059
502 82 1 0.444278 0 5.09531 17.2059
503 82 1 0.862178 16.1798 7.64296 17.2059
504 82 1 0.347124 0 10.1906 17.2059
505 82 1 0.453545 16.1798 12.7383 17.2059
506 82 1 -0.413722 0 15.2859 17.2059
507 82 1 -0.787987 16.1798 17.8336 17.2059
508 82 1 -0.241382 0 0 17.2059
509 82 1 0.612606 1.47089 2.54765 17.2059
510 82 1 0.373518 2.94178 5.09531 17.2059
511 82 1 0.0929946 1.47089 7.64296 17.2059
512 82 1 -0.873902 2.94178 10.1906 17.2059
513 82 1 -0.542562 1.47089 12.7383 17.2059
514 82 1 -0.342628 2.94178 15.2859 17.2059
515 82 1 -0.0352595 1.47089 17.8336 17.2059
516 82 1 0.974019 2.94178 0 17.2059
517 82 1 0.500634 5.88355 3.39687 19.6078
518 82 1 -0.489014 7.35444 5.94452 19.6078
519 82 1 -0.997969 5.88355 8.49218 19.6078
520 82 1 -0.70917 7.35444 11.0398 19.6078
521 82 1 -0.533547 5.88355 13.5875 19.6078
522 82 1 0.451998 7.35444 16.1351 19.6078
523 82 1 1.0165 5.88355 18.6828 19.6078
524 82 1 0.716378 7.35444 0.849218 19.6078
525 82 1 -0.241863 8.82533 3.39687 19.6078
526 82 1 -0.355581 10.2962 5.94452 19.6078
527 82 1 -0.43151 8.82533 8.49218 19.6078
528 82 1 0.438918 10.2962 11.0398 19.6078
529 82 1 0.188322 8.82533 13.5875 19.6078
530 82 1 0.307987 10.2962 16.1351 19.6078
531 82 1 0.450244 8.82533 18.6828 19.6078
532 82 1 -0.431578 10.2962 0.849218 19.6078
533 82 1 -0.74156 11.7671 3.39687 19.6078
534 82 1 0.11987 13.238 5.94452 19.6078
535 82 1 0.572838 11.7671 8.49218 19.6078
536 82 1 1.1421 13.238 11.0398 19.6078
537 82 1 0.680231 11.7671 13.5875 19.6078
538 82 1 -0.185162 13.238 16.1351 19.6078
539 82 1 -0.55632 11.7671 18.6828 19.6078
540 82 1 -1.12155 13.238 0.849218 19.6078
541 82 1 -0.512968 14.7089 3.39687 19.6078
542 82 1 0.439852 16.1798 5.94452 19.6078
543 82 1 1.00442 14.7089 8.49218 19.6078
544 82 1 0.702646 16.1798 11.0398 19.6078
545 82 1 0.460818 14.7089 13.5875 19.6078
546 82 1 -0.500627 16.1798 16.1351 19.6078
547 82 1 -0.995478 14.7089 18.6828 19.6078
548 82 1 -0.683858 16.1798 0.849218 19.6078
549 82 1 0.200324 0 3.39687 19.6078
550 82 1 0.292196 1.47089 5.94452 19.6078
551 82 1 0.416127 0 8.49218 19.6078
552 82 1 -0.439973 1.47089 11.0398 19.6078
553 82 1 -0.233015 0 13.5875 19.6078
554 82 1 -0.33911 1.47089 16.1351 19.6078
555 82 1 -0.426448 0 18.6828 19.6078
556 82 1 0.457789 1.47089 0.849218 19.6078
557 82 1 0.718226 2.94178 3.39687 19.6078
558 82 1 -0.154143 4.41266 5.94452 19.6078
559 82 1 -0.577513 2.94178 8.49218 19.6078
560 82 1 -1.14687 4.41266 11.0398 19.6078
561 82 1 -0.734522 2.94178 13.5875 19.6078
562 82 1 0.122952 4.41266 16.1351 19.6078
563 82 1 0.583876 2.94178 18.6828 19.6078
564 82 1 1.17402 4.41266 0.849218 19.6078
ITEM: TIMESTEP
10000
ITEM: NUMBER OF ATOMS
564
ITEM: BOX BOUNDS pp pp ff
0.0000000000000000e+00 1.7650658050000001e+01
0.0000000000000000e+00 2.0381224350000000e+01
0.0000000000000000e+00 6.0000000000000000e+01
ITEM: ATOMS id mol type q x y z
1 1 2 0 7.7326 17.2129 22.3843
2 1 3 0.647346 8.49911 17.3438 22.9424
3 1 3 0.587038 7.42798 16.331 22.5979
4 1 4 -1.23438 7.79173 17.1168 22.4831
5 2 2 0 12.7153 19.6171 22.0315
6 2 3 0.952694 12.8363 19.7234 21.088
7 2 3 0.438634 13.2476 18.8543 22.2573
8 2 4 -1.39133 12.7989 19.533 21.9397
9 3 2 0 16.0476 9.13294 22.1671
10 3 3 0.611855 15.394 8.79008 22.7766
11 3 3 0.769714 16.7894 9.37473 22.7217
12 3 4 -1.38157 16.0589 9.12 22.3161
13 4 2 0 2.21481 4.72178 22.2857
14 4 3 0.623062 1.37585 4.69788 22.7459
15 4 3 0.667109 2.51625 5.62506 22.383
16 4 4 -1.29017 2.146 4.83435 22.3571
17 5 2 0 13.1213 9.135 22.0697
18 5 3 0.707628 13.1774 9.59341 22.9081
19 5 3 0.811301 12.6224 8.34131 22.2631
20 5 4 -1.51893 13.0646 9.09208 22.2018
21 6 2 0 0.757281 9.8362 23.5253
22 6 3 0.599419 0.789578 10.4216 24.2819
23 6 3 0.774257 1.55509 10.0338 23.0347
24 6 4 -1.37368 0.863545 9.93644 23.5593
25 7 2 0 4.92754 17.426 22.106
26 7 3 0.617913 5.63458 17.2526 22.7275
27 7 3 0.741699 4.15122 17.0403 22.512
28 7 4 -1.35961 4.91867 17.3544 22.2376
29 8 2 0 8.80168 0.389165 22.4243
30 8 3 0.504605 8.59777 1.11233 23.0173
31 8 3 0.72819 9.70066 0.556875 22.1415
32 8 4 -1.2328 8.89066 0.503208 22.464
33 9 2 0 9.1249 5.42051 22.5331
34 9 3 0.620931 9.24608 5.41786 21.5836
35 9 3 0.548283 8.60179 6.20323 22.7061
36 9 4 -1.16921 9.07345 5.52037 22.4337
37 10 2 0 5.98123 20.2981 21.9839
38 10 3 0.610289 5.38173 19.7443 22.4841
39 10 3 0.826941 6.62983 0.208325 22.6247
40 10 4 -1.43723 5.98751 20.2645 22.13
41 11 2 0 2.97618 10.2322 22.1608
42 11 3 0.759873 3.01159 10.4685 21.2339
43 11 3 0.526175 3.87841 10.0043 22.385
44 11 4 -1.28605 3.09621 10.2333 22.0709
45 12 2 0 2.99813 20.1115 22.2088
46 12 3 0.671851 2.52677 0.541077 22.4001
47 12 3 0.670333 2.83917 19.5557 22.9717
48 12 4 -1.34218 2.91744 20.1441 22.331
49 13 2 0 14.7591 11.853 22.1328
50 13 3 0.744341 15.193 12.7023 22.214
51 13 3 0.673241 15.1086 11.3347 22.8576
52 13 4 -1.41758 14.8594 11.8954 22.236
53 14 2 0 10.4586 18.1235 22.4653
54 14 3 0.524221 10.124 18.8335 23.0132
55 14 3 0.774461 11.2904 18.4538 22.1259
56 14 4 -1.29868 10.5222 18.2567 22.492
57 15 2 0 13.0755 4.22297 22.1731
58 15 3 0.532626 12.1743 4.22309 21.8508
59 15 3 0.744368 13.3849 3.3301 22.0205
60 15 4 -1.27699 12.9998 4.10869 22.1123
61 16 2 0 11.8253 6.87908 22.4783
62 16 3 0.67918 10.8962 6.68816 22.6073
63 16 3 0.663106 12.2638 6.03894 22.6127
64 16 4 -1.34229 11.7625 6.74709 22.512
65 17 2 0 4.3374 2.50239 22.1087
66 17 3 0.622599 3.67936 3.1414 22.3823
67 17 3 0.71476 5.03569 2.58379 22.7583
68 17 4 -1.33736 4.34255 2.59461 22.2269
69 18 2 0 7.57068 7.85204 22.2338
70 18 3 0.531375 7.81047 7.20055 21.5748
71 18 3 0.695657 6.8701 8.36029 21.825
72 18 4 -1.22703 7.51169 7.8337 22.0971
73 19 2 0 14.5232 1.8403 22.1368
74 19 3 0.442717 14.3683 0.984791 22.5372
75 19 3 0.833996 14.589 1.65817 21.1994
76 19 4 -1.27671 14.5118 1.70747 22.0681
77 20 2 0 5.69026 5.63485 22.4566
78 20 3 0.661269 6.13219 6.30057 21.9296
79 20 3 0.488659 4.75768 5.79128 22.3081
80 20 4 -1.14993 5.62745 5.74009 22.3701
81 21 2 0 0.500066 7.02531 22.3277
82 21 3 0.521785 0.190059 7.86022 22.6785
83 21 3 0.64388 1.44419 7.14424 22.2242
84 21 4 -1.16566 0.58124 7.14741 22.3594
85 22 2 0 1.51819 14.1643 22.1319
86 22 3 0.513887 2.3328 13.6918 22.3033
87 22 3 0.6667 1.38544 14.0791 21.1878
88 22 4 -1.18059 1.60548 14.0929 22.033
89 23 2 0 9.98236 9.3557 22.1931
90 23 3 0.747293 9.1577 8.88966 22.0553
91 23 3 0.594815 10.2764 9.07226 23.0588
92 23 4 -1.34211 9.91444 9.25976 22.2863
93 24 2 0 4.53097 12.7696 22.3078
94 24 3 0.477898 5.08296 12.1366 22.767
95 24 3 0.851978 4.29152 12.3313 21.4913
96 24 4 -1.32988 4.57098 12.6325 22.2621
97 25 2 0 7.99555 12.1358 22.4413
98 25 3 0.738122 7.69581 11.3574 21.9717
99 25 3 0.482449 7.25247 12.7381 22.4063
100 25 4 -1.22057 7.86205 12.1132 22.3767
101 26 2 0 3.68277 17.4584 25.6695
102 26 3 0.529407 3.80001 16.5994 25.2638
103 26 3 0.587273 2.78406 17.7059 25.4519
104 26 4 -1.11668 3.58273 17.3801 25.5897
105 27 2 0 5.8912 10.2248 22.0778
106 27 3 0.913132 5.81054 10.0738 21.1361
107 27 3 0.409398 5.27499 10.9341 22.2608
108 27 4 -1.32253 5.80199 10.2963 21.9807
109 28 2 0 16.2877 14.1248 22.2864
110 28 3 0.60385 16.0536 15.0529 22.2893
111 28 3 0.694629 17.2264 14.1147 22.0993
112 28 4 -1.29848 16.3779 14.2423 22.2628
113 29 2 0 9.97641 14.466 22.1658
114 29 3 0.599627 9.41661 13.709 22.3384
115 29 3 0.5641 10.2776 14.744 23.0308
116 29 4 -1.16373 9.9433 14.4047 22.2986
117 30 2 0 17.344 17.4136 22.4146
118 30 3 0.61277 16.9097 18.2315 22.6569
119 30 3 0.697682 17.0898 17.2677 21.5034
120 30 4 -1.31045 17.2559 17.4996 22.329
121 31 2 0 7.1182 3.04523 22.3464
122 31 3 0.610659 6.7209 3.91563 22.3185
123 31 3 0.643562 7.98584 3.18945 22.724
124 31 4 -1.25422 7.17841 3.17511 22.3912
125 32 2 0 11.3822 1.77898 22.268
126 32 3 0.573939 11.9162 0.986252 22.3193
127 32 3 0.757583 11.5271 2.10903 21.3813
128 32 4 -1.33152 11.4691 1.71976 22.1611
129 33 2 0 13.21 14.3983 22.2775
130 33 3 0.731685 13.7714 15.1692 22.1949
131 33 3 0.566787 12.4222 14.7209 22.7152
132 33 4 -1.29847 13.181 14.5383 22.323
133 34 2 0 11.4007 11.729 22.1863
134 34 3 0.590489 12.0798 11.7046 22.8605
135 34 3 0.727696 10.6983 11.179 22.5332
136 34 4 -1.31819 11.3977 11.6555 22.317
137 35 2 0 16.937 20.2202 22.3302
138 35 3 0.478183 16.3606 0.0335337 23.0693
139 35 3 0.746145 16.3424 20.0716 21.5949
140 35 4 -1.22433 16.7871 20.2261 22.3307
141 36 2 0 6.06933 18.5612 24.8173
142 36 3 0.640585 6.86082 18.202 25.2182
143 36 3 0.633921 5.35209 18.0773 25.2267
144 36 4 -1.27451 6.07884 18.4533 24.921
145 37 2 0 15.9895 7.29791 24.5606
146 37 3 0.670378 16.8245 7.37211 25.0227
147 37 3 0.55049 15.3363 7.22104 25.2561
148 37 4 -1.22087 16.0127 7.29757 24.7088
149 38 2 0 0.960542 4.41609 24.9312
150 38 3 0.494002 0.248259 3.9771 25.3962
151 38 3 0.541707 1.16647 5.17834 25.4723
152 38 4 -1.03571 0.895722 4.45747 25.06
153 39 2 0 11.4358 19.8928 24.6472
154 39 3 0.504966 11.8289 0.262017 25.0928
155 39 3 0.661321 11.9104 19.8301 23.8183
156 39 4 -1.16629 11.5469 19.9809 24.5981
157 40 2 0 0.856833 10.7129 26.3436
158 40 3 0.612408 1.65288 10.299 26.6772
159 40 3 0.528731 1.10182 11.6279 26.2056
160 40 4 -1.14114 0.990098 10.7771 26.3687
161 41 2 0 6.52318 5.92323 25.2791
162 41 3 0.606244 6.10028 5.08534 25.0912
163 41 3 0.627933 6.32206 6.46936 24.5192
164 41 4 -1.23418 6.4433 5.88588 25.1578
165 42 2 0 3.5775 14.9242 23.8183
166 42 3 0.556314 2.65299 14.8609 23.5785
167 42 3 0.642719 3.99924 14.2113 23.3386
168 42 4 -1.19903 3.51314 14.8249 23.7262
169 43 2 0 0.809528 7.44667 26.0622
170 43 3 0.55691 1.01923 8.37588 26.1561
171 43 3 0.586369 1.62473 6.99369 26.2778
172 43 4 -1.14328 0.940729 7.50764 26.1018
173 44 2 0 14.7371 6.45385 22.1359
174 44 3 0.629649 15.236 6.6962 22.916
175 44 3 0.705457 14.303 5.63452 22.3736
176 44 4 -1.33511 14.7454 6.37999 22.2662
177 45 2 0 9.24442 5.79629 26.4416
178 45 3 0.600357 8.56974 5.75579 25.7638
179 45 3 0.51649 9.11193 6.64616 26.8616
180 45 4 -1.11685 9.14109 5.8999 26.4086
181 46 2 0 2.36885 12.2094 24.3589
182 46 3 0.455264 2.48393 13.1561 24.4415
183 46 3 0.657876 2.71255 12.0007 23.4903
184 46 4 -1.11314 2.42758 12.3039 24.2583
185 47 2 0 4.78555 8.23222 24.2545
186 47 3 0.656855 5.42771 8.93922 24.3179
187 47 3 0.556316 4.51419 8.23605 23.3366
188 47 4 -1.21317 4.83302 8.32322 24.1451
189 48 2 0 3.22638 7.2316 22.2466
190 48 3 0.588874 3.75033 7.70431 22.8933
191 48 3 0.777681 3.44007 7.64986 21.4125
192 48 4 -1.36656 3.32081 7.34565 22.2226
193 49 2 0 14.5036 16.8829 22.1757
194 49 3 0.46064 15.3594 17.044 22.573
195 49 3 0.766091 14.5214 17.3797 21.3577
196 49 4 -1.22673 14.6154 16.9671 22.1219
197 50 2 0 6.69316 10.1756 24.8769
198 50 3 0.670618 6.6173 10.0787 23.9277
199 50 3 0.568016 7.57735 10.5159 25.0135
200 50 4 -1.23863 6.79664 10.2068 24.7729
201 51 2 0 10.4525 8.53966 24.7423
202 51 3 0.590232 9.77214 8.70294 25.3955
203 51 3 0.501485 10.9568 7.80831 25.0986
204 51 4 -1.09172 10.4299 8.46694 24.8715
205 52 2 0 16.8031 1.36614 25.1568
206 52 3 0.535177 16.2512 2.09957 25.4283
207 52 3 0.538465 16.1899 0.723727 24.7997
208 52 4 -1.07364 16.6539 1.37779 25.1458
209 53 2 0 1.15231 18.834 24.6333
210 53 3 0.553976 0.645921 18.1505 24.1944
211 53 3 0.545272 0.493398 19.4349 24.9811
212 53 4 -1.09925 1.00314 18.8234 24.6216
213 54 2 0 15.8632 11.1126 24.7088
214 54 3 0.583352 16.4242 10.4933 25.1756
215 54 3 0.570423 15.8557 11.8937 25.262
216 54 4 -1.15378 15.9341 11.1333 24.8394
217 55 2 0 16.4611 3.83335 22.4566
218 55 3 0.676873 15.8975 3.10023 22.2093
219 55 3 0.504654 16.1033 4.14079 23.2895
220 55 4 -1.18153 16.3432 3.77886 22.5316
221 56 2 0 11.7656 5.20248 25.3679
222 56 3 0.590674 11.7431 4.24998 25.2759
223 56 3 0.582331 10.9328 5.42311 25.785
224 56 4 -1.17301 11.6561 5.1088 25.4095
225 57 2 0 16.5342 14.3389 25.4616
226 57 3 0.496252 16.1648 14.25 24.5831
227 57 3 0.530129 17.3841 14.757 25.3234
228 57 4 -1.02638 16.5957 14.3811 25.3315
229 58 2 0 13.2741 7.71675 25.992
230 58 3 0.486106 13.0613 7.85213 26.9153
231 58 3 0.63681 12.9029 6.85949 25.7833
232 58 4 -1.12292 13.1993 7.62434 26.0835
233 59 2 0 2.30138 17.0573 22.3421
234 59 3 0.519985 2.54175 16.1415 22.2014
235 59 3 0.779102 1.34424 17.0586 22.3312
236 59 4 -1.29909 2.20962 16.9402 22.3227
237 60 2 0 9.00794 1.01995 25.7965
238 60 3 0.545088 9.82404 0.593497 26.0579
239 60 3 0.667271 9.28618 1.76195 25.2596
240 60 4 -1.21236 9.14803 1.06034 25.7612
241 61 2 0 6.55203 14.7314 22.1712
242 61 3 0.529446 6.67779 14.6582 23.1173
243 61 3 0.74582 5.86348 14.0974 21.9709
244 61 4 -1.27527 6.47998 14.6409 22.2667
245 62 2 0 7.21537 13.6916 24.767
246 62 3 0.680461 6.4245 13.4465 25.2472
247 62 3 0.499159 7.24533 13.0841 24.0279
248 62 4 -1.17962 7.11796 13.5825 24.7338
249 63 2 0 9.40311 3.03521 24.0229
250 63 3 0.679537 10.1431 2.95378 23.4212
251 63 3 0.612048 9.15478 3.95836 23.9743
252 63 4 -1.29158 9.46605 3.14296 23.9396
253 64 2 0 13.9326 13.3765 25.043
254 64 3 0.54703 13.7283 13.6706 24.1553
255 64 3 0.538868 14.7212 13.8637 25.2817
256 64 4 -1.0859 14.0074 13.4765 24.96
257 65 2 0 15.0262 3.65902 24.8771
258 65 3 0.491927 15.4153 3.39808 24.0424
259 65 3 0.668462 14.1078 3.39904 24.8054
260 65 4 -1.16039 14.9585 3.59233 24.7611
261 66 2 0 3.38662 6.09745 25.9313
262 66 3 0.599985 3.81328 6.77665 25.4089
263 66 3 0.512168 3.73617 5.27531 25.5876
264 66 4 -1.11215 3.48598 6.07915 25.8204
265 67 2 0 1.25865 1.80821 22.2155
266 67 3 0.651435 0.859614 2.42103 22.8331
267 67 3 0.723807 0.66637 1.05631 22.2069
268 67 4 -1.37524 1.13175 1.79041 22.2935
269 68 2 0 13.0134 10.4071 24.5648
270 68 3 0.618673 12.8504 9.69135 25.179
271 68 3 0.618994 13.5591 11.0232 25.0535
272 68 4 -1.23767 13.0624 10.3944 24.706
273 69 2 0 12.5901 2.31348 24.8067
274 69 3 0.54563 13.3429 1.72255 24.7905
275 69 3 0.698784 12.2698 2.3189 23.9047
276 69 4 -1.24441 12.6455 2.23853 24.6891
277 70 2 0 4.88458 12.4404 25.7792
278 70 3 0.54003 5.29195 11.6167 25.5111
279 70 3 0.594582 4.00517 12.4068 25.4027
280 70 4 -1.13461 4.82416 12.3306 25.6967
281 71 2 0 5.11855 3.4606 25.2109
282 71 3 0.641328 5.66361 2.67612 25.272
283 71 3 0.476754 4.26931 3.19057 25.5603
284 71 4 -1.11808 5.07961 3.32561 25.2635
285 72 2 0 3.3591 9.29289 26.6682
286 72 3 0.545149 3.72989 9.24338 25.7872
287 72 3 0.589704 3.8317 8.62525 27.1654
288 72 4 -1.13485 3.46707 9.20109 26.6191
289 73 2 0 10.7432 19.4462 27.3567
290 73 3 0.567065 10.9794 19.5354 26.4334
291 73 3 0.462802 11.17 20.1876 27.7863
292 73 4 -1.02987 10.8281 19.5525 27.2935
293 74 2 0 11.7356 16.2837 24.0658
294 74 3 0.626712 11.3559 17.032 23.6053
295 74 3 0.503691 12.4733 16.6508 24.5529
296 74 4 -1.1304 11.7814 16.4265 24.0692
297 75 2 0 6.37455 0.956307 24.6293
298 75 3 0.662121 6.10716 0.102208 24.9688
299 75 3 0.620466 7.24935 1.09557 24.992
300 75 4 -1.28259 6.4523 0.864798 24.7192
301 76 2 0 8.15695 8.66105 26.9634
302 76 3 0.592287 7.46477 8.2926 27.5124
303 76 3 0.551578 7.69459 9.21177 26.3316
304 76 4 -1.14387 8.00916 8.68438 26.9528
305 77 2 0 6.79683 0.998401 27.6315
306 77 3 0.550365 7.60133 1.1943 27.1513
307 77 3 0.433304 6.69411 1.73244 28.2372
308 77 4 -0.98367 6.88666 1.11744 27.6476
309 78 2 0 14.4411 -0.00851592 24.2001
310 78 3 0.52769 14.0382 19.517 24.3474
311 78 3 0.664528 14.1902 0.224287 23.3062
312 78 4 -1.19222 14.3574 -0.0882535 24.1045
313 79 2 0 5.64221 7.66948 27.4913
314 79 3 0.65186 5.99943 7.12399 26.7906
315 79 3 0.467301 5.55529 7.07571 28.2371
316 79 4 -1.11916 5.67681 7.52364 27.4971
317 80 2 0 9.2052 11.4728 25.452
318 80 3 0.483209 8.90179 11.3679 26.3538
319 80 3 0.56269 8.67104 12.1851 25.1004
320 80 4 -1.0459 9.09798 11.5506 25.5225
321 81 2 0 8.43138 17.7222 26.1288
322 81 3 0.59198 8.67069 18.2646 26.8803
323 81 3 0.494489 9.25127 17.3063 25.8622
324 81 4 -1.08647 8.56697 17.7384 26.1909
325 82 1 0.362686 0 0 10
326 82 1 -0.804342 1.47089 2.54765 10
327 82 1 -0.655098 0 5.09531 10
328 82 1 0.0144032 1.47089 7.64296 10
329 82 1 -0.231453 0 10.1906 10
330 82 1 0.922823 1.47089 12.7383 10
331 82 1 0.748761 0 15.2859 10
332 82 1 0.103214 1.47089 17.8336 10
333 82 1 -1.24127 2.94178 0 10
334 82 1 -1.21388 4.41266 2.54765 10
335 82 1 -0.372913 2.94178 5.09531 10
336 82 1 1.17559 4.41266 7.64296 10
337 82 1 1.37153 2.94178 10.1906 10
338 82 1 1.30849 4.41266 12.7383 10
339 82 1 0.466135 2.94178 15.2859 10
340 82 1 -1.08084 4.41266 17.8336 10
341 82 1 -1.58141 5.88355 0 10
342 82 1 -0.414968 7.35444 2.54765 10
343 82 1 0.273669 5.88355 5.09531 10
344 82 1 1.18783 7.35444 7.64296 10
345 82 1 1.67077 5.88355 10.1906 10
346 82 1 0.461964 7.35444 12.7383 10
347 82 1 -0.22086 5.88355 15.2859 10
348 82 1 -1.13988 7.35444 17.8336 10
349 82 1 -0.317899 8.82533 0 10
350 82 1 0.794628 10.2962 2.54765 10
351 82 1 0.638011 8.82533 5.09531 10
352 82 1 0.0400344 10.2962 7.64296 10
353 82 1 0.366928 8.82533 10.1906 10
354 82 1 -0.769355 10.2962 12.7383 10
355 82 1 -0.625588 8.82533 15.2859 10
356 82 1 -0.013921 10.2962 17.8336 10
357 82 1 1.28712 11.7671 0 10
358 82 1 1.20544 13.238 2.54765 10
359 82 1 0.357028 11.7671 5.09531 10
360 82 1 -1.11999 13.238 7.64296 10
361 82 1 -1.23503 11.7671 10.1906 10
362 82 1 -1.15389 13.238 12.7383 10
363 82 1 -0.342082 11.7671 15.2859 10
364 82 1 1.17147 13.238 17.8336 10
365 82 1 1.62755 14.7089 0 10
366 82 1 0.405373 16.1798 2.54765 10
367 82 1 -0.289531 14.7089 5.09531 10
368 82 1 -1.13338 16.1798 7.64296 10
369 82 1 -1.53418 14.7089 10.1906 10
370 82 1 -0.308256 16.1798 12.7383 10
371 82 1 0.345275 14.7089 15.2859 10
372 82 1 1.22956 16.1798 17.8336 10
373 82 1 -0.417905 1.47089 0.849218 12.402
374 82 1 -0.592169 2.94178 3.39687 12.402
375 82 1 -0.302233 1.47089 5.94452 12.402
376 82 1 0.480303 2.94178 8.49218 12.402
377 82 1 0.350769 1.47089 11.0398 12.402
378 82 1 0.486836 2.94178 13.5875 12.402
379 82 1 0.18272 1.47089 16.1351 12.402
380 82 1 -0.556983 2.94178 18.6828 12.402
381 82 1 -0.941199 4.41266 0.849218 12.402
382 82 1 -0.355963 5.88355 3.39687 12.402
383 82 1 0.161379 4.41266 5.94452 12.402
384 82 1 0.826103 5.88355 8.49218 12.402
385 82 1 0.877729 4.41266 11.0398 12.402
386 82 1 0.251837 5.88355 13.5875 12.402
387 82 1 -0.275796 4.41266 16.1351 12.402
388 82 1 -0.899412 5.88355 18.6828 12.402
389 82 1 -0.550163 7.35444 0.849218 12.402
390 82 1 0.193218 8.82533 3.39687 12.402
391 82 1 0.41095 7.35444 5.94452 12.402
392 82 1 0.306587 8.82533 8.49218 12.402
393 82 1 0.48467 7.35444 11.0398 12.402
394 82 1 -0.299182 8.82533 13.5875 12.402
395 82 1 -0.524893 7.35444 16.1351 12.402
396 82 1 -0.381262 8.82533 18.6828 12.402
397 82 1 0.36737 10.2962 0.849218 12.402
398 82 1 0.509313 11.7671 3.39687 12.402
399 82 1 0.199895 10.2962 5.94452 12.402
400 82 1 -0.555726 11.7671 8.49218 12.402
401 82 1 -0.432393 10.2962 11.0398 12.402
402 82 1 -0.612424 11.7671 13.5875 12.402
403 82 1 -0.31385 10.2962 16.1351 12.402
404 82 1 0.483156 11.7671 18.6828 12.402
405 82 1 0.8948 13.238 0.849218 12.402
406 82 1 0.273107 14.7089 3.39687 12.402
407 82 1 -0.260996 13.238 5.94452 12.402
408 82 1 -0.901425 14.7089 8.49218 12.402
409 82 1 -0.956009 13.238 11.0398 12.402
410 82 1 -0.376772 14.7089 13.5875 12.402
411 82 1 0.14758 13.238 16.1351 12.402
412 82 1 0.827076 14.7089 18.6828 12.402
413 82 1 0.500527 16.1798 0.849218 12.402
414 82 1 -0.279312 0 3.39687 12.402
415 82 1 -0.513514 16.1798 5.94452 12.402
416 82 1 -0.385014 0 8.49218 12.402
417 82 1 -0.565802 16.1798 11.0398 12.402
418 82 1 0.171543 0 13.5875 12.402
419 82 1 0.394947 16.1798 16.1351 12.402
420 82 1 0.305034 0 18.6828 12.402
421 82 1 0.34653 2.94178 1.69844 14.8039
422 82 1 0.115327 4.41266 4.24609 14.8039
423 82 1 -0.115493 2.94178 6.79374 14.8039
424 82 1 -0.446107 4.41266 9.34139 14.8039
425 82 1 -0.409765 2.94178 11.889 14.8039
426 82 1 -0.218745 4.41266 14.4367 14.8039
427 82 1 0.0073967 2.94178 16.9844 14.8039
428 82 1 0.415176 4.41266 19.532 14.8039
429 82 1 0.348285 5.88355 1.69844 14.8039
430 82 1 -0.0601584 7.35444 4.24609 14.8039
431 82 1 -0.28985 5.88355 6.79374 14.8039
432 82 1 -0.329684 7.35444 9.34139 14.8039
433 82 1 -0.378042 5.88355 11.889 14.8039
434 82 1 -0.00909625 7.35444 14.4367 14.8039
435 82 1 0.222701 5.88355 16.9844 14.8039
436 82 1 0.33295 7.35444 19.532 14.8039
437 82 1 0.0184319 8.82533 1.69844 14.8039
438 82 1 -0.177799 10.2962 4.24609 14.8039
439 82 1 -0.194074 8.82533 6.79374 14.8039
440 82 1 0.0979867 10.2962 9.34139 14.8039
441 82 1 -0.0231318 8.82533 11.889 14.8039
442 82 1 0.127386 10.2962 14.4367 14.8039
443 82 1 0.155873 8.82533 16.9844 14.8039
444 82 1 -0.0770037 10.2962 19.532 14.8039
445 82 1 -0.303258 11.7671 1.69844 14.8039
446 82 1 -0.121965 13.238 4.24609 14.8039
447 82 1 0.0821406 11.7671 6.79374 14.8039
448 82 1 0.410041 13.238 9.34139 14.8039
449 82 1 0.3077 11.7671 11.889 14.8039
450 82 1 0.0560528 13.238 14.4367 14.8039
451 82 1 -0.118223 11.7671 16.9844 14.8039
452 82 1 -0.40047 13.238 19.532 14.8039
453 82 1 -0.303841 14.7089 1.69844 14.8039
454 82 1 0.0455822 16.1798 4.24609 14.8039
455 82 1 0.255279 14.7089 6.79374 14.8039
456 82 1 0.285862 16.1798 9.34139 14.8039
457 82 1 0.277003 14.7089 11.889 14.8039
458 82 1 -0.157736 16.1798 14.4367 14.8039
459 82 1 -0.329624 14.7089 16.9844 14.8039
460 82 1 -0.325501 16.1798 19.532 14.8039
461 82 1 0.015857 0 1.69844 14.8039
462 82 1 0.16491 1.47089 4.24609 14.8039
463 82 1 0.15336 0 6.79374 14.8039
464 82 1 -0.142646 1.47089 9.34139 14.8039
465 82 1 -0.0855958 0 11.889 14.8039
466 82 1 -0.295914 1.47089 14.4367 14.8039
467 82 1 -0.270745 0 16.9844 14.8039
468 82 1 0.0804376 1.47089 19.532 14.8039
469 82 1 1.09879 4.41266 2.54765 17.2059
470 82 1 -0.209479 5.88355 5.09531 17.2059
471 82 1 -0.923014 4.41266 7.64296 17.2059
472 82 1 -1.30192 5.88355 10.1906 17.2059
473 82 1 -1.0116 4.41266 12.7383 17.2059
474 82 1 0.252055 5.88355 15.2859 17.2059
475 82 1 1.0105 4.41266 17.8336 17.2059
476 82 1 1.45164 5.88355 0 17.2059
477 82 1 0.394563 7.35444 2.54765 17.2059
478 82 1 -0.5304 8.82533 5.09531 17.2059
479 82 1 -0.946352 7.35444 7.64296 17.2059
480 82 1 -0.20656 8.82533 10.1906 17.2059
481 82 1 -0.305833 7.35444 12.7383 17.2059
482 82 1 0.586021 8.82533 15.2859 17.2059
483 82 1 1.05367 7.35444 17.8336 17.2059
484 82 1 0.352331 8.82533 0 17.2059
485 82 1 -0.639924 10.2962 2.54765 17.2059
486 82 1 -0.285173 11.7671 5.09531 17.2059
487 82 1 0.0303785 10.2962 7.64296 17.2059
488 82 1 1.17249 11.7671 10.1906 17.2059
489 82 1 0.741702 10.2962 12.7383 17.2059
490 82 1 0.34539 11.7671 15.2859 17.2059
491 82 1 0.0820979 10.2962 17.8336 17.2059
492 82 1 -1.00671 11.7671 0 17.2059
493 82 1 -0.973732 13.238 2.54765 17.2059
494 82 1 0.26612 14.7089 5.09531 17.2059
495 82 1 1.02825 13.238 7.64296 17.2059
496 82 1 1.43912 14.7089 10.1906 17.2059
497 82 1 1.08489 13.238 12.7383 17.2059
498 82 1 -0.233635 14.7089 15.2859 17.2059
499 82 1 -0.919033 13.238 17.8336 17.2059
500 82 1 -1.28369 14.7089 0 17.2059
501 82 1 -0.2903 16.1798 2.54765 17.2059
502 82 1 0.579025 0 5.09531 17.2059
503 82 1 1.03575 16.1798 7.64296 17.2059
504 82 1 0.322508 0 10.1906 17.2059
505 82 1 0.367416 16.1798 12.7383 17.2059
506 82 1 -0.577367 0 15.2859 17.2059
507 82 1 -0.969618 16.1798 17.8336 17.2059
508 82 1 -0.212756 0 0 17.2059
509 82 1 0.74619 1.47089 2.54765 17.2059
510 82 1 0.350168 2.94178 5.09531 17.2059
511 82 1 0.0605842 1.47089 7.64296 17.2059
512 82 1 -1.03993 2.94178 10.1906 17.2059
513 82 1 -0.682122 1.47089 12.7383 17.2059
514 82 1 -0.332676 2.94178 15.2859 17.2059
515 82 1 -0.011507 1.47089 17.8336 17.2059
516 82 1 1.16484 2.94178 0 17.2059
517 82 1 0.376079 5.88355 3.39687 19.6078
518 82 1 -0.707789 7.35444 5.94452 19.6078
519 82 1 -1.20038 5.88355 8.49218 19.6078
520 82 1 -0.705666 7.35444 11.0398 19.6078
521 82 1 -0.416036 5.88355 13.5875 19.6078
522 82 1 0.647872 7.35444 16.1351 19.6078
523 82 1 1.22723 5.88355 18.6828 19.6078
524 82 1 0.702243 7.35444 0.849218 19.6078
525 82 1 -0.413995 8.82533 3.39687 19.6078
526 82 1 -0.407135 10.2962 5.94452 19.6078
527 82 1 -0.492357 8.82533 8.49218 19.6078
528 82 1 0.570594 10.2962 11.0398 19.6078
529 82 1 0.336301 8.82533 13.5875 19.6078
530 82 1 0.333986 10.2962 16.1351 19.6078
531 82 1 0.471069 8.82533 18.6828 19.6078
532 82 1 -0.594965 10.2962 0.849218 19.6078
533 82 1 -0.840202 11.7671 3.39687 19.6078
534 82 1 0.233467 13.238 5.94452 19.6078
535 82 1 0.728175 11.7671 8.49218 19.6078
536 82 1 1.33343 13.238 11.0398 19.6078
537 82 1 0.778144 11.7671 13.5875 19.6078
538 82 1 -0.307282 13.238 16.1351 19.6078
539 82 1 -0.737426 11.7671 18.6828 19.6078
540 82 1 -1.29831 13.238 0.849218 19.6078
541 82 1 -0.505708 14.7089 3.39687 19.6078
542 82 1 0.571611 16.1798 5.94452 19.6078
543 82 1 1.21828 14.7089 8.49218 19.6078
544 82 1 0.791759 16.1798 11.0398 19.6078
545 82 1 0.463315 14.7089 13.5875 19.6078
546 82 1 -0.645879 16.1798 16.1351 19.6078
547 82 1 -1.19809 14.7089 18.6828 19.6078
548 82 1 -0.741867 16.1798 0.849218 19.6078
549 82 1 0.269119 0 3.39687 19.6078
550 82 1 0.290852 1.47089 5.94452 19.6078
551 82 1 0.481994 0 8.49218 19.6078
552 82 1 -0.49888 1.47089 11.0398 19.6078
553 82 1 -0.298042 0 13.5875 19.6078
554 82 1 -0.350799 1.47089 16.1351 19.6078
555 82 1 -0.480636 0 18.6828 19.6078
556 82 1 0.54696 1.47089 0.849218 19.6078
557 82 1 0.729456 2.94178 3.39687 19.6078
558 82 1 -0.343027 4.41266 5.94452 19.6078
559 82 1 -0.716436 2.94178 8.49218 19.6078
560 82 1 -1.23199 4.41266 11.0398 19.6078
561 82 1 -0.736874 2.94178 13.5875 19.6078
562 82 1 0.304019 4.41266 16.1351 19.6078
563 82 1 0.738583 2.94178 18.6828 19.6078
564 82 1 1.29098 4.41266 0.849218 19.6078
ITEM: TIMESTEP
12500
ITEM: NUMBER OF ATOMS
564
ITEM: BOX BOUNDS pp pp ff
0.0000000000000000e+00 1.7650658050000001e+01
0.0000000000000000e+00 2.0381224350000000e+01
0.0000000000000000e+00 6.0000000000000000e+01
ITEM: ATOMS id mol type q x y z
1 1 2 0 7.82309 17.6869 22.0987
2 1 3 0.647369 8.76912 17.8026 22.1874
3 1 3 0.612958 7.57014 17.179 22.8697
4 1 4 -1.26033 7.91182 17.6367 22.2088
5 2 2 0 13.0316 19.3037 22.1157
6 2 3 0.901686 13.3079 19.2795 21.1996
7 2 3 0.523465 12.5626 20.1335 22.2031
8 2 4 -1.42515 13.007 19.4068 22.0096
9 3 2 0 16.1289 9.24969 22.128
10 3 3 0.658372 15.8196 8.88085 22.9554
11 3 3 0.698367 17.0828 9.25151 22.2078
12 3 4 -1.35674 16.2114 9.20271 22.2442
13 4 2 0 2.72684 5.09968 22.2944
14 4 3 0.542235 1.86695 5.45036 22.5265
15 4 3 0.681682 3.25458 5.8723 22.0925
16 4 4 -1.22392 2.68432 5.24348 22.2983
17 5 2 0 13.1423 9.29919 21.9031
18 5 3 0.782931 13.531 9.70463 22.6782
19 5 3 0.713667 12.6428 8.55775 22.245
20 5 4 -1.4966 13.1281 9.25617 22.0461
21 6 2 0 0.957253 8.89188 23.1505
22 6 3 0.626662 1.05817 9.03524 24.0915
23 6 3 0.796462 1.6233 9.45052 22.7499
24 6 4 -1.42312 1.05543 8.98174 23.2197
25 7 2 0 4.52061 17.668 22.2395
26 7 3 0.731875 4.82199 17.1721 23.0007
27 7 3 0.614146 3.56814 17.6931 22.3312
28 7 4 -1.34602 4.43726 17.6077 22.3487
29 8 2 0 9.05062 0.219849 22.2826
30 8 3 0.50943 9.55757 0.326926 23.0875
31 8 3 0.638315 9.66489 0.437052 21.5814
32 8 4 -1.14775 9.19415 0.261361 22.2959
33 9 2 0 9.09145 5.5474 22.1905
34 9 3 0.694122 9.09146 5.32589 21.2593
35 9 3 0.556311 8.33157 6.11885 22.3013
36 9 4 -1.25043 8.99418 5.5922 22.0855
37 10 2 0 5.9027 20.1387 21.9098
38 10 3 0.656634 5.48446 19.4748 22.458
39 10 3 0.813385 6.36841 0.320635 22.5281
40 10 4 -1.47002 5.90878 20.1258 22.0592
41 11 2 0 3.05952 10.2964 22.1319
42 11 3 0.892759 3.04301 10.6049 21.2259
43 11 3 0.51885 3.64516 9.5394 22.117
44 11 4 -1.41161 3.13238 10.239 22.014
45 12 2 0 2.94495 20.2152 22.0644
46 12 3 0.697099 3.09866 0.38546 22.8315
47 12 3 0.695604 2.44176 19.473 22.3993
48 12 4 -1.3927 2.90021 20.1908 22.2054
49 13 2 0 14.8575 11.792 22.0995
50 13 3 0.73959 15.1542 12.6927 22.2297
51 13 3 0.659104 15.3143 11.289 22.7737
52 13 4 -1.39869 14.954 11.8429 22.2025
53 14 2 0 10.7823 17.6596 22.272
54 14 3 0.500988 11.1995 17.2642 23.0374
55 14 3 0.778297 11.4728 18.1838 21.8663
56 14 4 -1.27929 10.9241 17.6761 22.3181
57 15 2 0 13.0657 4.19765 22.4341
58 15 3 0.670769 12.518 4.13172 21.6519
59 15 3 0.619755 13.5116 3.35231 22.4868
60 15 4 -1.29052 13.0527 4.081 22.3408
61 16 2 0 11.7352 6.81423 22.2296
62 16 3 0.725116 10.8606 6.43133 22.298
63 16 3 0.564005 12.3266 6.06167 22.2212
64 16 4 -1.28912 11.6989 6.66887 22.2373
65 17 2 0 4.26544 2.46336 22.0325
66 17 3 0.772904 3.9511 3.0521 22.7186
67 17 3 0.67412 5.20532 2.38466 22.1958
68 17 4 -1.44702 4.34552 2.52865 22.1412
69 18 2 0 7.44352 8.1716 22.4694
70 18 3 0.72851 7.50147 8.02552 21.5252
71 18 3 0.586317 6.85595 8.92173 22.5605
72 18 4 -1.31483 7.37573 8.24893 22.3602
73 19 2 0 14.6551 1.79591 22.1374
74 19 3 0.523573 14.7706 0.897826 22.4478
75 19 3 0.788995 14.0522 1.71858 21.398
76 19 4 -1.31257 14.5927 1.67104 22.0825
77 20 2 0 5.88053 5.14313 22.2135
78 20 3 0.633245 6.15009 5.93296 21.7448
79 20 3 0.462363 5.53188 5.46473 23.045
80 20 4 -1.09561 5.87041 5.28541 22.26
81 21 2 0 0.118417 6.50544 22.2398
82 21 3 0.595388 17.2569 6.07857 22.9266
83 21 3 0.703828 0.424879 7.31929 22.6397
84 21 4 -1.29922 0.0920796 6.55498 22.3789
85 22 2 0 1.08798 12.8014 22.0894
86 22 3 0.48624 1.83138 12.2519 22.3376
87 22 3 0.713083 1.17466 12.9089 21.1422
88 22 4 -1.19932 1.19424 12.7448 21.9999
89 23 2 0 10.0031 9.56627 22.3449
90 23 3 0.667489 9.08908 9.2842 22.3102
91 23 3 0.531003 10.4051 8.99735 23.0014
92 23 4 -1.19849 9.93757 9.45733 22.4245
93 24 2 0 4.20593 12.9857 22.209
94 24 3 0.618613 4.82548 12.256 22.2038
95 24 3 0.71618 3.60561 12.7959 21.488
96 24 4 -1.33479 4.20839 12.868 22.1161
97 25 2 0 8.25312 12.151 22.2966
98 25 3 0.808266 7.38868 11.8273 22.0432
99 25 3 0.441695 8.13326 13.0942 22.4073
100 25 4 -1.24996 8.12712 12.2303 22.2783
101 26 2 0 3.42626 18.3199 25.1796
102 26 3 0.472712 2.95153 17.539 24.8949
103 26 3 0.607821 2.7412 18.9354 25.4405
104 26 4 -1.08053 3.2778 18.2987 25.1765
105 27 2 0 5.79501 10.6945 22.0711
106 27 3 0.863378 5.72817 10.366 21.1745
107 27 3 0.553873 4.88745 10.8083 22.3532
108 27 4 -1.41725 5.67027 10.667 21.9924
109 28 2 0 16.2564 14.2523 22.2155
110 28 3 0.614241 16.4778 14.9355 21.5828
111 28 3 0.611828 17.0848 13.8031 22.3834
112 28 4 -1.22607 16.3908 14.2823 22.156
113 29 2 0 9.56956 14.7112 22.2768
114 29 3 0.619391 9.22117 14.2564 23.0436
115 29 3 0.59381 10.0813 15.4346 22.6388
116 29 4 -1.2132 9.59048 14.7456 22.4213
117 30 2 0 16.4747 17.9932 22.0898
118 30 3 0.470854 15.6856 17.8894 22.6215
119 30 3 0.80132 16.1499 18.0897 21.1945
120 30 4 -1.27217 16.3321 17.9922 22.0432
121 31 2 0 6.92642 2.53411 22.2414
122 31 3 0.657195 6.82566 3.46452 22.0404
123 31 3 0.737994 7.8329 2.44922 22.5369
124 31 4 -1.39519 7.02956 2.64234 22.2535
125 32 2 0 11.479 1.48727 22.0516
126 32 3 0.445118 11.4317 0.538753 22.1712
127 32 3 0.902385 11.7386 1.60122 21.1374
128 32 4 -1.3475 11.5062 1.38044 21.9499
129 33 2 0 13.1161 14.2862 22.286
130 33 3 0.80459 13.4622 15.1781 22.3142
131 33 3 0.535427 13.3338 13.9171 23.1419
132 33 4 -1.34002 13.1883 14.3531 22.3992
133 34 2 0 11.6042 11.8303 22.2433
134 34 3 0.586383 12.0298 12.6398 22.5259
135 34 3 0.741877 11.0837 11.5565 22.9986
136 34 4 -1.32826 11.592 11.8989 22.3762
137 35 2 0 17.3761 0.265793 22.5989
138 35 3 0.619315 16.4936 0.636438 22.6038
139 35 3 0.700729 17.2537 19.7393 22.321
140 35 4 -1.32004 17.2475 0.197038 22.5639
141 36 2 0 6.09709 17.1983 24.5805
142 36 3 0.591314 6.90341 17.1982 25.0964
143 36 3 0.58014 5.40848 17.4074 25.2117
144 36 4 -1.17145 6.11216 17.2251 24.7274
145 37 2 0 16.0343 7.45591 24.5775
146 37 3 0.579415 16.9313 7.42109 24.9098
147 37 3 0.668418 15.4859 7.37653 25.358
148 37 4 -1.24783 16.0789 7.44129 24.7199
149 38 2 0 0.281502 4.91555 24.7452
150 38 3 0.630823 0.682115 5.53826 25.3518
151 38 3 0.511422 17.3976 4.34881 25.3013
152 38 4 -1.14224 0.264355 4.92272 24.894
153 39 2 0 11.3097 19.5454 24.6758
154 39 3 0.633813 11.9202 20.2668 24.8277
155 39 3 0.585953 11.7143 19.0317 23.9768
156 39 4 -1.21977 11.4396 19.572 24.6058
157 40 2 0 1.11905 10.1274 26.0019
158 40 3 0.608537 1.94439 9.92431 26.4422
159 40 3 0.574223 1.32399 10.8755 25.441
160 40 4 -1.18276 1.25094 10.1972 25.9865
161 41 2 0 7.97094 7.19122 24.9489
162 41 3 0.492513 8.84536 6.81135 24.8634
163 41 3 0.689616 7.8072 7.6093 24.1036
164 41 4 -1.18213 8.06191 7.19611 24.8298
165 42 2 0 2.61745 15.1981 23.2729
166 42 3 0.667753 2.05353 14.7099 22.673
167 42 3 0.544711 3.40095 14.6553 23.361
168 42 4 -1.21246 2.64556 15.0661 23.2074
169 43 2 0 1.44748 7.21449 26.0952
170 43 3 0.54597 1.36687 7.95469 26.6967
171 43 3 0.604835 2.38738 7.03734 26.0572
172 43 4 -1.1508 1.55748 7.28656 26.1673
173 44 2 0 14.6686 6.55966 22.1989
174 44 3 0.626779 15.2327 6.76768 22.9437
175 44 3 0.665532 14.3619 5.66948 22.3714
176 44 4 -1.29231 14.7016 6.47233 22.3163
177 45 2 0 9.71857 4.61241 25.4464
178 45 3 0.443165 8.85054 4.85598 25.7681
179 45 3 0.6877 9.55911 4.25375 24.5734
180 45 4 -1.13087 9.58704 4.59768 25.3759
181 46 2 0 2.55523 12.0819 24.5384
182 46 3 0.531498 2.4711 13.0345 24.5788
183 46 3 0.667312 2.83961 11.9038 23.642
184 46 4 -1.19881 2.58086 12.181 24.4289
185 47 2 0 4.9929 8.82657 24.8506
186 47 3 0.489793 5.93821 8.75457 24.7185
187 47 3 0.625131 4.6142 8.60512 23.9998
188 47 4 -1.11492 5.06543 8.789 24.7248
189 48 2 0 4.0174 7.7228 22.3703
190 48 3 0.566975 3.47222 8.50946 22.357
191 48 3 0.775076 4.57139 7.80161 21.5937
192 48 4 -1.34205 4.01853 7.83359 22.2692
193 49 2 0 14.0927 16.6979 22.7227
194 49 3 0.668001 14.9699 16.7251 22.3408
195 49 3 0.696529 13.6522 17.4698 22.3673
196 49 4 -1.36453 14.1486 16.8002 22.6283
197 50 2 0 7.45554 10.488 24.5311
198 50 3 0.586187 6.78657 10.1309 23.9469
199 50 3 0.538425 8.09319 10.8956 23.9449
200 50 4 -1.12461 7.45153 10.4945 24.3813
201 51 2 0 11.4049 8.55917 24.8656
202 51 3 0.57519 10.9471 8.75704 25.6826
203 51 3 0.611228 11.6509 7.63758 24.9455
204 51 4 -1.18642 11.3778 8.46652 24.9804
205 52 2 0 16.667 2.13196 25.1555
206 52 3 0.526315 16.004 2.82228 25.142
207 52 3 0.555702 16.216 1.35943 24.8149
208 52 4 -1.08202 16.5244 2.12143 25.1102
209 53 2 0 1.57916 0.151201 24.8619
210 53 3 0.579417 0.911359 -0.0384144 24.2029
211 53 3 0.560001 1.17131 0.798046 25.4376
212 53 4 -1.13942 1.44146 0.209732 24.8512
213 54 2 0 16.8643 11.6101 24.2825
214 54 3 0.539141 17.3784 11.6981 23.4799
215 54 3 0.549829 17.4746 11.2371 24.9187
216 54 4 -1.08897 17.0082 11.5736 24.2612
217 55 2 0 16.0816 4.12708 22.4486
218 55 3 0.704356 15.4923 3.37701 22.3686
219 55 3 0.501427 16.382 4.10038 23.3571
220 55 4 -1.20578 16.0446 4.02764 22.5547
221 56 2 0 12.3606 5.96031 25.6386
222 56 3 0.60641 12.9255 5.25168 25.3303
223 56 3 0.64123 11.4951 5.55956 25.7191
224 56 4 -1.24764 12.3221 5.8183 25.6094
225 57 2 0 14.6956 15.1849 25.3549
226 57 3 0.503188 15.4084 15.445 25.9384
227 57 3 0.566244 14.943 15.5394 24.5009
228 57 4 -1.06943 14.8185 15.2635 25.3203
229 58 2 0 14.7374 6.90196 26.9575
230 58 3 0.513166 14.3342 7.11801 27.7983
231 58 3 0.567383 14.002 6.66397 26.3928
232 58 4 -1.08055 14.5916 6.89915 26.9928
233 59 2 0 1.64516 17.72 22.4709
234 59 3 0.63506 1.95938 16.9164 22.8853
235 59 3 0.761545 0.788818 17.4863 22.1127
236 59 4 -1.39661 1.57576 17.5872 22.4781
237 60 2 0 9.22453 1.0564 25.2664
238 60 3 0.603618 9.87968 0.358613 25.2568
239 60 3 0.640937 9.58617 1.73308 24.6941
240 60 4 -1.24455 9.35469 1.0537 25.1919
241 61 2 0 6.30091 14.7029 22.4663
242 61 3 0.446403 6.44129 14.6252 23.41
243 61 3 0.776633 5.52659 14.1672 22.294
244 61 4 -1.22304 6.21976 14.6244 22.565
245 62 2 0 8.22324 13.7399 24.777
246 62 3 0.611537 7.51999 13.7247 25.4262
247 62 3 0.550976 8.05604 12.9766 24.2242
248 62 4 -1.16251 8.11181 13.6402 24.7894
249 63 2 0 9.6034 3.04743 23.3072
250 63 3 0.76571 10.2698 2.63759 22.7557
251 63 3 0.635357 9.46071 3.90756 22.9122
252 63 4 -1.40107 9.67044 3.10508 23.186
253 64 2 0 13.1971 12.7093 24.7051
254 64 3 0.582425 12.2685 12.5335 24.857
255 64 3 0.614074 13.3308 13.5969 25.0376
256 64 4 -1.1965 13.0953 12.8005 24.7671
257 65 2 0 14.3512 3.92622 24.9318
258 65 3 0.568806 14.0917 4.11945 24.0309
259 65 3 0.641254 13.8495 3.14469 25.1637
260 65 4 -1.21006 14.2537 3.85091 24.8462
261 66 2 0 3.91029 6.10417 25.0574
262 66 3 0.659215 4.60885 6.39479 25.6438
263 66 3 0.605174 3.94566 6.71458 24.321
264 66 4 -1.26439 4.00424 6.21951 25.0382
265 67 2 0 1.21738 2.60384 22.2662
266 67 3 0.593274 1.09546 3.28585 22.9267
267 67 3 0.663233 0.54744 1.95092 22.469
268 67 4 -1.25651 1.11602 2.60756 22.3767
269 68 2 0 14.1735 10.0881 24.3934
270 68 3 0.5488 13.4742 9.71143 24.9276
271 68 3 0.695905 14.2001 11.0103 24.6484
272 68 4 -1.24471 14.0874 10.1579 24.4944
273 69 2 0 12.6236 1.70766 24.4963
274 69 3 0.513801 13.544 1.54149 24.2928
275 69 3 0.714248 12.1902 1.734 23.6432
276 69 4 -1.22805 12.6859 1.68976 24.361
277 70 2 0 5.37037 12.3846 25.5317
278 70 3 0.52102 5.94578 11.6322 25.3937
279 70 3 0.576267 4.53129 12.1169 25.1568
280 70 4 -1.09729 5.33662 12.254 25.4661
281 71 2 0 3.97994 3.48014 24.7012
282 71 3 0.449272 4.839 3.39947 25.1156
283 71 3 0.694683 3.79747 4.41976 24.708
284 71 4 -1.14396 4.06655 3.59009 24.7551
285 72 2 0 3.628 10.0717 27.2343
286 72 3 0.582283 4.12247 9.73382 26.4876
287 72 3 0.512533 3.74498 11.0206 27.1901
288 72 4 -1.09482 3.70627 10.1499 27.1331
289 73 2 0 12.1882 17.6066 27.0295
290 73 3 0.544404 12.2019 18.2722 26.3417
291 73 3 0.487345 12.7349 17.9701 27.7261
292 73 4 -1.03175 12.26 17.7384 27.0306
293 74 2 0 11.5713 16.0639 24.5657
294 74 3 0.583395 11.5649 16.1931 25.5141
295 74 3 0.546805 12.4992 16.0104 24.337
296 74 4 -1.1302 11.6893 16.0736 24.6578
297 75 2 0 6.49372 0.865952 24.5929
298 75 3 0.469396 5.97901 1.20679 25.3244
299 75 3 0.667563 7.40315 0.95087 24.8792
300 75 4 -1.13696 6.54425 0.920453 24.7232
301 76 2 0 9.5424 9.39585 26.8822
302 76 3 0.513986 9.46104 9.2232 27.8202
303 76 3 0.599254 8.77928 8.96917 26.4926
304 76 4 -1.11324 9.4343 9.31913 26.9524
305 77 2 0 8.13479 2.39888 27.8894
306 77 3 0.538176 8.59254 2.29203 27.0556
307 77 3 0.443109 8.59257 1.81211 28.4914
308 77 4 -0.981286 8.25199 2.31009 27.8597
309 78 2 0 14.8885 20.1859 24.1401
310 78 3 0.456767 15.7714 19.8175 24.1098
311 78 3 0.699865 14.4305 19.7719 23.4086
312 78 4 -1.15663 14.9429 20.0858 24.0426
313 79 2 0 6.0917 6.0101 26.8694
314 79 3 0.578071 6.76146 6.32326 26.2614
315 79 3 0.483189 6.35433 5.11274 27.0743
316 79 4 -1.06126 6.21106 5.93531 26.8178
317 80 2 0 10.4658 11.7206 24.9737
318 80 3 0.649991 10.0839 10.9718 25.4316
319 80 3 0.569803 9.84072 12.4318 25.1137
320 80 4 -1.21979 10.3369 11.7158 25.0502
321 81 2 0 9.03142 17.6707 25.4134
322 81 3 0.514232 9.68005 17.6539 26.1171
323 81 3 0.537234 9.50535 18.0195 24.6584
324 81 4 -1.05147 9.17512 17.7132 25.4068
325 82 1 0.131918 0 0 10
326 82 1 -1.07242 1.47089 2.54765 10
327 82 1 -0.813649 0 5.09531 10
328 82 1 0.0379984 1.47089 7.64296 10
329 82 1 -0.054342 0 10.1906 10
330 82 1 1.10763 1.47089 12.7383 10
331 82 1 0.873562 0 15.2859 10
332 82 1 0.0189467 1.47089 17.8336 10
333 82 1 -1.41832 2.94178 0 10
334 82 1 -1.24836 4.41266 2.54765 10
335 82 1 -0.467904 2.94178 5.09531 10
336 82 1 1.18412 4.41266 7.64296 10
337 82 1 1.45812 2.94178 10.1906 10
338 82 1 1.26335 4.41266 12.7383 10
339 82 1 0.489376 2.94178 15.2859 10
340 82 1 -1.14663 4.41266 17.8336 10
341 82 1 -1.50426 5.88355 0 10
342 82 1 -0.138167 7.35444 2.54765 10
343 82 1 0.381671 5.88355 5.09531 10
344 82 1 1.1865 7.35444 7.64296 10
345 82 1 1.54706 5.88355 10.1906 10
346 82 1 0.180051 7.35444 12.7383 10
347 82 1 -0.356046 5.88355 15.2859 10
348 82 1 -1.12255 7.35444 17.8336 10
349 82 1 -0.038937 8.82533 0 10
350 82 1 1.14935 10.2962 2.54765 10
351 82 1 0.886308 8.82533 5.09531 10
352 82 1 0.043626 10.2962 7.64296 10
353 82 1 0.124209 8.82533 10.1906 10
354 82 1 -1.05818 10.2962 12.7383 10
355 82 1 -0.816315 8.82533 15.2859 10
356 82 1 0.0683804 10.2962 17.8336 10
357 82 1 1.51276 11.7671 0 10
358 82 1 1.32572 13.238 2.54765 10
359 82 1 0.541674 11.7671 5.09531 10
360 82 1 -1.10231 13.238 7.64296 10
361 82 1 -1.38751 11.7671 10.1906 10
362 82 1 -1.21393 13.238 12.7383 10
363 82 1 -0.43116 11.7671 15.2859 10
364 82 1 1.23419 13.238 17.8336 10
365 82 1 1.59768 14.7089 0 10
366 82 1 0.214159 16.1798 2.54765 10
367 82 1 -0.308699 14.7089 5.09531 10
368 82 1 -1.10556 16.1798 7.64296 10
369 82 1 -1.47713 14.7089 10.1906 10
370 82 1 -0.131404 16.1798 12.7383 10
371 82 1 0.413307 14.7089 15.2859 10
372 82 1 1.20884 16.1798 17.8336 10
373 82 1 -0.583792 1.47089 0.849218 12.402
374 82 1 -0.70065 2.94178 3.39687 12.402
375 82 1 -0.352215 1.47089 5.94452 12.402
376 82 1 0.537803 2.94178 8.49218 12.402
377 82 1 0.498425 1.47089 11.0398 12.402
378 82 1 0.589161 2.94178 13.5875 12.402
379 82 1 0.257544 1.47089 16.1351 12.402
380 82 1 -0.602707 2.94178 18.6828 12.402
381 82 1 -0.990321 4.41266 0.849218 12.402
382 82 1 -0.312026 5.88355 3.39687 12.402
383 82 1 0.167218 4.41266 5.94452 12.402
384 82 1 0.818657 5.88355 8.49218 12.402
385 82 1 0.905676 4.41266 11.0398 12.402
386 82 1 0.198371 5.88355 13.5875 12.402
387 82 1 -0.259714 4.41266 16.1351 12.402
388 82 1 -0.886284 5.88355 18.6828 12.402
389 82 1 -0.454557 7.35444 0.849218 12.402
390 82 1 0.330936 8.82533 3.39687 12.402
391 82 1 0.470507 7.35444 5.94452 12.402
392 82 1 0.246581 8.82533 8.49218 12.402
393 82 1 0.36398 7.35444 11.0398 12.402
394 82 1 -0.444542 8.82533 13.5875 12.402
395 82 1 -0.56495 7.35444 16.1351 12.402
396 82 1 -0.319143 8.82533 18.6828 12.402
397 82 1 0.492048 10.2962 0.849218 12.402
398 82 1 0.586545 11.7671 3.39687 12.402
399 82 1 0.256603 10.2962 5.94452 12.402
400 82 1 -0.605774 11.7671 8.49218 12.402
401 82 1 -0.582931 10.2962 11.0398 12.402
402 82 1 -0.697248 11.7671 13.5875 12.402
403 82 1 -0.35043 10.2962 16.1351 12.402
404 82 1 0.532621 11.7671 18.6828 12.402
405 82 1 0.899919 13.238 0.849218 12.402
406 82 1 0.195437 14.7089 3.39687 12.402
407 82 1 -0.261921 13.238 5.94452 12.402
408 82 1 -0.887853 14.7089 8.49218 12.402
409 82 1 -0.990316 13.238 11.0398 12.402
410 82 1 -0.309256 14.7089 13.5875 12.402
411 82 1 0.166948 13.238 16.1351 12.402
412 82 1 0.813612 14.7089 18.6828 12.402
413 82 1 0.359756 16.1798 0.849218 12.402
414 82 1 -0.448741 0 3.39687 12.402
415 82 1 -0.567482 16.1798 5.94452 12.402
416 82 1 -0.316377 0 8.49218 12.402
417 82 1 -0.450748 16.1798 11.0398 12.402
418 82 1 0.33419 0 13.5875 12.402
419 82 1 0.46969 16.1798 16.1351 12.402
420 82 1 0.245455 0 18.6828 12.402
421 82 1 0.374802 2.94178 1.69844 14.8039
422 82 1 0.108346 4.41266 4.24609 14.8039
423 82 1 -0.0813728 2.94178 6.79374 14.8039
424 82 1 -0.413739 4.41266 9.34139 14.8039
425 82 1 -0.394601 2.94178 11.889 14.8039
426 82 1 -0.150744 4.41266 14.4367 14.8039
427 82 1 0.0802361 2.94178 16.9844 14.8039
428 82 1 0.439841 4.41266 19.532 14.8039
429 82 1 0.276703 5.88355 1.69844 14.8039
430 82 1 -0.153013 7.35444 4.24609 14.8039
431 82 1 -0.286811 5.88355 6.79374 14.8039
432 82 1 -0.284412 7.35444 9.34139 14.8039
433 82 1 -0.31011 5.88355 11.889 14.8039
434 82 1 0.0849901 7.35444 14.4367 14.8039
435 82 1 0.280626 5.88355 16.9844 14.8039
436 82 1 0.273295 7.35444 19.532 14.8039
437 82 1 -0.135828 8.82533 1.69844 14.8039
438 82 1 -0.302618 10.2962 4.24609 14.8039
439 82 1 -0.227374 8.82533 6.79374 14.8039
440 82 1 0.122905 10.2962 9.34139 14.8039
441 82 1 0.0619345 8.82533 11.889 14.8039
442 82 1 0.203824 10.2962 14.4367 14.8039
443 82 1 0.181067 8.82533 16.9844 14.8039
444 82 1 -0.177609 10.2962 19.532 14.8039
445 82 1 -0.445683 11.7671 1.69844 14.8039
446 82 1 -0.195936 13.238 4.24609 14.8039
447 82 1 0.0396958 11.7671 6.79374 14.8039
448 82 1 0.398867 13.238 9.34139 14.8039
449 82 1 0.348103 11.7671 11.889 14.8039
450 82 1 0.0802219 13.238 14.4367 14.8039
451 82 1 -0.11772 11.7671 16.9844 14.8039
452 82 1 -0.468841 13.238 19.532 14.8039
453 82 1 -0.356203 14.7089 1.69844 14.8039
454 82 1 0.0571411 16.1798 4.24609 14.8039
455 82 1 0.243496 14.7089 6.79374 14.8039
456 82 1 0.26594 16.1798 9.34139 14.8039
457 82 1 0.257194 14.7089 11.889 14.8039
458 82 1 -0.160229 16.1798 14.4367 14.8039
459 82 1 -0.323557 14.7089 16.9844 14.8039
460 82 1 -0.313479 16.1798 19.532 14.8039
461 82 1 0.0521933 0 1.69844 14.8039
462 82 1 0.212267 1.47089 4.24609 14.8039
463 82 1 0.18204 0 6.79374 14.8039
464 82 1 -0.139092 1.47089 9.34139 14.8039
465 82 1 -0.113372 0 11.889 14.8039
466 82 1 -0.272248 1.47089 14.4367 14.8039
467 82 1 -0.225029 0 16.9844 14.8039
468 82 1 0.144571 1.47089 19.532 14.8039
469 82 1 1.11964 4.41266 2.54765 17.2059
470 82 1 -0.270286 5.88355 5.09531 17.2059
471 82 1 -0.916211 4.41266 7.64296 17.2059
472 82 1 -1.23779 5.88355 10.1906 17.2059
473 82 1 -1.03906 4.41266 12.7383 17.2059
474 82 1 0.350178 5.88355 15.2859 17.2059
475 82 1 1.07848 4.41266 17.8336 17.2059
476 82 1 1.37385 5.88355 0 17.2059
477 82 1 0.164207 7.35444 2.54765 17.2059
478 82 1 -0.690882 8.82533 5.09531 17.2059
479 82 1 -0.916999 7.35444 7.64296 17.2059
480 82 1 -0.0238588 8.82533 10.1906 17.2059
481 82 1 -0.113464 7.35444 12.7383 17.2059
482 82 1 0.759972 8.82533 15.2859 17.2059
483 82 1 1.0498 7.35444 17.8336 17.2059
484 82 1 0.117031 8.82533 0 17.2059
485 82 1 -0.913019 10.2962 2.54765 17.2059
486 82 1 -0.381177 11.7671 5.09531 17.2059
487 82 1 0.0594948 10.2962 7.64296 17.2059
488 82 1 1.27436 11.7671 10.1906 17.2059
489 82 1 0.966411 10.2962 12.7383 17.2059
490 82 1 0.445428 11.7671 15.2859 17.2059
491 82 1 0.042073 10.2962 17.8336 17.2059
492 82 1 -1.18845 11.7671 0 17.2059
493 82 1 -1.05346 13.238 2.54765 17.2059
494 82 1 0.335151 14.7089 5.09531 17.2059
495 82 1 1.04023 13.238 7.64296 17.2059
496 82 1 1.35099 14.7089 10.1906 17.2059
497 82 1 1.10178 13.238 12.7383 17.2059
498 82 1 -0.29033 14.7089 15.2859 17.2059
499 82 1 -0.949748 13.238 17.8336 17.2059
500 82 1 -1.26904 14.7089 0 17.2059
501 82 1 -0.127031 16.1798 2.54765 17.2059
502 82 1 0.750399 0 5.09531 17.2059
503 82 1 1.03839 16.1798 7.64296 17.2059
504 82 1 0.139219 0 10.1906 17.2059
505 82 1 0.165013 16.1798 12.7383 17.2059
506 82 1 -0.694329 0 15.2859 17.2059
507 82 1 -0.939069 16.1798 17.8336 17.2059
508 82 1 -0.0217592 0 0 17.2059
509 82 1 0.971353 1.47089 2.54765 17.2059
510 82 1 0.453385 2.94178 5.09531 17.2059
511 82 1 0.0603754 1.47089 7.64296 17.2059
512 82 1 -1.15219 2.94178 10.1906 17.2059
513 82 1 -0.893863 1.47089 12.7383 17.2059
514 82 1 -0.369209 2.94178 15.2859 17.2059
515 82 1 0.0815294 1.47089 17.8336 17.2059
516 82 1 1.31443 2.94178 0 17.2059
517 82 1 0.302538 5.88355 3.39687 19.6078
518 82 1 -0.730357 7.35444 5.94452 19.6078
519 82 1 -1.18115 5.88355 8.49218 19.6078
520 82 1 -0.60154 7.35444 11.0398 19.6078
521 82 1 -0.424516 5.88355 13.5875 19.6078
522 82 1 0.711465 7.35444 16.1351 19.6078
523 82 1 1.20335 5.88355 18.6828 19.6078
524 82 1 0.533424 7.35444 0.849218 19.6078
525 82 1 -0.580835 8.82533 3.39687 19.6078
526 82 1 -0.415061 10.2962 5.94452 19.6078
527 82 1 -0.382473 8.82533 8.49218 19.6078
528 82 1 0.746127 10.2962 11.0398 19.6078
529 82 1 0.521281 8.82533 13.5875 19.6078
530 82 1 0.443689 10.2962 16.1351 19.6078
531 82 1 0.396457 8.82533 18.6828 19.6078
532 82 1 -0.764638 10.2962 0.849218 19.6078
533 82 1 -0.892444 11.7671 3.39687 19.6078
534 82 1 0.316348 13.238 5.94452 19.6078
535 82 1 0.807542 11.7671 8.49218 19.6078
536 82 1 1.31686 13.238 11.0398 19.6078
537 82 1 0.903926 11.7671 13.5875 19.6078
538 82 1 -0.286954 13.238 16.1351 19.6078
539 82 1 -0.772566 11.7671 18.6828 19.6078
540 82 1 -1.31303 13.238 0.849218 19.6078
541 82 1 -0.362117 14.7089 3.39687 19.6078
542 82 1 0.719251 16.1798 5.94452 19.6078
543 82 1 1.2019 14.7089 8.49218 19.6078
544 82 1 0.55415 16.1798 11.0398 19.6078
545 82 1 0.324389 14.7089 13.5875 19.6078
546 82 1 -0.739229 16.1798 16.1351 19.6078
547 82 1 -1.17287 14.7089 18.6828 19.6078
548 82 1 -0.578811 16.1798 0.849218 19.6078
549 82 1 0.51181 0 3.39687 19.6078
550 82 1 0.403946 1.47089 5.94452 19.6078
551 82 1 0.405824 0 8.49218 19.6078
552 82 1 -0.767678 1.47089 11.0398 19.6078
553 82 1 -0.592789 0 13.5875 19.6078
554 82 1 -0.443368 1.47089 16.1351 19.6078
555 82 1 -0.374047 0 18.6828 19.6078
556 82 1 0.759577 1.47089 0.849218 19.6078
557 82 1 0.859729 2.94178 3.39687 19.6078
558 82 1 -0.320517 4.41266 5.94452 19.6078
559 82 1 -0.790683 2.94178 8.49218 19.6078
560 82 1 -1.35988 4.41266 11.0398 19.6078
561 82 1 -0.96187 2.94178 13.5875 19.6078
562 82 1 0.276749 4.41266 16.1351 19.6078
563 82 1 0.832081 2.94178 18.6828 19.6078
564 82 1 1.31996 4.41266 0.849218 19.6078
ITEM: TIMESTEP
15000
ITEM: NUMBER OF ATOMS
564
ITEM: BOX BOUNDS pp pp ff
0.0000000000000000e+00 1.7650658050000001e+01
0.0000000000000000e+00 2.0381224350000000e+01
0.0000000000000000e+00 6.0000000000000000e+01
ITEM: ATOMS id mol type q x y z
1 1 2 0 7.40578 17.6761 22.0278
2 1 3 0.608016 7.72557 18.1908 22.7688
3 1 3 0.728849 6.80726 17.0393 22.4184
4 1 4 -1.33686 7.3701 17.6604 22.1726
5 2 2 0 12.9604 19.4698 22.194
6 2 3 0.899462 13.359 19.4457 21.3241
7 2 3 0.589912 12.4983 20.3076 22.2232
8 2 4 -1.48937 12.9523 19.5739 22.0864
9 3 2 0 16.2804 9.25591 22.113
10 3 3 0.626672 15.7087 9.27064 22.8806
11 3 3 0.714538 17.1668 9.24584 22.4741
12 3 4 -1.34121 16.3207 9.25651 22.2575
13 4 2 0 2.97994 5.164 22.1021
14 4 3 0.549203 2.23167 5.025 22.6826
15 4 3 0.746995 3.276 6.05233 22.3007
16 4 4 -1.2962 2.92205 5.25992 22.2018
17 5 2 0 13.3454 9.29581 22.0102
18 5 3 0.70096 12.965 9.90873 22.6394
19 5 3 0.74993 13.0429 8.43531 22.3005
20 5 4 -1.45089 13.258 9.26412 22.1279
21 6 2 0 1.24215 8.92903 23.2231
22 6 3 0.571513 1.27641 8.97801 24.1785
23 6 3 0.823715 2.06501 9.32266 22.933
24 6 4 -1.39523 1.35187 8.98569 23.3083
25 7 2 0 4.27077 17.7119 21.9967
26 7 3 0.531226 4.33148 18.1276 22.8568
27 7 3 0.797037 3.6884 16.9644 22.1319
28 7 4 -1.32826 4.20399 17.6695 22.1241
29 8 2 0 9.16653 20.3421 22.4885
30 8 3 0.544303 9.20494 0.109038 23.4334
31 8 3 0.764686 9.95562 0.381797 22.1473
32 8 4 -1.30899 9.27246 0.0337273 22.5658
33 9 2 0 9.15714 5.4037 22.352
34 9 3 0.777147 9.41396 5.17825 21.4579
35 9 3 0.588103 8.65234 6.21177 22.2601
36 9 4 -1.36525 9.1254 5.47828 22.2258
37 10 2 0 6.19323 20.3223 22.1485
38 10 3 0.696761 6.10669 19.8678 22.9865
39 10 3 0.674067 7.04404 0.376751 22.1985
40 10 4 -1.37083 6.29107 20.3199 22.2621
41 11 2 0 3.48774 9.98958 22.1566
42 11 3 0.938457 3.63622 10.2551 21.249
43 11 3 0.515147 4.35754 9.76291 22.4857
44 11 4 -1.4536 3.61809 9.99456 22.0825
45 12 2 0 2.78146 20.1975 22.141
46 12 3 0.65163 2.63678 0.376188 22.9037
47 12 3 0.726217 2.35493 19.3706 22.3659
48 12 4 -1.37785 2.70834 20.1633 22.2674
49 13 2 0 14.7362 12.0928 22.1465
50 13 3 0.735786 15.3309 12.7449 22.5172
51 13 3 0.610007 14.7659 11.3623 22.7642
52 13 4 -1.34579 14.8162 12.0828 22.273
53 14 2 0 10.4678 17.703 22.1111
54 14 3 0.599551 9.94458 18.4297 22.4493
55 14 3 0.610643 11.2685 18.1146 21.7861
56 14 4 -1.21019 10.5033 17.8487 22.1128
57 15 2 0 12.8616 4.17294 22.4268
58 15 3 0.658937 12.3673 4.13042 21.6082
59 15 3 0.614199 13.1748 3.27902 22.5647
60 15 4 -1.27314 12.8384 4.05307 22.3396
61 16 2 0 11.9845 6.78981 22.2466
62 16 3 0.611045 11.0502 6.82471 22.4516
63 16 3 0.667933 12.2313 5.87873 22.4057
64 16 4 -1.27898 11.8965 6.67765 22.2932
65 17 2 0 4.54979 2.56532 21.9713
66 17 3 0.707412 4.2103 3.30343 22.4775
67 17 3 0.707149 5.41945 2.40337 22.3369
68 17 4 -1.41456 4.61765 2.63908 22.0829
69 18 2 0 7.69772 7.87406 22.1479
70 18 3 0.706135 7.5122 7.56489 21.2612
71 18 3 0.635062 7.16845 8.66611 22.2415
72 18 4 -1.3412 7.60622 7.93588 22.0463
73 19 2 0 14.8475 1.80468 22.1282
74 19 3 0.417455 14.4335 1.18342 22.7273
75 19 3 0.834037 14.6307 1.47716 21.2553
76 19 4 -1.25149 14.7667 1.68323 22.0932
77 20 2 0 6.35296 5.25247 22.7769
78 20 3 0.657034 7.30471 5.32498 22.7051
79 20 3 0.628618 6.02854 6.12601 22.558
80 20 4 -1.28565 6.43326 5.37357 22.7397
81 21 2 0 0.207099 6.68526 22.1117
82 21 3 0.623389 17.2075 6.35412 22.7312
83 21 3 0.680701 0.691621 7.34808 22.6038
84 21 4 -1.30409 0.185883 6.72772 22.254
85 22 2 0 1.60333 12.632 22.112
86 22 3 0.460724 2.22766 11.9434 22.3405
87 22 3 0.780948 1.81017 12.8516 21.2035
88 22 4 -1.24167 1.70973 12.572 22.0249
89 23 2 0 9.89786 9.57735 22.168
90 23 3 0.802519 9.1937 8.98067 21.9143
91 23 3 0.479119 10.2569 9.1976 22.9699
92 23 4 -1.28164 9.85368 9.45236 22.2382
93 24 2 0 4.77574 12.6572 22.2553
94 24 3 0.754857 4.79301 12.7636 21.3041
95 24 3 0.5767 4.18774 11.9166 22.4032
96 24 4 -1.33156 4.70268 12.576 22.1524
97 25 2 0 7.94018 12.5317 22.2181
98 25 3 0.717199 7.65751 11.6193 22.1553
99 25 3 0.535481 7.31252 12.9368 22.8165
100 25 4 -1.25268 7.82365 12.4668 22.2866
101 26 2 0 3.30723 18.3839 25.0282
102 26 3 0.619936 2.54203 17.9751 24.6237
103 26 3 0.513199 3.02901 19.2802 25.2167
104 26 4 -1.13313 3.17366 18.4463 25.0006
105 27 2 0 6.39259 10.2622 22.2309
106 27 3 0.841056 6.30523 9.9908 21.3172
107 27 3 0.655793 5.8879 11.0734 22.2897
108 27 4 -1.49685 6.3168 10.3313 22.1215
109 28 2 0 16.7537 14.1994 22.7008
110 28 3 0.639112 16.6748 14.7939 21.9547
111 28 3 0.643628 0.0391145 14.0075 22.7569
112 28 4 -1.28274 16.8634 14.2509 22.6125
113 29 2 0 9.72974 14.6575 22.0582
114 29 3 0.663883 9.01342 14.0496 22.2412
115 29 3 0.628977 10.2902 14.6081 22.8326
116 29 4 -1.29286 9.70979 14.5734 22.1807
117 30 2 0 16.1623 18.0513 22.1304
118 30 3 0.437921 15.4548 18.6318 22.411
119 30 3 0.823646 16.0928 18.0323 21.1759
120 30 4 -1.26157 16.0628 18.1232 22.0441
121 31 2 0 7.34151 2.6763 22.4011
122 31 3 0.574878 6.96358 3.50239 22.7027
123 31 3 0.763935 8.28676 2.82669 22.4119
124 31 4 -1.33881 7.41413 2.8013 22.4411
125 32 2 0 11.6672 1.30923 22.0466
126 32 3 0.533731 12.1622 0.496139 22.1471
127 32 3 0.972242 11.7687 1.53927 21.123
128 32 4 -1.50597 11.7436 1.23459 21.9412
129 33 2 0 12.9676 14.3554 22.144
130 33 3 0.720432 13.1071 15.278 22.3577
131 33 3 0.593137 13.4372 13.8771 22.8274
132 33 4 -1.31357 13.0456 14.4123 22.2589
133 34 2 0 11.9119 11.7175 22.083
134 34 3 0.811491 12.2651 12.1658 22.8514
135 34 3 0.68155 11.2113 11.1645 22.4288
136 34 4 -1.49304 11.8674 11.7041 22.2256
137 35 2 0 17.4695 0.268569 22.196
138 35 3 0.520101 16.7912 0.9402 22.125
139 35 3 0.731738 17.0932 19.8822 21.7655
140 35 4 -1.25184 17.3345 0.256278 22.1318
141 36 2 0 5.84585 17.1303 24.838
142 36 3 0.510826 6.67552 17.4696 25.1739
143 36 3 0.602409 5.17859 17.6852 25.242
144 36 4 -1.11324 5.86664 17.2448 24.9327
145 37 2 0 16.5591 6.58646 24.5144
146 37 3 0.677522 17.3065 6.97007 24.9731
147 37 3 0.601083 15.8463 6.61329 25.1527
148 37 4 -1.2786 16.5635 6.639 24.6549
149 38 2 0 1.0751 4.26024 24.2943
150 38 3 0.604556 1.7026 4.52432 24.9672
151 38 3 0.5768 0.228349 4.56022 24.6248
152 38 4 -1.18136 1.04704 4.33244 24.4227
153 39 2 0 11.3476 19.5603 24.7788
154 39 3 0.598748 11.7616 20.2592 25.2852
155 39 3 0.594807 11.884 19.4859 23.9895
156 39 4 -1.19356 11.4693 19.6403 24.7426
157 40 2 0 1.62758 10.1162 26.0406
158 40 3 0.596776 2.49683 10.4656 26.237
159 40 3 0.590373 1.27022 10.7161 25.3858
160 40 4 -1.18715 1.69311 10.2378 25.9819
161 41 2 0 9.9038 7.42558 24.2504
162 41 3 0.613973 9.71267 6.65249 23.7194
163 41 3 0.570025 9.15923 8.00858 24.1023
164 41 4 -1.184 9.78402 7.40124 24.1635
165 42 2 0 2.9978 15.2579 22.0964
166 42 3 0.495175 3.72987 14.694 22.3459
167 42 3 0.738768 2.6386 14.8502 21.3084
168 42 4 -1.23394 3.04553 15.1335 22.0275
169 43 2 0 1.189 7.34671 25.9474
170 43 3 0.616002 1.19443 8.20096 26.3793
171 43 3 0.582199 2.07398 7.00615 26.0781
172 43 4 -1.1982 1.30299 7.41247 26.0194
173 44 2 0 14.8244 6.54839 22.2531
174 44 3 0.60045 15.1402 6.68398 23.1465
175 44 3 0.683634 14.1184 5.90829 22.3427
176 44 4 -1.28408 14.7745 6.4838 22.3789
177 45 2 0 9.5497 4.21786 25.7556
178 45 3 0.498379 8.7474 4.72516 25.6323
179 45 3 0.607977 9.72805 3.83801 24.8953
180 45 4 -1.10636 9.46982 4.23418 25.6297
181 46 2 0 2.86457 13.0491 24.5726
182 46 3 0.681988 2.54519 13.1775 23.6794
183 46 3 0.474298 3.73399 13.4495 24.5765
184 46 4 -1.15629 2.93498 13.1168 24.4588
185 47 2 0 5.53026 8.50653 24.713
186 47 3 0.544398 6.25145 9.13465 24.6733
187 47 3 0.634892 5.22062 8.43937 23.8097
188 47 4 -1.17929 5.58294 8.57834 24.5923
189 48 2 0 4.39445 7.59703 22.2392
190 48 3 0.754313 3.99224 8.44825 22.0663
191 48 3 0.649393 5.07939 7.516 21.5755
192 48 4 -1.40371 4.43064 7.69562 22.1321
193 49 2 0 13.5668 16.9712 22.8974
194 49 3 0.679195 14.4647 17.2191 22.6771
195 49 3 0.65819 13.0324 17.7 22.5818
196 49 4 -1.33739 13.6133 17.0963 22.8288
197 50 2 0 8.00053 10.2876 24.4146
198 50 3 0.697839 7.34226 10.4162 23.7316
199 50 3 0.510552 8.75894 10.7885 24.1142
200 50 4 -1.20839 8.01335 10.3682 24.2887
201 51 2 0 11.6992 9.66504 24.4676
202 51 3 0.624877 11.4192 9.86881 25.3599
203 51 3 0.564866 11.2678 8.83511 24.2643
204 51 4 -1.18974 11.6082 9.58488 24.5558
205 52 2 0 16.3486 1.47921 25.17
206 52 3 0.459208 16.3827 1.7092 24.2415
207 52 3 0.594292 15.8932 0.637559 25.1922
208 52 4 -1.0535 16.2947 1.40091 25.054
209 53 2 0 1.69383 0.651867 24.6238
210 53 3 0.632898 0.761978 0.44405 24.5553
211 53 3 0.496931 1.71918 1.59921 24.7584
212 53 4 -1.12983 1.57779 0.746536 24.6322
213 54 2 0 17.4887 11.8011 24.2377
214 54 3 0.651772 0.171904 11.7942 23.3406
215 54 3 0.569611 17.447 12.7285 24.4711
216 54 4 -1.22138 17.5261 11.9189 24.1527
217 55 2 0 16.4095 4.06592 22.1913
218 55 3 0.743357 15.7712 3.35687 22.1136
219 55 3 0.520664 15.9493 4.75108 22.676
220 55 4 -1.26402 16.2689 4.06286 22.2434
221 56 2 0 12.2314 5.99555 26.4871
222 56 3 0.504747 12.5562 5.18963 26.0855
223 56 3 0.579786 11.2815 5.95223 26.3779
224 56 4 -1.08453 12.1514 5.88684 26.4217
225 57 2 0 14.9346 15.3146 24.6674
226 57 3 0.602511 15.6881 15.1379 24.1042
227 57 3 0.547425 14.3558 15.8564 24.131
228 57 4 -1.14994 14.957 15.3613 24.5267
229 58 2 0 14.581 7.85204 26.6385
230 58 3 0.470526 15.0606 7.61237 27.4315
231 58 3 0.63578 13.7869 7.31839 26.6678
232 58 4 -1.10631 14.5407 7.75305 26.7438
233 59 2 0 1.42833 17.543 22.831
234 59 3 0.617711 1.68166 16.6572 22.5712
235 59 3 0.665066 0.515656 17.6226 22.5536
236 59 4 -1.28278 1.34392 17.4398 22.7622
237 60 2 0 9.12248 1.01751 25.3032
238 60 3 0.514727 9.76526 0.318188 25.1848
239 60 3 0.654744 9.43675 1.72926 24.7457
240 60 4 -1.16947 9.24499 1.0191 25.2167
241 61 2 0 6.32317 15.1855 22.4386
242 61 3 0.605431 6.12318 15.0323 23.3621
243 61 3 0.624045 5.79935 14.5365 21.9688
244 61 4 -1.22948 6.23051 15.0828 22.4967
245 62 2 0 8.23499 14.6221 25.1447
246 62 3 0.640893 7.31561 14.3637 25.2096
247 62 3 0.493119 8.33996 15.3042 25.808
248 62 4 -1.13401 8.13074 14.6763 25.2379
249 63 2 0 9.93847 2.96825 23.3225
250 63 3 0.762091 10.7211 2.63106 22.8865
251 63 3 0.621487 9.93678 3.90431 23.1224
252 63 4 -1.38358 10.0384 3.04491 23.2411
253 64 2 0 13.0168 12.8454 24.3663
254 64 3 0.644951 12.1538 12.8967 24.7772
255 64 3 0.624465 13.5381 13.5081 24.8194
256 64 4 -1.26942 12.9731 12.9368 24.4769
257 65 2 0 14.5574 4.40078 24.6871
258 65 3 0.59044 13.8052 3.81558 24.5976
259 65 3 0.481011 15.266 3.83551 24.9945
260 65 4 -1.07145 14.5518 4.25351 24.715
261 66 2 0 3.61646 5.62272 25.2841
262 66 3 0.56381 4.26797 4.97107 25.5432
263 66 3 0.545322 4.09476 6.22827 24.7178
264 66 4 -1.10913 3.76109 5.61682 25.2448
265 67 2 0 1.46055 2.58826 22.0885
266 67 3 0.698572 0.984623 3.16146 22.6894
267 67 3 0.656481 0.976581 1.76271 22.1104
268 67 4 -1.35505 1.33768 2.55595 22.1682
269 68 2 0 15.1797 10.2706 24.5332
270 68 3 0.589849 15.1578 9.64096 25.2539
271 68 3 0.638786 15.9794 10.7756 24.6801
272 68 4 -1.22864 15.2793 10.2546 24.6443
273 69 2 0 13.0058 1.6404 24.5876
274 69 3 0.493902 13.9059 1.34008 24.4618
275 69 3 0.604916 12.6378 1.67223 23.7046
276 69 4 -1.09882 13.0739 1.60603 24.4585
277 70 2 0 5.7263 13.3568 24.7621
278 70 3 0.63535 5.41583 12.7395 25.4246
279 70 3 0.637366 5.16918 13.1926 24.0013
280 70 4 -1.27272 5.61524 13.2568 24.7495
281 71 2 0 5.23387 3.44574 24.6556
282 71 3 0.572576 5.66366 3.48817 25.5098
283 71 3 0.588063 5.5892 4.19074 24.1709
284 71 4 -1.16064 5.33437 3.54654 24.7029
285 72 2 0 4.38828 11.0253 25.7448
286 72 3 0.577953 4.56487 10.1481 25.4048
287 72 3 0.584599 3.72111 11.3805 25.1574
288 72 4 -1.16255 4.32548 10.9585 25.6261
289 73 2 0 12.8935 17.2709 26.41
290 73 3 0.507451 12.8172 17.9668 25.7573
291 73 3 0.510979 13.8027 16.9788 26.3441
292 73 4 -1.01843 13.0001 17.3226 26.318
293 74 2 0 10.9652 15.9922 24.42
294 74 3 0.581549 11.8158 16.2086 24.8019
295 74 3 0.566642 10.8838 16.5783 23.6676
296 74 4 -1.14819 11.0636 16.0949 24.3725
297 75 2 0 6.59321 19.9999 25.2158
298 75 3 0.478446 5.96528 0.163588 25.6902
299 75 3 0.645809 7.42157 0.0936845 25.2825
300 75 4 -1.12426 6.61887 20.1305 25.2851
301 76 2 0 9.81887 10.5455 26.4886
302 76 3 0.515156 9.80474 9.81468 27.1066
303 76 3 0.624192 8.97441 10.4972 26.0405
304 76 4 -1.13935 9.70896 10.4458 26.5103
305 77 2 0 7.23355 2.8505 27.0125
306 77 3 0.498469 7.75972 2.23695 27.5253
307 77 3 0.556729 7.87082 3.4593 26.6391
308 77 4 -1.0552 7.38248 2.84989 27.0304
309 78 2 0 14.8802 19.2631 24.2784
310 78 3 0.58698 15.4044 18.6554 23.7567
311 78 3 0.561419 14.1536 19.5067 23.705
312 78 4 -1.1484 14.8543 19.2165 24.1382
313 79 2 0 7.09386 6.06967 26.191
314 79 3 0.569186 6.56982 6.70403 25.702
315 79 3 0.466313 6.89219 6.24899 27.1094
316 79 4 -1.0355 7.00096 6.17383 26.246
317 80 2 0 10.1695 12.5921 24.5245
318 80 3 0.580041 9.9344 11.9877 25.2286
319 80 3 0.657811 9.54322 13.3113 24.6065
320 80 4 -1.23785 10.0592 12.6068 24.6252
321 81 2 0 8.91323 18.0666 24.7992
322 81 3 0.543256 9.11295 17.1328 24.7322
323 81 3 0.606681 9.73825 18.4697 25.0696
324 81 4 -1.14994 9.04441 17.9986 24.8253
325 82 1 0.302883 0 0 10
326 82 1 -1.09009 1.47089 2.54765 10
327 82 1 -0.927647 0 5.09531 10
328 82 1 -0.263287 1.47089 7.64296 10
329 82 1 -0.214121 0 10.1906 10
330 82 1 1.1546 1.47089 12.7383 10
331 82 1 0.975829 0 15.2859 10
332 82 1 0.318497 1.47089 17.8336 10
333 82 1 -1.23795 2.94178 0 10
334 82 1 -1.35947 4.41266 2.54765 10
335 82 1 -0.759279 2.94178 5.09531 10
336 82 1 0.929002 4.41266 7.64296 10
337 82 1 1.31404 2.94178 10.1906 10
338 82 1 1.4213 4.41266 12.7383 10
339 82 1 0.795159 2.94178 15.2859 10
340 82 1 -0.876102 4.41266 17.8336 10
341 82 1 -1.48976 5.88355 0 10
342 82 1 -0.222624 7.35444 2.54765 10
343 82 1 0.203235 5.88355 5.09531 10
344 82 1 1.2306 7.35444 7.64296 10
345 82 1 1.5732 5.88355 10.1906 10
346 82 1 0.29898 7.35444 12.7383 10
347 82 1 -0.160181 5.88355 15.2859 10
348 82 1 -1.16239 7.35444 17.8336 10
349 82 1 -0.201022 8.82533 0 10
350 82 1 1.18457 10.2962 2.54765 10
351 82 1 0.997255 8.82533 5.09531 10
352 82 1 0.340823 10.2962 7.64296 10
353 82 1 0.304036 8.82533 10.1906 10
354 82 1 -1.08894 10.2962 12.7383 10
355 82 1 -0.935108 8.82533 15.2859 10
356 82 1 -0.252974 10.2962 17.8336 10
357 82 1 1.34085 11.7671 0 10
358 82 1 1.45509 13.238 2.54765 10
359 82 1 0.829755 11.7671 5.09531 10
360 82 1 -0.850473 13.238 7.64296 10
361 82 1 -1.22312 11.7671 10.1906 10
362 82 1 -1.35435 13.238 12.7383 10
363 82 1 -0.753318 11.7671 15.2859 10
364 82 1 0.943037 13.238 17.8336 10
365 82 1 1.59294 14.7089 0 10
366 82 1 0.317285 16.1798 2.54765 10
367 82 1 -0.132615 14.7089 5.09531 10
368 82 1 -1.15296 16.1798 7.64296 10
369 82 1 -1.48213 14.7089 10.1906 10
370 82 1 -0.233138 16.1798 12.7383 10
371 82 1 0.202293 14.7089 15.2859 10
372 82 1 1.22824 16.1798 17.8336 10
373 82 1 -0.502405 1.47089 0.849218 12.402
374 82 1 -0.797641 2.94178 3.39687 12.402
375 82 1 -0.527342 1.47089 5.94452 12.402
376 82 1 0.361441 2.94178 8.49218 12.402
377 82 1 0.438445 1.47089 11.0398 12.402
378 82 1 0.695248 2.94178 13.5875 12.402
379 82 1 0.400243 1.47089 16.1351 12.402
380 82 1 -0.445826 2.94178 18.6828 12.402
381 82 1 -0.968629 4.41266 0.849218 12.402
382 82 1 -0.401456 5.88355 3.39687 12.402
383 82 1 -0.018275 4.41266 5.94452 12.402
384 82 1 0.757507 5.88355 8.49218 12.402
385 82 1 0.907842 4.41266 11.0398 12.402
386 82 1 0.297981 5.88355 13.5875 12.402
387 82 1 -0.105529 4.41266 16.1351 12.402
388 82 1 -0.840648 5.88355 18.6828 12.402
389 82 1 -0.501199 7.35444 0.849218 12.402
390 82 1 0.340681 8.82533 3.39687 12.402
391 82 1 0.443042 7.35444 5.94452 12.402
392 82 1 0.352259 8.82533 8.49218 12.402
393 82 1 0.436583 7.35444 11.0398 12.402
394 82 1 -0.449031 8.82533 13.5875 12.402
395 82 1 -0.56974 7.35444 16.1351 12.402
396 82 1 -0.438673 8.82533 18.6828 12.402
397 82 1 0.435151 10.2962 0.849218 12.402
398 82 1 0.68915 11.7671 3.39687 12.402
399 82 1 0.39681 10.2962 5.94452 12.402
400 82 1 -0.446279 11.7671 8.49218 12.402
401 82 1 -0.500882 10.2962 11.0398 12.402
402 82 1 -0.795557 11.7671 13.5875 12.402
403 82 1 -0.525226 10.2962 16.1351 12.402
404 82 1 0.361982 11.7671 18.6828 12.402
405 82 1 0.904857 13.238 0.849218 12.402
406 82 1 0.293111 14.7089 3.39687 12.402
407 82 1 -0.110094 13.238 5.94452 12.402
408 82 1 -0.841544 14.7089 8.49218 12.402
409 82 1 -0.967011 13.238 11.0398 12.402
410 82 1 -0.398397 14.7089 13.5875 12.402
411 82 1 -0.0159369 13.238 16.1351 12.402
412 82 1 0.75791 14.7089 18.6828 12.402
413 82 1 0.434641 16.1798 0.849218 12.402
414 82 1 -0.451541 0 3.39687 12.402
415 82 1 -0.573052 16.1798 5.94452 12.402
416 82 1 -0.439133 0 8.49218 12.402
417 82 1 -0.498881 16.1798 11.0398 12.402
418 82 1 0.345292 0 13.5875 12.402
419 82 1 0.445326 16.1798 16.1351 12.402
420 82 1 0.352137 0 18.6828 12.402
421 82 1 0.385716 2.94178 1.69844 14.8039
422 82 1 0.157643 4.41266 4.24609 14.8039
423 82 1 -0.0284598 2.94178 6.79374 14.8039
424 82 1 -0.386547 4.41266 9.34139 14.8039
425 82 1 -0.387798 2.94178 11.889 14.8039
426 82 1 -0.223322 4.41266 14.4367 14.8039
427 82 1 -0.0399298 2.94178 16.9844 14.8039
428 82 1 0.3867 4.41266 19.532 14.8039
429 82 1 0.314659 5.88355 1.69844 14.8039
430 82 1 -0.148042 7.35444 4.24609 14.8039
431 82 1 -0.281129 5.88355 6.79374 14.8039
432 82 1 -0.314026 7.35444 9.34139 14.8039
433 82 1 -0.324108 5.88355 11.889 14.8039
434 82 1 0.0591718 7.35444 14.4367 14.8039
435 82 1 0.210596 5.88355 16.9844 14.8039
436 82 1 0.296062 7.35444 19.532 14.8039
437 82 1 -0.0921745 8.82533 1.69844 14.8039
438 82 1 -0.356711 10.2962 4.24609 14.8039
439 82 1 -0.302587 8.82533 6.79374 14.8039
440 82 1 0.0644981 10.2962 9.34139 14.8039
441 82 1 0.0549941 8.82533 11.889 14.8039
442 82 1 0.248428 10.2962 14.4367 14.8039
443 82 1 0.207481 8.82533 16.9844 14.8039
444 82 1 -0.100867 10.2962 19.532 14.8039
445 82 1 -0.419405 11.7671 1.69844 14.8039
446 82 1 -0.260031 13.238 4.24609 14.8039
447 82 1 -0.0665869 11.7671 6.79374 14.8039
448 82 1 0.372298 13.238 9.34139 14.8039
449 82 1 0.378856 11.7671 11.889 14.8039
450 82 1 0.154916 13.238 14.4367 14.8039
451 82 1 -0.0363191 11.7671 16.9844 14.8039
452 82 1 -0.403271 13.238 19.532 14.8039
453 82 1 -0.347631 14.7089 1.69844 14.8039
454 82 1 0.040503 16.1798 4.24609 14.8039
455 82 1 0.187657 14.7089 6.79374 14.8039
456 82 1 0.29407 16.1798 9.34139 14.8039
457 82 1 0.314912 14.7089 11.889 14.8039
458 82 1 -0.136126 16.1798 14.4367 14.8039
459 82 1 -0.283616 14.7089 16.9844 14.8039
460 82 1 -0.319373 16.1798 19.532 14.8039
461 82 1 0.0510096 0 1.69844 14.8039
462 82 1 0.249718 1.47089 4.24609 14.8039
463 82 1 0.204352 0 6.79374 14.8039
464 82 1 -0.0863712 1.47089 9.34139 14.8039
465 82 1 -0.0728719 0 11.889 14.8039
466 82 1 -0.325362 1.47089 14.4367 14.8039
467 82 1 -0.29027 0 16.9844 14.8039
468 82 1 0.0736506 1.47089 19.532 14.8039
469 82 1 1.25555 4.41266 2.54765 17.2059
470 82 1 -0.129149 5.88355 5.09531 17.2059
471 82 1 -0.720965 4.41266 7.64296 17.2059
472 82 1 -1.22824 5.88355 10.1906 17.2059
473 82 1 -1.12429 4.41266 12.7383 17.2059
474 82 1 0.178182 5.88355 15.2859 17.2059
475 82 1 0.818058 4.41266 17.8336 17.2059
476 82 1 1.39521 5.88355 0 17.2059
477 82 1 0.277094 7.35444 2.54765 17.2059
478 82 1 -0.808662 8.82533 5.09531 17.2059
479 82 1 -0.975848 7.35444 7.64296 17.2059
480 82 1 -0.149449 8.82533 10.1906 17.2059
481 82 1 -0.178445 7.35444 12.7383 17.2059
482 82 1 0.830212 8.82533 15.2859 17.2059
483 82 1 1.06073 7.35444 17.8336 17.2059
484 82 1 0.286635 8.82533 0 17.2059
485 82 1 -0.922293 10.2962 2.54765 17.2059
486 82 1 -0.660764 11.7671 5.09531 17.2059
487 82 1 -0.215664 10.2962 7.64296 17.2059
488 82 1 1.16558 11.7671 10.1906 17.2059
489 82 1 1.00998 10.2962 12.7383 17.2059
490 82 1 0.684883 11.7671 15.2859 17.2059
491 82 1 0.283698 10.2962 17.8336 17.2059
492 82 1 -1.0187 11.7671 0 17.2059
493 82 1 -1.14514 13.238 2.54765 17.2059
494 82 1 0.158386 14.7089 5.09531 17.2059
495 82 1 0.806153 13.238 7.64296 17.2059
496 82 1 1.38707 14.7089 10.1906 17.2059
497 82 1 1.24736 13.238 12.7383 17.2059
498 82 1 -0.130549 14.7089 15.2859 17.2059
499 82 1 -0.724268 13.238 17.8336 17.2059
500 82 1 -1.23203 14.7089 0 17.2059
501 82 1 -0.18213 16.1798 2.54765 17.2059
502 82 1 0.832668 0 5.09531 17.2059
503 82 1 1.0555 16.1798 7.64296 17.2059
504 82 1 0.290402 0 10.1906 17.2059
505 82 1 0.279994 16.1798 12.7383 17.2059
506 82 1 -0.802618 0 15.2859 17.2059
507 82 1 -0.979606 16.1798 17.8336 17.2059
508 82 1 -0.147685 0 0 17.2059
509 82 1 1.01974 1.47089 2.54765 17.2059
510 82 1 0.69235 2.94178 5.09531 17.2059
511 82 1 0.289587 1.47089 7.64296 17.2059
512 82 1 -1.00975 2.94178 10.1906 17.2059
513 82 1 -0.905407 1.47089 12.7383 17.2059
514 82 1 -0.639794 2.94178 15.2859 17.2059
515 82 1 -0.214089 1.47089 17.8336 17.2059
516 82 1 1.17302 2.94178 0 17.2059
517 82 1 0.472791 5.88355 3.39687 19.6078
518 82 1 -0.74447 7.35444 5.94452 19.6078
519 82 1 -1.11932 5.88355 8.49218 19.6078
520 82 1 -0.656298 7.35444 11.0398 19.6078
521 82 1 -0.520429 5.88355 13.5875 19.6078
522 82 1 0.657994 7.35444 16.1351 19.6078
523 82 1 1.12322 5.88355 18.6828 19.6078
524 82 1 0.681918 7.35444 0.849218 19.6078
525 82 1 -0.576707 8.82533 3.39687 19.6078
526 82 1 -0.6723 10.2962 5.94452 19.6078
527 82 1 -0.549695 8.82533 8.49218 19.6078
528 82 1 0.673267 10.2962 11.0398 19.6078
529 82 1 0.514781 8.82533 13.5875 19.6078
530 82 1 0.596684 10.2962 16.1351 19.6078
531 82 1 0.545611 8.82533 18.6828 19.6078
532 82 1 -0.635578 10.2962 0.849218 19.6078
533 82 1 -1.05139 11.7671 3.39687 19.6078
534 82 1 0.0416192 13.238 5.94452 19.6078
535 82 1 0.585451 11.7671 8.49218 19.6078
536 82 1 1.34979 13.238 11.0398 19.6078
537 82 1 1.02608 11.7671 13.5875 19.6078
538 82 1 -0.0919554 13.238 16.1351 19.6078
539 82 1 -0.558949 11.7671 18.6828 19.6078
540 82 1 -1.27755 13.238 0.849218 19.6078
541 82 1 -0.501061 14.7089 3.39687 19.6078
542 82 1 0.677883 16.1798 5.94452 19.6078
543 82 1 1.13925 14.7089 8.49218 19.6078
544 82 1 0.678619 16.1798 11.0398 19.6078
545 82 1 0.475745 14.7089 13.5875 19.6078
546 82 1 -0.755003 16.1798 16.1351 19.6078
547 82 1 -1.1082 14.7089 18.6828 19.6078
548 82 1 -0.634741 16.1798 0.849218 19.6078
549 82 1 0.541278 0 3.39687 19.6078
550 82 1 0.614643 1.47089 5.94452 19.6078
551 82 1 0.553449 0 8.49218 19.6078
552 82 1 -0.652862 1.47089 11.0398 19.6078
553 82 1 -0.588888 0 13.5875 19.6078
554 82 1 -0.711252 1.47089 16.1351 19.6078
555 82 1 -0.573428 0 18.6828 19.6078
556 82 1 0.673136 1.47089 0.849218 19.6078
557 82 1 1.03705 2.94178 3.39687 19.6078
558 82 1 -0.0960599 4.41266 5.94452 19.6078
559 82 1 -0.570099 2.94178 8.49218 19.6078
560 82 1 -1.3061 4.41266 11.0398 19.6078
561 82 1 -1.07495 2.94178 13.5875 19.6078
562 82 1 0.0144357 4.41266 16.1351 19.6078
563 82 1 0.549246 2.94178 18.6828 19.6078
564 82 1 1.34769 4.41266 0.849218 19.6078
ITEM: TIMESTEP
17500
ITEM: NUMBER OF ATOMS
564
ITEM: BOX BOUNDS pp pp ff
0.0000000000000000e+00 1.7650658050000001e+01
0.0000000000000000e+00 2.0381224350000000e+01
0.0000000000000000e+00 6.0000000000000000e+01
ITEM: ATOMS id mol type q x y z
1 1 2 0 7.46934 17.6778 22.0909
2 1 3 0.714105 7.98638 17.925 22.8575
3 1 3 0.648929 7.13402 16.8057 22.2985
4 1 4 -1.36303 7.49261 17.5978 22.2156
5 2 2 0 13.0639 19.4963 22.0774
6 2 3 0.872645 13.2862 19.6321 21.1563
7 2 3 0.472306 13.8625 19.1404 22.467
8 2 4 -1.34495 13.1946 19.4681 22.0093
9 3 2 0 16.3421 9.2247 22.0088
10 3 3 0.739942 15.9613 9.67997 22.7598
11 3 3 0.647985 17.259 9.09087 22.2489
12 3 4 -1.38793 16.4107 9.26585 22.1357
13 4 2 0 3.03979 5.38681 22.1924
14 4 3 0.53657 2.56816 5.3806 23.0253
15 4 3 0.681862 3.58906 6.16965 22.2335
16 4 4 -1.21843 3.04973 5.48623 22.3043
17 5 2 0 13.3343 9.2801 22.0977
18 5 3 0.697776 13.3437 9.79484 22.9046
19 5 3 0.719142 12.713 8.57298 22.2713
20 5 4 -1.41692 13.256 9.25547 22.2232
21 6 2 0 1.24066 8.51822 22.9788
22 6 3 0.58344 0.77649 8.57482 23.814
23 6 3 0.785603 1.83937 9.26503 22.9859
24 6 4 -1.36904 1.25788 8.62107 23.0866
25 7 2 0 4.39304 17.713 22.0416
26 7 3 0.593244 4.30335 18.413 22.6883
27 7 3 0.672853 4.23403 16.9085 22.5352
28 7 4 -1.2661 4.3612 17.6996 22.1876
29 8 2 0 8.94207 20.2211 22.3875
30 8 3 0.566657 8.89435 20.3205 23.3383
31 8 3 0.668974 9.79269 0.209093 22.15
32 8 4 -1.23563 9.04485 20.2811 22.4788
33 9 2 0 9.01582 5.62986 22.2134
34 9 3 0.733363 9.1227 5.36895 21.2987
35 9 3 0.623356 8.55255 6.46645 22.1718
36 9 4 -1.35672 8.9702 5.70356 22.091
37 10 2 0 5.9561 20.3128 22.2388
38 10 3 0.657063 6.00935 19.8821 23.092
39 10 3 0.678932 6.19876 0.840854 22.4134
40 10 4 -1.33599 5.99398 -0.00719147 22.3704
41 11 2 0 3.12125 10.5629 22.5501
42 11 3 0.723311 3.57206 10.4071 21.7202
43 11 3 0.615861 3.24288 11.4974 22.7176
44 11 4 -1.33917 3.19453 10.6626 22.4653
45 12 2 0 2.99766 0.0452728 22.0766
46 12 3 0.601222 3.02201 0.647553 22.8202
47 12 3 0.747268 2.40879 19.7251 22.3551
48 12 4 -1.34849 2.9254 0.0325863 22.2075
49 13 2 0 14.6053 11.881 22.0498
50 13 3 0.621093 15.502 12.1948 22.1662
51 13 3 0.779815 14.1519 12.1479 22.8495
52 13 4 -1.40091 14.662 11.9554 22.1671
53 14 2 0 10.6424 17.7504 22.3265
54 14 3 0.529303 10.0924 18.5197 22.4745
55 14 3 0.706208 11.5269 18.1031 22.2285
56 14 4 -1.23551 10.6853 17.894 22.3329
57 15 2 0 12.9312 4.12112 22.3339
58 15 3 0.638297 12.2821 4.19068 21.6338
59 15 3 0.644963 13.4448 3.34542 22.1087
60 15 4 -1.28326 12.9139 4.03072 22.2154
61 16 2 0 11.2993 7.40986 22.2697
62 16 3 0.54829 10.7466 8.15143 22.5164
63 16 3 0.746821 10.6861 6.68678 22.1382
64 16 4 -1.29511 11.1501 7.41223 22.2844
65 17 2 0 4.39417 2.62074 22.093
66 17 3 0.641127 3.58727 2.72474 22.5973
67 17 3 0.696906 4.92091 3.38635 22.3224
68 17 4 -1.33803 4.3583 2.73206 22.1869
69 18 2 0 7.30371 7.84238 22.0889
70 18 3 0.832941 7.24396 7.6862 21.1464
71 18 3 0.523606 6.70685 8.5733 22.2494
72 18 4 -1.35655 7.21966 7.91596 21.9888
73 19 2 0 14.5534 1.81124 22.2751
74 19 3 0.583693 13.6134 1.7652 22.4496
75 19 3 0.775375 14.6282 1.68806 21.3288
76 19 4 -1.35907 14.4427 1.78958 22.1763
77 20 2 0 6.00236 5.03852 22.4835
78 20 3 0.623984 6.93484 5.18576 22.6417
79 20 3 0.665262 5.7266 5.78952 21.958
80 20 4 -1.28925 6.08643 5.1535 22.4365
81 21 2 0 17.5753 6.34363 22.1492
82 21 3 0.658083 17.3971 5.63188 22.7639
83 21 3 0.683199 0.425949 6.98061 22.6583
84 21 4 -1.34128 -0.0339935 6.33406 22.2931
85 22 2 0 0.262621 11.747 22.3228
86 22 3 0.620717 0.994079 11.2531 21.9524
87 22 3 0.576708 0.313433 12.6044 21.9002
88 22 4 -1.19743 0.36276 11.7936 22.2213
89 23 2 0 9.68009 9.67567 22.3632
90 23 3 0.816517 8.96928 9.16362 21.9775
91 23 3 0.512131 9.41541 9.80575 23.2738
92 23 4 -1.32865 9.55522 9.62678 22.4304
93 24 2 0 4.3065 13.0779 22.1643
94 24 3 0.808674 4.20097 12.9828 21.2177
95 24 3 0.478421 5.14648 12.6605 22.3552
96 24 4 -1.2871 4.40052 13.0123 22.0675
97 25 2 0 7.86598 12.5981 22.4874
98 25 3 0.707386 7.21927 11.9662 22.1734
99 25 3 0.388657 8.71101 12.2075 22.2649
100 25 4 -1.09604 7.89137 12.4672 22.4187
101 26 2 0 4.00437 19.2668 24.607
102 26 3 0.503069 3.19356 18.7594 24.6436
103 26 3 0.693696 3.7391 20.1594 24.8287
104 26 4 -1.19677 3.86662 19.3161 24.64
105 27 2 0 5.90398 10.3923 22.1808
106 27 3 0.824941 5.98245 10.2273 21.2412
107 27 3 0.542651 4.96101 10.4402 22.3381
108 27 4 -1.36759 5.79331 10.3773 22.0807
109 28 2 0 16.0127 14.4484 22.3191
110 28 3 0.584905 15.3571 15.0107 21.9064
111 28 3 0.630567 16.8517 14.8399 22.0764
112 28 4 -1.21547 16.0362 14.5705 22.2352
113 29 2 0 9.11375 15.2465 22.0486
114 29 3 0.69551 8.41459 14.7435 22.4661
115 29 3 0.602819 9.43042 15.8332 22.7355
116 29 4 -1.29833 9.06478 15.2572 22.19
117 30 2 0 16.336 18.3681 22.1726
118 30 3 0.402211 16.0705 19.2244 22.5079
119 30 3 0.918734 16.1435 18.4068 21.2358
120 30 4 -1.32094 16.2774 18.4826 22.0956
121 31 2 0 7.58431 2.40141 22.3394
122 31 3 0.498434 7.28351 3.30571 22.2501
123 31 3 0.718925 8.39854 2.46751 22.8383
124 31 4 -1.21736 7.65004 2.52563 22.3919
125 32 2 0 11.6206 1.40791 22.0635
126 32 3 0.645591 12.1512 0.611533 22.0865
127 32 3 0.765666 11.5525 1.62406 21.1335
128 32 4 -1.41126 11.6798 1.33364 21.9474
129 33 2 0 12.1458 14.7231 22.291
130 33 3 0.731473 12.7907 15.4153 22.4365
131 33 3 0.54912 11.4194 14.9457 22.8732
132 33 4 -1.28059 12.1354 14.8402 22.3841
133 34 2 0 11.4549 11.7754 22.0588
134 34 3 0.682129 11.203 12.4509 22.6884
135 34 3 0.700561 10.8991 11.0266 22.275
136 34 4 -1.38269 11.3515 11.766 22.1671
137 35 2 0 17.4628 0.519014 22.2759
138 35 3 0.561204 17.5608 19.9941 22.5685
139 35 3 0.722067 16.7954 0.479099 21.5908
140 35 4 -1.28327 17.3899 0.397914 22.2256
141 36 2 0 5.31026 16.659 25.1066
142 36 3 0.545374 5.00746 17.5636 25.1857
143 36 3 0.497471 4.51442 16.1322 25.18
144 36 4 -1.04284 5.16962 16.7073 25.1261
145 37 2 0 16.0371 5.42376 24.6247
146 37 3 0.564226 16.25 6.09426 25.2738
147 37 3 0.697868 15.1801 5.09296 24.8936
148 37 4 -1.26209 15.9547 5.46725 24.7422
149 38 2 0 1.22216 4.69247 24.3042
150 38 3 0.669189 1.82663 5.25261 24.7911
151 38 3 0.586553 0.390666 4.77353 24.7714
152 38 4 -1.25574 1.19309 4.77455 24.4263
153 39 2 0 12.1341 19.3816 24.6262
154 39 3 0.522638 12.2549 20.3302 24.6691
155 39 3 0.674057 12.7343 19.0941 23.9382
156 39 4 -1.1967 12.2264 19.4662 24.5437
157 40 2 0 0.813133 10.2873 26.7878
158 40 3 0.604028 1.56514 10.8509 26.9697
159 40 3 0.53429 0.141014 10.8832 26.4572
160 40 4 -1.13832 0.82336 10.4357 26.7688
161 41 2 0 9.04209 7.16919 24.8228
162 41 3 0.595228 8.87417 6.53389 24.1267
163 41 3 0.538778 8.29563 7.76731 24.7869
164 41 4 -1.13401 8.92504 7.16443 24.7291
165 42 2 0 2.58867 15.4146 22.517
166 42 3 0.621639 2.95398 14.5346 22.4258
167 42 3 0.596536 2.07201 15.5437 21.7216
168 42 4 -1.21817 2.5693 15.3185 22.4035
169 43 2 0 0.193759 7.9528 25.5378
170 43 3 0.669881 0.303378 8.75661 26.0458
171 43 3 0.544281 1.06825 7.56446 25.5113
172 43 4 -1.21416 0.319737 8.00599 25.5994
173 44 2 0 14.6147 6.50858 22.192
174 44 3 0.623317 15.3625 6.29276 22.7493
175 44 3 0.666947 13.975 5.81958 22.3714
176 44 4 -1.29026 14.6286 6.39275 22.2863
177 45 2 0 8.88312 4.69313 25.663
178 45 3 0.579419 8.82482 5.63867 25.526
179 45 3 0.619194 9.38402 4.37238 24.9131
180 45 4 -1.19861 8.93978 4.77311 25.5495
181 46 2 0 1.55318 13.221 24.6325
182 46 3 0.532708 1.0986 12.8117 23.8963
183 46 3 0.528336 1.48955 14.1607 24.4614
184 46 4 -1.06104 1.48684 13.2889 24.5164
185 47 2 0 4.1032 9.00117 24.8213
186 47 3 0.544402 5.03905 9.18157 24.9101
187 47 3 0.742936 3.97613 8.84805 23.885
188 47 4 -1.28734 4.20674 9.00466 24.7128
189 48 2 0 4.42222 7.93846 22.1666
190 48 3 0.605368 5.35564 8.13778 22.2389
191 48 3 0.689324 4.19039 8.19544 21.2741
192 48 4 -1.29469 4.51203 7.99687 22.0616
193 49 2 0 13.9457 16.8131 22.5453
194 49 3 0.650546 14.8636 17.0425 22.6908
195 49 3 0.637594 13.7171 17.2474 21.7235
196 49 4 -1.28814 14.034 16.898 22.4588
197 50 2 0 7.0872 9.62159 24.5923
198 50 3 0.685577 6.73783 10.3342 24.0573
199 50 3 0.553167 6.98822 8.84123 24.0469
200 50 4 -1.23874 7.0298 9.61292 24.454
201 51 2 0 11.7421 9.02191 24.7606
202 51 3 0.504226 11.159 9.44982 25.3875
203 51 3 0.60826 11.2462 8.26441 24.4499
204 51 4 -1.11249 11.604 8.97972 24.8011
205 52 2 0 0.607002 1.21369 24.8768
206 52 3 0.499539 -0.0110268 0.917145 25.5449
207 52 3 0.632064 0.231098 0.910159 24.0505
208 52 4 -1.1316 0.479766 1.13687 24.8565
209 53 2 0 3.44954 1.57094 24.7724
210 53 3 0.622697 2.5801 1.60875 25.171
211 53 3 0.630189 3.72973 2.48474 24.7206
212 53 4 -1.25289 3.37411 1.69275 24.8168
213 54 2 0 16.2173 12.1091 25.8665
214 54 3 0.509393 16.9434 12.302 25.2734
215 54 3 0.633287 15.7628 12.9452 25.9694
216 54 4 -1.14268 16.2521 12.2408 25.8037
217 55 2 0 16.3511 3.63629 22.3637
218 55 3 0.758529 15.6795 2.95858 22.2867
219 55 3 0.45594 16.468 3.75233 23.3066
220 55 4 -1.21447 16.2801 3.56439 22.4746
221 56 2 0 11.4224 6.08314 26.5422
222 56 3 0.55476 12.103 5.54838 26.1334
223 56 3 0.526044 10.6044 5.63311 26.3311
224 56 4 -1.0808 11.4048 5.95708 26.4628
225 57 2 0 15.3504 14.7076 25.0448
226 57 3 0.620471 15.5678 14.6409 24.115
227 57 3 0.633108 15.498 15.6284 25.2604
228 57 4 -1.25358 15.3971 14.8169 24.9534
229 58 2 0 13.7857 7.99374 26.5973
230 58 3 0.484035 13.7511 7.69357 27.5055
231 58 3 0.573279 12.8687 8.10236 26.3453
232 58 4 -1.05731 13.6639 7.96922 26.6813
233 59 2 0 1.55743 18.2162 22.6872
234 59 3 0.591469 1.95724 17.3549 22.5662
235 59 3 0.732618 0.656599 18.1075 22.3824
236 59 4 -1.32409 1.4933 18.092 22.6327
237 60 2 0 9.95036 0.785099 25.1407
238 60 3 0.568769 10.5733 0.0831814 24.9523
239 60 3 0.633209 10.4632 1.58926 25.0595
240 60 4 -1.20198 10.0958 0.798187 25.1062
241 61 2 0 6.10725 15.2486 22.1949
242 61 3 0.613493 6.2014 15.0925 23.1346
243 61 3 0.714815 5.40565 14.6572 21.9225
244 61 4 -1.32831 6.02949 15.1529 22.2803
245 62 2 0 7.78331 14.9261 24.6653
246 62 3 0.651341 7.22697 14.1823 24.8966
247 62 3 0.542938 7.52924 15.6157 25.2786
248 62 4 -1.19428 7.67957 14.9192 24.7735
249 63 2 0 10.0542 3.35861 23.3037
250 63 3 0.676878 10.7056 2.84861 22.8222
251 63 3 0.611543 9.92583 4.14531 22.7737
252 63 4 -1.28842 10.1212 3.39403 23.1742
253 64 2 0 13.3139 12.7718 24.2936
254 64 3 0.601545 12.4343 13.1112 24.1281
255 64 3 0.630576 13.7449 13.4595 24.801
256 64 4 -1.23212 13.2565 12.9033 24.3373
257 65 2 0 13.442 4.38755 25.0313
258 65 3 0.653202 13.1053 4.40043 24.1353
259 65 3 0.601964 13.5047 3.45797 25.2508
260 65 4 -1.25517 13.4069 4.27021 24.9447
261 66 2 0 2.81767 6.59754 25.6622
262 66 3 0.558141 3.35801 6.03976 26.2218
263 66 3 0.644161 3.36192 7.36648 25.4927
264 66 4 -1.2023 2.95651 6.62457 25.7121
265 67 2 0 1.48057 2.72393 22.2847
266 67 3 0.638826 1.34471 3.39432 22.9543
267 67 3 0.698089 0.768306 2.09945 22.4224
268 67 4 -1.33692 1.372 2.72981 22.3881
269 68 2 0 14.9415 9.95651 24.5158
270 68 3 0.644461 14.5157 9.37178 25.1427
271 68 3 0.621863 15.1974 10.7192 25.0345
272 68 4 -1.26632 14.9198 9.97929 24.6624
273 69 2 0 12.6016 1.69688 24.8089
274 69 3 0.534536 13.1615 0.920517 24.8067
275 69 3 0.644421 12.4067 1.85489 23.8851
276 69 4 -1.17896 12.6483 1.61772 24.6904
277 70 2 0 5.59367 13.1216 24.7829
278 70 3 0.564634 5.13624 12.6841 25.5009
279 70 3 0.592514 5.10277 12.874 23.9993
280 70 4 -1.15715 5.47228 13.0339 24.7745
281 71 2 0 4.34366 4.44268 24.8706
282 71 3 0.566017 5.05396 4.11283 25.421
283 71 3 0.613003 4.78662 4.86482 24.1346
284 71 4 -1.17902 4.49129 4.4545 24.8469
285 72 2 0 3.55876 11.3084 26.262
286 72 3 0.649209 3.5932 10.5678 25.6566
287 72 3 0.502496 3.01545 11.958 25.8159
288 72 4 -1.1517 3.49362 11.2967 26.1274
289 73 2 0 15.0767 17.5751 26.0815
290 73 3 0.595362 15.2594 18.3378 25.5327
291 73 3 0.452764 14.4758 17.9003 26.7519
292 73 4 -1.04813 15.0232 17.7144 26.0971
293 74 2 0 11.0344 16.0983 24.7854
294 74 3 0.516625 11.6579 16.032 25.5087
295 74 3 0.574649 11.3517 16.8342 24.2619
296 74 4 -1.09127 11.1548 16.1841 24.811
297 75 2 0 7.19007 0.640951 25.0225
298 75 3 0.585567 6.82627 1.21366 25.6977
299 75 3 0.586778 8.13419 0.654364 25.1796
300 75 4 -1.17234 7.26436 0.715981 25.129
301 76 2 0 8.91831 11.1894 26.0789
302 76 3 0.462628 8.81662 11.1757 27.0306
303 76 3 0.632328 8.19133 10.6593 25.7522
304 76 4 -1.09496 8.81223 11.1198 26.1589
305 77 2 0 6.56288 2.92722 26.5569
306 77 3 0.635309 7.17563 3.57362 26.2063
307 77 3 0.484908 6.78741 2.86249 27.4852
308 77 4 -1.12022 6.67006 3.00168 26.6309
309 78 2 0 15.2144 19.8675 24.048
310 78 3 0.603942 15.6465 19.2288 23.4809
311 78 3 0.651463 14.9061 0.167649 23.4506
312 78 4 -1.25541 15.2303 19.8729 23.8989
313 79 2 0 6.08622 6.40937 26.5357
314 79 3 0.455991 5.42749 7.08178 26.362
315 79 3 0.471958 6.85161 6.89642 26.841
316 79 4 -0.927949 6.09988 6.5578 26.5526
317 80 2 0 10.3893 13.2183 24.3414
318 80 3 0.613976 10.1089 12.5439 24.9601
319 80 3 0.642153 9.80785 13.9588 24.5138
320 80 4 -1.25613 10.279 13.2268 24.4427
321 81 2 0 8.63718 17.973 24.6571
322 81 3 0.53099 8.14872 18.3465 25.3907
323 81 3 0.593061 9.5258 17.8585 24.994
324 81 4 -1.12405 8.68841 18.0062 24.7942
325 82 1 0.525256 0 0 10
326 82 1 -0.85231 1.47089 2.54765 10
327 82 1 -0.924597 0 5.09531 10
328 82 1 -0.346035 1.47089 7.64296 10
329 82 1 -0.44307 0 10.1906 10
330 82 1 0.909586 1.47089 12.7383 10
331 82 1 0.979379 0 15.2859 10
332 82 1 0.404013 1.47089 17.8336 10
333 82 1 -1.07922 2.94178 0 10
334 82 1 -1.18088 4.41266 2.54765 10
335 82 1 -0.568034 2.94178 5.09531 10
336 82 1 1.04899 4.41266 7.64296 10
337 82 1 1.14447 2.94178 10.1906 10
338 82 1 1.23313 4.41266 12.7383 10
339 82 1 0.607036 2.94178 15.2859 10
340 82 1 -0.995139 4.41266 17.8336 10
341 82 1 -1.59023 5.88355 0 10
342 82 1 -0.316303 7.35444 2.54765 10
343 82 1 0.383321 5.88355 5.09531 10
344 82 1 1.45099 7.35444 7.64296 10
345 82 1 1.6625 5.88355 10.1906 10
346 82 1 0.385385 7.35444 12.7383 10
347 82 1 -0.336297 5.88355 15.2859 10
348 82 1 -1.37995 7.35444 17.8336 10
349 82 1 -0.497768 8.82533 0 10
350 82 1 0.877258 10.2962 2.54765 10
351 82 1 0.977422 8.82533 5.09531 10
352 82 1 0.458263 10.2962 7.64296 10
353 82 1 0.592367 8.82533 10.1906 10
354 82 1 -0.78541 10.2962 12.7383 10
355 82 1 -0.908169 8.82533 15.2859 10
356 82 1 -0.365008 10.2962 17.8336 10
357 82 1 1.10724 11.7671 0 10
358 82 1 1.20711 13.238 2.54765 10
359 82 1 0.621169 11.7671 5.09531 10
360 82 1 -0.935868 13.238 7.64296 10
361 82 1 -0.994783 11.7671 10.1906 10
362 82 1 -1.10775 13.238 12.7383 10
363 82 1 -0.535266 11.7671 15.2859 10
364 82 1 1.03573 13.238 17.8336 10
365 82 1 1.61925 14.7089 0 10
366 82 1 0.342101 16.1798 2.54765 10
367 82 1 -0.329474 14.7089 5.09531 10
368 82 1 -1.33814 16.1798 7.64296 10
369 82 1 -1.5122 14.7089 10.1906 10
370 82 1 -0.260533 16.1798 12.7383 10
371 82 1 0.408934 14.7089 15.2859 10
372 82 1 1.41995 16.1798 17.8336 10
373 82 1 -0.338494 1.47089 0.849218 12.402
374 82 1 -0.637897 2.94178 3.39687 12.402
375 82 1 -0.491512 1.47089 5.94452 12.402
376 82 1 0.316989 2.94178 8.49218 12.402
377 82 1 0.261593 1.47089 11.0398 12.402
378 82 1 0.532936 2.94178 13.5875 12.402
379 82 1 0.377491 1.47089 16.1351 12.402
380 82 1 -0.399299 2.94178 18.6828 12.402
381 82 1 -0.89081 4.41266 0.849218 12.402
382 82 1 -0.319082 5.88355 3.39687 12.402
383 82 1 0.101636 4.41266 5.94452 12.402
384 82 1 0.836571 5.88355 8.49218 12.402
385 82 1 0.815815 4.41266 11.0398 12.402
386 82 1 0.215654 5.88355 13.5875 12.402
387 82 1 -0.210289 4.41266 16.1351 12.402
388 82 1 -0.916788 5.88355 18.6828 12.402
389 82 1 -0.584832 7.35444 0.849218 12.402
390 82 1 0.268977 8.82533 3.39687 12.402
391 82 1 0.535417 7.35444 5.94452 12.402
392 82 1 0.470694 8.82533 8.49218 12.402
393 82 1 0.506769 7.35444 11.0398 12.402
394 82 1 -0.376701 8.82533 13.5875 12.402
395 82 1 -0.645134 7.35444 16.1351 12.402
396 82 1 -0.555586 8.82533 18.6828 12.402
397 82 1 0.27494 10.2962 0.849218 12.402
398 82 1 0.541413 11.7671 3.39687 12.402
399 82 1 0.376327 10.2962 5.94452 12.402
400 82 1 -0.412516 11.7671 8.49218 12.402
401 82 1 -0.355121 10.2962 11.0398 12.402
402 82 1 -0.648327 11.7671 13.5875 12.402
403 82 1 -0.490321 10.2962 16.1351 12.402
404 82 1 0.327765 11.7671 18.6828 12.402
405 82 1 0.831691 13.238 0.849218 12.402
406 82 1 0.224779 14.7089 3.39687 12.402
407 82 1 -0.214668 13.238 5.94452 12.402
408 82 1 -0.930389 14.7089 8.49218 12.402
409 82 1 -0.906568 13.238 11.0398 12.402
410 82 1 -0.329444 14.7089 13.5875 12.402
411 82 1 0.101638 13.238 16.1351 12.402
412 82 1 0.84842 14.7089 18.6828 12.402
413 82 1 0.52424 16.1798 0.849218 12.402
414 82 1 -0.366436 0 3.39687 12.402
415 82 1 -0.648783 16.1798 5.94452 12.402
416 82 1 -0.566734 0 8.49218 12.402
417 82 1 -0.598819 16.1798 11.0398 12.402
418 82 1 0.259423 0 13.5875 12.402
419 82 1 0.534678 16.1798 16.1351 12.402
420 82 1 0.482523 0 18.6828 12.402
421 82 1 0.338993 2.94178 1.69844 14.8039
422 82 1 0.120304 4.41266 4.24609 14.8039
423 82 1 -0.0442978 2.94178 6.79374 14.8039
424 82 1 -0.413785 4.41266 9.34139 14.8039
425 82 1 -0.360644 2.94178 11.889 14.8039
426 82 1 -0.176059 4.41266 14.4367 14.8039
427 82 1 -0.00466997 2.94178 16.9844 14.8039
428 82 1 0.408372 4.41266 19.532 14.8039
429 82 1 0.330466 5.88355 1.69844 14.8039
430 82 1 -0.13395 7.35444 4.24609 14.8039
431 82 1 -0.326217 5.88355 6.79374 14.8039
432 82 1 -0.399728 7.35444 9.34139 14.8039
433 82 1 -0.355974 5.88355 11.889 14.8039
434 82 1 0.0603779 7.35444 14.4367 14.8039
435 82 1 0.280835 5.88355 16.9844 14.8039
436 82 1 0.375765 7.35444 19.532 14.8039
437 82 1 -0.00694988 8.82533 1.69844 14.8039
438 82 1 -0.283608 10.2962 4.24609 14.8039
439 82 1 -0.329468 8.82533 6.79374 14.8039
440 82 1 -0.0287253 10.2962 9.34139 14.8039
441 82 1 -0.0476285 8.82533 11.889 14.8039
442 82 1 0.18415 10.2962 14.4367 14.8039
443 82 1 0.255401 8.82533 16.9844 14.8039
444 82 1 -0.0209435 10.2962 19.532 14.8039
445 82 1 -0.324821 11.7671 1.69844 14.8039
446 82 1 -0.174863 13.238 4.24609 14.8039
447 82 1 -0.0471632 11.7671 6.79374 14.8039
448 82 1 0.332016 13.238 9.34139 14.8039
449 82 1 0.263465 11.7671 11.889 14.8039
450 82 1 0.0754778 13.238 14.4367 14.8039
451 82 1 -0.0439043 11.7671 16.9844 14.8039
452 82 1 -0.376133 13.238 19.532 14.8039
453 82 1 -0.309334 14.7089 1.69844 14.8039
454 82 1 0.0774695 16.1798 4.24609 14.8039
455 82 1 0.238469 14.7089 6.79374 14.8039
456 82 1 0.316749 16.1798 9.34139 14.8039
457 82 1 0.261867 14.7089 11.889 14.8039
458 82 1 -0.166184 16.1798 14.4367 14.8039
459 82 1 -0.322105 14.7089 16.9844 14.8039
460 82 1 -0.347205 16.1798 19.532 14.8039
461 82 1 0.0173829 0 1.69844 14.8039
462 82 1 0.222925 1.47089 4.24609 14.8039
463 82 1 0.238143 0 6.79374 14.8039
464 82 1 -0.0581306 1.47089 9.34139 14.8039
465 82 1 -0.0536169 0 11.889 14.8039
466 82 1 -0.294162 1.47089 14.4367 14.8039
467 82 1 -0.308074 0 16.9844 14.8039
468 82 1 0.0403898 1.47089 19.532 14.8039
469 82 1 1.07257 4.41266 2.54765 17.2059
470 82 1 -0.270658 5.88355 5.09531 17.2059
471 82 1 -0.805788 4.41266 7.64296 17.2059
472 82 1 -1.30459 5.88355 10.1906 17.2059
473 82 1 -0.962193 4.41266 12.7383 17.2059
474 82 1 0.350482 5.88355 15.2859 17.2059
475 82 1 0.921794 4.41266 17.8336 17.2059
476 82 1 1.44728 5.88355 0 17.2059
477 82 1 0.33117 7.35444 2.54765 17.2059
478 82 1 -0.778902 8.82533 5.09531 17.2059
479 82 1 -1.14448 7.35444 7.64296 17.2059
480 82 1 -0.391696 8.82533 10.1906 17.2059
481 82 1 -0.243057 7.35444 12.7383 17.2059
482 82 1 0.82981 8.82533 15.2859 17.2059
483 82 1 1.25041 7.35444 17.8336 17.2059
484 82 1 0.502594 8.82533 0 17.2059
485 82 1 -0.689582 10.2962 2.54765 17.2059
486 82 1 -0.474821 11.7671 5.09531 17.2059
487 82 1 -0.298989 10.2962 7.64296 17.2059
488 82 1 0.972588 11.7671 10.1906 17.2059
489 82 1 0.760522 10.2962 12.7383 17.2059
490 82 1 0.516614 11.7671 15.2859 17.2059
491 82 1 0.376058 10.2962 17.8336 17.2059
492 82 1 -0.857048 11.7671 0 17.2059
493 82 1 -0.956176 13.238 2.54765 17.2059
494 82 1 0.334073 14.7089 5.09531 17.2059
495 82 1 0.891494 13.238 7.64296 17.2059
496 82 1 1.41986 14.7089 10.1906 17.2059
497 82 1 1.04714 13.238 12.7383 17.2059
498 82 1 -0.289522 14.7089 15.2859 17.2059
499 82 1 -0.807617 13.238 17.8336 17.2059
500 82 1 -1.28012 14.7089 0 17.2059
501 82 1 -0.222727 16.1798 2.54765 17.2059
502 82 1 0.833686 0 5.09531 17.2059
503 82 1 1.23193 16.1798 7.64296 17.2059
504 82 1 0.500019 0 10.1906 17.2059
505 82 1 0.317154 16.1798 12.7383 17.2059
506 82 1 -0.790526 0 15.2859 17.2059
507 82 1 -1.14418 16.1798 17.8336 17.2059
508 82 1 -0.365711 0 0 17.2059
509 82 1 0.783475 1.47089 2.54765 17.2059
510 82 1 0.531859 2.94178 5.09531 17.2059
511 82 1 0.380959 1.47089 7.64296 17.2059
512 82 1 -0.861621 2.94178 10.1906 17.2059
513 82 1 -0.690046 1.47089 12.7383 17.2059
514 82 1 -0.464613 2.94178 15.2859 17.2059
515 82 1 -0.289425 1.47089 17.8336 17.2059
516 82 1 1.00094 2.94178 0 17.2059
517 82 1 0.344035 5.88355 3.39687 19.6078
518 82 1 -0.842959 7.35444 5.94452 19.6078
519 82 1 -1.22428 5.88355 8.49218 19.6078
520 82 1 -0.75481 7.35444 11.0398 19.6078
521 82 1 -0.382431 5.88355 13.5875 19.6078
522 82 1 0.803791 7.35444 16.1351 19.6078
523 82 1 1.22341 5.88355 18.6828 19.6078
524 82 1 0.742293 7.35444 0.849218 19.6078
525 82 1 -0.49466 8.82533 3.39687 19.6078
526 82 1 -0.620908 10.2962 5.94452 19.6078
527 82 1 -0.699924 8.82533 8.49218 19.6078
528 82 1 0.472192 10.2962 11.0398 19.6078
529 82 1 0.441536 8.82533 13.5875 19.6078
530 82 1 0.578395 10.2962 16.1351 19.6078
531 82 1 0.694621 8.82533 18.6828 19.6078
532 82 1 -0.474968 10.2962 0.849218 19.6078
533 82 1 -0.865797 11.7671 3.39687 19.6078
534 82 1 0.196188 13.238 5.94452 19.6078
535 82 1 0.539054 11.7671 8.49218 19.6078
536 82 1 1.25861 13.238 11.0398 19.6078
537 82 1 0.842657 11.7671 13.5875 19.6078
538 82 1 -0.235583 13.238 16.1351 19.6078
539 82 1 -0.53573 11.7671 18.6828 19.6078
540 82 1 -1.22099 13.238 0.849218 19.6078
541 82 1 -0.414947 14.7089 3.39687 19.6078
542 82 1 0.791247 16.1798 5.94452 19.6078
543 82 1 1.25908 14.7089 8.49218 19.6078
544 82 1 0.828869 16.1798 11.0398 19.6078
545 82 1 0.401641 14.7089 13.5875 19.6078
546 82 1 -0.852452 16.1798 16.1351 19.6078
547 82 1 -1.2481 14.7089 18.6828 19.6078
548 82 1 -0.787652 16.1798 0.849218 19.6078
549 82 1 0.394117 0 3.39687 19.6078
550 82 1 0.570015 1.47089 5.94452 19.6078
551 82 1 0.750822 0 8.49218 19.6078
552 82 1 -0.390736 1.47089 11.0398 19.6078
553 82 1 -0.433219 0 13.5875 19.6078
554 82 1 -0.63785 1.47089 16.1351 19.6078
555 82 1 -0.756782 0 18.6828 19.6078
556 82 1 0.394592 1.47089 0.849218 19.6078
557 82 1 0.777691 2.94178 3.39687 19.6078
558 82 1 -0.246948 4.41266 5.94452 19.6078
559 82 1 -0.497271 2.94178 8.49218 19.6078
560 82 1 -1.18735 4.41266 11.0398 19.6078
561 82 1 -0.82125 2.94178 13.5875 19.6078
562 82 1 0.204135 4.41266 16.1351 19.6078
563 82 1 0.480797 2.94178 18.6828 19.6078
564 82 1 1.18447 4.41266 0.849218 19.6078
ITEM: TIMESTEP
20000
ITEM: NUMBER OF ATOMS
564
ITEM: BOX BOUNDS pp pp ff
0.0000000000000000e+00 1.7650658050000001e+01
0.0000000000000000e+00 2.0381224350000000e+01
0.0000000000000000e+00 6.0000000000000000e+01
ITEM: ATOMS id mol type q x y z
1 1 2 0 7.40062 17.7569 22.1592
2 1 3 0.771481 7.91874 18.026 22.9177
3 1 3 0.617215 6.84254 17.052 22.4876
4 1 4 -1.3887 7.39551 17.7011 22.2983
5 2 2 0 12.982 19.3724 22.0687
6 2 3 0.867416 13.1698 19.4002 21.1305
7 2 3 0.470077 13.8258 19.5423 22.4875
8 2 4 -1.33749 13.1141 19.3977 22.0022
9 3 2 0 16.3463 9.36868 22.0813
10 3 3 0.656107 15.6671 9.58313 22.7208
11 3 3 0.71448 17.1077 9.87742 22.3602
12 3 4 -1.37059 16.3568 9.46126 22.1989
13 4 2 0 2.86531 5.40954 22.1655
14 4 3 0.544021 2.57014 5.25072 23.0621
15 4 3 0.716358 3.21876 6.29892 22.1832
16 4 4 -1.26038 2.87277 5.50306 22.2825
17 5 2 0 13.2398 9.22735 22.0559
18 5 3 0.663614 13.7417 9.61796 22.7713
19 5 3 0.81617 12.6182 8.64306 22.49
20 5 4 -1.47978 13.2245 9.20256 22.2031
21 6 2 0 1.46875 8.45494 22.2484
22 6 3 0.537316 1.14393 8.64905 23.1276
23 6 3 0.809119 2.10736 9.14544 22.0706
24 6 4 -1.34644 1.50892 8.56818 22.3382
25 7 2 0 4.38795 17.729 22.078
26 7 3 0.667351 3.45657 17.9192 22.1902
27 7 3 0.681397 4.57195 17.0434 22.7201
28 7 4 -1.34875 4.29227 17.6656 22.1746
29 8 2 0 9.16475 20.3438 22.194
30 8 3 0.512361 9.10459 20.4097 23.147
31 8 3 0.741787 9.79612 0.638034 21.9461
32 8 4 -1.25415 9.23787 0.0575197 22.2842
33 9 2 0 8.86809 5.41509 22.1282
34 9 3 0.720377 8.94759 5.25044 21.1886
35 9 3 0.601687 8.29884 6.18214 22.1901
36 9 4 -1.32206 8.80539 5.49221 22.0159
37 10 2 0 6.00279 20.3528 21.9356
38 10 3 0.616923 5.45146 19.6662 22.3108
39 10 3 0.816904 6.3414 0.448365 22.6934
40 10 4 -1.43383 5.97556 20.326 22.0806
41 11 2 0 3.31073 10.4054 22.2491
42 11 3 0.785466 3.45329 10.8952 21.4391
43 11 3 0.608625 3.96561 9.70769 22.2261
44 11 4 -1.39409 3.41281 10.3788 22.1425
45 12 2 0 3.0409 20.3481 22.1519
46 12 3 0.659271 2.98537 0.692188 22.774
47 12 3 0.708923 2.31908 19.7681 22.3944
48 12 4 -1.36819 2.94139 20.3667 22.2625
49 13 2 0 14.6413 12.258 22.1496
50 13 3 0.764944 15.2556 12.9838 22.2594
51 13 3 0.632092 14.0675 12.3117 22.9139
52 13 4 -1.39704 14.6465 12.3578 22.2615
53 14 2 0 10.6502 17.6453 22.1086
54 14 3 0.497739 9.95906 18.2743 22.3157
55 14 3 0.720974 11.4236 18.1844 21.9431
56 14 4 -1.21871 10.6607 17.7948 22.114
57 15 2 0 13.2544 4.00828 22.067
58 15 3 0.65829 12.5341 3.91514 21.4436
59 15 3 0.655035 13.7738 3.21222 21.9543
60 15 4 -1.31332 13.2286 3.89445 21.9728
61 16 2 0 11.7188 6.91431 22.4448
62 16 3 0.587912 12.0269 6.10792 22.8584
63 16 3 0.678783 10.9197 6.65777 21.9845
64 16 4 -1.2667 11.656 6.77824 22.4388
65 17 2 0 4.24119 2.50452 22.1853
66 17 3 0.619066 3.41911 2.9787 22.3101
67 17 3 0.686589 4.91519 3.10454 22.5046
68 17 4 -1.30565 4.22223 2.64203 22.2421
69 18 2 0 7.3129 7.74423 22.1272
70 18 3 0.819227 7.26353 7.59287 21.1833
71 18 3 0.599029 6.73482 8.49149 22.2809
72 18 4 -1.41826 7.23258 7.82051 22.026
73 19 2 0 14.4899 1.52581 22.1528
74 19 3 0.567971 13.5459 1.55655 22.3084
75 19 3 0.832196 14.5731 1.30551 21.2251
76 19 4 -1.40017 14.3797 1.50154 22.054
77 20 2 0 5.84103 4.87718 22.2351
78 20 3 0.616534 6.79446 4.87807 22.1502
79 20 3 0.656242 5.54134 5.50993 21.5824
80 20 4 -1.27278 5.92472 4.95829 22.1407
81 21 2 0 17.6058 6.02957 22.1622
82 21 3 0.718621 17.637 5.49681 22.9568
83 21 3 0.610526 0.521491 6.77746 22.3523
84 21 4 -1.32915 17.6823 6.05711 22.2882
85 22 2 0 0.015173 11.9746 22.1296
86 22 3 0.634946 0.653229 12.288 21.4886
87 22 3 0.619127 0.495966 11.9553 22.9571
88 22 4 -1.25407 0.158398 12.0122 22.1535
89 23 2 0 9.66715 9.64038 22.1444
90 23 3 0.767271 8.93774 9.55645 21.5303
91 23 3 0.630518 9.52081 8.94631 22.7871
92 23 4 -1.39779 9.55504 9.54079 22.1481
93 24 2 0 4.49257 12.9195 22.0768
94 24 3 0.75296 4.38472 12.793 21.1342
95 24 3 0.58384 4.47446 12.0346 22.4414
96 24 4 -1.3368 4.47645 12.79 22.0028
97 25 2 0 7.90702 12.4671 22.307
98 25 3 0.403204 7.93284 12.4028 23.2617
99 25 3 0.776842 7.1829 11.8974 22.0476
100 25 4 -1.18005 7.81763 12.3859 22.396
101 26 2 0 2.90126 18.4339 24.8982
102 26 3 0.591937 2.17952 18.0228 24.4225
103 26 3 0.508347 2.48072 19.0956 25.4473
104 26 4 -1.10028 2.75504 18.466 24.9076
105 27 2 0 6.08656 10.2319 22.2196
106 27 3 0.846457 6.09542 10.2294 21.2624
107 27 3 0.497628 5.15885 10.1875 22.4511
108 27 4 -1.34408 5.96894 10.2259 22.1267
109 28 2 0 16.2994 14.6045 22.4292
110 28 3 0.732822 16.5842 15.4268 22.0304
111 28 3 0.54455 17.0047 13.987 22.2357
112 28 4 -1.27737 16.4261 14.6307 22.3534
113 29 2 0 9.425 15.0324 22.1118
114 29 3 0.598101 9.0518 14.2131 22.4369
115 29 3 0.697226 9.92564 15.378 22.8509
116 29 4 -1.29533 9.44131 14.9718 22.2481
117 30 2 0 16.1681 17.5908 22.1598
118 30 3 0.356111 15.4433 18.118 22.4957
119 30 3 0.859173 16.0589 17.6107 21.209
120 30 4 -1.21528 16.0614 17.6608 22.0811
121 31 2 0 7.15855 2.483 22.4218
122 31 3 0.509524 6.84112 3.37348 22.2717
123 31 3 0.779486 8.10044 2.58395 22.5592
124 31 4 -1.28901 7.23848 2.60992 22.4201
125 32 2 0 11.4788 1.46069 22.1132
126 32 3 0.621105 11.9574 0.652172 22.2962
127 32 3 0.809176 11.7229 1.68623 21.2156
128 32 4 -1.43028 11.5713 1.38607 22.0217
129 33 2 0 12.3664 14.7021 22.2118
130 33 3 0.77955 12.756 15.5422 22.454
131 33 3 0.450479 11.6364 14.5916 22.821
132 33 4 -1.23003 12.3228 14.7955 22.3208
133 34 2 0 11.5232 11.7756 22.0463
134 34 3 0.70614 11.5002 12.245 22.8802
135 34 3 0.672641 11.0445 10.9639 22.2145
136 34 4 -1.37878 11.459 11.7318 22.1746
137 35 2 0 17.4776 0.046712 22.1698
138 35 3 0.70852 16.7948 20.0108 21.6446
139 35 3 0.452399 17.3494 20.0782 23.0516
140 35 4 -1.16092 17.3738 20.3298 22.2155
141 36 2 0 5.29382 16.7387 24.8245
142 36 3 0.613833 4.57176 17.2611 25.1737
143 36 3 0.584305 4.98892 15.8337 24.89
144 36 4 -1.19814 5.16236 16.6897 24.8776
145 37 2 0 15.8453 5.30302 24.5868
146 37 3 0.668287 15.6872 5.97365 25.2513
147 37 3 0.696311 15.1745 4.64011 24.7505
148 37 4 -1.3646 15.7392 5.30401 24.6928
149 38 2 0 0.886815 4.46825 24.2955
150 38 3 0.660717 1.44368 4.91021 24.9365
151 38 3 0.63414 17.6548 4.5318 24.6602
152 38 4 -1.29486 0.845102 4.53296 24.4243
153 39 2 0 12.281 18.229 25.3736
154 39 3 0.600992 12.4064 19.1637 25.2099
155 39 3 0.606847 12.9642 17.8012 24.8574
156 39 4 -1.20784 12.3845 18.2939 25.2865
157 40 2 0 1.85011 10.9945 26.021
158 40 3 0.612982 2.08292 11.5837 25.3035
159 40 3 0.525064 2.48871 10.2837 25.9647
160 40 4 -1.13805 1.96166 10.979 25.9219
161 41 2 0 9.35316 7.61752 24.0863
162 41 3 0.674869 8.541 7.62744 23.5798
163 41 3 0.568026 9.98066 7.16244 23.5247
164 41 4 -1.24289 9.32952 7.56053 23.9495
165 42 2 0 2.39614 15 22.3207
166 42 3 0.472874 3.23375 14.5368 22.3273
167 42 3 0.706447 2.01242 14.79 21.4693
168 42 4 -1.17932 2.45424 14.9139 22.2126
169 43 2 0 0.0367982 8.94073 24.7566
170 43 3 0.58426 0.519447 9.75842 24.8777
171 43 3 0.542924 17.6397 8.55827 25.6328
172 43 4 -1.12718 0.0924681 8.99644 24.8842
173 44 2 0 14.7948 6.60942 22.2144
174 44 3 0.705992 15.3227 6.35445 22.971
175 44 3 0.615853 14.1046 5.94767 22.1693
176 44 4 -1.32184 14.774 6.49207 22.3054
177 45 2 0 9.46251 4.99364 25.5619
178 45 3 0.600438 8.94709 5.78234 25.3929
179 45 3 0.573333 9.75534 4.70835 24.6964
180 45 4 -1.17377 9.43401 5.05808 25.4294
181 46 2 0 0.601068 16.5942 24.8448
182 46 3 0.580045 0.461288 16.8846 23.9435
183 46 3 0.46917 1.1706 15.8291 24.7648
184 46 4 -1.04922 0.656082 16.5335 24.7192
185 47 2 0 3.60455 8.77723 25.0474
186 47 3 0.56369 4.42539 9.11656 25.4042
187 47 3 0.621507 3.75688 8.7239 24.1039
188 47 4 -1.1852 3.72913 8.81384 24.9723
189 48 2 0 4.55457 7.69607 22.1652
190 48 3 0.61102 5.45224 7.45453 22.3934
191 48 3 0.695221 4.5708 7.80959 21.2149
192 48 4 -1.30624 4.67156 7.67968 22.0728
193 49 2 0 13.6064 16.8953 23.3368
194 49 3 0.690727 14.4653 16.8125 22.9225
195 49 3 0.656655 13.2453 17.707 22.9805
196 49 4 -1.34738 13.6701 16.9886 23.2382
197 50 2 0 6.61306 9.2524 24.8325
198 50 3 0.645228 6.57878 9.62104 23.9498
199 50 3 0.458891 6.99407 9.94799 25.3685
200 50 4 -1.10412 6.65745 9.38864 24.7881
201 51 2 0 11.7398 9.21813 24.8055
202 51 3 0.539206 11.0006 9.81932 24.8965
203 51 3 0.566648 11.3672 8.35245 24.9727
204 51 4 -1.10585 11.5975 9.18427 24.8386
205 52 2 0 17.3126 0.426309 25.7707
206 52 3 0.436578 17.4056 20.3591 26.6112
207 52 3 0.645442 16.5681 20.3773 25.3502
208 52 4 -1.08202 17.2292 0.313824 25.8245
209 53 2 0 2.30445 1.51559 24.8926
210 53 3 0.595272 1.43329 1.3315 25.2439
211 53 3 0.506444 2.49346 2.41009 25.1761
212 53 4 -1.10172 2.21712 1.60654 24.9738
213 54 2 0 16.7151 11.977 25.1977
214 54 3 0.553285 17.3728 12.1934 25.8586
215 54 3 0.615676 16.2886 12.8112 25.0014
216 54 4 -1.16896 16.7447 12.1115 25.2572
217 55 2 0 16.3475 3.38485 22.4295
218 55 3 0.748623 15.7134 2.6936 22.2387
219 55 3 0.439346 16.1999 3.59817 23.3509
220 55 4 -1.18797 16.2474 3.32367 22.523
221 56 2 0 12.4262 6.08567 25.5579
222 56 3 0.623904 12.7118 5.20806 25.3039
223 56 3 0.557145 11.5294 5.96528 25.8701
224 56 4 -1.18105 12.348 5.95791 25.5653
225 57 2 0 15.0335 14.3537 24.8458
226 57 3 0.651617 15.2341 14.6849 23.9704
227 57 3 0.706642 15.0241 15.1333 25.4011
228 57 4 -1.35826 15.0579 14.4959 24.8048
229 58 2 0 14.8329 7.53464 26.0309
230 58 3 0.56076 14.8873 8.29215 25.4483
231 58 3 0.61539 13.9265 7.23683 25.9533
232 58 4 -1.17615 14.7238 7.59348 25.9464
233 59 2 0 1.45893 17.9168 22.1094
234 59 3 0.532112 1.83661 17.0392 22.0518
235 59 3 0.783898 0.690521 17.8853 21.5395
236 59 4 -1.31601 1.40891 17.8004 22.029
237 60 2 0 10.1127 0.687986 25.1777
238 60 3 0.598077 11.0058 0.99862 25.0289
239 60 3 0.564187 9.5611 1.45023 25.0018
240 60 4 -1.16226 10.1564 0.825326 25.1361
241 61 2 0 6.03141 15.2144 22.1264
242 61 3 0.545772 6.68349 14.8589 22.7303
243 61 3 0.750792 5.5399 14.4496 21.8267
244 61 4 -1.29656 6.05196 15.071 22.1654
245 62 2 0 7.68363 15.0433 24.7196
246 62 3 0.559989 7.00209 14.3715 24.6994
247 62 3 0.583239 7.20761 15.8644 24.8438
248 62 4 -1.14323 7.53545 15.0624 24.7329
249 63 2 0 9.63268 3.05046 23.2569
250 63 3 0.717575 10.317 2.654 22.7177
251 63 3 0.644241 9.42272 3.87184 22.8125
252 63 4 -1.36182 9.6934 3.10485 23.131
253 64 2 0 13.2004 12.3588 24.6584
254 64 3 0.563211 12.3281 12.741 24.5626
255 64 3 0.727179 13.7528 13.0886 24.9384
256 64 4 -1.29039 13.1594 12.5011 24.682
257 65 2 0 13.6371 3.6796 24.8462
258 65 3 0.626526 13.4191 3.83194 23.9266
259 65 3 0.69796 13.4939 2.74192 24.9746
260 65 4 -1.32449 13.5909 3.57906 24.7449
261 66 2 0 2.60871 6.37012 25.8114
262 66 3 0.472102 3.4199 5.86216 25.825
263 66 3 0.65981 2.89705 7.28286 25.8133
264 66 4 -1.13191 2.74946 6.42194 25.8133
265 67 2 0 1.44922 2.61908 22.0203
266 67 3 0.679036 1.24841 3.13121 22.8037
267 67 3 0.718087 0.745342 1.9724 21.9694
268 67 4 -1.39712 1.33341 2.60186 22.1141
269 68 2 0 14.7366 9.91411 24.3481
270 68 3 0.677102 14.0076 10.4836 24.5941
271 68 3 0.700302 15.5124 10.3531 24.6969
272 68 4 -1.3774 14.7426 10.0432 24.4242
273 69 2 0 12.8862 0.954163 24.5622
274 69 3 0.685657 13.5004 0.460449 24.0189
275 69 3 0.566075 12.2587 1.32298 23.9404
276 69 4 -1.25173 12.8845 0.938174 24.413
277 70 2 0 5.00692 13.8493 24.8074
278 70 3 0.5325 4.32015 13.511 25.382
279 70 3 0.644651 4.74649 13.5676 23.9304
280 70 4 -1.17715 4.88567 13.7699 24.7687
281 71 2 0 4.14556 3.96023 24.9255
282 71 3 0.471511 4.63102 3.24032 24.5226
283 71 3 0.570852 4.81495 4.60888 25.1432
284 71 4 -1.04236 4.2934 3.95111 24.9018
285 72 2 0 2.21515 12.6512 23.8065
286 72 3 0.602328 2.61146 12.0158 23.2104
287 72 3 0.681112 2.31719 13.493 23.3624
288 72 4 -1.28344 2.27894 12.6776 23.6733
289 73 2 0 14.8976 16.6245 26.3183
290 73 3 0.540018 15.7282 17.0977 26.3686
291 73 3 0.529194 14.2651 17.2041 26.7427
292 73 4 -1.06921 14.923 16.7593 26.3791
293 74 2 0 10.6033 16.0636 24.6429
294 74 3 0.528932 10.1001 16.0432 25.457
295 74 3 0.708571 11.3285 16.6615 24.8239
296 74 4 -1.2375 10.6317 16.1375 24.7703
297 75 2 0 6.70173 0.523166 24.835
298 75 3 0.62211 6.70169 1.4626 25.0186
299 75 3 0.506401 6.58971 0.111227 25.6917
300 75 4 -1.12851 6.68739 0.590692 24.9682
301 76 2 0 9.18193 10.5313 24.6698
302 76 3 0.601997 8.99284 9.69998 25.1051
303 76 3 0.652228 9.18763 10.3177 23.7367
304 76 4 -1.25422 9.15845 10.3975 24.6061
305 77 2 0 7.71189 2.82588 25.8793
306 77 3 0.68673 8.22462 3.6192 25.7244
307 77 3 0.467791 8.20455 2.3482 26.5466
308 77 4 -1.15452 7.84059 2.86629 25.9449
309 78 2 0 15.3274 19.6364 23.9554
310 78 3 0.642566 15.6023 18.8649 23.4599
311 78 3 0.624859 15.369 20.3545 23.3239
312 78 4 -1.26742 15.3679 19.6296 23.8111
313 79 2 0 6.42147 6.22354 24.8889
314 79 3 0.459761 6.2238 5.54851 24.2397
315 79 3 0.584141 6.53687 7.0234 24.3759
316 79 4 -1.0439 6.41094 6.23952 24.7401
317 80 2 0 10.4944 13.0525 24.2723
318 80 3 0.674935 9.80069 12.4348 24.5035
319 80 3 0.61252 10.1984 13.8902 24.6288
320 80 4 -1.28746 10.3677 13.0807 24.3476
321 81 2 0 8.93666 18.5081 24.4185
322 81 3 0.667047 9.2771 19.3682 24.6647
323 81 3 0.592489 9.70451 17.9366 24.4202
324 81 4 -1.25954 9.07854 18.545 24.4502
325 82 1 0.512238 0 0 10
326 82 1 -0.9466 1.47089 2.54765 10
327 82 1 -1.04956 0 5.09531 10
328 82 1 -0.411755 1.47089 7.64296 10
329 82 1 -0.453659 0 10.1906 10
330 82 1 1.01067 1.47089 12.7383 10
331 82 1 1.08866 0 15.2859 10
332 82 1 0.474992 1.47089 17.8336 10
333 82 1 -1.10246 2.94178 0 10
334 82 1 -1.20155 4.41266 2.54765 10
335 82 1 -0.631598 2.94178 5.09531 10
336 82 1 1.09397 4.41266 7.64296 10
337 82 1 1.19661 2.94178 10.1906 10
338 82 1 1.31001 4.41266 12.7383 10
339 82 1 0.708296 2.94178 15.2859 10
340 82 1 -0.986717 4.41266 17.8336 10
341 82 1 -1.6073 5.88355 0 10
342 82 1 -0.23391 7.35444 2.54765 10
343 82 1 0.466701 5.88355 5.09531 10
344 82 1 1.58453 7.35444 7.64296 10
345 82 1 1.73999 5.88355 10.1906 10
346 82 1 0.365185 7.35444 12.7383 10
347 82 1 -0.350533 5.88355 15.2859 10
348 82 1 -1.45448 7.35444 17.8336 10
349 82 1 -0.49814 8.82533 0 10
350 82 1 0.989317 10.2962 2.54765 10
351 82 1 1.14632 8.82533 5.09531 10
352 82 1 0.569978 10.2962 7.64296 10
353 82 1 0.632338 8.82533 10.1906 10
354 82 1 -0.87838 10.2962 12.7383 10
355 82 1 -1.02975 8.82533 15.2859 10
356 82 1 -0.45994 10.2962 17.8336 10
357 82 1 1.11719 11.7671 0 10
358 82 1 1.24562 13.238 2.54765 10
359 82 1 0.728999 11.7671 5.09531 10
360 82 1 -0.934378 13.238 7.64296 10
361 82 1 -1.01731 11.7671 10.1906 10
362 82 1 -1.1764 13.238 12.7383 10
363 82 1 -0.648833 11.7671 15.2859 10
364 82 1 1.0031 13.238 17.8336 10
365 82 1 1.62276 14.7089 0 10
366 82 1 0.277313 16.1798 2.54765 10
367 82 1 -0.368566 14.7089 5.09531 10
368 82 1 -1.42555 16.1798 7.64296 10
369 82 1 -1.55995 14.7089 10.1906 10
370 82 1 -0.232167 16.1798 12.7383 10
371 82 1 0.410751 14.7089 15.2859 10
372 82 1 1.47028 16.1798 17.8336 10
373 82 1 -0.371457 1.47089 0.849218 12.402
374 82 1 -0.699328 2.94178 3.39687 12.402
375 82 1 -0.570617 1.47089 5.94452 12.402
376 82 1 0.28789 2.94178 8.49218 12.402
377 82 1 0.274084 1.47089 11.0398 12.402
378 82 1 0.584257 2.94178 13.5875 12.402
379 82 1 0.447503 1.47089 16.1351 12.402
380 82 1 -0.391758 2.94178 18.6828 12.402
381 82 1 -0.925505 4.41266 0.849218 12.402
382 82 1 -0.319551 5.88355 3.39687 12.402
383 82 1 0.0780803 4.41266 5.94452 12.402
384 82 1 0.848391 5.88355 8.49218 12.402
385 82 1 0.828523 4.41266 11.0398 12.402
386 82 1 0.205369 5.88355 13.5875 12.402
387 82 1 -0.198102 4.41266 16.1351 12.402
388 82 1 -0.952536 5.88355 18.6828 12.402
389 82 1 -0.594712 7.35444 0.849218 12.402
390 82 1 0.323006 8.82533 3.39687 12.402
391 82 1 0.580765 7.35444 5.94452 12.402
392 82 1 0.496719 8.82533 8.49218 12.402
393 82 1 0.494865 7.35444 11.0398 12.402
394 82 1 -0.44176 8.82533 13.5875 12.402
395 82 1 -0.703398 7.35444 16.1351 12.402
396 82 1 -0.603804 8.82533 18.6828 12.402
397 82 1 0.292186 10.2962 0.849218 12.402
398 82 1 0.589466 11.7671 3.39687 12.402
399 82 1 0.436093 10.2962 5.94452 12.402
400 82 1 -0.411497 11.7671 8.49218 12.402
401 82 1 -0.391221 10.2962 11.0398 12.402
402 82 1 -0.706699 11.7671 13.5875 12.402
403 82 1 -0.561779 10.2962 16.1351 12.402
404 82 1 0.309325 11.7671 18.6828 12.402
405 82 1 0.85005 13.238 0.849218 12.402
406 82 1 0.211457 14.7089 3.39687 12.402
407 82 1 -0.208958 13.238 5.94452 12.402
408 82 1 -0.96937 14.7089 8.49218 12.402
409 82 1 -0.941759 13.238 11.0398 12.402
410 82 1 -0.326324 14.7089 13.5875 12.402
411 82 1 0.0867959 13.238 16.1351 12.402
412 82 1 0.872113 14.7089 18.6828 12.402
413 82 1 0.51725 16.1798 0.849218 12.402
414 82 1 -0.434716 0 3.39687 12.402
415 82 1 -0.713014 16.1798 5.94452 12.402
416 82 1 -0.62172 0 8.49218 12.402
417 82 1 -0.610002 16.1798 11.0398 12.402
418 82 1 0.317527 0 13.5875 12.402
419 82 1 0.590857 16.1798 16.1351 12.402
420 82 1 0.51996 0 18.6828 12.402
421 82 1 0.345065 2.94178 1.69844 14.8039
422 82 1 0.105675 4.41266 4.24609 14.8039
423 82 1 -0.0549714 2.94178 6.79374 14.8039
424 82 1 -0.462484 4.41266 9.34139 14.8039
425 82 1 -0.395923 2.94178 11.889 14.8039
426 82 1 -0.194317 4.41266 14.4367 14.8039
427 82 1 -0.0173928 2.94178 16.9844 14.8039
428 82 1 0.398641 4.41266 19.532 14.8039
429 82 1 0.307148 5.88355 1.69844 14.8039
430 82 1 -0.186925 7.35444 4.24609 14.8039
431 82 1 -0.381771 5.88355 6.79374 14.8039
432 82 1 -0.458046 7.35444 9.34139 14.8039
433 82 1 -0.38882 5.88355 11.889 14.8039
434 82 1 0.0730295 7.35444 14.4367 14.8039
435 82 1 0.28228 5.88355 16.9844 14.8039
436 82 1 0.369972 7.35444 19.532 14.8039
437 82 1 -0.0383166 8.82533 1.69844 14.8039
438 82 1 -0.331544 10.2962 4.24609 14.8039
439 82 1 -0.397198 8.82533 6.79374 14.8039
440 82 1 -0.0603599 10.2962 9.34139 14.8039
441 82 1 -0.0534798 8.82533 11.889 14.8039
442 82 1 0.225355 10.2962 14.4367 14.8039
443 82 1 0.285921 8.82533 16.9844 14.8039
444 82 1 -0.011015 10.2962 19.532 14.8039
445 82 1 -0.33658 11.7671 1.69844 14.8039
446 82 1 -0.179529 13.238 4.24609 14.8039
447 82 1 -0.0767135 11.7671 6.79374 14.8039
448 82 1 0.339198 13.238 9.34139 14.8039
449 82 1 0.284074 11.7671 11.889 14.8039
450 82 1 0.113589 13.238 14.4367 14.8039
451 82 1 -0.00259736 11.7671 16.9844 14.8039
452 82 1 -0.357607 13.238 19.532 14.8039
453 82 1 -0.294955 14.7089 1.69844 14.8039
454 82 1 0.108698 16.1798 4.24609 14.8039
455 82 1 0.256329 14.7089 6.79374 14.8039
456 82 1 0.331094 16.1798 9.34139 14.8039
457 82 1 0.280991 14.7089 11.889 14.8039
458 82 1 -0.15756 16.1798 14.4367 14.8039
459 82 1 -0.296764 14.7089 16.9844 14.8039
460 82 1 -0.332811 16.1798 19.532 14.8039
461 82 1 0.04111 0 1.69844 14.8039
462 82 1 0.249424 1.47089 4.24609 14.8039
463 82 1 0.262829 0 6.79374 14.8039
464 82 1 -0.0729576 1.47089 9.34139 14.8039
465 82 1 -0.0635691 0 11.889 14.8039
466 82 1 -0.313339 1.47089 14.4367 14.8039
467 82 1 -0.307739 0 16.9844 14.8039
468 82 1 0.0425176 1.47089 19.532 14.8039
469 82 1 1.1157 4.41266 2.54765 17.2059
470 82 1 -0.299635 5.88355 5.09531 17.2059
471 82 1 -0.817954 4.41266 7.64296 17.2059
472 82 1 -1.35134 5.88355 10.1906 17.2059
473 82 1 -1.00332 4.41266 12.7383 17.2059
474 82 1 0.383253 5.88355 15.2859 17.2059
475 82 1 0.916763 4.41266 17.8336 17.2059
476 82 1 1.46053 5.88355 0 17.2059
477 82 1 0.286218 7.35444 2.54765 17.2059
478 82 1 -0.893902 8.82533 5.09531 17.2059
479 82 1 -1.23732 7.35444 7.64296 17.2059
480 82 1 -0.41326 8.82533 10.1906 17.2059
481 82 1 -0.200695 7.35444 12.7383 17.2059
482 82 1 0.951789 8.82533 15.2859 17.2059
483 82 1 1.31771 7.35444 17.8336 17.2059
484 82 1 0.506451 8.82533 0 17.2059
485 82 1 -0.765611 10.2962 2.54765 17.2059
486 82 1 -0.546923 11.7671 5.09531 17.2059
487 82 1 -0.380026 10.2962 7.64296 17.2059
488 82 1 1.00414 11.7671 10.1906 17.2059
489 82 1 0.853236 10.2962 12.7383 17.2059
490 82 1 0.617413 11.7671 15.2859 17.2059
491 82 1 0.459734 10.2962 17.8336 17.2059
492 82 1 -0.86481 11.7671 0 17.2059
493 82 1 -0.98277 13.238 2.54765 17.2059
494 82 1 0.384913 14.7089 5.09531 17.2059
495 82 1 0.911462 13.238 7.64296 17.2059
496 82 1 1.47275 14.7089 10.1906 17.2059
497 82 1 1.10945 13.238 12.7383 17.2059
498 82 1 -0.291759 14.7089 15.2859 17.2059
499 82 1 -0.783965 13.238 17.8336 17.2059
500 82 1 -1.29232 14.7089 0 17.2059
501 82 1 -0.166818 16.1798 2.54765 17.2059
502 82 1 0.961763 0 5.09531 17.2059
503 82 1 1.32484 16.1798 7.64296 17.2059
504 82 1 0.511733 0 10.1906 17.2059
505 82 1 0.293415 16.1798 12.7383 17.2059
506 82 1 -0.873939 0 15.2859 17.2059
507 82 1 -1.18741 16.1798 17.8336 17.2059
508 82 1 -0.360648 0 0 17.2059
509 82 1 0.878847 1.47089 2.54765 17.2059
510 82 1 0.623486 2.94178 5.09531 17.2059
511 82 1 0.452357 1.47089 7.64296 17.2059
512 82 1 -0.89517 2.94178 10.1906 17.2059
513 82 1 -0.765183 1.47089 12.7383 17.2059
514 82 1 -0.533836 2.94178 15.2859 17.2059
515 82 1 -0.344654 1.47089 17.8336 17.2059
516 82 1 1.02092 2.94178 0 17.2059
517 82 1 0.372286 5.88355 3.39687 19.6078
518 82 1 -0.896334 7.35444 5.94452 19.6078
519 82 1 -1.24898 5.88355 8.49218 19.6078
520 82 1 -0.738557 7.35444 11.0398 19.6078
521 82 1 -0.350413 5.88355 13.5875 19.6078
522 82 1 0.891213 7.35444 16.1351 19.6078
523 82 1 1.24718 5.88355 18.6828 19.6078
524 82 1 0.746984 7.35444 0.849218 19.6078
525 82 1 -0.549634 8.82533 3.39687 19.6078
526 82 1 -0.708597 10.2962 5.94452 19.6078
527 82 1 -0.760738 8.82533 8.49218 19.6078
528 82 1 0.508998 10.2962 11.0398 19.6078
529 82 1 0.544101 8.82533 13.5875 19.6078
530 82 1 0.670189 10.2962 16.1351 19.6078
531 82 1 0.743058 8.82533 18.6828 19.6078
532 82 1 -0.504752 10.2962 0.849218 19.6078
533 82 1 -0.93363 11.7671 3.39687 19.6078
534 82 1 0.189617 13.238 5.94452 19.6078
535 82 1 0.531475 11.7671 8.49218 19.6078
536 82 1 1.29786 13.238 11.0398 19.6078
537 82 1 0.907544 11.7671 13.5875 19.6078
538 82 1 -0.244533 13.238 16.1351 19.6078
539 82 1 -0.535011 11.7671 18.6828 19.6078
540 82 1 -1.27464 13.238 0.849218 19.6078
541 82 1 -0.420112 14.7089 3.39687 19.6078
542 82 1 0.878171 16.1798 5.94452 19.6078
543 82 1 1.31906 14.7089 8.49218 19.6078
544 82 1 0.810973 16.1798 11.0398 19.6078
545 82 1 0.357704 14.7089 13.5875 19.6078
546 82 1 -0.962393 16.1798 16.1351 19.6078
547 82 1 -1.31391 14.7089 18.6828 19.6078
548 82 1 -0.821441 16.1798 0.849218 19.6078
549 82 1 0.47637 0 3.39687 19.6078
550 82 1 0.684737 1.47089 5.94452 19.6078
551 82 1 0.802886 0 8.49218 19.6078
552 82 1 -0.44387 1.47089 11.0398 19.6078
553 82 1 -0.556942 0 13.5875 19.6078
554 82 1 -0.758473 1.47089 16.1351 19.6078
555 82 1 -0.840948 0 18.6828 19.6078
556 82 1 0.414328 1.47089 0.849218 19.6078
557 82 1 0.882795 2.94178 3.39687 19.6078
558 82 1 -0.189303 4.41266 5.94452 19.6078
559 82 1 -0.47491 2.94178 8.49218 19.6078
560 82 1 -1.20618 4.41266 11.0398 19.6078
561 82 1 -0.90209 2.94178 13.5875 19.6078
562 82 1 0.178265 4.41266 16.1351 19.6078
563 82 1 0.441408 2.94178 18.6828 19.6078
564 82 1 1.21663 4.41266 0.849218 19.6078
ITEM: TIMESTEP
22500
ITEM: NUMBER OF ATOMS
564
ITEM: BOX BOUNDS pp pp ff
0.0000000000000000e+00 1.7650658050000001e+01
0.0000000000000000e+00 2.0381224350000000e+01
0.0000000000000000e+00 6.0000000000000000e+01
ITEM: ATOMS id mol type q x y z
1 1 2 0 7.2763 17.792 22.0703
2 1 3 0.747234 7.40608 18.014 22.9923
3 1 3 0.607524 6.79242 16.9663 22.0882
4 1 4 -1.35476 7.23097 17.7147 22.1906
5 2 2 0 13.0337 19.1114 22.1737
6 2 3 0.832588 13.2981 19.2879 21.2709
7 2 3 0.583068 13.855 19.0927 22.665
8 2 4 -1.41566 13.1727 19.1316 22.121
9 3 2 0 16.2609 9.23617 22.021
10 3 3 0.65439 15.6596 9.19153 22.7644
11 3 3 0.752316 17.1293 9.12435 22.4077
12 3 4 -1.40671 16.2951 9.21614 22.1656
13 4 2 0 2.88752 5.4528 22.3232
14 4 3 0.565917 2.5506 5.46587 23.2191
15 4 3 0.705512 3.44983 6.22538 22.267
16 4 4 -1.27143 2.91637 5.55337 22.4307
17 5 2 0 12.961 9.41841 22.0127
18 5 3 0.703166 13.323 9.71632 22.8472
19 5 3 0.786799 12.5615 8.57191 22.2129
20 5 4 -1.48996 12.9562 9.34818 22.1451
21 6 2 0 1.23426 8.49833 22.5211
22 6 3 0.48905 0.939165 8.26143 23.4004
23 6 3 0.793148 2.11017 8.86158 22.6517
24 6 4 -1.2822 1.30861 8.5145 22.6504
25 7 2 0 4.22471 17.6326 22.2383
26 7 3 0.660252 3.27062 17.5556 22.242
27 7 3 0.613259 4.53851 16.73 22.2941
28 7 4 -1.27351 4.14275 17.5072 22.2459
29 8 2 0 8.97703 -0.0238114 22.0615
30 8 3 0.546682 8.92484 0.0637849 23.0132
31 8 3 0.72549 9.7915 0.419438 21.824
32 8 4 -1.27217 9.07461 0.0441433 22.1529
33 9 2 0 8.74274 5.44472 22.3144
34 9 3 0.658269 9.02127 5.1545 21.4458
35 9 3 0.614451 8.38154 6.31944 22.1708
36 9 4 -1.27272 8.73216 5.51954 22.1848
37 10 2 0 6.06129 20.3495 22.0697
38 10 3 0.718169 5.91122 19.8729 22.8861
39 10 3 0.709771 6.42386 0.809884 22.3464
40 10 4 -1.42794 6.08849 0.0150215 22.2097
41 11 2 0 3.35753 10.2152 22.2528
42 11 3 0.748214 3.16489 10.7946 21.5156
43 11 3 0.576166 4.18884 9.80083 22.0215
44 11 4 -1.32438 3.43929 10.2363 22.1288
45 12 2 0 2.89141 20.2874 22.0728
46 12 3 0.598138 3.20348 20.0041 22.9322
47 12 3 0.739482 1.98296 19.988 22.0367
48 12 4 -1.33762 2.81507 20.2128 22.1782
49 13 2 0 14.574 12.0525 22.0385
50 13 3 0.719757 15.4411 12.3066 22.3543
51 13 3 0.716022 13.9951 12.1927 22.7879
52 13 4 -1.43578 14.6109 12.103 22.1749
53 14 2 0 10.5928 17.7782 22.2459
54 14 3 0.47732 9.89823 18.4345 22.3013
55 14 3 0.729984 11.4021 18.2878 22.2073
56 14 4 -1.2073 10.6075 17.9274 22.248
57 15 2 0 13.1083 4.20204 22.1697
58 15 3 0.770352 12.683 4.06432 21.3233
59 15 3 0.545564 13.8756 3.63023 22.1486
60 15 4 -1.31592 13.1521 4.11121 22.0586
61 16 2 0 11.5925 7.09439 22.2449
62 16 3 0.662679 11.6578 6.58802 23.0546
63 16 3 0.675342 11.0193 6.57398 21.682
64 16 4 -1.33802 11.5275 6.96295 22.2765
65 17 2 0 4.19898 2.49058 22.094
66 17 3 0.73746 3.44687 2.2138 22.6174
67 17 3 0.673944 4.56254 3.2361 22.5718
68 17 4 -1.4114 4.14924 2.55058 22.2222
69 18 2 0 7.3085 7.84934 22.2841
70 18 3 0.810572 7.31246 7.87808 21.3273
71 18 3 0.570466 6.89123 8.66968 22.5471
72 18 4 -1.38104 7.25559 7.95803 22.1953
73 19 2 0 14.3876 1.67547 22.0738
74 19 3 0.572972 13.5044 2.04461 22.075
75 19 3 0.872878 14.5121 1.35401 21.1808
76 19 4 -1.44585 14.2905 1.68157 21.9596
77 20 2 0 5.69908 4.82881 22.4619
78 20 3 0.689615 6.42114 5.38696 22.1733
79 20 3 0.540589 4.976 5.43531 22.6218
80 20 4 -1.2302 5.69895 4.9779 22.4454
81 21 2 0 17.4507 5.92521 22.1758
82 21 3 0.723744 17.0453 5.11532 22.4856
83 21 3 0.6067 17.6679 6.40571 22.9746
84 21 4 -1.33044 17.4266 5.88304 22.3177
85 22 2 0 17.5275 12.1507 22.1958
86 22 3 0.571649 0.164476 12.6018 21.4021
87 22 3 0.675411 0.563456 12.3325 22.8374
88 22 4 -1.24706 17.6522 12.2317 22.1763
89 23 2 0 9.85147 9.60234 22.2305
90 23 3 0.671873 8.94573 9.64737 21.9242
91 23 3 0.555167 10.0912 8.68048 22.136
92 23 4 -1.22704 9.76622 9.4901 22.1792
93 24 2 0 4.61808 12.8842 22.2242
94 24 3 0.829222 4.28435 12.7388 21.339
95 24 3 0.527814 5.2315 12.1641 22.3707
96 24 4 -1.35704 4.65388 12.7734 22.1297
97 25 2 0 7.8587 12.4214 22.4452
98 25 3 0.522873 8.23364 11.9275 23.1744
99 25 3 0.736045 7.27969 11.7985 22.0059
100 25 4 -1.25892 7.83258 12.2784 22.4823
101 26 2 0 1.74539 19.0197 25.0252
102 26 3 0.621182 0.955242 18.5037 24.8651
103 26 3 0.493364 1.42047 19.8794 25.2928
104 26 4 -1.11455 1.60265 19.0637 25.039
105 27 2 0 6.12923 10.3186 22.2108
106 27 3 0.898439 6.24637 10.179 21.2711
107 27 3 0.522402 5.20622 10.5539 22.3052
108 27 4 -1.42084 6.02607 10.3308 22.1026
109 28 2 0 15.9149 14.749 22.3996
110 28 3 0.660269 16.1996 15.471 21.8393
111 28 3 0.501273 16.6711 14.1635 22.4393
112 28 4 -1.16154 16.0482 14.7665 22.333
113 29 2 0 8.75927 15.246 22.0485
114 29 3 0.682113 8.38169 14.3841 22.2236
115 29 3 0.601164 8.50329 15.7778 22.8022
116 29 4 -1.28328 8.67816 15.2038 22.1674
117 30 2 0 16.0167 17.9094 22.1007
118 30 3 0.500778 16.9567 18.0743 22.1744
119 30 3 0.844742 15.8434 17.9247 21.1595
120 30 4 -1.34552 16.1148 17.9325 21.9897
121 31 2 0 7.30685 2.52392 22.324
122 31 3 0.607834 6.91001 3.33939 22.6302
123 31 3 0.730186 8.21588 2.57357 22.6197
124 31 4 -1.33802 7.37242 2.63467 22.401
125 32 2 0 11.5802 1.21059 22.2704
126 32 3 0.624195 11.9867 0.362749 22.4497
127 32 3 0.814096 11.8381 1.41498 21.3715
128 32 4 -1.43829 11.6653 1.12822 22.1783
129 33 2 0 11.7765 14.9408 22.191
130 33 3 0.752752 12.4906 15.4866 22.5202
131 33 3 0.575231 11.0004 15.2558 22.6545
132 33 4 -1.32798 11.7686 15.051 22.2925
133 34 2 0 11.4691 11.9933 22.105
134 34 3 0.714417 11.1704 12.622 22.7621
135 34 3 0.705627 11.1359 11.1497 22.4111
136 34 4 -1.42004 11.3882 11.9658 22.2283
137 35 2 0 17.6511 0.229736 22.2063
138 35 3 0.741035 17.2452 20.1737 21.4578
139 35 3 0.566548 17.0716 20.4144 22.9423
140 35 4 -1.30758 17.525 0.148594 22.2047
141 36 2 0 4.69657 16.4382 25.457
142 36 3 0.493519 3.81104 16.4698 25.095
143 36 3 0.51741 4.84442 15.5121 25.649
144 36 4 -1.01093 4.60214 16.3237 25.4353
145 37 2 0 15.4912 3.06626 26.1439
146 37 3 0.47471 15.4322 2.2411 26.6254
147 37 3 0.632627 14.6513 3.14043 25.6909
148 37 4 -1.10734 15.3762 2.97013 26.1475
149 38 2 0 0.389764 3.88798 24.5668
150 38 3 0.596438 1.11397 4.46147 24.8176
151 38 3 0.624454 17.442 3.9168 25.3133
152 38 4 -1.22089 0.405862 3.96508 24.6945
153 39 2 0 12.3554 18.094 25.1689
154 39 3 0.70611 12.4389 19.0446 25.0942
155 39 3 0.617986 12.8889 17.7492 24.4528
156 39 4 -1.3241 12.4344 18.1715 25.0677
157 40 2 0 0.983852 9.63151 25.5948
158 40 3 0.512278 0.889027 10.334 24.9516
159 40 3 0.600532 1.9037 9.66873 25.857
160 40 4 -1.11281 1.08946 9.7262 25.5461
161 41 2 0 8.8713 8.15189 24.9286
162 41 3 0.565495 8.56546 8.14292 24.0216
163 41 3 0.534898 9.41043 7.36494 25.0078
164 41 4 -1.10039 8.90116 8.05 24.8226
165 42 2 0 1.95824 14.3777 22.2866
166 42 3 0.421074 2.84256 14.0631 22.4742
167 42 3 0.693507 1.94298 14.4986 21.3372
168 42 4 -1.11458 2.06949 14.3529 22.1891
169 43 2 0 16.975 7.49291 24.5643
170 43 3 0.632668 17.4666 8.01 25.2024
171 43 3 0.620844 16.3804 6.96103 25.0933
172 43 4 -1.25351 16.9618 7.49102 24.7137
173 44 2 0 14.5764 6.68386 22.1709
174 44 3 0.534653 15.1698 6.77064 22.9169
175 44 3 0.748538 14.2227 5.79772 22.2474
176 44 4 -1.28319 14.6071 6.58153 22.2761
177 45 2 0 7.85395 4.82685 24.9293
178 45 3 0.582238 7.49275 5.71167 24.9828
179 45 3 0.622115 8.2287 4.77335 24.0502
180 45 4 -1.20435 7.85569 4.93327 24.8236
181 46 2 0 16.9237 17.5839 24.8114
182 46 3 0.474075 16.4756 18.1815 25.41
183 46 3 0.639757 16.6004 17.8264 23.9436
184 46 4 -1.11383 16.8249 17.6915 24.7769
185 47 2 0 3.5922 8.54783 25.0379
186 47 3 0.71347 4.26007 9.20442 25.2356
187 47 3 0.554566 3.70078 8.36867 24.104
188 47 4 -1.26804 3.69159 8.60895 24.9437
189 48 2 0 4.40846 7.57598 22.3266
190 48 3 0.652378 5.35554 7.4562 22.3967
191 48 3 0.729076 4.29645 8.17713 21.5902
192 48 4 -1.38145 4.51536 7.6376 22.2413
193 49 2 0 13.7193 16.6133 23.1308
194 49 3 0.698025 14.5978 16.4597 22.7831
195 49 3 0.654494 13.3784 17.3401 22.6095
196 49 4 -1.35252 13.7881 16.6867 23.0196
197 50 2 0 5.4526 10.402 24.8222
198 50 3 0.68203 5.53891 10.3687 23.8695
199 50 3 0.549752 5.14907 11.2913 25.0047
200 50 4 -1.23178 5.42479 10.5116 24.7236
201 51 2 0 11.3364 9.72971 24.705
202 51 3 0.527307 10.842 9.98657 25.4833
203 51 3 0.596789 10.7107 9.23552 24.1754
204 51 4 -1.1241 11.193 9.69933 24.7369
205 52 2 0 0.181041 1.04135 25.0908
206 52 3 0.581951 17.3642 1.00254 24.2565
207 52 3 0.476533 17.932 1.97695 25.2664
208 52 4 -1.05848 0.134037 1.15615 25.0065
209 53 2 0 3.0573 2.02716 24.5599
210 53 3 0.580463 2.26131 1.83279 25.0547
211 53 3 0.546328 3.34859 2.87435 24.897
212 53 4 -1.12679 2.9927 2.11072 24.6664
213 54 2 0 16.2718 11.6727 25.0513
214 54 3 0.506798 17.2074 11.735 25.244
215 54 3 0.691986 15.9539 12.5736 25.1117
216 54 4 -1.19878 16.3509 11.796 25.0837
217 55 2 0 16.1317 3.64457 22.5095
218 55 3 0.862149 15.5277 2.92347 22.3322
219 55 3 0.4966 16.4534 3.47588 23.3951
220 55 4 -1.35875 16.0955 3.53067 22.6002
221 56 2 0 11.048 5.81154 24.7154
222 56 3 0.626406 11.541 5.01249 24.9017
223 56 3 0.559371 10.1688 5.50489 24.4936
224 56 4 -1.18578 10.9986 5.67 24.7109
225 57 2 0 15.4923 14.2508 25.2818
226 57 3 0.676081 15.8538 14.9475 24.734
227 57 3 0.595083 15.1734 14.7015 26.0638
228 57 4 -1.27116 15.4977 14.3977 25.3118
229 58 2 0 14.3288 6.88344 25.3703
230 58 3 0.524399 14.4133 7.8315 25.2688
231 58 3 0.559116 13.3853 6.7233 25.3526
232 58 4 -1.08351 14.2189 6.9843 25.355
233 59 2 0 1.19229 17.798 22.1384
234 59 3 0.48379 1.35019 17.0683 22.7374
235 59 3 0.698154 0.810774 17.3915 21.3603
236 59 4 -1.18194 1.16367 17.6525 22.1155
237 60 2 0 9.85641 0.202752 25.3904
238 60 3 0.574093 10.6851 0.471022 24.9935
239 60 3 0.578071 9.46473 1.01841 25.7027
240 60 4 -1.15216 9.91235 0.341508 25.3796
241 61 2 0 5.84762 15.3926 22.1186
242 61 3 0.490774 6.11052 15.4945 23.0334
243 61 3 0.847529 5.52602 14.4929 22.0601
244 61 4 -1.3383 5.84011 15.2905 22.2283
245 62 2 0 7.5247 14.918 24.5871
246 62 3 0.578461 6.98384 14.1294 24.6307
247 62 3 0.55147 7.1262 15.5175 25.218
248 62 4 -1.12993 7.40445 14.8938 24.6734
249 63 2 0 9.8878 3.17343 23.2707
250 63 3 0.672653 10.563 2.57678 22.9477
251 63 3 0.582 9.91858 3.91829 22.6703
252 63 4 -1.25465 9.97817 3.1924 23.1525
253 64 2 0 13.2936 12.7124 24.6148
254 64 3 0.553332 12.3815 12.9997 24.5731
255 64 3 0.651143 13.7766 13.4877 24.901
256 64 4 -1.20448 13.2387 12.8485 24.6461
257 65 2 0 12.9627 3.54824 24.7718
258 65 3 0.684813 12.8193 3.77032 23.8518
259 65 3 0.550023 12.8438 2.59926 24.8109
260 65 4 -1.23484 12.9292 3.45519 24.659
261 66 2 0 2.7239 5.72421 25.187
262 66 3 0.657023 3.59217 5.38592 25.4059
263 66 3 0.6022 2.83239 6.67519 25.1769
264 66 4 -1.25922 2.84894 5.80264 25.2137
265 67 2 0 1.26629 2.72939 22.1538
266 67 3 0.600621 0.907094 3.37801 22.7592
267 67 3 0.701691 0.59639 2.04724 22.1078
268 67 4 -1.30231 1.13456 2.7251 22.2254
269 68 2 0 14.3108 9.65999 24.3649
270 68 3 0.663549 13.561 10.0264 24.8338
271 68 3 0.686405 15.0565 10.1834 24.6585
272 68 4 -1.34995 14.3103 9.7739 24.4625
273 69 2 0 12.7754 0.428911 24.5362
274 69 3 0.673964 13.6684 0.132357 24.3605
275 69 3 0.670323 12.4955 0.843968 23.7204
276 69 4 -1.34429 12.8539 0.444081 24.4093
277 70 2 0 4.95863 13.512 24.9114
278 70 3 0.538727 4.07897 13.2692 25.2003
279 70 3 0.642489 4.91486 13.4794 23.9557
280 70 4 -1.18122 4.84042 13.4767 24.826
281 71 2 0 5.1371 4.34162 25.5198
282 71 3 0.566323 5.73497 3.86519 26.0959
283 71 3 0.651664 5.67007 5.04548 25.15
284 71 4 -1.21799 5.28186 4.37074 25.5462
285 72 2 0 2.10953 12.1454 24.0968
286 72 3 0.649235 2.56048 11.6739 23.3964
287 72 3 0.573969 2.07878 13.0529 23.7939
288 72 4 -1.2232 2.16332 12.2012 23.9683
289 73 2 0 13.499 15.8016 26.8819
290 73 3 0.464094 13.6909 16.0446 27.7876
291 73 3 0.589618 13.3279 16.6338 26.4411
292 73 4 -1.05371 13.5016 15.9392 26.9414
293 74 2 0 10.5177 16.11 25.2673
294 74 3 0.493121 10.7662 15.4929 25.9555
295 74 3 0.720502 11.1482 16.8258 25.3477
296 74 4 -1.21362 10.6302 16.1227 25.3657
297 75 2 0 5.0923 20.0027 24.6764
298 75 3 0.553626 4.62818 19.1747 24.7995
299 75 3 0.571894 4.44279 0.293642 24.8827
300 75 4 -1.12552 4.94974 19.9827 24.7185
301 76 2 0 8.57906 11.0486 24.9018
302 76 3 0.562318 7.62855 10.945 24.9465
303 76 3 0.575548 8.91872 10.1538 24.9097
304 76 4 -1.13787 8.50086 10.9208 24.9085
305 77 2 0 8.10979 2.18671 26.1022
306 77 3 0.635919 8.22837 2.978 25.5768
307 77 3 0.426336 8.85452 2.18405 26.7035
308 77 4 -1.06225 8.2203 2.28766 26.1119
309 78 2 0 15.2889 19.9469 23.6261
310 78 3 0.676342 15.6606 19.2729 23.0571
311 78 3 0.713162 14.9702 0.238544 23.0245
312 78 4 -1.3895 15.2957 19.9468 23.4762
313 79 2 0 5.9962 6.96576 24.8065
314 79 3 0.576441 6.33238 7.29025 23.9711
315 79 3 0.589837 5.24563 7.52811 24.9979
316 79 4 -1.16628 5.94316 7.07928 24.7241
317 80 2 0 10.2537 13.4354 24.2262
318 80 3 0.62766 9.33083 13.1898 24.2902
319 80 3 0.59989 10.2589 14.3842 24.3531
320 80 4 -1.22755 10.1363 13.5254 24.2506
321 81 2 0 8.37682 18.1305 24.6734
322 81 3 0.65997 8.76568 18.87 25.1404
323 81 3 0.585128 9.0523 17.4525 24.6926
324 81 4 -1.2451 8.51307 18.1384 24.7356
325 82 1 0.62959 0 0 10
326 82 1 -0.866714 1.47089 2.54765 10
327 82 1 -0.889453 0 5.09531 10
328 82 1 -0.436852 1.47089 7.64296 10
329 82 1 -0.502367 0 10.1906 10
330 82 1 0.986282 1.47089 12.7383 10
331 82 1 0.999383 0 15.2859 10
332 82 1 0.561817 1.47089 17.8336 10
333 82 1 -1.03659 2.94178 0 10
334 82 1 -1.35509 4.41266 2.54765 10
335 82 1 -0.746108 2.94178 5.09531 10
336 82 1 0.926058 4.41266 7.64296 10
337 82 1 1.16114 2.94178 10.1906 10
338 82 1 1.45268 4.41266 12.7383 10
339 82 1 0.853055 2.94178 15.2859 10
340 82 1 -0.822546 4.41266 17.8336 10
341 82 1 -1.65648 5.88355 0 10
342 82 1 -0.468222 7.35444 2.54765 10
343 82 1 0.189063 5.88355 5.09531 10
344 82 1 1.43681 7.35444 7.64296 10
345 82 1 1.74556 5.88355 10.1906 10
346 82 1 0.525775 7.35444 12.7383 10
347 82 1 -0.117388 5.88355 15.2859 10
348 82 1 -1.37339 7.35444 17.8336 10
349 82 1 -0.610767 8.82533 0 10
350 82 1 0.907291 10.2962 2.54765 10
351 82 1 0.980236 8.82533 5.09531 10
352 82 1 0.584832 10.2962 7.64296 10
353 82 1 0.665726 8.82533 10.1906 10
354 82 1 -0.867478 10.2962 12.7383 10
355 82 1 -0.942269 8.82533 15.2859 10
356 82 1 -0.539849 10.2962 17.8336 10
357 82 1 1.05558 11.7671 0 10
358 82 1 1.39648 13.238 2.54765 10
359 82 1 0.837137 11.7671 5.09531 10
360 82 1 -0.777178 13.238 7.64296 10
361 82 1 -0.997678 11.7671 10.1906 10
362 82 1 -1.33308 13.238 12.7383 10
363 82 1 -0.795994 11.7671 15.2859 10
364 82 1 0.8452 13.238 17.8336 10
365 82 1 1.67605 14.7089 0 10
366 82 1 0.509335 16.1798 2.54765 10
367 82 1 -0.0973991 14.7089 5.09531 10
368 82 1 -1.28809 16.1798 7.64296 10
369 82 1 -1.58134 14.7089 10.1906 10
370 82 1 -0.406199 16.1798 12.7383 10
371 82 1 0.175206 14.7089 15.2859 10
372 82 1 1.39602 16.1798 17.8336 10
373 82 1 -0.333279 1.47089 0.849218 12.402
374 82 1 -0.750014 2.94178 3.39687 12.402
375 82 1 -0.577878 1.47089 5.94452 12.402
376 82 1 0.235248 2.94178 8.49218 12.402
377 82 1 0.236965 1.47089 11.0398 12.402
378 82 1 0.633991 2.94178 13.5875 12.402
379 82 1 0.461845 1.47089 16.1351 12.402
380 82 1 -0.329407 2.94178 18.6828 12.402
381 82 1 -0.952664 4.41266 0.849218 12.402
382 82 1 -0.45312 5.88355 3.39687 12.402
383 82 1 -0.0396735 4.41266 5.94452 12.402
384 82 1 0.800582 5.88355 8.49218 12.402
385 82 1 0.859497 4.41266 11.0398 12.402
386 82 1 0.339641 5.88355 13.5875 12.402
387 82 1 -0.0735373 4.41266 16.1351 12.402
388 82 1 -0.890871 5.88355 18.6828 12.402
389 82 1 -0.658947 7.35444 0.849218 12.402
390 82 1 0.241752 8.82533 3.39687 12.402
391 82 1 0.476422 7.35444 5.94452 12.402
392 82 1 0.508206 8.82533 8.49218 12.402
393 82 1 0.566646 7.35444 11.0398 12.402
394 82 1 -0.355149 8.82533 13.5875 12.402
395 82 1 -0.587914 7.35444 16.1351 12.402
396 82 1 -0.600148 8.82533 18.6828 12.402
397 82 1 0.255139 10.2962 0.849218 12.402
398 82 1 0.641792 11.7671 3.39687 12.402
399 82 1 0.454828 10.2962 5.94452 12.402
400 82 1 -0.346913 11.7671 8.49218 12.402
401 82 1 -0.348716 10.2962 11.0398 12.402
402 82 1 -0.753674 11.7671 13.5875 12.402
403 82 1 -0.567133 10.2962 16.1351 12.402
404 82 1 0.254016 11.7671 18.6828 12.402
405 82 1 0.876867 13.238 0.849218 12.402
406 82 1 0.34588 14.7089 3.39687 12.402
407 82 1 -0.0813016 13.238 5.94452 12.402
408 82 1 -0.909764 14.7089 8.49218 12.402
409 82 1 -0.9688 13.238 11.0398 12.402
410 82 1 -0.457583 14.7089 13.5875 12.402
411 82 1 -0.0301685 13.238 16.1351 12.402
412 82 1 0.817295 14.7089 18.6828 12.402
413 82 1 0.582168 16.1798 0.849218 12.402
414 82 1 -0.351139 0 3.39687 12.402
415 82 1 -0.59797 16.1798 5.94452 12.402
416 82 1 -0.619889 0 8.49218 12.402
417 82 1 -0.67597 16.1798 11.0398 12.402
418 82 1 0.235309 0 13.5875 12.402
419 82 1 0.484337 16.1798 16.1351 12.402
420 82 1 0.524627 0 18.6828 12.402
421 82 1 0.331024 2.94178 1.69844 14.8039
422 82 1 0.15742 4.41266 4.24609 14.8039
423 82 1 -0.0283389 2.94178 6.79374 14.8039
424 82 1 -0.43481 4.41266 9.34139 14.8039
425 82 1 -0.41711 2.94178 11.889 14.8039
426 82 1 -0.253258 4.41266 14.4367 14.8039
427 82 1 -0.067331 2.94178 16.9844 14.8039
428 82 1 0.382939 4.41266 19.532 14.8039
429 82 1 0.359478 5.88355 1.69844 14.8039
430 82 1 -0.101333 7.35444 4.24609 14.8039
431 82 1 -0.304557 5.88355 6.79374 14.8039
432 82 1 -0.418941 7.35444 9.34139 14.8039
433 82 1 -0.410701 5.88355 11.889 14.8039
434 82 1 0.0406202 7.35444 14.4367 14.8039
435 82 1 0.24666 5.88355 16.9844 14.8039
436 82 1 0.401491 7.35444 19.532 14.8039
437 82 1 0.0245032 8.82533 1.69844 14.8039
438 82 1 -0.297127 10.2962 4.24609 14.8039
439 82 1 -0.336901 8.82533 6.79374 14.8039
440 82 1 -0.043083 10.2962 9.34139 14.8039
441 82 1 -0.051462 8.82533 11.889 14.8039
442 82 1 0.251474 10.2962 14.4367 14.8039
443 82 1 0.303559 8.82533 16.9844 14.8039
444 82 1 0.0334768 10.2962 19.532 14.8039
445 82 1 -0.33298 11.7671 1.69844 14.8039
446 82 1 -0.232183 13.238 4.24609 14.8039
447 82 1 -0.0873679 11.7671 6.79374 14.8039
448 82 1 0.324201 13.238 9.34139 14.8039
449 82 1 0.307291 11.7671 11.889 14.8039
450 82 1 0.172323 13.238 14.4367 14.8039
451 82 1 0.0501549 11.7671 16.9844 14.8039
452 82 1 -0.348444 13.238 19.532 14.8039
453 82 1 -0.359227 14.7089 1.69844 14.8039
454 82 1 0.0232742 16.1798 4.24609 14.8039
455 82 1 0.193643 14.7089 6.79374 14.8039
456 82 1 0.308484 16.1798 9.34139 14.8039
457 82 1 0.306305 14.7089 11.889 14.8039
458 82 1 -0.121396 16.1798 14.4367 14.8039
459 82 1 -0.258859 14.7089 16.9844 14.8039
460 82 1 -0.367559 16.1798 19.532 14.8039
461 82 1 -0.0300011 0 1.69844 14.8039
462 82 1 0.217286 1.47089 4.24609 14.8039
463 82 1 0.220559 0 6.79374 14.8039
464 82 1 -0.0745348 1.47089 9.34139 14.8039
465 82 1 -0.0589702 0 11.889 14.8039
466 82 1 -0.336091 1.47089 14.4367 14.8039
467 82 1 -0.319205 0 16.9844 14.8039
468 82 1 -0.00416641 1.47089 19.532 14.8039
469 82 1 1.23055 4.41266 2.54765 17.2059
470 82 1 -0.0860787 5.88355 5.09531 17.2059
471 82 1 -0.6753 4.41266 7.64296 17.2059
472 82 1 -1.36195 5.88355 10.1906 17.2059
473 82 1 -1.1467 4.41266 12.7383 17.2059
474 82 1 0.165537 5.88355 15.2859 17.2059
475 82 1 0.780663 4.41266 17.8336 17.2059
476 82 1 1.50043 5.88355 0 17.2059
477 82 1 0.463163 7.35444 2.54765 17.2059
478 82 1 -0.769116 8.82533 5.09531 17.2059
479 82 1 -1.11607 7.35444 7.64296 17.2059
480 82 1 -0.455567 8.82533 10.1906 17.2059
481 82 1 -0.361678 7.35444 12.7383 17.2059
482 82 1 0.863429 8.82533 15.2859 17.2059
483 82 1 1.2465 7.35444 17.8336 17.2059
484 82 1 0.594942 8.82533 0 17.2059
485 82 1 -0.711483 10.2962 2.54765 17.2059
486 82 1 -0.641997 11.7671 5.09531 17.2059
487 82 1 -0.401846 10.2962 7.64296 17.2059
488 82 1 0.962907 11.7671 10.1906 17.2059
489 82 1 0.823186 10.2962 12.7383 17.2059
490 82 1 0.740993 11.7671 15.2859 17.2059
491 82 1 0.524249 10.2962 17.8336 17.2059
492 82 1 -0.82572 11.7671 0 17.2059
493 82 1 -1.11799 13.238 2.54765 17.2059
494 82 1 0.161816 14.7089 5.09531 17.2059
495 82 1 0.768443 13.238 7.64296 17.2059
496 82 1 1.47686 14.7089 10.1906 17.2059
497 82 1 1.23338 13.238 12.7383 17.2059
498 82 1 -0.078566 14.7089 15.2859 17.2059
499 82 1 -0.65127 13.238 17.8336 17.2059
500 82 1 -1.34561 14.7089 0 17.2059
501 82 1 -0.360589 16.1798 2.54765 17.2059
502 82 1 0.836263 0 5.09531 17.2059
503 82 1 1.21154 16.1798 7.64296 17.2059
504 82 1 0.553582 0 10.1906 17.2059
505 82 1 0.446171 16.1798 12.7383 17.2059
506 82 1 -0.783595 0 15.2859 17.2059
507 82 1 -1.11334 16.1798 17.8336 17.2059
508 82 1 -0.451927 0 0 17.2059
509 82 1 0.81299 1.47089 2.54765 17.2059
510 82 1 0.714903 2.94178 5.09531 17.2059
511 82 1 0.48249 1.47089 7.64296 17.2059
512 82 1 -0.866707 2.94178 10.1906 17.2059
513 82 1 -0.748589 1.47089 12.7383 17.2059
514 82 1 -0.662188 2.94178 15.2859 17.2059
515 82 1 -0.403384 1.47089 17.8336 17.2059
516 82 1 0.972032 2.94178 0 17.2059
517 82 1 0.526995 5.88355 3.39687 19.6078
518 82 1 -0.751586 7.35444 5.94452 19.6078
519 82 1 -1.14404 5.88355 8.49218 19.6078
520 82 1 -0.84131 7.35444 11.0398 19.6078
521 82 1 -0.562979 5.88355 13.5875 19.6078
522 82 1 0.722493 7.35444 16.1351 19.6078
523 82 1 1.17564 5.88355 18.6828 19.6078
524 82 1 0.829122 7.35444 0.849218 19.6078
525 82 1 -0.460305 8.82533 3.39687 19.6078
526 82 1 -0.734151 10.2962 5.94452 19.6078
527 82 1 -0.764206 8.82533 8.49218 19.6078
528 82 1 0.41766 10.2962 11.0398 19.6078
529 82 1 0.395439 8.82533 13.5875 19.6078
530 82 1 0.672971 10.2962 16.1351 19.6078
531 82 1 0.744171 8.82533 18.6828 19.6078
532 82 1 -0.465388 10.2962 0.849218 19.6078
533 82 1 -1.01094 11.7671 3.39687 19.6078
534 82 1 0.0247174 13.238 5.94452 19.6078
535 82 1 0.421668 11.7671 8.49218 19.6078
536 82 1 1.30875 13.238 11.0398 19.6078
537 82 1 0.958664 11.7671 13.5875 19.6078
538 82 1 -0.0742353 13.238 16.1351 19.6078
539 82 1 -0.470231 11.7671 18.6828 19.6078
540 82 1 -1.33229 13.238 0.849218 19.6078
541 82 1 -0.589104 14.7089 3.39687 19.6078
542 82 1 0.759515 16.1798 5.94452 19.6078
543 82 1 1.23692 14.7089 8.49218 19.6078
544 82 1 0.914189 16.1798 11.0398 19.6078
545 82 1 0.559776 14.7089 13.5875 19.6078
546 82 1 -0.786447 16.1798 16.1351 19.6078
547 82 1 -1.24876 14.7089 18.6828 19.6078
548 82 1 -0.909084 16.1798 0.849218 19.6078
549 82 1 0.390898 0 3.39687 19.6078
550 82 1 0.734781 1.47089 5.94452 19.6078
551 82 1 0.836446 0 8.49218 19.6078
552 82 1 -0.372767 1.47089 11.0398 19.6078
553 82 1 -0.41581 0 13.5875 19.6078
554 82 1 -0.753278 1.47089 16.1351 19.6078
555 82 1 -0.828069 0 18.6828 19.6078
556 82 1 0.379333 1.47089 0.849218 19.6078
557 82 1 0.952687 2.94178 3.39687 19.6078
558 82 1 -0.0154197 4.41266 5.94452 19.6078
559 82 1 -0.358448 2.94178 8.49218 19.6078
560 82 1 -1.23891 4.41266 11.0398 19.6078
561 82 1 -0.974878 2.94178 13.5875 19.6078
562 82 1 0.00733465 4.41266 16.1351 19.6078
563 82 1 0.378672 2.94178 18.6828 19.6078
564 82 1 1.25461 4.41266 0.849218 19.6078
ITEM: TIMESTEP
25000
ITEM: NUMBER OF ATOMS
564
ITEM: BOX BOUNDS pp pp ff
0.0000000000000000e+00 1.7650658050000001e+01
0.0000000000000000e+00 2.0381224350000000e+01
0.0000000000000000e+00 6.0000000000000000e+01
ITEM: ATOMS id mol type q x y z
1 1 2 0 7.59217 17.8876 22.0563
2 1 3 0.717358 7.98217 18.4233 22.7471
3 1 3 0.64634 7.4756 17.0264 22.4574
4 1 4 -1.3637 7.62717 17.846 22.196
5 2 2 0 13.278 19.2036 22.0833
6 2 3 0.911192 13.3502 19.4543 21.1624
7 2 3 0.46414 14.0222 19.6308 22.5074
8 2 4 -1.37533 13.3825 19.2903 22.0197
9 3 2 0 16.2761 9.22707 22.0221
10 3 3 0.683983 15.7536 9.57493 22.7447
11 3 3 0.804943 17.1435 9.08314 22.4006
12 3 4 -1.48893 16.3203 9.25317 22.163
13 4 2 0 2.95586 5.14412 22.0429
14 4 3 0.584689 2.39801 4.95364 22.797
15 4 3 0.732409 3.3178 6.01133 22.225
16 4 4 -1.3171 2.93078 5.23075 22.1627
17 5 2 0 13.1821 9.34258 22.0969
18 5 3 0.708826 13.1246 9.9796 22.809
19 5 3 0.75037 12.785 8.54784 22.4531
20 5 4 -1.4592 13.1239 9.32239 22.2337
21 6 2 0 1.04638 8.73372 22.9804
22 6 3 0.599573 1.15457 8.78774 23.9299
23 6 3 0.814899 1.80628 9.19516 22.6256
24 6 4 -1.41447 1.15751 8.7997 23.0565
25 7 2 0 4.55262 17.7764 22.2368
26 7 3 0.63882 3.66344 17.8738 22.5775
27 7 3 0.660178 4.79257 16.8739 22.4466
28 7 4 -1.299 4.46952 17.6734 22.3073
29 8 2 0 9.09886 20.1837 22.4395
30 8 3 0.606193 9.13195 -0.119096 23.3929
31 8 3 0.776605 9.91639 0.198319 22.1376
32 8 4 -1.3828 9.20775 -0.136843 22.5229
33 9 2 0 8.86159 6.09267 22.2421
34 9 3 0.723347 8.74291 5.84597 21.3248
35 9 3 0.61699 8.35175 6.89657 22.3422
36 9 4 -1.34034 8.78113 6.164 22.1375
37 10 2 0 5.96947 20.4736 21.8812
38 10 3 0.824142 5.63124 20.0662 22.6786
39 10 3 0.772183 6.62094 0.721539 22.191
40 10 4 -1.59633 6.00957 0.120735 22.023
41 11 2 0 3.0227 10.303 22.0501
42 11 3 0.906386 3.22129 10.5878 21.1581
43 11 3 0.368769 3.35949 9.40823 22.0969
44 11 4 -1.27516 3.09124 10.2249 21.9419
45 12 2 0 3.02653 20.3475 22.0954
46 12 3 0.659843 3.09595 0.486291 22.8961
47 12 3 0.732633 2.36066 19.6891 22.2939
48 12 4 -1.39248 2.95018 20.3298 22.2233
49 13 2 0 14.7794 11.9646 22.1254
50 13 3 0.773081 15.708 12.1139 22.3036
51 13 3 0.6992 14.3217 12.5228 22.754
52 13 4 -1.47228 14.8397 12.0552 22.2287
53 14 2 0 10.6197 17.7064 22.4887
54 14 3 0.583548 10.0531 18.4745 22.561
55 14 3 0.698429 11.5042 18.0661 22.4215
56 14 4 -1.28198 10.6604 17.8507 22.4894
57 15 2 0 13.3103 4.2893 22.2778
58 15 3 0.695829 12.8176 3.95865 21.5267
59 15 3 0.576555 13.8038 3.53218 22.5932
60 15 4 -1.27238 13.3104 4.15005 22.222
61 16 2 0 11.6442 6.77368 22.378
62 16 3 0.680454 12.0495 5.90653 22.3859
63 16 3 0.680003 10.7207 6.60528 22.1911
64 16 4 -1.36046 11.5779 6.64112 22.3551
65 17 2 0 4.46397 2.79975 22.0354
66 17 3 0.650801 4.14754 2.30091 22.7885
67 17 3 0.741413 4.38496 3.71522 22.3035
68 17 4 -1.39221 4.41335 2.85309 22.1661
69 18 2 0 7.4684 8.41726 22.0373
70 18 3 0.893108 7.24118 8.18034 21.1381
71 18 3 0.585871 7.02058 9.24998 22.1865
72 18 4 -1.47898 7.38198 8.49353 21.9413
73 19 2 0 14.624 1.68771 22.1748
74 19 3 0.464218 13.8033 1.90666 22.616
75 19 3 0.934482 14.3724 1.52931 21.2649
76 19 4 -1.3987 14.4867 1.69546 22.1148
77 20 2 0 6.11039 5.12764 22.2892
78 20 3 0.628882 7.02978 5.37282 22.3933
79 20 3 0.610748 5.75026 5.79103 21.7006
80 20 4 -1.23963 6.18198 5.24395 22.2272
81 21 2 0 17.6862 6.2138 22.0529
82 21 3 0.646735 17.1139 5.64223 22.5647
83 21 3 0.629062 0.575302 6.65982 22.7056
84 21 4 -1.2758 17.6821 6.19773 22.2019
85 22 2 0 17.4773 12.1809 22.2215
86 22 3 0.682068 0.475207 12.5485 21.6211
87 22 3 0.651603 0.264391 12.1739 23.0727
88 22 4 -1.33367 -0.0343074 12.2271 22.2536
89 23 2 0 10.1351 9.2143 22.197
90 23 3 0.828245 9.22918 8.99934 21.9748
91 23 3 0.499711 10.6002 8.37952 22.1421
92 23 4 -1.32796 10.0786 9.07992 22.1616
93 24 2 0 4.34944 12.9736 22.1141
94 24 3 0.775894 4.1872 12.8679 21.1767
95 24 3 0.543477 4.58412 12.0966 22.4174
96 24 4 -1.31937 4.35871 12.8478 22.0329
97 25 2 0 9.0293 12.1075 22.3542
98 25 3 0.486494 9.1035 12.2099 23.303
99 25 3 0.734971 8.11582 11.8605 22.2101
100 25 4 -1.22147 8.92187 12.089 22.4572
101 26 2 0 2.1609 19.1444 24.8403
102 26 3 0.579058 1.66023 18.5238 24.3108
103 26 3 0.511761 1.52742 19.4881 25.4702
104 26 4 -1.09082 2.01572 19.1089 24.8532
105 27 2 0 6.39036 10.9677 22.3369
106 27 3 0.910793 6.0654 11.0057 21.4373
107 27 3 0.448482 7.10634 10.3331 22.3068
108 27 4 -1.35927 6.44041 10.8913 22.2179
109 28 2 0 15.853 14.8319 22.4485
110 28 3 0.706633 16.0552 15.6579 22.0092
111 28 3 0.502244 16.6872 14.3633 22.4744
112 28 4 -1.20888 15.9857 14.8777 22.3956
113 29 2 0 8.73266 15.2523 22.3152
114 29 3 0.653794 8.30868 14.6512 22.9276
115 29 3 0.556267 9.54897 15.5007 22.749
116 29 4 -1.21006 8.78288 15.2072 22.4491
117 30 2 0 16.244 17.7583 22.0996
118 30 3 0.351507 16.1763 18.6296 22.4899
119 30 3 0.86887 16.0066 17.8875 21.1813
120 30 4 -1.22038 16.2049 17.8864 22.032
121 31 2 0 7.3071 2.37214 22.152
122 31 3 0.623892 6.75686 3.11997 22.3848
123 31 3 0.747517 8.18773 2.6273 22.427
124 31 4 -1.37141 7.3494 2.50054 22.217
125 32 2 0 11.519 1.09384 22.0618
126 32 3 0.56044 11.9776 0.265031 22.1996
127 32 3 0.833022 11.659 1.29461 21.1364
128 32 4 -1.39346 11.5956 1.01344 21.961
129 33 2 0 11.5974 14.6875 22.3526
130 33 3 0.838563 12.1972 15.3446 22.7057
131 33 3 0.511964 11.1536 14.3298 23.1216
132 33 4 -1.35053 11.6174 14.7259 22.4963
133 34 2 0 11.9077 12.015 22.136
134 34 3 0.750144 11.7983 12.7766 22.7054
135 34 3 0.682732 11.1752 11.4409 22.3597
136 34 4 -1.43288 11.7999 12.039 22.2375
137 35 2 0 -0.021348 0.183458 22.1803
138 35 3 0.699428 17.2564 20.374 21.3196
139 35 3 0.584375 16.8976 0.0761478 22.788
140 35 4 -1.2838 17.4879 0.145311 22.1479
141 36 2 0 4.71024 17.2479 25.4699
142 36 3 0.594676 4.54773 16.3047 25.452
143 36 3 0.498574 3.92492 17.6191 25.872
144 36 4 -1.09325 4.58891 17.1747 25.5191
145 37 2 0 14.9679 2.38609 25.9291
146 37 3 0.514111 14.2655 2.75197 25.3914
147 37 3 0.487938 14.7638 1.45274 25.9877
148 37 4 -1.00205 14.8518 2.31344 25.8677
149 38 2 0 1.30874 4.65035 24.3219
150 38 3 0.623891 1.90745 5.36151 24.55
151 38 3 0.569767 0.477935 4.89627 24.7287
152 38 4 -1.19366 1.27903 4.77287 24.4031
153 39 2 0 12.9468 18.3039 24.9698
154 39 3 0.550811 12.7918 19.2325 24.7968
155 39 3 0.68303 13.3435 17.9727 24.1641
156 39 4 -1.23384 12.9778 18.3804 24.8445
157 40 2 0 1.67941 9.71053 25.7559
158 40 3 0.625586 2.59612 9.9421 25.6067
159 40 3 0.49548 1.21247 10.5454 25.7224
160 40 4 -1.12107 1.73699 9.84705 25.7325
161 41 2 0 10.3628 8.98711 25.0104
162 41 3 0.583765 10.1751 9.03923 24.0732
163 41 3 0.646486 10.1614 8.08136 25.2454
164 41 4 -1.23025 10.313 8.87783 24.9205
165 42 2 0 2.57647 15.0531 22.3114
166 42 3 0.586672 3.30424 14.6052 21.8801
167 42 3 0.64138 1.88188 15.0713 21.6531
168 42 4 -1.22805 2.58072 14.9981 22.1719
169 43 2 0 16.0111 7.17121 24.7279
170 43 3 0.555081 16.1304 8.11964 24.7778
171 43 3 0.636666 15.1442 7.01825 25.1038
172 43 4 -1.19175 15.9154 7.27304 24.7824
173 44 2 0 14.7871 6.66017 22.2057
174 44 3 0.63086 15.3304 6.87426 22.9641
175 44 3 0.736498 14.4653 5.77625 22.3829
176 44 4 -1.36736 14.8154 6.57442 22.3255
177 45 2 0 7.44796 5.25869 25.6669
178 45 3 0.594085 6.79604 5.82707 25.2568
179 45 3 0.530632 8.28964 5.64291 25.4215
180 45 4 -1.12472 7.47225 5.38064 25.583
181 46 2 0 16.9715 17.9162 25.1522
182 46 3 0.628219 16.5615 18.6671 24.723
183 46 3 0.468828 17.2533 17.3524 24.4319
184 46 4 -1.09705 16.9551 17.9401 25.0051
185 47 2 0 4.22294 9.74918 24.4637
186 47 3 0.594072 4.73924 10.5448 24.5925
187 47 3 0.666723 4.15487 9.65841 23.5133
188 47 4 -1.2608 4.28031 9.83941 24.3585
189 48 2 0 4.18911 7.6142 22.3723
190 48 3 0.592293 4.94851 7.85283 22.9039
191 48 3 0.770397 4.29486 8.11584 21.564
192 48 4 -1.36269 4.29986 7.70897 22.3369
193 49 2 0 13.5984 16.62 22.7995
194 49 3 0.598002 14.4948 16.2886 22.8533
195 49 3 0.802835 13.6635 17.3996 22.248
196 49 4 -1.40084 13.7215 16.6774 22.7358
197 50 2 0 5.76026 12.1926 24.7506
198 50 3 0.673474 5.8831 11.8132 23.8804
199 50 3 0.629844 5.00489 12.7727 24.655
200 50 4 -1.30332 5.67929 12.2183 24.6269
201 51 2 0 12.6006 10.8537 24.9031
202 51 3 0.595754 12.3294 11.7461 25.1182
203 51 3 0.631097 11.8833 10.3028 25.2165
204 51 4 -1.22685 12.474 10.8974 24.9707
205 52 2 0 0.223546 1.31561 25.1762
206 52 3 0.540494 17.277 1.68638 25.8259
207 52 3 0.552781 17.3069 0.826634 24.5801
208 52 4 -1.09327 0.0744684 1.30047 25.1831
209 53 2 0 3.38164 1.8957 24.3569
210 53 3 0.641732 2.60128 1.77928 24.8989
211 53 3 0.625101 3.69794 2.77198 24.5767
212 53 4 -1.26683 3.32224 1.99297 24.4544
213 54 2 0 17.1004 12.1809 25.1581
214 54 3 0.608241 0.362053 12.4705 25.1656
215 54 3 0.618606 16.6103 12.9224 25.5133
216 54 4 -1.22685 17.1544 12.3129 25.2045
217 55 2 0 16.4303 3.54965 22.6141
218 55 3 0.795872 15.787 2.89662 22.3386
219 55 3 0.428614 17.2708 3.09445 22.5641
220 55 4 -1.22449 16.4555 3.40778 22.5724
221 56 2 0 10.2125 6.0772 24.969
222 56 3 0.63149 10.5111 5.20061 25.2111
223 56 3 0.572693 9.75845 5.9543 24.1353
224 56 4 -1.20418 10.1926 5.94926 24.8933
225 57 2 0 16.143 15.1381 25.9214
226 57 3 0.577755 16.6565 15.9379 25.8079
227 57 3 0.497938 15.4971 15.3607 26.5919
228 57 4 -1.07569 16.126 15.269 25.9927
229 58 2 0 13.2337 6.5276 24.9587
230 58 3 0.606285 12.3937 6.66914 24.522
231 58 3 0.528619 13.1832 5.63157 25.2915
232 58 4 -1.1349 13.1197 6.43102 24.9454
233 59 2 0 1.63004 17.8294 22.4404
234 59 3 0.584302 1.75142 16.9044 22.6544
235 59 3 0.75779 0.747661 17.8769 22.0725
236 59 4 -1.34209 1.53262 17.7171 22.4207
237 60 2 0 9.90803 0.162536 25.0619
238 60 3 0.602316 10.8265 0.294658 25.297
239 60 3 0.641346 9.44683 0.891479 25.4768
240 60 4 -1.24366 9.96656 0.272763 25.1451
241 61 2 0 5.7918 15.3839 22.4092
242 61 3 0.530649 5.67974 15.4293 23.3588
243 61 3 0.766384 5.45384 14.5212 22.1687
244 61 4 -1.29703 5.73419 15.2792 22.5
245 62 2 0 7.45645 14.563 24.8643
246 62 3 0.619203 7.12719 13.6705 24.9711
247 62 3 0.488098 7.6551 14.8536 25.7545
248 62 4 -1.1073 7.43973 14.4859 24.992
249 63 2 0 9.94199 3.31108 22.6918
250 63 3 0.708329 10.4759 2.88775 22.0195
251 63 3 0.559989 9.78129 4.19124 22.3516
252 63 4 -1.26832 9.98977 3.36956 22.5622
253 64 2 0 13.7472 13.8092 24.3027
254 64 3 0.58873 13.2773 14.297 24.979
255 64 3 0.638421 14.4918 14.3672 24.0779
256 64 4 -1.22715 13.7824 13.9431 24.3605
257 65 2 0 11.5811 3.31169 25.0559
258 65 3 0.620827 11.2087 3.21956 24.179
259 65 3 0.521697 11.8954 2.43488 25.2765
260 65 4 -1.14252 11.5737 3.18766 24.9719
261 66 2 0 2.71861 7.04946 24.834
262 66 3 0.557866 2.2992 7.72922 25.3615
263 66 3 0.644687 3.34282 7.52322 24.2843
264 66 4 -1.20255 2.74483 7.19713 24.8312
265 67 2 0 1.50168 2.53155 22.189
266 67 3 0.609042 1.54087 2.99886 23.0234
267 67 3 0.697615 0.828835 1.86336 22.3195
268 67 4 -1.30666 1.42056 2.50584 22.3125
269 68 2 0 15.4536 10.0139 24.6146
270 68 3 0.621057 14.6428 10.3215 25.02
271 68 3 0.662885 16.1 10.6858 24.831
272 68 4 -1.28394 15.4325 10.1393 24.6942
273 69 2 0 12.7261 0.750282 24.4819
274 69 3 0.548324 13.256 -0.0205872 24.279
275 69 3 0.738557 12.2963 0.970447 23.6555
276 69 4 -1.28688 12.7389 0.679785 24.3502
277 70 2 0 3.91812 14.5305 24.8746
278 70 3 0.562558 3.04789 14.314 25.2093
279 70 3 0.596423 3.7843 14.6832 23.9392
280 70 4 -1.15898 3.78959 14.5224 24.7977
281 71 2 0 4.51402 4.62678 24.5134
282 71 3 0.49666 4.16082 5.01653 25.3131
283 71 3 0.665942 4.96669 5.34726 24.0749
284 71 4 -1.1626 4.52676 4.7689 24.5596
285 72 2 0 2.09109 12.5428 24.1263
286 72 3 0.564878 2.40044 11.6643 23.9053
287 72 3 0.69147 2.50442 13.1129 23.4779
288 72 4 -1.25635 2.1836 12.5033 24.015
289 73 2 0 13.115 15.8483 26.568
290 73 3 0.465912 12.7736 15.9004 27.4607
291 73 3 0.621932 13.2716 16.7587 26.3174
292 73 4 -1.08784 13.0913 15.9715 26.6502
293 74 2 0 10.8496 16.1608 24.7962
294 74 3 0.62051 11.3965 16.6213 25.4328
295 74 3 0.615993 10.8045 16.7531 24.0456
296 74 4 -1.2365 10.9139 16.2956 24.7816
297 75 2 0 5.71599 19.8168 24.4269
298 75 3 0.679565 5.50892 19.0637 24.9802
299 75 3 0.514451 5.41357 20.5737 24.9288
300 75 4 -1.19402 5.65077 19.8173 24.562
301 76 2 0 8.54438 11.3509 25.3236
302 76 3 0.596515 7.60162 11.2559 25.4593
303 76 3 0.602036 8.86681 10.4534 25.2423
304 76 4 -1.19855 8.46497 11.2239 25.3306
305 77 2 0 8.36954 2.65359 25.539
306 77 3 0.494761 8.77987 2.89346 24.7081
307 77 3 0.625722 7.8219 3.40622 25.7623
308 77 4 -1.12048 8.35196 2.78064 25.4612
309 78 2 0 15.5442 19.9938 23.7794
310 78 3 0.59065 15.7637 19.2572 23.2089
311 78 3 0.798538 15.2106 0.285094 23.1856
312 78 4 -1.38919 15.5296 19.9856 23.6304
313 79 2 0 6.13946 7.3988 24.3594
314 79 3 0.63961 6.74517 7.51663 23.6276
315 79 3 0.567681 5.83756 8.28337 24.5658
316 79 4 -1.20729 6.17835 7.52712 24.2921
317 80 2 0 10.6633 13.0456 24.7211
318 80 3 0.677993 9.84618 12.6925 25.073
319 80 3 0.560438 10.6162 13.9846 24.9011
320 80 4 -1.23843 10.5527 13.1206 24.7892
321 81 2 0 8.55146 18.0865 24.8318
322 81 3 0.606052 9.08143 18.8518 25.0546
323 81 3 0.51809 9.17379 17.3594 24.8182
324 81 4 -1.12414 8.69897 18.0914 24.8585
325 82 1 0.515363 0 0 10
326 82 1 -0.954839 1.47089 2.54765 10
327 82 1 -0.863247 0 5.09531 10
328 82 1 -0.268027 1.47089 7.64296 10
329 82 1 -0.417793 0 10.1906 10
330 82 1 1.02157 1.47089 12.7383 10
331 82 1 0.927134 0 15.2859 10
332 82 1 0.333193 1.47089 17.8336 10
333 82 1 -1.28766 2.94178 0 10
334 82 1 -1.46173 4.41266 2.54765 10
335 82 1 -0.667556 2.94178 5.09531 10
336 82 1 1.11337 4.41266 7.64296 10
337 82 1 1.35949 2.94178 10.1906 10
338 82 1 1.51455 4.41266 12.7383 10
339 82 1 0.707218 2.94178 15.2859 10
340 82 1 -1.06143 4.41266 17.8336 10
341 82 1 -1.8097 5.88355 0 10
342 82 1 -0.515983 7.35444 2.54765 10
343 82 1 0.213135 5.88355 5.09531 10
344 82 1 1.44978 7.35444 7.64296 10
345 82 1 1.88152 5.88355 10.1906 10
346 82 1 0.58376 7.35444 12.7383 10
347 82 1 -0.171889 5.88355 15.2859 10
348 82 1 -1.38302 7.35444 17.8336 10
349 82 1 -0.528718 8.82533 0 10
350 82 1 0.937381 10.2962 2.54765 10
351 82 1 0.898113 8.82533 5.09531 10
352 82 1 0.40574 10.2962 7.64296 10
353 82 1 0.626167 8.82533 10.1906 10
354 82 1 -0.838914 10.2962 12.7383 10
355 82 1 -0.831169 8.82533 15.2859 10
356 82 1 -0.309083 10.2962 17.8336 10
357 82 1 1.27512 11.7671 0 10
358 82 1 1.445 13.238 2.54765 10
359 82 1 0.703207 11.7671 5.09531 10
360 82 1 -0.974673 13.238 7.64296 10
361 82 1 -1.15004 11.7671 10.1906 10
362 82 1 -1.3307 13.238 12.7383 10
363 82 1 -0.610229 11.7671 15.2859 10
364 82 1 1.0865 13.238 17.8336 10
365 82 1 1.79717 14.7089 0 10
366 82 1 0.498518 16.1798 2.54765 10
367 82 1 -0.17747 14.7089 5.09531 10
368 82 1 -1.312 16.1798 7.64296 10
369 82 1 -1.67198 14.7089 10.1906 10
370 82 1 -0.401019 16.1798 12.7383 10
371 82 1 0.268963 14.7089 15.2859 10
372 82 1 1.40718 16.1798 17.8336 10
373 82 1 -0.390444 1.47089 0.849218 12.402
374 82 1 -0.732414 2.94178 3.39687 12.402
375 82 1 -0.488559 1.47089 5.94452 12.402
376 82 1 0.375804 2.94178 8.49218 12.402
377 82 1 0.311765 1.47089 11.0398 12.402
378 82 1 0.619823 2.94178 13.5875 12.402
379 82 1 0.362122 1.47089 16.1351 12.402
380 82 1 -0.464243 2.94178 18.6828 12.402
381 82 1 -1.0263 4.41266 0.849218 12.402
382 82 1 -0.449366 5.88355 3.39687 12.402
383 82 1 0.0512497 4.41266 5.94452 12.402
384 82 1 0.879113 5.88355 8.49218 12.402
385 82 1 0.94853 4.41266 11.0398 12.402
386 82 1 0.337304 5.88355 13.5875 12.402
387 82 1 -0.172397 4.41266 16.1351 12.402
388 82 1 -0.96782 5.88355 18.6828 12.402
389 82 1 -0.662412 7.35444 0.849218 12.402
390 82 1 0.23589 8.82533 3.39687 12.402
391 82 1 0.476334 7.35444 5.94452 12.402
392 82 1 0.446687 8.82533 8.49218 12.402
393 82 1 0.580184 7.35444 11.0398 12.402
394 82 1 -0.350979 8.82533 13.5875 12.402
395 82 1 -0.599025 7.35444 16.1351 12.402
396 82 1 -0.539778 8.82533 18.6828 12.402
397 82 1 0.339452 10.2962 0.849218 12.402
398 82 1 0.639804 11.7671 3.39687 12.402
399 82 1 0.362828 10.2962 5.94452 12.402
400 82 1 -0.486441 11.7671 8.49218 12.402
401 82 1 -0.421578 10.2962 11.0398 12.402
402 82 1 -0.753448 11.7671 13.5875 12.402
403 82 1 -0.488746 10.2962 16.1351 12.402
404 82 1 0.394389 11.7671 18.6828 12.402
405 82 1 0.977394 13.238 0.849218 12.402
406 82 1 0.356631 14.7089 3.39687 12.402
407 82 1 -0.175124 13.238 5.94452 12.402
408 82 1 -0.989232 14.7089 8.49218 12.402
409 82 1 -1.05495 13.238 11.0398 12.402
410 82 1 -0.470972 14.7089 13.5875 12.402
411 82 1 0.0485137 13.238 16.1351 12.402
412 82 1 0.89838 14.7089 18.6828 12.402
413 82 1 0.61131 16.1798 0.849218 12.402
414 82 1 -0.3304 0 3.39687 12.402
415 82 1 -0.601627 16.1798 5.94452 12.402
416 82 1 -0.559479 0 8.49218 12.402
417 82 1 -0.689931 16.1798 11.0398 12.402
418 82 1 0.213992 0 13.5875 12.402
419 82 1 0.472783 16.1798 16.1351 12.402
420 82 1 0.467948 0 18.6828 12.402
421 82 1 0.422675 2.94178 1.69844 14.8039
422 82 1 0.186296 4.41266 4.24609 14.8039
423 82 1 -0.0543315 2.94178 6.79374 14.8039
424 82 1 -0.476227 4.41266 9.34139 14.8039
425 82 1 -0.437024 2.94178 11.889 14.8039
426 82 1 -0.244076 4.41266 14.4367 14.8039
427 82 1 0.000871411 2.94178 16.9844 14.8039
428 82 1 0.477547 4.41266 19.532 14.8039
429 82 1 0.423228 5.88355 1.69844 14.8039
430 82 1 -0.0774857 7.35444 4.24609 14.8039
431 82 1 -0.320164 5.88355 6.79374 14.8039
432 82 1 -0.440077 7.35444 9.34139 14.8039
433 82 1 -0.442317 5.88355 11.889 14.8039
434 82 1 0.00256534 7.35444 14.4367 14.8039
435 82 1 0.271413 5.88355 16.9844 14.8039
436 82 1 0.418408 7.35444 19.532 14.8039
437 82 1 0.0341095 8.82533 1.69844 14.8039
438 82 1 -0.278954 10.2962 4.24609 14.8039
439 82 1 -0.321652 8.82533 6.79374 14.8039
440 82 1 -0.024931 10.2962 9.34139 14.8039
441 82 1 -0.0826523 8.82533 11.889 14.8039
442 82 1 0.176069 10.2962 14.4367 14.8039
443 82 1 0.242078 8.82533 16.9844 14.8039
444 82 1 -0.0234098 10.2962 19.532 14.8039
445 82 1 -0.350856 11.7671 1.69844 14.8039
446 82 1 -0.216973 13.238 4.24609 14.8039
447 82 1 -0.0521997 11.7671 6.79374 14.8039
448 82 1 0.355399 13.238 9.34139 14.8039
449 82 1 0.292242 11.7671 11.889 14.8039
450 82 1 0.103042 13.238 14.4367 14.8039
451 82 1 -0.0510963 11.7671 16.9844 14.8039
452 82 1 -0.405618 13.238 19.532 14.8039
453 82 1 -0.35286 14.7089 1.69844 14.8039
454 82 1 0.0429306 16.1798 4.24609 14.8039
455 82 1 0.215426 14.7089 6.79374 14.8039
456 82 1 0.312054 16.1798 9.34139 14.8039
457 82 1 0.297336 14.7089 11.889 14.8039
458 82 1 -0.151541 16.1798 14.4367 14.8039
459 82 1 -0.319878 14.7089 16.9844 14.8039
460 82 1 -0.351533 16.1798 19.532 14.8039
461 82 1 0.0318308 0 1.69844 14.8039
462 82 1 0.244817 1.47089 4.24609 14.8039
463 82 1 0.21184 0 6.79374 14.8039
464 82 1 -0.104441 1.47089 9.34139 14.8039
465 82 1 -0.0722103 0 11.889 14.8039
466 82 1 -0.325307 1.47089 14.4367 14.8039
467 82 1 -0.297072 0 16.9844 14.8039
468 82 1 0.0896715 1.47089 19.532 14.8039
469 82 1 1.30123 4.41266 2.54765 17.2059
470 82 1 -0.132163 5.88355 5.09531 17.2059
471 82 1 -0.848631 4.41266 7.64296 17.2059
472 82 1 -1.4677 5.88355 10.1906 17.2059
473 82 1 -1.17831 4.41266 12.7383 17.2059
474 82 1 0.21501 5.88355 15.2859 17.2059
475 82 1 0.974947 4.41266 17.8336 17.2059
476 82 1 1.62119 5.88355 0 17.2059
477 82 1 0.491082 7.35444 2.54765 17.2059
478 82 1 -0.715406 8.82533 5.09531 17.2059
479 82 1 -1.13787 7.35444 7.64296 17.2059
480 82 1 -0.403704 8.82533 10.1906 17.2059
481 82 1 -0.393195 7.35444 12.7383 17.2059
482 82 1 0.773868 8.82533 15.2859 17.2059
483 82 1 1.24658 7.35444 17.8336 17.2059
484 82 1 0.526689 8.82533 0 17.2059
485 82 1 -0.738241 10.2962 2.54765 17.2059
486 82 1 -0.54846 11.7671 5.09531 17.2059
487 82 1 -0.248093 10.2962 7.64296 17.2059
488 82 1 1.13398 11.7671 10.1906 17.2059
489 82 1 0.830693 10.2962 12.7383 17.2059
490 82 1 0.592078 11.7671 15.2859 17.2059
491 82 1 0.329674 10.2962 17.8336 17.2059
492 82 1 -0.997492 11.7671 0 17.2059
493 82 1 -1.16384 13.238 2.54765 17.2059
494 82 1 0.197113 14.7089 5.09531 17.2059
495 82 1 0.936894 13.238 7.64296 17.2059
496 82 1 1.58668 14.7089 10.1906 17.2059
497 82 1 1.26713 13.238 12.7383 17.2059
498 82 1 -0.164635 14.7089 15.2859 17.2059
499 82 1 -0.855939 13.238 17.8336 17.2059
500 82 1 -1.4393 14.7089 0 17.2059
501 82 1 -0.365526 16.1798 2.54765 17.2059
502 82 1 0.775597 0 5.09531 17.2059
503 82 1 1.21846 16.1798 7.64296 17.2059
504 82 1 0.501184 0 10.1906 17.2059
505 82 1 0.457534 16.1798 12.7383 17.2059
506 82 1 -0.73912 0 15.2859 17.2059
507 82 1 -1.13491 16.1798 17.8336 17.2059
508 82 1 -0.353494 0 0 17.2059
509 82 1 0.869937 1.47089 2.54765 17.2059
510 82 1 0.613085 2.94178 5.09531 17.2059
511 82 1 0.324371 1.47089 7.64296 17.2059
512 82 1 -1.01554 2.94178 10.1906 17.2059
513 82 1 -0.763681 1.47089 12.7383 17.2059
514 82 1 -0.542797 2.94178 15.2859 17.2059
515 82 1 -0.221993 1.47089 17.8336 17.2059
516 82 1 1.1818 2.94178 0 17.2059
517 82 1 0.495318 5.88355 3.39687 19.6078
518 82 1 -0.773734 7.35444 5.94452 19.6078
519 82 1 -1.27406 5.88355 8.49218 19.6078
520 82 1 -0.847718 7.35444 11.0398 19.6078
521 82 1 -0.546944 5.88355 13.5875 19.6078
522 82 1 0.728126 7.35444 16.1351 19.6078
523 82 1 1.26183 5.88355 18.6828 19.6078
524 82 1 0.824446 7.35444 0.849218 19.6078
525 82 1 -0.45623 8.82533 3.39687 19.6078
526 82 1 -0.616407 10.2962 5.94452 19.6078
527 82 1 -0.673786 8.82533 8.49218 19.6078
528 82 1 0.577196 10.2962 11.0398 19.6078
529 82 1 0.416417 8.82533 13.5875 19.6078
530 82 1 0.574387 10.2962 16.1351 19.6078
531 82 1 0.656364 8.82533 18.6828 19.6078
532 82 1 -0.560721 10.2962 0.849218 19.6078
533 82 1 -1.01193 11.7671 3.39687 19.6078
534 82 1 0.127959 13.238 5.94452 19.6078
535 82 1 0.651581 11.7671 8.49218 19.6078
536 82 1 1.50054 13.238 11.0398 19.6078
537 82 1 1.00704 11.7671 13.5875 19.6078
538 82 1 -0.180161 13.238 16.1351 19.6078
539 82 1 -0.642827 11.7671 18.6828 19.6078
540 82 1 -1.4425 13.238 0.849218 19.6078
541 82 1 -0.627681 14.7089 3.39687 19.6078
542 82 1 0.713839 16.1798 5.94452 19.6078
543 82 1 1.35872 14.7089 8.49218 19.6078
544 82 1 0.965618 16.1798 11.0398 19.6078
545 82 1 0.600892 14.7089 13.5875 19.6078
546 82 1 -0.788201 16.1798 16.1351 19.6078
547 82 1 -1.34778 14.7089 18.6828 19.6078
548 82 1 -0.933798 16.1798 0.849218 19.6078
549 82 1 0.328274 0 3.39687 19.6078
550 82 1 0.559266 1.47089 5.94452 19.6078
551 82 1 0.742355 0 8.49218 19.6078
552 82 1 -0.454642 1.47089 11.0398 19.6078
553 82 1 -0.382948 0 13.5875 19.6078
554 82 1 -0.629571 1.47089 16.1351 19.6078
555 82 1 -0.743104 0 18.6828 19.6078
556 82 1 0.467053 1.47089 0.849218 19.6078
557 82 1 0.893332 2.94178 3.39687 19.6078
558 82 1 -0.185733 4.41266 5.94452 19.6078
559 82 1 -0.56561 2.94178 8.49218 19.6078
560 82 1 -1.3492 4.41266 11.0398 19.6078
561 82 1 -0.94583 2.94178 13.5875 19.6078
562 82 1 0.133018 4.41266 16.1351 19.6078
563 82 1 0.563782 2.94178 18.6828 19.6078
564 82 1 1.3472 4.41266 0.849218 19.6078
