# conductor demonstration, dynamics: arm qeq, eta_Au 0.3 (run_dyn.py)
units           metal
atom_style      full
boundary        p p f
fix             pb all property/atom i_body ghost yes
read_data       data fix pb NULL RigidBodies
group           au   type 1
group           water type 2 3 4
group           fq   type 1 3 4
pair_style      hybrid/overlay lj/cut 12.0 coul/long 12.0 coul/shield/intra 12.0 all gaussian
pair_coeff      * * lj/cut 0.0 1.0
pair_coeff      2 2 lj/cut 0.012412 3.159
pair_coeff      1 2 lj/cut 0.05 3.0            # illustrative Au-O term (not a fitted gold-water potential)
pair_coeff      * * coul/long
pair_coeff      1 1 coul/shield/intra 1.618000
pair_coeff      1 2 coul/shield/intra 0.714283
pair_coeff      1 3 coul/shield/intra 0.808855
pair_coeff      1 4 coul/shield/intra 0.714283
pair_coeff      2 2 coul/shield/intra 0.315328
pair_coeff      2 3 coul/shield/intra 0.357078
pair_coeff      2 4 coul/shield/intra 0.315328
pair_coeff      3 3 coul/shield/intra 0.404355
pair_coeff      3 4 coul/shield/intra 0.357078
pair_coeff      4 4 coul/shield/intra 0.315328
special_bonds   lj/coul 1.0e-8 1.0e-8 1.0
kspace_style    pppm/samqeq 1.0e-6
kspace_modify   slab 3.0 mesh 24 28 80 gewald 0.35
neighbor        2.0 bin
neigh_modify    every 1 delay 0 check yes
set             group all mol 1   # one global constraint (bodies keep i_body)
fix             chg fq qeq/sam 1 0.0 10.0 1.0e-8 param
fix_modify      chg shield gaussian
fix_modify      chg energy yes

velocity        water create 298.0 4928459 mom yes rot yes dist gaussian
fix             rig water rigid/nvt/small custom i_body temp 298.0 298.0 0.1
variable        aq atom abs(q)
compute         qmax fq reduce max v_aq
thermo_style    custom step pe c_qmax
thermo          500
timestep        0.0002
dump            dq all custom 2500 charges.lammpstrj id mol type q x y z
dump_modify     dq sort id
run             25000
print           "DYN_DONE" file done.txt screen no
