LAMMPS (2 Sep 2026)
OMP_NUM_THREADS environment is not set. Defaulting to 1 thread.
  using 1 OpenMP thread(s) per MPI task
# conductor demonstration, dynamics: arm qeq, eta_Au 0.3 (run_dyn.py)
units           metal
atom_style      full
boundary        p p f
fix             pb all property/atom i_body ghost yes
read_data       data fix pb NULL RigidBodies
Reading data file ...
  orthogonal box = (0 0 0) to (17.650658 20.381224 60)
  1 by 1 by 1 MPI processor grid
  reading atoms ...
  564 atoms
  scanning bonds ...
  2 = max bonds/atom
  scanning angles ...
  1 = max angles/atom
  orthogonal box = (0 0 0) to (17.650658 20.381224 60)
  1 by 1 by 1 MPI processor grid
  reading bonds ...
  162 bonds
  reading angles ...
  81 angles
Finding 1-2 1-3 1-4 neighbors ...
  special bond factors lj:    0        0        0       
  special bond factors coul:  0        0        0       
     2 = max # of 1-2 neighbors
     1 = max # of 1-3 neighbors
     1 = max # of 1-4 neighbors
     2 = max # of special neighbors
  special bonds CPU = 0.000 seconds
  read_data CPU = 0.004 seconds
group           au   type 1
240 atoms in group au
group           water type 2 3 4
324 atoms in group water
group           fq   type 1 3 4
483 atoms in group fq
pair_style      hybrid/overlay lj/cut 12.0 coul/long 12.0 coul/shield/intra 12.0 all gaussian
pair_coeff      * * lj/cut 0.0 1.0
pair_coeff      2 2 lj/cut 0.012412 3.159
pair_coeff      1 2 lj/cut 0.05 3.0            # illustrative Au-O term (not a fitted gold-water potential)
pair_coeff      * * coul/long
pair_coeff      1 1 coul/shield/intra 1.618000
pair_coeff      1 2 coul/shield/intra 0.714283
pair_coeff      1 3 coul/shield/intra 0.808855
pair_coeff      1 4 coul/shield/intra 0.714283
pair_coeff      2 2 coul/shield/intra 0.315328
pair_coeff      2 3 coul/shield/intra 0.357078
pair_coeff      2 4 coul/shield/intra 0.315328
pair_coeff      3 3 coul/shield/intra 0.404355
pair_coeff      3 4 coul/shield/intra 0.357078
pair_coeff      4 4 coul/shield/intra 0.315328
special_bonds   lj/coul 1.0e-8 1.0e-8 1.0
Finding 1-2 1-3 1-4 neighbors ...
  special bond factors lj:    1e-08    1e-08    1       
  special bond factors coul:  1e-08    1e-08    1       
     2 = max # of 1-2 neighbors
     1 = max # of 1-3 neighbors
     2 = max # of special neighbors
  special bonds CPU = 0.000 seconds
kspace_style    pppm/samqeq 1.0e-6
kspace_modify   slab 3.0 mesh 24 28 80 gewald 0.35
Updated KSpace settings:
  KSpace computation is turned:    ON
  Use MPI collective operations:   OFF
  Use MPI non-blocking operations: OFF
  Gewald manually set to:          0.35
  Slab volfactor manually set to:    3
neighbor        2.0 bin
neigh_modify    every 1 delay 0 check yes
set             group all mol 1   # one global constraint (bodies keep i_body)
Setting atom values ...
  564 settings made for mol
fix             chg fq qeq/sam 1 0.0 10.0 1.0e-8 param
fix_modify      chg shield gaussian
samqeq: lr-solve shielding = PQEq Gaussian erf(a_ij r)/r (param 4th col = Rc (Gaussian radius)); routed through compute_H + add_fixed_charge_field + the legacy gas path (calc_Hval)
fix_modify      chg energy yes

velocity        water create 298.0 4928459 mom yes rot yes dist gaussian
fix             rig water rigid/nvt/small custom i_body temp 298.0 298.0 0.1
Fix rigid/nvt/small setup ...
  create bodies CPU = 0.000 seconds
  81 rigid bodies with 324 atoms
  0.87348128 = max distance from body owner to body atom
variable        aq atom abs(q)
compute         qmax fq reduce max v_aq
thermo_style    custom step pe c_qmax
thermo          500
timestep        0.0002
dump            dq all custom 2500 charges.lammpstrj id mol type q x y z
dump_modify     dq sort id
run             25000

CITE-CITE-CITE-CITE-CITE-CITE-CITE-CITE-CITE-CITE-CITE-CITE-CITE

Your simulation uses code contributions which should be cited:

- fix acks2/reaxff command: https://doi.org/10.1137/18M1224684

@Article{O'Hearn2020,
 author = {K. A. {O'Hearn} and A. Alperen and H. M. Aktulga},
 title = {Fast Solvers for Charge Distribution Models on Shared Memory Platforms},
 journal = {SIAM J.\ Sci.\ Comput.},
 year =    2020,
 volume =  42,
 number =  1,
 pages =   {1--22}
}

CITE-CITE-CITE-CITE-CITE-CITE-CITE-CITE-CITE-CITE-CITE-CITE-CITE

PPPM initialization ...
WARNING: Using kspace solver on system with no charge (src/kspace.cpp:317)
  using 12-bit tables for long-range coulomb
  G vector (1/distance) = 0.35
  grid = 24 30 80
  stencil order = 5
  estimated absolute RMS force accuracy = 0
  estimated relative force accuracy = 0
  using double precision FFTW3
  3d grid and FFT values/proc = 94054 57600
Generated 0 of 6 mixed pair_coeff terms from geometric mixing rule
WARNING: Bonds are defined but no bond style is set (src/force.cpp:165)
WARNING: Likewise 1-2 special neighbor interactions != 1.0 (src/force.cpp:167)
WARNING: Angles are defined but no angle style is set (src/force.cpp:170)
WARNING: Likewise 1-3 special neighbor interactions != 1.0 (src/force.cpp:172)
samqeq: E_self = sum(chi q + 1/2 eta qs^2) INCLUDED in pe/etotal (fix_modify chg energy yes; eselfref qs = q - q0) -- pe + E_self is the energy the forces integrate
Neighbor list info ...
  update: every = 1 steps, delay = 0 steps, check = yes
  max neighbors/atom: 2000, page size: 100000
  master list distance cutoff = 14
  ghost atom cutoff = 14
  binsize = 7, bins = 3 3 9
  5 neighbor lists, perpetual/occasional/extra = 5 0 0
  (1) pair lj/cut, perpetual, half/full from (5)
      attributes: half, newton on
      pair build: halffull/newton
      stencil: none
      bin: none
  (2) pair coul/long, perpetual, copy from (1)
      attributes: half, newton on
      pair build: copy
      stencil: none
      bin: none
  (3) pair coul/shield/intra, perpetual, copy from (1)
      attributes: half, newton on
      pair build: copy
      stencil: none
      bin: none
  (4) fix qeq/sam, perpetual, half/full from (5)
      attributes: half, newton off
      pair build: halffull/newtoff
      stencil: none
      bin: none
  (5) fix qeq/sam, perpetual
      attributes: full, newton on
      pair build: full/bin
      stencil: full/bin/3d
      bin: standard
samqeq: recip_self ACTIVE at run start (step 0): not yet calibrated -- measured at the first solve by the K=16 deterministic-probe route
samqeq: calibrated grid reciprocal self-term recip_self=0.39461 +/- 0.00022 (raw, K=16 deterministic probes) = 5.6822 eV/e (subtracted so the QEq diagonal stays = eta)
samqeq SOLVER-DIAG step 0: CG 364 iters (=364 matvecs), resid/b=9.44e-09
Per MPI rank memory allocation (min/avg/max) = 38.54 | 38.54 | 38.54 Mbytes
   Step         PotEng         c_qmax    
         0  -135.81493      1.3594997    
samqeq SOLVER-DIAG step 200: CG 351 iters (=351 matvecs), resid/b=8.30e-09
samqeq SOLVER-DIAG step 400: CG 338 iters (=338 matvecs), resid/b=8.87e-09
       500  -138.766        1.2388633    
samqeq SOLVER-DIAG step 600: CG 371 iters (=371 matvecs), resid/b=9.94e-09
samqeq SOLVER-DIAG step 800: CG 370 iters (=370 matvecs), resid/b=9.88e-09
samqeq SOLVER-DIAG step 1000: CG 395 iters (=395 matvecs), resid/b=9.34e-09
      1000  -141.00293      1.3103202    
samqeq SOLVER-DIAG step 1200: CG 373 iters (=373 matvecs), resid/b=6.24e-09
WARNING: samqeq: near-critical config at step 1343 bounded with adaptive ridge=0.5 eV (max|q|=0.966) [1 engaged solves so far] (src/SAMQEQ/fix_qeq_sam_lr.cpp:2197)
WARNING: samqeq: near-critical config at step 1344 bounded with adaptive ridge=0.5 eV (max|q|=0.965) [2 engaged solves so far] (src/SAMQEQ/fix_qeq_sam_lr.cpp:2197)
WARNING: samqeq: near-critical config at step 1345 bounded with adaptive ridge=0.5 eV (max|q|=0.965) [3 engaged solves so far] (src/SAMQEQ/fix_qeq_sam_lr.cpp:2197)
WARNING: samqeq: near-critical config at step 1346 bounded with adaptive ridge=0.5 eV (max|q|=0.965) [4 engaged solves so far] (src/SAMQEQ/fix_qeq_sam_lr.cpp:2197)
WARNING: samqeq: near-critical config at step 1347 bounded with adaptive ridge=0.5 eV (max|q|=0.964) [5 engaged solves so far] (src/SAMQEQ/fix_qeq_sam_lr.cpp:2197)
samqeq SOLVER-DIAG step 1400: CG 393 iters (=393 matvecs), resid/b=7.17e-09, ridge=0 (engaged 57 solves)
samqeq SOLVER-DIAG step 1400: CG 268 iters (=268 matvecs), resid/b=8.37e-09, ridge=0.5 (engaged 57 solves)
WARNING: samqeq: near-critical config at step 1469 bounded with adaptive ridge=0.5 eV (max|q|=0.963) [100 engaged solves so far] (src/SAMQEQ/fix_qeq_sam_lr.cpp:2197)
      1500  -153.72392      3.9730657    
WARNING: samqeq: near-critical config at step 1588 bounded with adaptive ridge=0.5 eV (max|q|=0.954) [200 engaged solves so far] (src/SAMQEQ/fix_qeq_sam_lr.cpp:2197)
samqeq SOLVER-DIAG step 1600: CG 433 iters (=433 matvecs), resid/b=7.87e-09, ridge=0 (engaged 205 solves)
samqeq SOLVER-DIAG step 1600: CG 272 iters (=272 matvecs), resid/b=5.55e-09, ridge=0.5 (engaged 205 solves)
WARNING: samqeq: near-critical config at step 1702 bounded with adaptive ridge=0.5 eV (max|q|=0.910) [300 engaged solves so far] (src/SAMQEQ/fix_qeq_sam_lr.cpp:2197)
samqeq SOLVER-DIAG step 1800: CG 424 iters (=424 matvecs), resid/b=7.83e-09, ridge=0 (engaged 384 solves)
samqeq SOLVER-DIAG step 1800: CG 256 iters (=256 matvecs), resid/b=6.75e-09, ridge=0.5 (engaged 384 solves)
WARNING: samqeq: near-critical config at step 1815 bounded with adaptive ridge=0.5 eV (max|q|=0.923) [400 engaged solves so far] (src/SAMQEQ/fix_qeq_sam_lr.cpp:2197)
WARNING: samqeq: near-critical config at step 1931 bounded with adaptive ridge=0.5 eV (max|q|=0.914) [500 engaged solves so far] (src/SAMQEQ/fix_qeq_sam_lr.cpp:2197)
samqeq SOLVER-DIAG step 2000: CG 430 iters (=430 matvecs), resid/b=8.42e-09, ridge=0 (engaged 562 solves)
samqeq SOLVER-DIAG step 2000: CG 274 iters (=274 matvecs), resid/b=9.73e-09, ridge=0.5 (engaged 562 solves)
      2000  -129.47453      0.91078211   
WARNING: samqeq: near-critical config at step 2040 bounded with adaptive ridge=0.5 eV (max|q|=0.922) [600 engaged solves so far] (src/SAMQEQ/fix_qeq_sam_lr.cpp:2197)
WARNING: samqeq: near-critical config at step 2152 bounded with adaptive ridge=0.5 eV (max|q|=0.919) [700 engaged solves so far] (src/SAMQEQ/fix_qeq_sam_lr.cpp:2197)
samqeq SOLVER-DIAG step 2200: CG 422 iters (=422 matvecs), resid/b=7.70e-09, ridge=0 (engaged 743 solves)
samqeq SOLVER-DIAG step 2200: CG 270 iters (=270 matvecs), resid/b=8.94e-09, ridge=0.5 (engaged 743 solves)
WARNING: samqeq: near-critical config at step 2258 bounded with adaptive ridge=0.5 eV (max|q|=0.929) [800 engaged solves so far] (src/SAMQEQ/fix_qeq_sam_lr.cpp:2197)
WARNING: samqeq: near-critical config at step 2370 bounded with adaptive ridge=0.5 eV (max|q|=0.910) [900 engaged solves so far] (src/SAMQEQ/fix_qeq_sam_lr.cpp:2197)
samqeq SOLVER-DIAG step 2400: CG 460 iters (=460 matvecs), resid/b=4.43e-09, ridge=0 (engaged 929 solves)
samqeq SOLVER-DIAG step 2400: CG 260 iters (=260 matvecs), resid/b=8.80e-09, ridge=0.5 (engaged 929 solves)
WARNING: samqeq: near-critical config at step 2475 bounded with adaptive ridge=0.5 eV (max|q|=0.910) [1000 engaged solves so far] (src/SAMQEQ/fix_qeq_sam_lr.cpp:2197)
      2500  -131.42808      0.91081578   
WARNING: samqeq: near-critical config at step 2587 bounded with adaptive ridge=0.5 eV (max|q|=0.904) [1100 engaged solves so far] (src/SAMQEQ/fix_qeq_sam_lr.cpp:2197)
samqeq SOLVER-DIAG step 2600: CG 472 iters (=472 matvecs), resid/b=7.15e-09, ridge=0 (engaged 1112 solves)
samqeq SOLVER-DIAG step 2600: CG 267 iters (=267 matvecs), resid/b=8.83e-09, ridge=0.5 (engaged 1112 solves)
WARNING: samqeq: near-critical config at step 2690 bounded with adaptive ridge=0.5 eV (max|q|=0.919) [1200 engaged solves so far] (src/SAMQEQ/fix_qeq_sam_lr.cpp:2197)
WARNING: samqeq: near-critical config at step 2797 bounded with adaptive ridge=0.5 eV (max|q|=0.906) [1300 engaged solves so far] (src/SAMQEQ/fix_qeq_sam_lr.cpp:2197)
samqeq SOLVER-DIAG step 2800: CG 479 iters (=479 matvecs), resid/b=9.33e-09, ridge=0 (engaged 1302 solves)
samqeq SOLVER-DIAG step 2800: CG 264 iters (=264 matvecs), resid/b=9.73e-09, ridge=0.5 (engaged 1302 solves)
WARNING: samqeq: near-critical config at step 2900 bounded with adaptive ridge=0.5 eV (max|q|=0.903) [1400 engaged solves so far] (src/SAMQEQ/fix_qeq_sam_lr.cpp:2197)
samqeq SOLVER-DIAG step 3000: CG 452 iters (=452 matvecs), resid/b=8.38e-09, ridge=0 (engaged 1495 solves)
      3000  -143.44238      3.9750104    
WARNING: samqeq: near-critical config at step 3005 bounded with adaptive ridge=0.5 eV (max|q|=0.914) [1500 engaged solves so far] (src/SAMQEQ/fix_qeq_sam_lr.cpp:2197)
WARNING: samqeq: near-critical config at step 3109 bounded with adaptive ridge=0.5 eV (max|q|=0.897) [1600 engaged solves so far] (src/SAMQEQ/fix_qeq_sam_lr.cpp:2197)
samqeq SOLVER-DIAG step 3200: CG 428 iters (=428 matvecs), resid/b=6.88e-09, ridge=0 (engaged 1688 solves)
samqeq SOLVER-DIAG step 3200: CG 253 iters (=253 matvecs), resid/b=9.77e-09, ridge=0.5 (engaged 1688 solves)
WARNING: samqeq: near-critical config at step 3213 bounded with adaptive ridge=0.5 eV (max|q|=0.921) [1700 engaged solves so far] (src/SAMQEQ/fix_qeq_sam_lr.cpp:2197)
WARNING: samqeq: near-critical config at step 3320 bounded with adaptive ridge=0.5 eV (max|q|=0.920) [1800 engaged solves so far] (src/SAMQEQ/fix_qeq_sam_lr.cpp:2197)
samqeq SOLVER-DIAG step 3400: CG 540 iters (=540 matvecs), resid/b=9.42e-09, ridge=0 (engaged 1875 solves)
samqeq SOLVER-DIAG step 3400: CG 270 iters (=270 matvecs), resid/b=8.07e-09, ridge=0.5 (engaged 1875 solves)
WARNING: samqeq: near-critical config at step 3426 bounded with adaptive ridge=0.5 eV (max|q|=0.901) [1900 engaged solves so far] (src/SAMQEQ/fix_qeq_sam_lr.cpp:2197)
      3500  -133.7042       0.91257719   
WARNING: samqeq: near-critical config at step 3530 bounded with adaptive ridge=0.5 eV (max|q|=0.916) [2000 engaged solves so far] (src/SAMQEQ/fix_qeq_sam_lr.cpp:2197)
samqeq SOLVER-DIAG step 3600: CG 469 iters (=469 matvecs), resid/b=7.82e-09, ridge=0 (engaged 2066 solves)
samqeq SOLVER-DIAG step 3600: CG 251 iters (=251 matvecs), resid/b=6.36e-09, ridge=0.5 (engaged 2066 solves)
WARNING: samqeq: near-critical config at step 3635 bounded with adaptive ridge=0.5 eV (max|q|=0.917) [2100 engaged solves so far] (src/SAMQEQ/fix_qeq_sam_lr.cpp:2197)
WARNING: samqeq: near-critical config at step 3742 bounded with adaptive ridge=0.5 eV (max|q|=0.922) [2200 engaged solves so far] (src/SAMQEQ/fix_qeq_sam_lr.cpp:2197)
samqeq SOLVER-DIAG step 3800: CG 433 iters (=433 matvecs), resid/b=7.38e-09, ridge=0 (engaged 2255 solves)
samqeq SOLVER-DIAG step 3800: CG 273 iters (=273 matvecs), resid/b=6.61e-09, ridge=0.5 (engaged 2255 solves)
WARNING: samqeq: near-critical config at step 3846 bounded with adaptive ridge=0.5 eV (max|q|=0.910) [2300 engaged solves so far] (src/SAMQEQ/fix_qeq_sam_lr.cpp:2197)
WARNING: samqeq: near-critical config at step 3951 bounded with adaptive ridge=0.5 eV (max|q|=0.936) [2400 engaged solves so far] (src/SAMQEQ/fix_qeq_sam_lr.cpp:2197)
samqeq SOLVER-DIAG step 4000: CG 474 iters (=474 matvecs), resid/b=8.79e-09, ridge=0 (engaged 2448 solves)
samqeq SOLVER-DIAG step 4000: CG 252 iters (=252 matvecs), resid/b=8.00e-09, ridge=0.5 (engaged 2448 solves)
      4000  -133.67693      0.9354501    
WARNING: samqeq: near-critical config at step 4055 bounded with adaptive ridge=0.5 eV (max|q|=0.944) [2500 engaged solves so far] (src/SAMQEQ/fix_qeq_sam_lr.cpp:2197)
WARNING: samqeq: near-critical config at step 4161 bounded with adaptive ridge=0.5 eV (max|q|=0.924) [2600 engaged solves so far] (src/SAMQEQ/fix_qeq_sam_lr.cpp:2197)
samqeq SOLVER-DIAG step 4200: CG 505 iters (=505 matvecs), resid/b=8.43e-09, ridge=0 (engaged 2638 solves)
samqeq SOLVER-DIAG step 4200: CG 272 iters (=272 matvecs), resid/b=9.44e-09, ridge=0.5 (engaged 2638 solves)
WARNING: samqeq: near-critical config at step 4265 bounded with adaptive ridge=0.5 eV (max|q|=0.903) [2700 engaged solves so far] (src/SAMQEQ/fix_qeq_sam_lr.cpp:2197)
WARNING: samqeq: near-critical config at step 4370 bounded with adaptive ridge=0.5 eV (max|q|=0.898) [2800 engaged solves so far] (src/SAMQEQ/fix_qeq_sam_lr.cpp:2197)
samqeq SOLVER-DIAG step 4400: CG 605 iters (=605 matvecs), resid/b=7.72e-09, ridge=0 (engaged 2824 solves)
samqeq SOLVER-DIAG step 4400: CG 262 iters (=262 matvecs), resid/b=8.95e-09, ridge=0.5 (engaged 2824 solves)
WARNING: samqeq: near-critical config at step 4475 bounded with adaptive ridge=0.5 eV (max|q|=0.879) [2900 engaged solves so far] (src/SAMQEQ/fix_qeq_sam_lr.cpp:2197)
      4500  -134.64641      0.88563895   
WARNING: samqeq: near-critical config at step 4578 bounded with adaptive ridge=0.5 eV (max|q|=0.895) [3000 engaged solves so far] (src/SAMQEQ/fix_qeq_sam_lr.cpp:2197)
samqeq SOLVER-DIAG step 4600: CG 487 iters (=487 matvecs), resid/b=5.79e-09, ridge=0 (engaged 3021 solves)
samqeq SOLVER-DIAG step 4600: CG 262 iters (=262 matvecs), resid/b=5.32e-09, ridge=0.5 (engaged 3021 solves)
WARNING: samqeq: near-critical config at step 4685 bounded with adaptive ridge=0.5 eV (max|q|=0.904) [3100 engaged solves so far] (src/SAMQEQ/fix_qeq_sam_lr.cpp:2197)
WARNING: samqeq: near-critical config at step 4792 bounded with adaptive ridge=0.5 eV (max|q|=0.895) [3200 engaged solves so far] (src/SAMQEQ/fix_qeq_sam_lr.cpp:2197)
samqeq SOLVER-DIAG step 4800: CG 502 iters (=502 matvecs), resid/b=8.98e-09, ridge=0 (engaged 3207 solves)
samqeq SOLVER-DIAG step 4800: CG 265 iters (=265 matvecs), resid/b=8.74e-09, ridge=0.5 (engaged 3207 solves)
WARNING: samqeq: near-critical config at step 4894 bounded with adaptive ridge=0.5 eV (max|q|=0.909) [3300 engaged solves so far] (src/SAMQEQ/fix_qeq_sam_lr.cpp:2197)
samqeq SOLVER-DIAG step 5000: CG 502 iters (=502 matvecs), resid/b=6.10e-09, ridge=0 (engaged 3358 solves)
      5000  -141.51621      1.2159598    
samqeq SOLVER-DIAG step 5200: CG 493 iters (=493 matvecs), resid/b=9.48e-09, ridge=0 (engaged 3362 solves)
WARNING: samqeq: near-critical config at step 5252 bounded with adaptive ridge=0.5 eV (max|q|=0.938) [3400 engaged solves so far] (src/SAMQEQ/fix_qeq_sam_lr.cpp:2197)
WARNING: samqeq: near-critical config at step 5358 bounded with adaptive ridge=0.5 eV (max|q|=0.928) [3500 engaged solves so far] (src/SAMQEQ/fix_qeq_sam_lr.cpp:2197)
samqeq SOLVER-DIAG step 5400: CG 464 iters (=464 matvecs), resid/b=9.75e-09, ridge=0 (engaged 3537 solves)
WARNING: samqeq: near-critical config at step 5480 bounded with adaptive ridge=0.5 eV (max|q|=0.973) [3600 engaged solves so far] (src/SAMQEQ/fix_qeq_sam_lr.cpp:2197)
      5500  -132.92062      0.97880325   
WARNING: samqeq: near-critical config at step 5585 bounded with adaptive ridge=0.5 eV (max|q|=0.930) [3700 engaged solves so far] (src/SAMQEQ/fix_qeq_sam_lr.cpp:2197)
samqeq SOLVER-DIAG step 5600: CG 484 iters (=484 matvecs), resid/b=6.62e-09, ridge=0 (engaged 3709 solves)
samqeq SOLVER-DIAG step 5600: CG 247 iters (=247 matvecs), resid/b=9.19e-09, ridge=0.5 (engaged 3709 solves)
WARNING: samqeq: near-critical config at step 5697 bounded with adaptive ridge=0.5 eV (max|q|=0.896) [3800 engaged solves so far] (src/SAMQEQ/fix_qeq_sam_lr.cpp:2197)
WARNING: samqeq projected CG did not converge (1000 iters, resid/b=1.31e+00 > tol 1.0e-08) at step 5712 (src/SAMQEQ/fix_qeq_sam_lr.cpp:1247)
samqeq SOLVER-DIAG step 5800: CG 464 iters (=464 matvecs), resid/b=7.66e-09, nonconv=1, ridge=0 (engaged 3898 solves)
samqeq SOLVER-DIAG step 5800: CG 264 iters (=264 matvecs), resid/b=9.13e-09, nonconv=1, ridge=0.5 (engaged 3898 solves)
WARNING: samqeq: near-critical config at step 5801 bounded with adaptive ridge=0.5 eV (max|q|=0.900) [3900 engaged solves so far] (src/SAMQEQ/fix_qeq_sam_lr.cpp:2197)
WARNING: samqeq projected CG did not converge (1000 iters, resid/b=3.60e-06 > tol 1.0e-08) at step 5848 (src/SAMQEQ/fix_qeq_sam_lr.cpp:1247)
WARNING: samqeq: near-critical config at step 5903 bounded with adaptive ridge=0.5 eV (max|q|=0.886) [4000 engaged solves so far] (src/SAMQEQ/fix_qeq_sam_lr.cpp:2197)
samqeq SOLVER-DIAG step 6000: CG 479 iters (=479 matvecs), resid/b=9.98e-09, nonconv=2, ridge=0 (engaged 4092 solves)
samqeq SOLVER-DIAG step 6000: CG 282 iters (=282 matvecs), resid/b=7.67e-09, nonconv=2, ridge=0.5 (engaged 4092 solves)
      6000  -133.99035      0.89949619   
WARNING: samqeq: near-critical config at step 6007 bounded with adaptive ridge=0.5 eV (max|q|=0.898) [4100 engaged solves so far] (src/SAMQEQ/fix_qeq_sam_lr.cpp:2197)
WARNING: samqeq: near-critical config at step 6116 bounded with adaptive ridge=0.5 eV (max|q|=0.890) [4200 engaged solves so far] (src/SAMQEQ/fix_qeq_sam_lr.cpp:2197)
samqeq SOLVER-DIAG step 6200: CG 499 iters (=499 matvecs), resid/b=9.66e-09, nonconv=2, ridge=0 (engaged 4281 solves)
samqeq SOLVER-DIAG step 6200: CG 279 iters (=279 matvecs), resid/b=5.65e-09, nonconv=2, ridge=0.5 (engaged 4281 solves)
WARNING: samqeq: near-critical config at step 6218 bounded with adaptive ridge=0.5 eV (max|q|=0.895) [4300 engaged solves so far] (src/SAMQEQ/fix_qeq_sam_lr.cpp:2197)
WARNING: samqeq projected CG did not converge (1000 iters, resid/b=2.74e-08 > tol 1.0e-08) at step 6299 (src/SAMQEQ/fix_qeq_sam_lr.cpp:1247)
WARNING: samqeq: near-critical config at step 6322 bounded with adaptive ridge=0.5 eV (max|q|=0.911) [4400 engaged solves so far] (src/SAMQEQ/fix_qeq_sam_lr.cpp:2197)
samqeq SOLVER-DIAG step 6400: CG 463 iters (=463 matvecs), resid/b=8.85e-09, nonconv=3, ridge=0 (engaged 4476 solves)
samqeq SOLVER-DIAG step 6400: CG 253 iters (=253 matvecs), resid/b=9.45e-09, nonconv=3, ridge=0.5 (engaged 4476 solves)
WARNING: samqeq: near-critical config at step 6424 bounded with adaptive ridge=0.5 eV (max|q|=0.908) [4500 engaged solves so far] (src/SAMQEQ/fix_qeq_sam_lr.cpp:2197)
      6500  -135.06862      0.90537514   
WARNING: samqeq: near-critical config at step 6528 bounded with adaptive ridge=0.5 eV (max|q|=0.912) [4600 engaged solves so far] (src/SAMQEQ/fix_qeq_sam_lr.cpp:2197)
samqeq SOLVER-DIAG step 6600: CG 448 iters (=448 matvecs), resid/b=8.85e-09, nonconv=3, ridge=0 (engaged 4669 solves)
samqeq SOLVER-DIAG step 6600: CG 283 iters (=283 matvecs), resid/b=7.78e-09, nonconv=3, ridge=0.5 (engaged 4669 solves)
WARNING: samqeq: near-critical config at step 6634 bounded with adaptive ridge=0.5 eV (max|q|=0.909) [4700 engaged solves so far] (src/SAMQEQ/fix_qeq_sam_lr.cpp:2197)
WARNING: samqeq: near-critical config at step 6738 bounded with adaptive ridge=0.5 eV (max|q|=0.915) [4800 engaged solves so far] (src/SAMQEQ/fix_qeq_sam_lr.cpp:2197)
samqeq SOLVER-DIAG step 6800: CG 495 iters (=495 matvecs), resid/b=4.34e-09, nonconv=3, ridge=0 (engaged 4861 solves)
samqeq SOLVER-DIAG step 6800: CG 244 iters (=244 matvecs), resid/b=8.98e-09, nonconv=3, ridge=0.5 (engaged 4861 solves)
WARNING: samqeq: near-critical config at step 6840 bounded with adaptive ridge=0.5 eV (max|q|=0.892) [4900 engaged solves so far] (src/SAMQEQ/fix_qeq_sam_lr.cpp:2197)
WARNING: samqeq: near-critical config at step 6943 bounded with adaptive ridge=0.5 eV (max|q|=0.903) [5000 engaged solves so far] (src/SAMQEQ/fix_qeq_sam_lr.cpp:2197)
samqeq SOLVER-DIAG step 7000: CG 483 iters (=483 matvecs), resid/b=6.36e-09, nonconv=3, ridge=0 (engaged 5053 solves)
samqeq SOLVER-DIAG step 7000: CG 246 iters (=246 matvecs), resid/b=8.88e-09, nonconv=3, ridge=0.5 (engaged 5053 solves)
      7000  -134.17618      0.90404423   
WARNING: samqeq: near-critical config at step 7049 bounded with adaptive ridge=0.5 eV (max|q|=0.893) [5100 engaged solves so far] (src/SAMQEQ/fix_qeq_sam_lr.cpp:2197)
WARNING: samqeq: near-critical config at step 7154 bounded with adaptive ridge=0.5 eV (max|q|=0.878) [5200 engaged solves so far] (src/SAMQEQ/fix_qeq_sam_lr.cpp:2197)
samqeq SOLVER-DIAG step 7200: CG 502 iters (=502 matvecs), resid/b=8.84e-09, nonconv=3, ridge=0 (engaged 5245 solves)
samqeq SOLVER-DIAG step 7200: CG 253 iters (=253 matvecs), resid/b=8.10e-09, nonconv=3, ridge=0.5 (engaged 5245 solves)
WARNING: samqeq: near-critical config at step 7256 bounded with adaptive ridge=0.5 eV (max|q|=0.890) [5300 engaged solves so far] (src/SAMQEQ/fix_qeq_sam_lr.cpp:2197)
WARNING: samqeq: near-critical config at step 7361 bounded with adaptive ridge=0.5 eV (max|q|=0.889) [5400 engaged solves so far] (src/SAMQEQ/fix_qeq_sam_lr.cpp:2197)
samqeq SOLVER-DIAG step 7400: CG 497 iters (=497 matvecs), resid/b=6.15e-09, nonconv=3, ridge=0 (engaged 5438 solves)
samqeq SOLVER-DIAG step 7400: CG 257 iters (=257 matvecs), resid/b=6.70e-09, nonconv=3, ridge=0.5 (engaged 5438 solves)
WARNING: samqeq: near-critical config at step 7461 bounded with adaptive ridge=0.5 eV (max|q|=0.907) [5500 engaged solves so far] (src/SAMQEQ/fix_qeq_sam_lr.cpp:2197)
      7500  -134.76549      0.91806726   
WARNING: samqeq: near-critical config at step 7563 bounded with adaptive ridge=0.5 eV (max|q|=0.950) [5600 engaged solves so far] (src/SAMQEQ/fix_qeq_sam_lr.cpp:2197)
samqeq SOLVER-DIAG step 7600: CG 506 iters (=506 matvecs), resid/b=9.10e-09, nonconv=3, ridge=0 (engaged 5631 solves)
samqeq SOLVER-DIAG step 7600: CG 254 iters (=254 matvecs), resid/b=6.81e-09, nonconv=3, ridge=0.5 (engaged 5631 solves)
WARNING: samqeq: near-critical config at step 7670 bounded with adaptive ridge=0.5 eV (max|q|=0.945) [5700 engaged solves so far] (src/SAMQEQ/fix_qeq_sam_lr.cpp:2197)
WARNING: samqeq: near-critical config at step 7770 bounded with adaptive ridge=0.5 eV (max|q|=0.923) [5800 engaged solves so far] (src/SAMQEQ/fix_qeq_sam_lr.cpp:2197)
samqeq SOLVER-DIAG step 7800: CG 460 iters (=460 matvecs), resid/b=5.85e-09, nonconv=3, ridge=0 (engaged 5829 solves)
samqeq SOLVER-DIAG step 7800: CG 265 iters (=265 matvecs), resid/b=7.99e-09, nonconv=3, ridge=0.5 (engaged 5829 solves)
WARNING: samqeq: near-critical config at step 7874 bounded with adaptive ridge=0.5 eV (max|q|=0.936) [5900 engaged solves so far] (src/SAMQEQ/fix_qeq_sam_lr.cpp:2197)
WARNING: samqeq: near-critical config at step 7980 bounded with adaptive ridge=0.5 eV (max|q|=0.899) [6000 engaged solves so far] (src/SAMQEQ/fix_qeq_sam_lr.cpp:2197)
samqeq SOLVER-DIAG step 8000: CG 498 iters (=498 matvecs), resid/b=7.23e-09, nonconv=3, ridge=0 (engaged 6019 solves)
samqeq SOLVER-DIAG step 8000: CG 246 iters (=246 matvecs), resid/b=7.07e-09, nonconv=3, ridge=0.5 (engaged 6019 solves)
      8000  -135.20269      0.8826605    
WARNING: samqeq: near-critical config at step 8082 bounded with adaptive ridge=0.5 eV (max|q|=0.901) [6100 engaged solves so far] (src/SAMQEQ/fix_qeq_sam_lr.cpp:2197)
WARNING: samqeq: near-critical config at step 8184 bounded with adaptive ridge=0.5 eV (max|q|=0.902) [6200 engaged solves so far] (src/SAMQEQ/fix_qeq_sam_lr.cpp:2197)
samqeq SOLVER-DIAG step 8200: CG 492 iters (=492 matvecs), resid/b=9.57e-09, nonconv=3, ridge=0 (engaged 6213 solves)
samqeq SOLVER-DIAG step 8200: CG 257 iters (=257 matvecs), resid/b=9.85e-09, nonconv=3, ridge=0.5 (engaged 6213 solves)
WARNING: samqeq: near-critical config at step 8286 bounded with adaptive ridge=0.5 eV (max|q|=0.902) [6300 engaged solves so far] (src/SAMQEQ/fix_qeq_sam_lr.cpp:2197)
WARNING: samqeq: near-critical config at step 8390 bounded with adaptive ridge=0.5 eV (max|q|=0.906) [6400 engaged solves so far] (src/SAMQEQ/fix_qeq_sam_lr.cpp:2197)
samqeq SOLVER-DIAG step 8400: CG 509 iters (=509 matvecs), resid/b=9.65e-09, nonconv=3, ridge=0 (engaged 6409 solves)
samqeq SOLVER-DIAG step 8400: CG 272 iters (=272 matvecs), resid/b=6.37e-09, nonconv=3, ridge=0.5 (engaged 6409 solves)
WARNING: samqeq: near-critical config at step 8496 bounded with adaptive ridge=0.5 eV (max|q|=0.915) [6500 engaged solves so far] (src/SAMQEQ/fix_qeq_sam_lr.cpp:2197)
      8500  -135.11268      0.91366071   
WARNING: samqeq projected CG did not converge (1000 iters, resid/b=9.55e-08 > tol 1.0e-08) at step 8573 (src/SAMQEQ/fix_qeq_sam_lr.cpp:1247)
WARNING: samqeq: near-critical config at step 8598 bounded with adaptive ridge=0.5 eV (max|q|=0.904) [6600 engaged solves so far] (src/SAMQEQ/fix_qeq_sam_lr.cpp:2197)
samqeq SOLVER-DIAG step 8600: CG 495 iters (=495 matvecs), resid/b=9.23e-09, nonconv=4, ridge=0 (engaged 6601 solves)
samqeq SOLVER-DIAG step 8600: CG 253 iters (=253 matvecs), resid/b=7.98e-09, nonconv=4, ridge=0.5 (engaged 6601 solves)
WARNING: samqeq: near-critical config at step 8702 bounded with adaptive ridge=0.5 eV (max|q|=0.904) [6700 engaged solves so far] (src/SAMQEQ/fix_qeq_sam_lr.cpp:2197)
samqeq SOLVER-DIAG step 8800: CG 476 iters (=476 matvecs), resid/b=7.62e-09, nonconv=4, ridge=0 (engaged 6795 solves)
samqeq SOLVER-DIAG step 8800: CG 254 iters (=254 matvecs), resid/b=9.98e-09, nonconv=4, ridge=0.5 (engaged 6795 solves)
WARNING: samqeq: near-critical config at step 8804 bounded with adaptive ridge=0.5 eV (max|q|=0.924) [6800 engaged solves so far] (src/SAMQEQ/fix_qeq_sam_lr.cpp:2197)
WARNING: samqeq: near-critical config at step 8904 bounded with adaptive ridge=0.5 eV (max|q|=0.926) [6900 engaged solves so far] (src/SAMQEQ/fix_qeq_sam_lr.cpp:2197)
samqeq SOLVER-DIAG step 9000: CG 472 iters (=472 matvecs), resid/b=8.38e-09, nonconv=4, ridge=0 (engaged 6994 solves)
samqeq SOLVER-DIAG step 9000: CG 256 iters (=256 matvecs), resid/b=8.41e-09, nonconv=4, ridge=0.5 (engaged 6994 solves)
      9000  -135.65393      0.91793496   
WARNING: samqeq: near-critical config at step 9005 bounded with adaptive ridge=0.5 eV (max|q|=0.916) [7000 engaged solves so far] (src/SAMQEQ/fix_qeq_sam_lr.cpp:2197)
WARNING: samqeq: near-critical config at step 9109 bounded with adaptive ridge=0.5 eV (max|q|=0.901) [7100 engaged solves so far] (src/SAMQEQ/fix_qeq_sam_lr.cpp:2197)
samqeq SOLVER-DIAG step 9200: CG 474 iters (=474 matvecs), resid/b=7.42e-09, nonconv=4, ridge=0 (engaged 7188 solves)
samqeq SOLVER-DIAG step 9200: CG 258 iters (=258 matvecs), resid/b=9.89e-09, nonconv=4, ridge=0.5 (engaged 7188 solves)
WARNING: samqeq: near-critical config at step 9211 bounded with adaptive ridge=0.5 eV (max|q|=0.896) [7200 engaged solves so far] (src/SAMQEQ/fix_qeq_sam_lr.cpp:2197)
WARNING: samqeq: near-critical config at step 9318 bounded with adaptive ridge=0.5 eV (max|q|=0.905) [7300 engaged solves so far] (src/SAMQEQ/fix_qeq_sam_lr.cpp:2197)
samqeq SOLVER-DIAG step 9400: CG 506 iters (=506 matvecs), resid/b=9.89e-09, nonconv=4, ridge=0 (engaged 7378 solves)
samqeq SOLVER-DIAG step 9400: CG 245 iters (=245 matvecs), resid/b=8.79e-09, nonconv=4, ridge=0.5 (engaged 7378 solves)
WARNING: samqeq: near-critical config at step 9421 bounded with adaptive ridge=0.5 eV (max|q|=0.901) [7400 engaged solves so far] (src/SAMQEQ/fix_qeq_sam_lr.cpp:2197)
      9500  -134.61108      0.90241264   
WARNING: samqeq: near-critical config at step 9523 bounded with adaptive ridge=0.5 eV (max|q|=0.911) [7500 engaged solves so far] (src/SAMQEQ/fix_qeq_sam_lr.cpp:2197)
samqeq SOLVER-DIAG step 9600: CG 522 iters (=522 matvecs), resid/b=7.17e-09, nonconv=4, ridge=0 (engaged 7573 solves)
samqeq SOLVER-DIAG step 9600: CG 263 iters (=263 matvecs), resid/b=7.49e-09, nonconv=4, ridge=0.5 (engaged 7573 solves)
WARNING: samqeq: near-critical config at step 9626 bounded with adaptive ridge=0.5 eV (max|q|=0.903) [7600 engaged solves so far] (src/SAMQEQ/fix_qeq_sam_lr.cpp:2197)
WARNING: samqeq: near-critical config at step 9726 bounded with adaptive ridge=0.5 eV (max|q|=0.905) [7700 engaged solves so far] (src/SAMQEQ/fix_qeq_sam_lr.cpp:2197)
samqeq SOLVER-DIAG step 9800: CG 469 iters (=469 matvecs), resid/b=5.76e-09, nonconv=4, ridge=0 (engaged 7772 solves)
samqeq SOLVER-DIAG step 9800: CG 244 iters (=244 matvecs), resid/b=9.39e-09, nonconv=4, ridge=0.5 (engaged 7772 solves)
WARNING: samqeq: near-critical config at step 9831 bounded with adaptive ridge=0.5 eV (max|q|=0.895) [7800 engaged solves so far] (src/SAMQEQ/fix_qeq_sam_lr.cpp:2197)
WARNING: samqeq: near-critical config at step 9934 bounded with adaptive ridge=0.5 eV (max|q|=0.896) [7900 engaged solves so far] (src/SAMQEQ/fix_qeq_sam_lr.cpp:2197)
samqeq SOLVER-DIAG step 10000: CG 618 iters (=618 matvecs), resid/b=9.65e-09, nonconv=4, ridge=0 (engaged 7963 solves)
samqeq SOLVER-DIAG step 10000: CG 252 iters (=252 matvecs), resid/b=7.64e-09, nonconv=4, ridge=0.5 (engaged 7963 solves)
     10000  -135.73186      0.89107928   
WARNING: samqeq: near-critical config at step 10036 bounded with adaptive ridge=0.5 eV (max|q|=0.901) [8000 engaged solves so far] (src/SAMQEQ/fix_qeq_sam_lr.cpp:2197)
WARNING: samqeq: near-critical config at step 10138 bounded with adaptive ridge=0.5 eV (max|q|=0.902) [8100 engaged solves so far] (src/SAMQEQ/fix_qeq_sam_lr.cpp:2197)
samqeq SOLVER-DIAG step 10200: CG 504 iters (=504 matvecs), resid/b=8.72e-09, nonconv=4, ridge=0 (engaged 8158 solves)
samqeq SOLVER-DIAG step 10200: CG 268 iters (=268 matvecs), resid/b=8.95e-09, nonconv=4, ridge=0.5 (engaged 8158 solves)
WARNING: samqeq: near-critical config at step 10243 bounded with adaptive ridge=0.5 eV (max|q|=0.907) [8200 engaged solves so far] (src/SAMQEQ/fix_qeq_sam_lr.cpp:2197)
WARNING: samqeq: near-critical config at step 10346 bounded with adaptive ridge=0.5 eV (max|q|=0.904) [8300 engaged solves so far] (src/SAMQEQ/fix_qeq_sam_lr.cpp:2197)
samqeq SOLVER-DIAG step 10400: CG 497 iters (=497 matvecs), resid/b=8.11e-09, nonconv=4, ridge=0 (engaged 8353 solves)
samqeq SOLVER-DIAG step 10400: CG 263 iters (=263 matvecs), resid/b=8.99e-09, nonconv=4, ridge=0.5 (engaged 8353 solves)
WARNING: samqeq: near-critical config at step 10449 bounded with adaptive ridge=0.5 eV (max|q|=0.904) [8400 engaged solves so far] (src/SAMQEQ/fix_qeq_sam_lr.cpp:2197)
     10500  -142.28086      1.2381146    
samqeq SOLVER-DIAG step 10600: CG 483 iters (=483 matvecs), resid/b=5.39e-09, nonconv=4, ridge=0 (engaged 8435 solves)
WARNING: samqeq: near-critical config at step 10670 bounded with adaptive ridge=0.5 eV (max|q|=0.948) [8500 engaged solves so far] (src/SAMQEQ/fix_qeq_sam_lr.cpp:2197)
WARNING: samqeq: near-critical config at step 10772 bounded with adaptive ridge=0.5 eV (max|q|=0.908) [8600 engaged solves so far] (src/SAMQEQ/fix_qeq_sam_lr.cpp:2197)
samqeq SOLVER-DIAG step 10800: CG 488 iters (=488 matvecs), resid/b=8.15e-09, nonconv=4, ridge=0 (engaged 8627 solves)
samqeq SOLVER-DIAG step 10800: CG 254 iters (=254 matvecs), resid/b=5.67e-09, nonconv=4, ridge=0.5 (engaged 8627 solves)
samqeq SOLVER-DIAG step 11000: CG 505 iters (=505 matvecs), resid/b=9.49e-09, nonconv=4, ridge=0 (engaged 8812 solves)
samqeq SOLVER-DIAG step 11000: CG 243 iters (=243 matvecs), resid/b=9.37e-09, nonconv=4, ridge=0.5 (engaged 8812 solves)
WARNING: Too many warnings: 102 vs 100. All future warnings will be suppressed
     11000  -134.25207      0.91358057   
samqeq SOLVER-DIAG step 11200: CG 489 iters (=489 matvecs), resid/b=8.56e-09, nonconv=4, ridge=0 (engaged 9007 solves)
samqeq SOLVER-DIAG step 11200: CG 254 iters (=254 matvecs), resid/b=6.15e-09, nonconv=4, ridge=0.5 (engaged 9007 solves)
samqeq SOLVER-DIAG step 11400: CG 519 iters (=519 matvecs), resid/b=8.66e-09, nonconv=4, ridge=0 (engaged 9197 solves)
samqeq SOLVER-DIAG step 11400: CG 247 iters (=247 matvecs), resid/b=9.54e-09, nonconv=4, ridge=0.5 (engaged 9197 solves)
     11500  -134.24112      0.92572592   
samqeq SOLVER-DIAG step 11600: CG 472 iters (=472 matvecs), resid/b=7.57e-09, nonconv=4, ridge=0 (engaged 9390 solves)
samqeq SOLVER-DIAG step 11600: CG 247 iters (=247 matvecs), resid/b=6.96e-09, nonconv=4, ridge=0.5 (engaged 9390 solves)
samqeq SOLVER-DIAG step 11800: CG 491 iters (=491 matvecs), resid/b=9.16e-09, nonconv=4, ridge=0 (engaged 9583 solves)
samqeq SOLVER-DIAG step 11800: CG 245 iters (=245 matvecs), resid/b=9.18e-09, nonconv=4, ridge=0.5 (engaged 9583 solves)
samqeq SOLVER-DIAG step 12000: CG 470 iters (=470 matvecs), resid/b=9.14e-09, nonconv=4, ridge=0 (engaged 9773 solves)
samqeq SOLVER-DIAG step 12000: CG 254 iters (=254 matvecs), resid/b=7.77e-09, nonconv=4, ridge=0.5 (engaged 9773 solves)
     12000  -133.84976      0.9549965    
samqeq SOLVER-DIAG step 12200: CG 496 iters (=496 matvecs), resid/b=9.97e-09, nonconv=4, ridge=0 (engaged 9964 solves)
samqeq SOLVER-DIAG step 12200: CG 248 iters (=248 matvecs), resid/b=7.47e-09, nonconv=4, ridge=0.5 (engaged 9964 solves)
samqeq SOLVER-DIAG step 12400: CG 484 iters (=484 matvecs), resid/b=9.10e-09, nonconv=4, ridge=0 (engaged 10159 solves)
samqeq SOLVER-DIAG step 12400: CG 255 iters (=255 matvecs), resid/b=9.89e-09, nonconv=4, ridge=0.5 (engaged 10159 solves)
     12500  -135.52864      0.9276133    
samqeq SOLVER-DIAG step 12600: CG 481 iters (=481 matvecs), resid/b=9.52e-09, nonconv=4, ridge=0 (engaged 10353 solves)
samqeq SOLVER-DIAG step 12600: CG 249 iters (=249 matvecs), resid/b=9.21e-09, nonconv=4, ridge=0.5 (engaged 10353 solves)
samqeq SOLVER-DIAG step 12800: CG 441 iters (=441 matvecs), resid/b=9.58e-09, nonconv=4, ridge=0 (engaged 10544 solves)
samqeq SOLVER-DIAG step 12800: CG 251 iters (=251 matvecs), resid/b=9.09e-09, nonconv=4, ridge=0.5 (engaged 10544 solves)
samqeq SOLVER-DIAG step 13000: CG 483 iters (=483 matvecs), resid/b=8.23e-09, nonconv=4, ridge=0 (engaged 10735 solves)
samqeq SOLVER-DIAG step 13000: CG 252 iters (=252 matvecs), resid/b=7.54e-09, nonconv=4, ridge=0.5 (engaged 10735 solves)
     13000  -135.33343      0.92508616   
samqeq SOLVER-DIAG step 13200: CG 478 iters (=478 matvecs), resid/b=8.11e-09, nonconv=4, ridge=0 (engaged 10931 solves)
samqeq SOLVER-DIAG step 13200: CG 263 iters (=263 matvecs), resid/b=7.05e-09, nonconv=4, ridge=0.5 (engaged 10931 solves)
samqeq SOLVER-DIAG step 13400: CG 490 iters (=490 matvecs), resid/b=9.26e-09, nonconv=4, ridge=0 (engaged 11128 solves)
samqeq SOLVER-DIAG step 13400: CG 258 iters (=258 matvecs), resid/b=7.72e-09, nonconv=4, ridge=0.5 (engaged 11128 solves)
     13500  -135.8277       0.90607458   
samqeq SOLVER-DIAG step 13600: CG 453 iters (=453 matvecs), resid/b=6.40e-09, nonconv=4, ridge=0 (engaged 11322 solves)
samqeq SOLVER-DIAG step 13600: CG 271 iters (=271 matvecs), resid/b=8.95e-09, nonconv=4, ridge=0.5 (engaged 11322 solves)
samqeq SOLVER-DIAG step 13800: CG 503 iters (=503 matvecs), resid/b=7.82e-09, nonconv=4, ridge=0 (engaged 11517 solves)
samqeq SOLVER-DIAG step 13800: CG 251 iters (=251 matvecs), resid/b=4.01e-09, nonconv=4, ridge=0.5 (engaged 11517 solves)
samqeq SOLVER-DIAG step 14000: CG 459 iters (=459 matvecs), resid/b=8.48e-09, nonconv=4, ridge=0 (engaged 11710 solves)
samqeq SOLVER-DIAG step 14000: CG 266 iters (=266 matvecs), resid/b=9.94e-09, nonconv=4, ridge=0.5 (engaged 11710 solves)
     14000  -136.01524      0.89411299   
samqeq SOLVER-DIAG step 14200: CG 478 iters (=478 matvecs), resid/b=8.31e-09, nonconv=4, ridge=0 (engaged 11905 solves)
samqeq SOLVER-DIAG step 14200: CG 261 iters (=261 matvecs), resid/b=4.47e-09, nonconv=4, ridge=0.5 (engaged 11905 solves)
samqeq SOLVER-DIAG step 14400: CG 484 iters (=484 matvecs), resid/b=8.70e-09, nonconv=4, ridge=0 (engaged 12100 solves)
samqeq SOLVER-DIAG step 14400: CG 266 iters (=266 matvecs), resid/b=7.92e-09, nonconv=4, ridge=0.5 (engaged 12100 solves)
     14500  -135.65681      0.90109267   
samqeq SOLVER-DIAG step 14600: CG 489 iters (=489 matvecs), resid/b=9.48e-09, nonconv=4, ridge=0 (engaged 12293 solves)
samqeq SOLVER-DIAG step 14600: CG 245 iters (=245 matvecs), resid/b=8.47e-09, nonconv=4, ridge=0.5 (engaged 12293 solves)
samqeq SOLVER-DIAG step 14800: CG 554 iters (=554 matvecs), resid/b=5.24e-09, nonconv=4, ridge=0 (engaged 12491 solves)
samqeq SOLVER-DIAG step 14800: CG 254 iters (=254 matvecs), resid/b=5.64e-09, nonconv=4, ridge=0.5 (engaged 12491 solves)
samqeq SOLVER-DIAG step 15000: CG 526 iters (=526 matvecs), resid/b=7.84e-09, nonconv=4, ridge=0 (engaged 12689 solves)
samqeq SOLVER-DIAG step 15000: CG 254 iters (=254 matvecs), resid/b=9.78e-09, nonconv=4, ridge=0.5 (engaged 12689 solves)
     15000  -136.43737      0.94786421   
samqeq SOLVER-DIAG step 15200: CG 487 iters (=487 matvecs), resid/b=9.09e-09, nonconv=4, ridge=0 (engaged 12885 solves)
samqeq SOLVER-DIAG step 15200: CG 254 iters (=254 matvecs), resid/b=9.74e-09, nonconv=4, ridge=0.5 (engaged 12885 solves)
samqeq SOLVER-DIAG step 15400: CG 520 iters (=520 matvecs), resid/b=9.24e-09, nonconv=4, ridge=0 (engaged 13083 solves)
samqeq SOLVER-DIAG step 15400: CG 252 iters (=252 matvecs), resid/b=6.19e-09, nonconv=4, ridge=0.5 (engaged 13083 solves)
     15500  -147.9798       3.9514905    
samqeq SOLVER-DIAG step 15600: CG 553 iters (=553 matvecs), resid/b=8.22e-09, nonconv=4, ridge=0 (engaged 13280 solves)
samqeq SOLVER-DIAG step 15600: CG 247 iters (=247 matvecs), resid/b=8.30e-09, nonconv=4, ridge=0.5 (engaged 13280 solves)
samqeq SOLVER-DIAG step 15800: CG 482 iters (=482 matvecs), resid/b=9.80e-09, nonconv=4, ridge=0 (engaged 13475 solves)
samqeq SOLVER-DIAG step 15800: CG 265 iters (=265 matvecs), resid/b=8.34e-09, nonconv=4, ridge=0.5 (engaged 13475 solves)
samqeq SOLVER-DIAG step 16000: CG 465 iters (=465 matvecs), resid/b=9.83e-09, nonconv=4, ridge=0 (engaged 13666 solves)
samqeq SOLVER-DIAG step 16000: CG 256 iters (=256 matvecs), resid/b=7.89e-09, nonconv=4, ridge=0.5 (engaged 13666 solves)
     16000  -136.03191      0.91462574   
samqeq SOLVER-DIAG step 16200: CG 472 iters (=472 matvecs), resid/b=4.13e-09, nonconv=5, ridge=0 (engaged 13862 solves)
samqeq SOLVER-DIAG step 16400: CG 493 iters (=493 matvecs), resid/b=6.56e-09, nonconv=5, ridge=0 (engaged 14057 solves)
samqeq SOLVER-DIAG step 16400: CG 251 iters (=251 matvecs), resid/b=9.33e-09, nonconv=5, ridge=0.5 (engaged 14057 solves)
     16500  -135.10918      0.90379986   
samqeq SOLVER-DIAG step 16600: CG 485 iters (=485 matvecs), resid/b=9.85e-09, nonconv=5, ridge=0 (engaged 14251 solves)
samqeq SOLVER-DIAG step 16600: CG 253 iters (=253 matvecs), resid/b=7.39e-09, nonconv=5, ridge=0.5 (engaged 14251 solves)
samqeq SOLVER-DIAG step 16800: CG 517 iters (=517 matvecs), resid/b=9.37e-09, nonconv=5, ridge=0 (engaged 14448 solves)
samqeq SOLVER-DIAG step 16800: CG 258 iters (=258 matvecs), resid/b=8.93e-09, nonconv=5, ridge=0.5 (engaged 14448 solves)
samqeq SOLVER-DIAG step 17000: CG 484 iters (=484 matvecs), resid/b=8.67e-09, nonconv=5, ridge=0 (engaged 14642 solves)
samqeq SOLVER-DIAG step 17000: CG 254 iters (=254 matvecs), resid/b=7.19e-09, nonconv=5, ridge=0.5 (engaged 14642 solves)
     17000  -136.06732      0.93796368   
samqeq SOLVER-DIAG step 17200: CG 554 iters (=554 matvecs), resid/b=4.60e-09, nonconv=5, ridge=0 (engaged 14835 solves)
samqeq SOLVER-DIAG step 17200: CG 249 iters (=249 matvecs), resid/b=9.58e-09, nonconv=5, ridge=0.5 (engaged 14835 solves)
samqeq SOLVER-DIAG step 17400: CG 489 iters (=489 matvecs), resid/b=8.57e-09, nonconv=6, ridge=0 (engaged 15030 solves)
samqeq SOLVER-DIAG step 17400: CG 254 iters (=254 matvecs), resid/b=8.85e-09, nonconv=6, ridge=0.5 (engaged 15030 solves)
     17500  -136.12845      0.92523475   
samqeq SOLVER-DIAG step 17600: CG 521 iters (=521 matvecs), resid/b=7.26e-09, nonconv=6, ridge=0 (engaged 15230 solves)
samqeq SOLVER-DIAG step 17600: CG 245 iters (=245 matvecs), resid/b=6.37e-09, nonconv=6, ridge=0.5 (engaged 15230 solves)
samqeq SOLVER-DIAG step 17800: CG 485 iters (=485 matvecs), resid/b=7.09e-09, nonconv=6, ridge=0 (engaged 15422 solves)
samqeq SOLVER-DIAG step 17800: CG 284 iters (=284 matvecs), resid/b=9.54e-09, nonconv=6, ridge=0.5 (engaged 15422 solves)
samqeq SOLVER-DIAG step 18000: CG 492 iters (=492 matvecs), resid/b=9.14e-09, nonconv=6, ridge=0 (engaged 15617 solves)
samqeq SOLVER-DIAG step 18000: CG 280 iters (=280 matvecs), resid/b=6.36e-09, nonconv=6, ridge=0.5 (engaged 15617 solves)
     18000  -136.88801      0.90957671   
samqeq SOLVER-DIAG step 18200: CG 478 iters (=478 matvecs), resid/b=8.89e-09, nonconv=6, ridge=0 (engaged 15815 solves)
samqeq SOLVER-DIAG step 18200: CG 250 iters (=250 matvecs), resid/b=6.22e-09, nonconv=6, ridge=0.5 (engaged 15815 solves)
samqeq SOLVER-DIAG step 18400: CG 456 iters (=456 matvecs), resid/b=9.22e-09, nonconv=6, ridge=0 (engaged 16006 solves)
samqeq SOLVER-DIAG step 18400: CG 257 iters (=257 matvecs), resid/b=8.60e-09, nonconv=6, ridge=0.5 (engaged 16006 solves)
     18500  -136.80856      0.90714958   
samqeq SOLVER-DIAG step 18600: CG 495 iters (=495 matvecs), resid/b=9.82e-09, nonconv=6, ridge=0 (engaged 16203 solves)
samqeq SOLVER-DIAG step 18600: CG 252 iters (=252 matvecs), resid/b=9.52e-09, nonconv=6, ridge=0.5 (engaged 16203 solves)
samqeq SOLVER-DIAG step 18800: CG 563 iters (=563 matvecs), resid/b=8.14e-09, nonconv=6, ridge=0 (engaged 16397 solves)
samqeq SOLVER-DIAG step 18800: CG 254 iters (=254 matvecs), resid/b=8.39e-09, nonconv=6, ridge=0.5 (engaged 16397 solves)
samqeq SOLVER-DIAG step 19000: CG 458 iters (=458 matvecs), resid/b=9.80e-09, nonconv=6, ridge=0 (engaged 16595 solves)
samqeq SOLVER-DIAG step 19000: CG 262 iters (=262 matvecs), resid/b=5.63e-09, nonconv=6, ridge=0.5 (engaged 16595 solves)
     19000  -136.67267      0.93620804   
samqeq SOLVER-DIAG step 19200: CG 496 iters (=496 matvecs), resid/b=3.92e-09, nonconv=6, ridge=0 (engaged 16792 solves)
samqeq SOLVER-DIAG step 19200: CG 247 iters (=247 matvecs), resid/b=9.97e-09, nonconv=6, ridge=0.5 (engaged 16792 solves)
samqeq SOLVER-DIAG step 19400: CG 472 iters (=472 matvecs), resid/b=8.44e-09, nonconv=6, ridge=0 (engaged 16987 solves)
samqeq SOLVER-DIAG step 19400: CG 248 iters (=248 matvecs), resid/b=8.93e-09, nonconv=6, ridge=0.5 (engaged 16987 solves)
     19500  -135.91508      0.89312234   
samqeq SOLVER-DIAG step 19600: CG 549 iters (=549 matvecs), resid/b=8.08e-09, nonconv=7, ridge=0 (engaged 17184 solves)
samqeq SOLVER-DIAG step 19600: CG 263 iters (=263 matvecs), resid/b=9.23e-09, nonconv=7, ridge=0.5 (engaged 17184 solves)
samqeq SOLVER-DIAG step 19800: CG 554 iters (=554 matvecs), resid/b=6.93e-09, nonconv=8, ridge=0 (engaged 17376 solves)
samqeq SOLVER-DIAG step 19800: CG 268 iters (=268 matvecs), resid/b=8.76e-09, nonconv=8, ridge=0.5 (engaged 17376 solves)
samqeq SOLVER-DIAG step 20000: CG 454 iters (=454 matvecs), resid/b=8.88e-09, nonconv=8, ridge=0 (engaged 17573 solves)
samqeq SOLVER-DIAG step 20000: CG 249 iters (=249 matvecs), resid/b=8.08e-09, nonconv=8, ridge=0.5 (engaged 17573 solves)
     20000  -135.96161      0.90059452   
samqeq SOLVER-DIAG step 20200: CG 514 iters (=514 matvecs), resid/b=7.44e-09, nonconv=8, ridge=0 (engaged 17767 solves)
samqeq SOLVER-DIAG step 20200: CG 264 iters (=264 matvecs), resid/b=5.51e-09, nonconv=8, ridge=0.5 (engaged 17767 solves)
samqeq SOLVER-DIAG step 20400: CG 526 iters (=526 matvecs), resid/b=8.17e-09, nonconv=8, ridge=0 (engaged 17965 solves)
samqeq SOLVER-DIAG step 20400: CG 253 iters (=253 matvecs), resid/b=6.50e-09, nonconv=8, ridge=0.5 (engaged 17965 solves)
     20500  -136.39081      0.94835003   
samqeq SOLVER-DIAG step 20600: CG 436 iters (=436 matvecs), resid/b=8.90e-09, nonconv=8, ridge=0 (engaged 18157 solves)
samqeq SOLVER-DIAG step 20800: CG 553 iters (=553 matvecs), resid/b=7.14e-09, nonconv=8, ridge=0 (engaged 18261 solves)
samqeq SOLVER-DIAG step 20800: CG 278 iters (=278 matvecs), resid/b=8.61e-09, nonconv=8, ridge=0.5 (engaged 18261 solves)
samqeq SOLVER-DIAG step 21000: CG 450 iters (=450 matvecs), resid/b=8.17e-09, nonconv=8, ridge=0 (engaged 18451 solves)
samqeq SOLVER-DIAG step 21000: CG 263 iters (=263 matvecs), resid/b=7.72e-09, nonconv=8, ridge=0.5 (engaged 18451 solves)
     21000  -131.79881      0.8911175    
samqeq SOLVER-DIAG step 21200: CG 579 iters (=579 matvecs), resid/b=8.00e-09, nonconv=8, ridge=0 (engaged 18629 solves)
samqeq SOLVER-DIAG step 21200: CG 267 iters (=267 matvecs), resid/b=7.96e-09, nonconv=8, ridge=0.5 (engaged 18629 solves)
samqeq SOLVER-DIAG step 21400: CG 670 iters (=670 matvecs), resid/b=7.80e-09, nonconv=8, ridge=0 (engaged 18816 solves)
samqeq SOLVER-DIAG step 21400: CG 261 iters (=261 matvecs), resid/b=6.01e-09, nonconv=8, ridge=0.5 (engaged 18816 solves)
     21500  -132.51268      0.9054313    
samqeq SOLVER-DIAG step 21600: CG 488 iters (=488 matvecs), resid/b=9.80e-09, nonconv=8, ridge=0 (engaged 18999 solves)
samqeq SOLVER-DIAG step 21600: CG 252 iters (=252 matvecs), resid/b=7.51e-09, nonconv=8, ridge=0.5 (engaged 18999 solves)
samqeq SOLVER-DIAG step 21800: CG 479 iters (=479 matvecs), resid/b=8.44e-09, nonconv=9, ridge=0 (engaged 19188 solves)
samqeq SOLVER-DIAG step 21800: CG 292 iters (=292 matvecs), resid/b=7.61e-09, nonconv=9, ridge=0.5 (engaged 19188 solves)
samqeq SOLVER-DIAG step 22000: CG 530 iters (=530 matvecs), resid/b=7.57e-09, nonconv=9, ridge=0 (engaged 19375 solves)
samqeq SOLVER-DIAG step 22000: CG 251 iters (=251 matvecs), resid/b=9.14e-09, nonconv=9, ridge=0.5 (engaged 19375 solves)
     22000  -133.85427      0.88997352   
samqeq SOLVER-DIAG step 22200: CG 523 iters (=523 matvecs), resid/b=7.45e-09, nonconv=9, ridge=0 (engaged 19567 solves)
samqeq SOLVER-DIAG step 22200: CG 248 iters (=248 matvecs), resid/b=8.04e-09, nonconv=9, ridge=0.5 (engaged 19567 solves)
samqeq SOLVER-DIAG step 22400: CG 474 iters (=474 matvecs), resid/b=9.64e-09, nonconv=9, ridge=0 (engaged 19753 solves)
     22500  -148.20017      2.7506763    
samqeq SOLVER-DIAG step 22600: CG 552 iters (=552 matvecs), resid/b=9.64e-09, nonconv=9, ridge=0 (engaged 19840 solves)
samqeq SOLVER-DIAG step 22600: CG 275 iters (=275 matvecs), resid/b=8.41e-09, nonconv=9, ridge=0.5 (engaged 19840 solves)
samqeq SOLVER-DIAG step 22800: CG 508 iters (=508 matvecs), resid/b=6.22e-09, nonconv=9, ridge=0 (engaged 20032 solves)
samqeq SOLVER-DIAG step 22800: CG 260 iters (=260 matvecs), resid/b=8.60e-09, nonconv=9, ridge=0.5 (engaged 20032 solves)
samqeq SOLVER-DIAG step 23000: CG 432 iters (=432 matvecs), resid/b=9.72e-09, nonconv=9, ridge=0 (engaged 20218 solves)
     23000  -145.32542      3.9750065    
samqeq SOLVER-DIAG step 23200: CG 420 iters (=420 matvecs), resid/b=8.79e-09, nonconv=9, ridge=0 (engaged 20399 solves)
samqeq SOLVER-DIAG step 23200: CG 272 iters (=272 matvecs), resid/b=9.80e-09, nonconv=9, ridge=0.5 (engaged 20399 solves)
samqeq SOLVER-DIAG step 23400: CG 453 iters (=453 matvecs), resid/b=8.57e-09, nonconv=9, ridge=0 (engaged 20586 solves)
samqeq SOLVER-DIAG step 23400: CG 260 iters (=260 matvecs), resid/b=7.90e-09, nonconv=9, ridge=0.5 (engaged 20586 solves)
     23500  -131.75308      0.89293145   
samqeq SOLVER-DIAG step 23600: CG 498 iters (=498 matvecs), resid/b=8.42e-09, nonconv=9, ridge=0 (engaged 20778 solves)
samqeq SOLVER-DIAG step 23600: CG 262 iters (=262 matvecs), resid/b=8.97e-09, nonconv=9, ridge=0.5 (engaged 20778 solves)
samqeq SOLVER-DIAG step 23800: CG 493 iters (=493 matvecs), resid/b=7.56e-09, nonconv=9, ridge=0 (engaged 20969 solves)
samqeq SOLVER-DIAG step 23800: CG 248 iters (=248 matvecs), resid/b=7.85e-09, nonconv=9, ridge=0.5 (engaged 20969 solves)
samqeq SOLVER-DIAG step 24000: CG 457 iters (=457 matvecs), resid/b=7.73e-09, nonconv=9, ridge=0 (engaged 21160 solves)
samqeq SOLVER-DIAG step 24000: CG 255 iters (=255 matvecs), resid/b=8.38e-09, nonconv=9, ridge=0.5 (engaged 21160 solves)
     24000  -134.00747      0.87880892   
samqeq SOLVER-DIAG step 24200: CG 492 iters (=492 matvecs), resid/b=7.42e-09, nonconv=9, ridge=0 (engaged 21354 solves)
samqeq SOLVER-DIAG step 24200: CG 257 iters (=257 matvecs), resid/b=4.35e-09, nonconv=9, ridge=0.5 (engaged 21354 solves)
samqeq SOLVER-DIAG step 24400: CG 467 iters (=467 matvecs), resid/b=7.55e-09, nonconv=9, ridge=0 (engaged 21432 solves)
samqeq SOLVER-DIAG step 24400: CG 294 iters (=294 matvecs), resid/b=5.49e-09, nonconv=9, ridge=0.5 (engaged 21432 solves)
     24500  -129.87437      0.89845814   
samqeq SOLVER-DIAG step 24600: CG 449 iters (=449 matvecs), resid/b=7.55e-09, nonconv=9, ridge=0 (engaged 21618 solves)
samqeq SOLVER-DIAG step 24600: CG 286 iters (=286 matvecs), resid/b=7.29e-09, nonconv=9, ridge=0.5 (engaged 21618 solves)
samqeq SOLVER-DIAG step 24800: CG 504 iters (=504 matvecs), resid/b=9.65e-09, nonconv=9, ridge=0 (engaged 21799 solves)
samqeq SOLVER-DIAG step 24800: CG 265 iters (=265 matvecs), resid/b=8.78e-09, nonconv=9, ridge=0.5 (engaged 21799 solves)
samqeq SOLVER-DIAG step 25000: CG 489 iters (=489 matvecs), resid/b=6.28e-09, nonconv=9, ridge=0 (engaged 21984 solves)
samqeq SOLVER-DIAG step 25000: CG 264 iters (=264 matvecs), resid/b=6.82e-09, nonconv=9, ridge=0.5 (engaged 21984 solves)
     25000  -132.09751      0.898267     
Loop time of 22820.4 on 1 procs for 25000 steps with 564 atoms

Performance: 0.019 ns/day, 1267.802 hours/ns, 1.096 timesteps/s, 617.867 atom-step/s
100.0% CPU use with 1 MPI tasks x 1 OpenMP threads

MPI task timing breakdown:
Section |  min time  |  avg time  |  max time  |%varavg| %total
---------------------------------------------------------------
Pair    | 135.98     | 135.98     | 135.98     |   0.0 |  0.60
Bond    | 0.0061367  | 0.0061367  | 0.0061367  |   0.0 |  0.00
Kspace  | 64.099     | 64.099     | 64.099     |   0.0 |  0.28
Neigh   | 1.2661     | 1.2661     | 1.2661     |   0.0 |  0.01
Comm    | 0.35822    | 0.35822    | 0.35822    |   0.0 |  0.00
Output  | 0.0056628  | 0.0056628  | 0.0056628  |   0.0 |  0.00
Modify  | 22619      | 22619      | 22619      |   0.0 | 99.12
Other   |            | 0.1517     |            |       |  0.00

Nlocal:            564 ave         564 max         564 min
Histogram: 1 0 0 0 0 0 0 0 0 0
Nghost:           2833 ave        2833 max        2833 min
Histogram: 1 0 0 0 0 0 0 0 0 0
Neighs:         189502 ave      189502 max      189502 min
Histogram: 1 0 0 0 0 0 0 0 0 0
FullNghs:       379004 ave      379004 max      379004 min
Histogram: 1 0 0 0 0 0 0 0 0 0

Total # of neighbors = 379004
Ave neighs/atom = 671.99291
Ave special neighs/atom = 0.86170213
Neighbor list builds = 250
Dangerous builds = 0
print           "DYN_DONE" file done.txt screen no
Total wall time: 6:20:21
