ITEM: TIMESTEP
0
ITEM: NUMBER OF ATOMS
2162
ITEM: BOX BOUNDS pp pp ff
0.0000000000000000e+00 5.2951974149999998e+01
0.0000000000000000e+00 6.1143673049999997e+01
0.0000000000000000e+00 6.0000000000000000e+01
ITEM: ATOMS id mol type q x y z
1 1 1 0.000169526854438 0.00000000 0.00000000 25.00000000
2 1 1 0.000171125749967 1.47088817 2.54765304 25.00000000
3 1 1 0.000174712195105 0.00000000 5.09530609 25.00000000
4 1 1 0.00018161193886 1.47088817 7.64295913 25.00000000
5 1 1 0.00018996991249 0.00000000 10.19061218 25.00000000
6 1 1 0.000201769042109 1.47088817 12.73826522 25.00000000
7 1 1 0.000213547724739 0.00000000 15.28591827 25.00000000
8 1 1 0.00022878304385 1.47088817 17.83357131 25.00000000
9 1 1 0.000170637948406 2.94177634 0.00000000 25.00000000
10 1 1 0.000173495113332 4.41266451 2.54765304 25.00000000
11 1 1 0.000176163651808 2.94177634 5.09530609 25.00000000
12 1 1 0.000185353034939 4.41266451 7.64295913 25.00000000
13 1 1 0.000192482371172 2.94177634 10.19061218 25.00000000
14 1 1 0.000208655522548 4.41266451 12.73826522 25.00000000
15 1 1 0.000218223683608 2.94177634 15.28591827 25.00000000
16 1 1 0.000242654750509 4.41266451 17.83357131 25.00000000
17 1 1 0.000173887087027 5.88355268 0.00000000 25.00000000
18 1 1 0.000178050432347 7.35444085 2.54765304 25.00000000
19 1 1 0.000180414087887 5.88355268 5.09530609 25.00000000
20 1 1 0.000192642379442 7.35444085 7.64295913 25.00000000
21 1 1 0.000200017305242 5.88355268 10.19061218 25.00000000
22 1 1 0.000223364268 7.35444085 12.73826522 25.00000000
23 1 1 0.000233661806776 5.88355268 15.28591827 25.00000000
24 1 1 0.000276992572384 7.35444085 17.83357131 25.00000000
25 1 1 0.000179007478303 8.82532903 0.00000000 25.00000000
26 1 1 0.000184402107046 10.29621720 2.54765304 25.00000000
27 1 1 0.000187149682164 8.82532903 5.09530609 25.00000000
28 1 1 0.00020318945861 10.29621720 7.64295913 25.00000000
29 1 1 0.000212773879057 8.82532903 10.19061218 25.00000000
30 1 1 0.000248364589667 10.29621720 12.73826522 25.00000000
31 1 1 0.000264649098792 8.82532903 15.28591827 25.00000000
32 1 1 0.000342283207717 10.29621720 17.83357131 25.00000000
33 1 1 0.000185522473028 11.76710537 0.00000000 25.00000000
34 1 1 0.000191938093146 13.23799354 2.54765304 25.00000000
35 1 1 0.000195851075162 11.76710537 5.09530609 25.00000000
36 1 1 0.000216656326117 13.23799354 7.64295913 25.00000000
37 1 1 0.000231420561828 11.76710537 10.19061218 25.00000000
38 1 1 0.000286634593889 13.23799354 12.73826522 25.00000000
39 1 1 0.000317683588359 11.76710537 15.28591827 25.00000000
40 1 1 0.000435950871313 13.23799354 17.83357131 25.00000000
41 1 1 0.00019274017789 14.70888171 0.00000000 25.00000000
42 1 1 0.00019983907068 16.17976988 2.54765304 25.00000000
43 1 1 0.000205792094552 14.70888171 5.09530609 25.00000000
44 1 1 0.00023237613299 16.17976988 7.64295913 25.00000000
45 1 1 0.000256489099462 14.70888171 10.19061218 25.00000000
46 1 1 0.000337167079912 16.17976988 12.73826522 25.00000000
47 1 1 0.000391616932399 14.70888171 15.28591827 25.00000000
48 1 1 0.000517952069494 16.17976988 17.83357131 25.00000000
49 1 1 1.12108552406e-05 1.47088817 0.84921768 27.40195032
50 1 1 1.13793421034e-05 2.94177634 3.39687073 27.40195032
51 1 1 1.15856730157e-05 1.47088817 5.94452377 27.40195032
52 1 1 1.19881402961e-05 2.94177634 8.49217681 27.40195032
53 1 1 1.2374075299e-05 1.47088817 11.03982986 27.40195032
54 1 1 1.26959760303e-05 2.94177634 13.58748290 27.40195032
55 1 1 1.30928956809e-05 1.47088817 16.13513595 27.40195032
56 1 1 1.33753001077e-05 2.94177634 18.68278899 27.40195032
57 1 1 1.13301813734e-05 4.41266451 0.84921768 27.40195032
58 1 1 1.15621503833e-05 5.88355268 3.39687073 27.40195032
59 1 1 1.17143691442e-05 4.41266451 5.94452377 27.40195032
60 1 1 1.20758055991e-05 5.88355268 8.49217681 27.40195032
61 1 1 1.23367357893e-05 4.41266451 11.03982986 27.40195032
62 1 1 1.26015536209e-05 5.88355268 13.58748290 27.40195032
63 1 1 1.29997036726e-05 4.41266451 16.13513595 27.40195032
64 1 1 1.53000153312e-05 5.88355268 18.68278899 27.40195032
65 1 1 1.15548131607e-05 7.35444085 0.84921768 27.40195032
66 1 1 1.18150091285e-05 8.82532903 3.39687073 27.40195032
67 1 1 1.19025465753e-05 7.35444085 5.94452377 27.40195032
68 1 1 1.21280026974e-05 8.82532903 8.49217681 27.40195032
69 1 1 1.22972493094e-05 7.35444085 11.03982986 27.40195032
70 1 1 1.36643256473e-05 8.82532903 13.58748290 27.40195032
71 1 1 1.46611217424e-05 7.35444085 16.13513595 27.40195032
72 1 1 2.41956348052e-05 8.82532903 18.68278899 27.40195032
73 1 1 1.18511568619e-05 10.29621720 0.84921768 27.40195032
74 1 1 1.20746621566e-05 11.76710537 3.39687073 27.40195032
75 1 1 1.20650377959e-05 10.29621720 5.94452377 27.40195032
76 1 1 1.2286718759e-05 11.76710537 8.49217681 27.40195032
77 1 1 1.27704879364e-05 10.29621720 11.03982986 27.40195032
78 1 1 1.82143941189e-05 11.76710537 13.58748290 27.40195032
79 1 1 2.17932669399e-05 10.29621720 16.13513595 27.40195032
80 1 1 3.90571034338e-05 11.76710537 18.68278899 27.40195032
81 1 1 1.21675158816e-05 13.23799354 0.84921768 27.40195032
82 1 1 1.22930879719e-05 14.70888171 3.39687073 27.40195032
83 1 1 1.21914551878e-05 13.23799354 5.94452377 27.40195032
84 1 1 1.29939908432e-05 14.70888171 8.49217681 27.40195032
85 1 1 1.49347195358e-05 13.23799354 11.03982986 27.40195032
86 1 1 2.74077748791e-05 14.70888171 13.58748290 27.40195032
87 1 1 3.47885162485e-05 13.23799354 16.13513595 27.40195032
88 1 1 2.86103096435e-05 14.70888171 18.68278899 27.40195032
89 1 1 1.24504359088e-05 16.17976988 0.84921768 27.40195032
90 1 1 1.13130787288e-05 0.00000000 3.39687073 27.40195032
91 1 1 1.23847859186e-05 16.17976988 5.94452377 27.40195032
92 1 1 1.19392807075e-05 0.00000000 8.49217681 27.40195032
93 1 1 1.96732899501e-05 16.17976988 11.03982986 27.40195032
94 1 1 1.28011922458e-05 0.00000000 13.58748290 27.40195032
95 1 1 4.00997883686e-05 16.17976988 16.13513595 27.40195032
96 1 1 1.33720577216e-05 0.00000000 18.68278899 27.40195032
97 1 1 -1.70180492213e-07 2.94177634 1.69843536 29.80390065
98 1 1 -1.75714165648e-07 4.41266451 4.24608841 29.80390065
99 1 1 -1.80647558953e-07 2.94177634 6.79374145 29.80390065
100 1 1 -1.96462587337e-07 4.41266451 9.34139450 29.80390065
101 1 1 -2.07429951744e-07 2.94177634 11.88904754 29.80390065
102 1 1 -2.39177489564e-07 4.41266451 14.43670058 29.80390065
103 1 1 -2.51122481652e-07 2.94177634 16.98435363 29.80390065
104 1 1 -2.69683453926e-07 4.41266451 19.53200667 29.80390065
105 1 1 -1.73869129513e-07 5.88355268 1.69843536 29.80390065
106 1 1 -1.82054629417e-07 7.35444085 4.24608841 29.80390065
107 1 1 -1.8771764804e-07 5.88355268 6.79374145 29.80390065
108 1 1 -2.12521084157e-07 7.35444085 9.34139450 29.80390065
109 1 1 -2.26466117421e-07 5.88355268 11.88904754 29.80390065
110 1 1 -2.57443155846e-07 7.35444085 14.43670058 29.80390065
111 1 1 -2.61054581675e-07 5.88355268 16.98435363 29.80390065
112 1 1 -2.24552708181e-07 7.35444085 19.53200667 29.80390065
113 1 1 -1.80055737799e-07 8.82532903 1.69843536 29.80390065
114 1 1 -1.91934977318e-07 10.29621720 4.24608841 29.80390065
115 1 1 -2.00209969734e-07 8.82532903 6.79374145 29.80390065
116 1 1 -2.32049664983e-07 10.29621720 9.34139450 29.80390065
117 1 1 -2.48420199733e-07 8.82532903 11.88904754 29.80390065
118 1 1 -2.55906275691e-07 10.29621720 14.43670058 29.80390065
119 1 1 -2.34210946046e-07 8.82532903 16.98435363 29.80390065
120 1 1 -2.37263030349e-07 10.29621720 19.53200667 29.80390065
121 1 1 -1.88485508774e-07 11.76710537 1.69843536 29.80390065
122 1 1 -2.03726007052e-07 13.23799354 4.24608841 29.80390065
123 1 1 -2.15420574892e-07 11.76710537 6.79374145 29.80390065
124 1 1 -2.45581014711e-07 13.23799354 9.34139450 29.80390065
125 1 1 -2.60312493791e-07 11.76710537 11.88904754 29.80390065
126 1 1 -2.62879441178e-07 13.23799354 14.43670058 29.80390065
127 1 1 -2.38048403588e-07 11.76710537 16.98435363 29.80390065
128 1 1 -7.92118048739e-07 13.23799354 19.53200667 29.80390065
129 1 1 -1.98117352765e-07 14.70888171 1.69843536 29.80390065
130 1 1 -2.1418782733e-07 16.17976988 4.24608841 29.80390065
131 1 1 -2.27437158247e-07 14.70888171 6.79374145 29.80390065
132 1 1 -2.52629417883e-07 16.17976988 9.34139450 29.80390065
133 1 1 -2.69676643951e-07 14.70888171 11.88904754 29.80390065
134 1 1 -3.9626343777e-07 16.17976988 14.43670058 29.80390065
135 1 1 -4.74011059063e-07 14.70888171 16.98435363 29.80390065
136 1 1 -1.87466134183e-06 16.17976988 19.53200667 29.80390065
137 1 1 -1.68958287511e-07 0.00000000 1.69843536 29.80390065
138 1 1 -1.72789311037e-07 1.47088817 4.24608841 29.80390065
139 1 1 -1.78505123819e-07 0.00000000 6.79374145 29.80390065
140 1 1 -1.88454018646e-07 1.47088817 9.34139450 29.80390065
141 1 1 -2.00398253534e-07 0.00000000 11.88904754 29.80390065
142 1 1 -2.20880751992e-07 1.47088817 14.43670058 29.80390065
143 1 1 -2.40047232009e-07 0.00000000 16.98435363 29.80390065
144 1 1 -2.65906636413e-07 1.47088817 19.53200667 29.80390065
145 1 1 -1.08178160889e-05 4.41266451 2.54765304 32.20585097
146 1 1 -1.11117335179e-05 5.88355268 5.09530609 32.20585097
147 1 1 -1.13022493902e-05 4.41266451 7.64295913 32.20585097
148 1 1 -1.15611734089e-05 5.88355268 10.19061218 32.20585097
149 1 1 -1.18199233994e-05 4.41266451 12.73826522 32.20585097
150 1 1 -1.22669622557e-05 5.88355268 15.28591827 32.20585097
151 1 1 -1.26723500702e-05 4.41266451 17.83357131 32.20585097
152 1 1 -1.08386386379e-05 5.88355268 0.00000000 32.20585097
153 1 1 -1.10284599474e-05 7.35444085 2.54765304 32.20585097
154 1 1 -1.13052888992e-05 8.82532903 5.09530609 32.20585097
155 1 1 -1.13977472256e-05 7.35444085 7.64295913 32.20585097
156 1 1 -1.15554609935e-05 8.82532903 10.19061218 32.20585097
157 1 1 -1.1846531055e-05 7.35444085 12.73826522 32.20585097
158 1 1 -1.48390089317e-05 8.82532903 15.28591827 32.20585097
159 1 1 -1.60295655096e-05 7.35444085 17.83357131 32.20585097
160 1 1 -1.10873129683e-05 8.82532903 0.00000000 32.20585097
161 1 1 -1.12881380991e-05 10.29621720 2.54765304 32.20585097
162 1 1 -1.14590125645e-05 11.76710537 5.09530609 32.20585097
163 1 1 -1.1444022444e-05 10.29621720 7.64295913 32.20585097
164 1 1 -1.21126455949e-05 11.76710537 10.19061218 32.20585097
165 1 1 -1.33055401634e-05 10.29621720 12.73826522 32.20585097
166 1 1 -2.30511560711e-05 11.76710537 15.28591827 32.20585097
167 1 1 -2.69693309997e-05 10.29621720 17.83357131 32.20585097
168 1 1 -1.13817031234e-05 11.76710537 0.00000000 32.20585097
169 1 1 -1.15406071411e-05 13.23799354 2.54765304 32.20585097
170 1 1 -1.15680941658e-05 14.70888171 5.09530609 32.20585097
171 1 1 -1.15855808462e-05 13.23799354 7.64295913 32.20585097
172 1 1 -1.41689264797e-05 14.70888171 10.19061218 32.20585097
173 1 1 -1.81545122978e-05 13.23799354 12.73826522 32.20585097
174 1 1 -3.51537346606e-05 14.70888171 15.28591827 32.20585097
175 1 1 -3.92988166904e-05 13.23799354 17.83357131 32.20585097
176 1 1 -1.16691370767e-05 14.70888171 0.00000000 32.20585097
177 1 1 -1.17438406027e-05 16.17976988 2.54765304 32.20585097
178 1 1 -1.08827370957e-05 0.00000000 5.09530609 32.20585097
179 1 1 -1.21436928904e-05 16.17976988 7.64295913 32.20585097
180 1 1 -1.15873338187e-05 0.00000000 10.19061218 32.20585097
181 1 1 -2.6643899945e-05 16.17976988 12.73826522 32.20585097
182 1 1 -1.23211596987e-05 0.00000000 15.28591827 32.20585097
183 1 1 -1.77604104643e-05 16.17976988 17.83357131 32.20585097
184 1 1 -1.06198999213e-05 0.00000000 0.00000000 32.20585097
185 1 1 -1.07013479413e-05 1.47088817 2.54765304 32.20585097
186 1 1 -1.09470555859e-05 2.94177634 5.09530609 32.20585097
187 1 1 -1.12102099639e-05 1.47088817 7.64295913 32.20585097
188 1 1 -1.15920633478e-05 2.94177634 10.19061218 32.20585097
189 1 1 -1.19668804837e-05 1.47088817 12.73826522 32.20585097
190 1 1 -1.21669627381e-05 2.94177634 15.28591827 32.20585097
191 1 1 -1.25019475544e-05 1.47088817 17.83357131 32.20585097
192 1 1 -1.06759711549e-05 2.94177634 0.00000000 32.20585097
193 1 1 -0.000176365985271 5.88355268 3.39687073 34.60780130
194 1 1 -0.000185681850846 7.35444085 5.94452377 34.60780130
195 1 1 -0.000191552151031 5.88355268 8.49217681 34.60780130
196 1 1 -0.000210528144772 7.35444085 11.03982986 34.60780130
197 1 1 -0.0002201875419 5.88355268 13.58748290 34.60780130
198 1 1 -0.000255500293368 7.35444085 16.13513595 34.60780130
199 1 1 -0.000264537686645 5.88355268 18.68278899 34.60780130
200 1 1 -0.000176018652169 7.35444085 0.84921768 34.60780130
201 1 1 -0.000182177168107 8.82532903 3.39687073 34.60780130
202 1 1 -0.000194197178304 10.29621720 5.94452377 34.60780130
203 1 1 -0.000201527367895 8.82532903 8.49217681 34.60780130
204 1 1 -0.000228606737748 10.29621720 11.03982986 34.60780130
205 1 1 -0.000242813785384 8.82532903 13.58748290 34.60780130
206 1 1 -0.000303996206654 10.29621720 16.13513595 34.60780130
207 1 1 -0.000320229488556 8.82532903 18.68278899 34.60780130
208 1 1 -0.000181944816444 10.29621720 0.84921768 34.60780130
209 1 1 -0.000189606784372 11.76710537 3.39687073 34.60780130
210 1 1 -0.000204631063846 13.23799354 5.94452377 34.60780130
211 1 1 -0.000215271319466 11.76710537 8.49217681 34.60780130
212 1 1 -0.000254800712569 13.23799354 11.03982986 34.60780130
213 1 1 -0.000280280262757 11.76710537 13.58748290 34.60780130
214 1 1 -0.00037858600909 13.23799354 16.13513595 34.60780130
215 1 1 -0.000411088236554 11.76710537 18.68278899 34.60780130
216 1 1 -0.000188953754865 13.23799354 0.84921768 34.60780130
217 1 1 -0.000197922935683 14.70888171 3.39687073 34.60780130
218 1 1 -0.000216158282689 16.17976988 5.94452377 34.60780130
219 1 1 -0.000232574198219 14.70888171 8.49217681 34.60780130
220 1 1 -0.00028893482644 16.17976988 11.03982986 34.60780130
221 1 1 -0.000334163681951 14.70888171 13.58748290 34.60780130
222 1 1 -0.000462602037233 16.17976988 16.13513595 34.60780130
223 1 1 -0.000505260130686 14.70888171 18.68278899 34.60780130
224 1 1 -0.000196256545091 16.17976988 0.84921768 34.60780130
225 1 1 -0.000171426611693 0.00000000 3.39687073 34.60780130
226 1 1 -0.00017655017778 1.47088817 5.94452377 34.60780130
227 1 1 -0.000183384598866 0.00000000 8.49217681 34.60780130
228 1 1 -0.000193625660876 1.47088817 11.03982986 34.60780130
229 1 1 -0.00020447201405 0.00000000 13.58748290 34.60780130
230 1 1 -0.000218760362206 1.47088817 16.13513595 34.60780130
231 1 1 -0.000231265933729 0.00000000 18.68278899 34.60780130
232 1 1 -0.000169549086719 1.47088817 0.84921768 34.60780130
233 1 1 -0.000172684846877 2.94177634 3.39687073 34.60780130
234 1 1 -0.000179664606425 4.41266451 5.94452377 34.60780130
235 1 1 -0.000185448085102 2.94177634 8.49217681 34.60780130
236 1 1 -0.000199175660013 4.41266451 11.03982986 34.60780130
237 1 1 -0.000208237005208 2.94177634 13.58748290 34.60780130
238 1 1 -0.000229661553284 4.41266451 16.13513595 34.60780130
239 1 1 -0.000238572275405 2.94177634 18.68278899 34.60780130
240 1 1 -0.000171763286954 4.41266451 0.84921768 34.60780130
241 1 1 0.000241030347809 0.00000000 20.38122435 25.00000000
242 1 1 0.000256854255869 1.47088817 22.92887739 25.00000000
243 1 1 0.000264678455948 0.00000000 25.47653044 25.00000000
244 1 1 0.000275981933114 1.47088817 28.02418348 25.00000000
245 1 1 0.000274352076307 0.00000000 30.57183653 25.00000000
246 1 1 0.000275991851237 1.47088817 33.11948957 25.00000000
247 1 1 0.000264687480924 0.00000000 35.66714262 25.00000000
248 1 1 0.000256867013706 1.47088817 38.21479566 25.00000000
249 1 1 0.000250112539887 2.94177634 20.38122435 25.00000000
250 1 1 0.000283392310583 4.41266451 22.92887739 25.00000000
251 1 1 0.000279884537625 2.94177634 25.47653044 25.00000000
252 1 1 0.000314234391315 4.41266451 28.02418348 25.00000000
253 1 1 0.000292692471415 2.94177634 30.57183653 25.00000000
254 1 1 0.000314264488017 4.41266451 33.11948957 25.00000000
255 1 1 0.00027991343541 2.94177634 35.66714262 25.00000000
256 1 1 0.000283439565217 4.41266451 38.21479566 25.00000000
257 1 1 0.000283206104141 5.88355268 20.38122435 25.00000000
258 1 1 0.000351524552806 7.35444085 22.92887739 25.00000000
259 1 1 0.000336171095663 5.88355268 25.47653044 25.00000000
260 1 1 0.000408234255393 7.35444085 28.02418348 25.00000000
261 1 1 0.000359863059474 5.88355268 30.57183653 25.00000000
262 1 1 0.000408257104737 7.35444085 33.11948957 25.00000000
263 1 1 0.000336220172684 5.88355268 35.66714262 25.00000000
264 1 1 0.000351545600318 7.35444085 38.21479566 25.00000000
265 1 1 0.000354316628902 8.82532903 20.38122435 25.00000000
266 1 1 0.000464269376025 10.29621720 22.92887739 25.00000000
267 1 1 0.000446032535473 8.82532903 25.47653044 25.00000000
268 1 1 0.00052748682611 10.29621720 28.02418348 25.00000000
269 1 1 0.000481020630092 8.82532903 30.57183653 25.00000000
270 1 1 0.00052738640143 10.29621720 33.11948957 25.00000000
271 1 1 0.000445940113696 8.82532903 35.66714262 25.00000000
272 1 1 0.000463949300358 10.29621720 38.21479566 25.00000000
273 1 1 0.000460895784999 11.76710537 20.38122435 25.00000000
274 1 1 0.000539558466422 13.23799354 22.92887739 25.00000000
275 1 1 0.000540905577628 11.76710537 25.47653044 25.00000000
276 1 1 0.000491463748354 13.23799354 28.02418348 25.00000000
277 1 1 0.000540662398777 11.76710537 30.57183653 25.00000000
278 1 1 0.000491133285103 13.23799354 33.11948957 25.00000000
279 1 1 0.000540213118427 11.76710537 35.66714262 25.00000000
280 1 1 0.000538351135701 13.23799354 38.21479566 25.00000000
281 1 1 0.0005360688325 14.70888171 20.38122435 25.00000000
282 1 1 0.000445841247229 16.17976988 22.92887739 25.00000000
283 1 1 0.000447555796898 14.70888171 25.47653044 25.00000000
284 1 1 0.00056129193594 16.17976988 28.02418348 25.00000000
285 1 1 0.000414331379194 14.70888171 30.57183653 25.00000000
286 1 1 0.000560956874062 16.17976988 33.11948957 25.00000000
287 1 1 0.000445898369878 14.70888171 35.66714262 25.00000000
288 1 1 0.000444183853554 16.17976988 38.21479566 25.00000000
289 1 1 1.35961707437e-05 1.47088817 21.23044203 27.40195032
290 1 1 1.48385419256e-05 2.94177634 23.77809508 27.40195032
291 1 1 1.42425417183e-05 1.47088817 26.32574812 27.40195032
292 1 1 1.63986347819e-05 2.94177634 28.87340116 27.40195032
293 1 1 1.45384020825e-05 1.47088817 31.42105421 27.40195032
294 1 1 1.6030294258e-05 2.94177634 33.96870725 27.40195032
295 1 1 1.40378049324e-05 1.47088817 36.51636030 27.40195032
296 1 1 1.42637254354e-05 2.94177634 39.06401334 27.40195032
297 1 1 1.53203458096e-05 4.41266451 21.23044203 27.40195032
298 1 1 2.25839994453e-05 5.88355268 23.77809508 27.40195032
299 1 1 1.94259549471e-05 4.41266451 26.32574812 27.40195032
300 1 1 2.85344972797e-05 5.88355268 28.87340116 27.40195032
301 1 1 2.10158948616e-05 4.41266451 31.42105421 27.40195032
302 1 1 2.71856119173e-05 5.88355268 33.96870725 27.40195032
303 1 1 1.8095221828e-05 4.41266451 36.51636030 27.40195032
304 1 1 1.98241427521e-05 5.88355268 39.06401334 27.40195032
305 1 1 2.4468483382e-05 7.35444085 21.23044203 27.40195032
306 1 1 3.94640643189e-05 8.82532903 23.77809508 27.40195032
307 1 1 3.55844783545e-05 7.35444085 26.32574812 27.40195032
308 1 1 4.08184501114e-05 8.82532903 28.87340116 27.40195032
309 1 1 3.82338096683e-05 7.35444085 31.42105421 27.40195032
310 1 1 4.1328042574e-05 8.82532903 33.96870725 27.40195032
311 1 1 3.25101950479e-05 7.35444085 36.51636030 27.40195032
312 1 1 3.52215927087e-05 8.82532903 39.06401334 27.40195032
313 1 1 4.03277005037e-05 10.29621720 21.23044203 27.40195032
314 1 1 1.41025205739e-05 11.76710537 23.77809508 27.40195032
315 1 1 2.90506553937e-05 10.29621720 26.32574812 27.40195032
316 1 1 -7.26492813205e-05 11.76710537 28.87340116 27.40195032
317 1 1 1.37501513891e-05 10.29621720 31.42105421 27.40195032
318 1 1 -4.78096464046e-05 11.76710537 33.96870725 27.40195032
319 1 1 3.70454945237e-05 10.29621720 36.51636030 27.40195032
320 1 1 3.36626843001e-05 11.76710537 39.06401334 27.40195032
321 1 1 1.39549557347e-05 13.23799354 21.23044203 27.40195032
322 1 1 -0.000231142269156 14.70888171 23.77809508 27.40195032
323 1 1 -0.000180858095838 13.23799354 26.32574812 27.40195032
324 1 1 -0.000608031473872 14.70888171 28.87340116 27.40195032
325 1 1 -0.000289142281857 13.23799354 31.42105421 27.40195032
326 1 1 -0.000514252500641 14.70888171 33.96870725 27.40195032
327 1 1 -0.000101757957113 13.23799354 36.51636030 27.40195032
328 1 1 -0.000101875749367 14.70888171 39.06401334 27.40195032
329 1 1 -0.000181067496257 16.17976988 21.23044203 27.40195032
330 1 1 1.36989365262e-05 0.00000000 23.77809508 27.40195032
331 1 1 -0.000813833615901 16.17976988 26.32574812 27.40195032
332 1 1 1.40009323877e-05 0.00000000 28.87340116 27.40195032
333 1 1 -0.00101588583939 16.17976988 31.42105421 27.40195032
334 1 1 1.3934929044e-05 0.00000000 33.96870725 27.40195032
335 1 1 -0.000605373123937 16.17976988 36.51636030 27.40195032
336 1 1 1.36035729293e-05 0.00000000 39.06401334 27.40195032
337 1 1 -2.85528318366e-07 2.94177634 22.07965971 29.80390065
338 1 1 -2.82451637344e-07 4.41266451 24.62731276 29.80390065
339 1 1 -3.03227712704e-07 2.94177634 27.17496580 29.80390065
340 1 1 -3.03714113538e-07 4.41266451 29.72261885 29.80390065
341 1 1 -2.9650440661e-07 2.94177634 32.27027189 29.80390065
342 1 1 -3.06054171681e-07 4.41266451 34.81792493 29.80390065
343 1 1 -2.77278246041e-07 2.94177634 37.36557798 29.80390065
344 1 1 -2.78930164296e-07 4.41266451 39.91323102 29.80390065
345 1 1 -2.46641658536e-07 5.88355268 22.07965971 29.80390065
346 1 1 -2.51793740485e-07 7.35444085 24.62731276 29.80390065
347 1 1 -2.86354769753e-07 5.88355268 27.17496580 29.80390065
348 1 1 -4.15804071952e-07 7.35444085 29.72261885 29.80390065
349 1 1 -3.57221124162e-07 5.88355268 32.27027189 29.80390065
350 1 1 -4.99728514229e-07 7.35444085 34.81792493 29.80390065
351 1 1 -3.47071358882e-07 5.88355268 37.36557798 29.80390065
352 1 1 -3.8711241827e-07 7.35444085 39.91323102 29.80390065
353 1 1 -2.41821123875e-07 8.82532903 22.07965971 29.80390065
354 1 1 -7.98991651263e-07 10.29621720 24.62731276 29.80390065
355 1 1 -4.87192508361e-07 8.82532903 27.17496580 29.80390065
356 1 1 -1.16934963108e-06 10.29621720 29.72261885 29.80390065
357 1 1 -8.15437053013e-07 8.82532903 32.27027189 29.80390065
358 1 1 -1.16550750279e-06 10.29621720 34.81792493 29.80390065
359 1 1 -6.1709792306e-07 8.82532903 37.36557798 29.80390065
360 1 1 -6.35183110679e-07 10.29621720 39.91323102 29.80390065
361 1 1 -1.08995313174e-06 11.76710537 22.07965971 29.80390065
362 1 1 -3.87949151922e-06 13.23799354 24.62731276 29.80390065
363 1 1 -1.88208006246e-06 11.76710537 27.17496580 29.80390065
364 1 1 -3.10449366828e-06 13.23799354 29.72261885 29.80390065
365 1 1 -2.43046961736e-06 11.76710537 32.27027189 29.80390065
366 1 1 -2.00899919622e-06 13.23799354 34.81792493 29.80390065
367 1 1 -8.82599713318e-07 11.76710537 37.36557798 29.80390065
368 1 1 -8.79556020283e-07 13.23799354 39.91323102 29.80390065
369 1 1 -3.87664535832e-06 14.70888171 22.07965971 29.80390065
370 1 1 -8.71006098666e-06 16.17976988 24.62731276 29.80390065
371 1 1 -5.16103624738e-06 14.70888171 27.17496580 29.80390065
372 1 1 -3.87661142384e-06 16.17976988 29.72261885 29.80390065
373 1 1 -5.05832225522e-06 14.70888171 32.27027189 29.80390065
374 1 1 -1.84091749073e-06 16.17976988 34.81792493 29.80390065
375 1 1 -3.33594621668e-07 14.70888171 37.36557798 29.80390065
376 1 1 -2.00431179771e-06 16.17976988 39.91323102 29.80390065
377 1 1 -2.84480186751e-07 0.00000000 22.07965971 29.80390065
378 1 1 -3.00174322037e-07 1.47088817 24.62731276 29.80390065
379 1 1 -3.07251521063e-07 0.00000000 27.17496580 29.80390065
380 1 1 -3.04392988891e-07 1.47088817 29.72261885 29.80390065
381 1 1 -2.95864764861e-07 0.00000000 32.27027189 29.80390065
382 1 1 -2.84199419581e-07 1.47088817 34.81792493 29.80390065
383 1 1 -2.71327275435e-07 0.00000000 37.36557798 29.80390065
384 1 1 -2.58422143611e-07 1.47088817 39.91323102 29.80390065
385 1 1 -1.56733345466e-05 4.41266451 22.92887739 32.20585097
386 1 1 -2.39341242383e-05 5.88355268 25.47653044 32.20585097
387 1 1 -1.93552544852e-05 4.41266451 28.02418348 32.20585097
388 1 1 -2.77232436369e-05 5.88355268 30.57183653 32.20585097
389 1 1 -1.93516935248e-05 4.41266451 33.11948957 32.20585097
390 1 1 -2.39742084486e-05 5.88355268 35.66714262 32.20585097
391 1 1 -1.56652501587e-05 4.41266451 38.21479566 32.20585097
392 1 1 -1.63259782045e-05 5.88355268 20.38122435 32.20585097
393 1 1 -2.7431306984e-05 7.35444085 22.92887739 32.20585097
394 1 1 -3.98113211807e-05 8.82532903 25.47653044 32.20585097
395 1 1 -3.59812660231e-05 7.35444085 28.02418348 32.20585097
396 1 1 -3.89175383799e-05 8.82532903 30.57183653 32.20585097
397 1 1 -3.607650695e-05 7.35444085 33.11948957 32.20585097
398 1 1 -4.00388391174e-05 8.82532903 35.66714262 32.20585097
399 1 1 -2.75468831675e-05 7.35444085 38.21479566 32.20585097
400 1 1 -2.85608711863e-05 8.82532903 20.38122435 32.20585097
401 1 1 -3.97896604343e-05 10.29621720 22.92887739 32.20585097
402 1 1 1.65274065631e-05 11.76710537 25.47653044 32.20585097
403 1 1 -1.82487129527e-05 10.29621720 28.02418348 32.20585097
404 1 1 8.37662564484e-05 11.76710537 30.57183653 32.20585097
405 1 1 -1.86043782147e-05 10.29621720 33.11948957 32.20585097
406 1 1 1.65967357004e-05 11.76710537 35.66714262 32.20585097
407 1 1 -3.99878272152e-05 10.29621720 38.21479566 32.20585097
408 1 1 -3.96169645486e-05 11.76710537 20.38122435 32.20585097
409 1 1 3.40123258469e-05 13.23799354 22.92887739 32.20585097
410 1 1 0.000379068364193 14.70888171 25.47653044 32.20585097
411 1 1 0.000250959034464 13.23799354 28.02418348 32.20585097
412 1 1 0.000645863624937 14.70888171 30.57183653 32.20585097
413 1 1 0.000250335250713 13.23799354 33.11948957 32.20585097
414 1 1 0.000381174730445 14.70888171 35.66714262 32.20585097
415 1 1 3.48520092045e-05 13.23799354 38.21479566 32.20585097
416 1 1 1.67755441229e-05 14.70888171 20.38122435 32.20585097
417 1 1 0.000379156215057 16.17976988 22.92887739 32.20585097
418 1 1 -1.29363902873e-05 0.00000000 25.47653044 32.20585097
419 1 1 0.000960735523178 16.17976988 28.02418348 32.20585097
420 1 1 -1.31029866725e-05 0.00000000 30.57183653 32.20585097
421 1 1 0.000960192125641 16.17976988 33.11948957 32.20585097
422 1 1 -1.29201285926e-05 0.00000000 35.66714262 32.20585097
423 1 1 0.000381262959471 16.17976988 38.21479566 32.20585097
424 1 1 -1.26859707863e-05 0.00000000 20.38122435 32.20585097
425 1 1 -1.29446079129e-05 1.47088817 22.92887739 32.20585097
426 1 1 -1.45158077159e-05 2.94177634 25.47653044 32.20585097
427 1 1 -1.34989752338e-05 1.47088817 28.02418348 32.20585097
428 1 1 -1.55244352692e-05 2.94177634 30.57183653 32.20585097
429 1 1 -1.34869898471e-05 1.47088817 33.11948957 32.20585097
430 1 1 -1.44968936329e-05 2.94177634 35.66714262 32.20585097
431 1 1 -1.29273255744e-05 1.47088817 38.21479566 32.20585097
432 1 1 -1.29164846303e-05 2.94177634 20.38122435 32.20585097
433 1 1 -0.000319319075148 5.88355268 23.77809508 34.60780130
434 1 1 -0.000393480513408 7.35444085 26.32574812 34.60780130
435 1 1 -0.000356218734138 5.88355268 28.87340116 34.60780130
436 1 1 -0.000414373802082 7.35444085 31.42105421 34.60780130
437 1 1 -0.000348062758451 5.88355268 33.96870725 34.60780130
438 1 1 -0.000374080504255 7.35444085 36.51636030 34.60780130
439 1 1 -0.00030117633656 5.88355268 39.06401334 34.60780130
440 1 1 -0.000325324978849 7.35444085 21.23044203 34.60780130
441 1 1 -0.000418569167457 8.82532903 23.77809508 34.60780130
442 1 1 -0.000513319395425 10.29621720 26.32574812 34.60780130
443 1 1 -0.000475796399048 8.82532903 28.87340116 34.60780130
444 1 1 -0.000530993848855 10.29621720 31.42105421 34.60780130
445 1 1 -0.000464166331325 8.82532903 33.96870725 34.60780130
446 1 1 -0.000492972280103 10.29621720 36.51636030 34.60780130
447 1 1 -0.000387299441122 8.82532903 39.06401334 34.60780130
448 1 1 -0.00042498105123 10.29621720 21.23044203 34.60780130
449 1 1 -0.000525540048583 11.76710537 23.77809508 34.60780130
450 1 1 -0.000506093569702 13.23799354 26.32574812 34.60780130
451 1 1 -0.00053860091727 11.76710537 28.87340116 34.60780130
452 1 1 -0.000475466394799 13.23799354 31.42105421 34.60780130
453 1 1 -0.000540611778813 11.76710537 33.96870725 34.60780130
454 1 1 -0.000528081089445 13.23799354 36.51636030 34.60780130
455 1 1 -0.000499797607662 11.76710537 39.06401334 34.60780130
456 1 1 -0.000522833552529 13.23799354 21.23044203 34.60780130
457 1 1 -0.000485837036276 14.70888171 23.77809508 34.60780130
458 1 1 -0.00043512581586 16.17976988 26.32574812 34.60780130
459 1 1 -0.000405543584601 14.70888171 28.87340116 34.60780130
460 1 1 -0.000658788176487 16.17976988 31.42105421 34.60780130
461 1 1 -0.000412627271992 14.70888171 33.96870725 34.60780130
462 1 1 -0.000398581280013 16.17976988 36.51636030 34.60780130
463 1 1 -0.00052591982618 14.70888171 39.06401334 34.60780130
464 1 1 -0.000502259848337 16.17976988 21.23044203 34.60780130
465 1 1 -0.000257217217522 0.00000000 23.77809508 34.60780130
466 1 1 -0.00027068458502 1.47088817 26.32574812 34.60780130
467 1 1 -0.000272548446408 0.00000000 28.87340116 34.60780130
468 1 1 -0.000277709482383 1.47088817 31.42105421 34.60780130
469 1 1 -0.00026924957544 0.00000000 33.96870725 34.60780130
470 1 1 -0.000264165817704 1.47088817 36.51636030 34.60780130
471 1 1 -0.000249210318042 0.00000000 39.06401334 34.60780130
472 1 1 -0.0002473068489 1.47088817 21.23044203 34.60780130
473 1 1 -0.000270416954414 2.94177634 23.77809508 34.60780130
474 1 1 -0.000305862157221 4.41266451 26.32574812 34.60780130
475 1 1 -0.000290474802524 2.94177634 28.87340116 34.60780130
476 1 1 -0.000317502190197 4.41266451 31.42105421 34.60780130
477 1 1 -0.000286074349858 2.94177634 33.96870725 34.60780130
478 1 1 -0.000295257080941 4.41266451 36.51636030 34.60780130
479 1 1 -0.00026028166963 2.94177634 39.06401334 34.60780130
480 1 1 -0.000269157865203 4.41266451 21.23044203 34.60780130
481 1 1 0.000241032000828 0.00000000 40.76244870 25.00000000
482 1 1 0.000228783132881 1.47088817 43.31010174 25.00000000
483 1 1 0.000213541514942 0.00000000 45.85775479 25.00000000
484 1 1 0.000201764027538 1.47088817 48.40540783 25.00000000
485 1 1 0.000189966815038 0.00000000 50.95306088 25.00000000
486 1 1 0.000181610850899 1.47088817 53.50071392 25.00000000
487 1 1 0.000174712319088 0.00000000 56.04836697 25.00000000
488 1 1 0.000171125950496 1.47088817 58.59602001 25.00000000
489 1 1 0.000250133940418 2.94177634 40.76244870 25.00000000
490 1 1 0.000242681672522 4.41266451 43.31010174 25.00000000
491 1 1 0.00021822507239 2.94177634 45.85775479 25.00000000
492 1 1 0.000208656042096 4.41266451 48.40540783 25.00000000
493 1 1 0.000192479127878 2.94177634 50.95306088 25.00000000
494 1 1 0.000185350930924 4.41266451 53.50071392 25.00000000
495 1 1 0.000176163355659 2.94177634 56.04836697 25.00000000
496 1 1 0.000173495044636 4.41266451 58.59602001 25.00000000
497 1 1 0.00028326105523 5.88355268 40.76244870 25.00000000
498 1 1 0.000277048466307 7.35444085 43.31010174 25.00000000
499 1 1 0.000233685980493 5.88355268 45.85775479 25.00000000
500 1 1 0.000223378850132 7.35444085 48.40540783 25.00000000
501 1 1 0.000200015757161 5.88355268 50.95306088 25.00000000
502 1 1 0.000192640194461 7.35444085 53.50071392 25.00000000
503 1 1 0.000180412994962 5.88355268 56.04836697 25.00000000
504 1 1 0.00017805011796 7.35444085 58.59602001 25.00000000
505 1 1 0.000354310411014 8.82532903 40.76244870 25.00000000
506 1 1 0.000342304876693 10.29621720 43.31010174 25.00000000
507 1 1 0.000264698774992 8.82532903 45.85775479 25.00000000
508 1 1 0.000248395782212 10.29621720 48.40540783 25.00000000
509 1 1 0.000212778447955 8.82532903 50.95306088 25.00000000
510 1 1 0.000203189293161 10.29621720 53.50071392 25.00000000
511 1 1 0.000187148547719 8.82532903 56.04836697 25.00000000
512 1 1 0.000184402109728 10.29621720 58.59602001 25.00000000
513 1 1 0.000460575681797 11.76710537 40.76244870 25.00000000
514 1 1 0.000435858557384 13.23799354 43.31010174 25.00000000
515 1 1 0.000317733861191 11.76710537 45.85775479 25.00000000
516 1 1 0.000286665767659 13.23799354 48.40540783 25.00000000
517 1 1 0.000231430603507 11.76710537 50.95306088 25.00000000
518 1 1 0.000216656352271 13.23799354 53.50071392 25.00000000
519 1 1 0.000195851125022 11.76710537 56.04836697 25.00000000
520 1 1 0.000191939138461 13.23799354 58.59602001 25.00000000
521 1 1 0.000535376172589 14.70888171 40.76244870 25.00000000
522 1 1 0.000517851596305 16.17976988 43.31010174 25.00000000
523 1 1 0.000391640060424 14.70888171 45.85775479 25.00000000
524 1 1 0.000337167024188 16.17976988 48.40540783 25.00000000
525 1 1 0.000256489066819 14.70888171 50.95306088 25.00000000
526 1 1 0.000232366146502 16.17976988 53.50071392 25.00000000
527 1 1 0.000205792348428 14.70888171 56.04836697 25.00000000
528 1 1 0.000199840859485 16.17976988 58.59602001 25.00000000
529 1 1 1.34344582104e-05 1.47088817 41.61166638 27.40195032
530 1 1 1.31154703661e-05 2.94177634 44.15931943 27.40195032
531 1 1 1.28881985773e-05 1.47088817 46.70697247 27.40195032
532 1 1 1.24791511061e-05 2.94177634 49.25462551 27.40195032
533 1 1 1.20886862368e-05 1.47088817 51.80227856 27.40195032
534 1 1 1.17456622776e-05 2.94177634 54.34993160 27.40195032
535 1 1 1.14008050112e-05 1.47088817 56.89758465 27.40195032
536 1 1 1.12810798308e-05 2.94177634 59.44523769 27.40195032
537 1 1 1.42597137699e-05 4.41266451 41.61166638 27.40195032
538 1 1 1.39047640871e-05 5.88355268 44.15931943 27.40195032
539 1 1 1.27215419395e-05 4.41266451 46.70697247 27.40195032
540 1 1 1.23864439463e-05 5.88355268 49.25462551 27.40195032
541 1 1 1.21385552277e-05 4.41266451 51.80227856 27.40195032
542 1 1 1.18974213029e-05 5.88355268 54.34993160 27.40195032
543 1 1 1.15315458097e-05 4.41266451 56.89758465 27.40195032
544 1 1 1.14580540901e-05 5.88355268 59.44523769 27.40195032
545 1 1 2.03187284202e-05 7.35444085 41.61166638 27.40195032
546 1 1 1.92425486944e-05 8.82532903 44.15931943 27.40195032
547 1 1 1.3291953125e-05 7.35444085 46.70697247 27.40195032
548 1 1 1.26701889155e-05 8.82532903 49.25462551 27.40195032
549 1 1 1.21640674719e-05 7.35444085 51.80227856 27.40195032
550 1 1 1.20407638788e-05 8.82532903 54.34993160 27.40195032
551 1 1 1.17511381979e-05 7.35444085 56.89758465 27.40195032
552 1 1 1.17226528613e-05 8.82532903 59.44523769 27.40195032
553 1 1 3.49954663961e-05 10.29621720 41.61166638 27.40195032
554 1 1 3.18437668316e-05 11.76710537 44.15931943 27.40195032
555 1 1 1.70149281577e-05 10.29621720 46.70697247 27.40195032
556 1 1 1.46188994948e-05 11.76710537 49.25462551 27.40195032
557 1 1 1.22717332141e-05 10.29621720 51.80227856 27.40195032
558 1 1 1.21464854476e-05 11.76710537 54.34993160 27.40195032
559 1 1 1.19905621828e-05 10.29621720 56.89758465 27.40195032
560 1 1 1.20266356159e-05 11.76710537 59.44523769 27.40195032
561 1 1 3.67162255629e-05 13.23799354 41.61166638 27.40195032
562 1 1 4.06784312784e-05 14.70888171 44.15931943 27.40195032
563 1 1 2.61286742961e-05 13.23799354 46.70697247 27.40195032
564 1 1 1.96782213285e-05 14.70888171 49.25462551 27.40195032
565 1 1 1.29786374896e-05 13.23799354 51.80227856 27.40195032
566 1 1 1.23444080808e-05 14.70888171 54.34993160 27.40195032
567 1 1 1.21920583048e-05 13.23799354 56.89758465 27.40195032
568 1 1 1.23140432739e-05 14.70888171 59.44523769 27.40195032
569 1 1 -4.81607615055e-05 16.17976988 41.61166638 27.40195032
570 1 1 1.32296403268e-05 0.00000000 44.15931943 27.40195032
571 1 1 3.72967534656e-05 16.17976988 46.70697247 27.40195032
572 1 1 1.25203401006e-05 0.00000000 49.25462551 27.40195032
573 1 1 1.49425412705e-05 16.17976988 51.80227856 27.40195032
574 1 1 1.16798698137e-05 0.00000000 54.34993160 27.40195032
575 1 1 1.23487621044e-05 16.17976988 56.89758465 27.40195032
576 1 1 1.12193589925e-05 0.00000000 59.44523769 27.40195032
577 1 1 -2.46816160431e-07 2.94177634 42.46088406 29.80390065
578 1 1 -2.35676385831e-07 4.41266451 45.00853711 29.80390065
579 1 1 -2.14696702208e-07 2.94177634 47.55619015 29.80390065
580 1 1 -2.04591497069e-07 4.41266451 50.10384320 29.80390065
581 1 1 -1.87712303789e-07 2.94177634 52.65149624 29.80390065
582 1 1 -1.80748862396e-07 4.41266451 55.19914928 29.80390065
583 1 1 -1.72025159994e-07 2.94177634 57.74680233 29.80390065
584 1 1 -1.71051831034e-07 4.41266451 60.29445537 29.80390065
585 1 1 -2.77399220867e-07 5.88355268 42.46088406 29.80390065
586 1 1 -2.62250421594e-07 7.35444085 45.00853711 29.80390065
587 1 1 -2.25168156397e-07 5.88355268 47.55619015 29.80390065
588 1 1 -2.1668659148e-07 7.35444085 50.10384320 29.80390065
589 1 1 -1.96228709952e-07 5.88355268 52.65149624 29.80390065
590 1 1 -1.88992804561e-07 7.35444085 55.19914928 29.80390065
591 1 1 -1.76583333238e-07 5.88355268 57.74680233 29.80390065
592 1 1 -1.75911894375e-07 7.35444085 60.29445537 29.80390065
593 1 1 -3.81233722438e-07 8.82532903 42.46088406 29.80390065
594 1 1 -3.29017325077e-07 10.29621720 45.00853711 29.80390065
595 1 1 -2.43257291813e-07 8.82532903 47.55619015 29.80390065
596 1 1 -2.32392736108e-07 10.29621720 50.10384320 29.80390065
597 1 1 -2.09097971892e-07 8.82532903 52.65149624 29.80390065
598 1 1 -2.00781178491e-07 10.29621720 55.19914928 29.80390065
599 1 1 -1.83847316786e-07 8.82532903 57.74680233 29.80390065
600 1 1 -1.82829902503e-07 10.29621720 60.29445537 29.80390065
601 1 1 -6.08735243316e-07 11.76710537 42.46088406 29.80390065
602 1 1 -4.82735700846e-07 13.23799354 45.00853711 29.80390065
603 1 1 -2.75096180068e-07 11.76710537 47.55619015 29.80390065
604 1 1 -2.52112601919e-07 13.23799354 50.10384320 29.80390065
605 1 1 -2.25851669567e-07 11.76710537 52.65149624 29.80390065
606 1 1 -2.16185946722e-07 13.23799354 55.19914928 29.80390065
607 1 1 -1.93520032675e-07 11.76710537 57.74680233 29.80390065
608 1 1 -1.91411493621e-07 13.23799354 60.29445537 29.80390065
609 1 1 -1.15656499159e-06 14.70888171 42.46088406 29.80390065
610 1 1 -8.00778703616e-07 16.17976988 45.00853711 29.80390065
611 1 1 -3.3150763908e-07 14.70888171 47.55619015 29.80390065
612 1 1 -2.69428013914e-07 16.17976988 50.10384320 29.80390065
613 1 1 -2.4578679267e-07 14.70888171 52.65149624 29.80390065
614 1 1 -2.34396907017e-07 16.17976988 55.19914928 29.80390065
615 1 1 -2.05494025726e-07 14.70888171 57.74680233 29.80390065
616 1 1 -2.01061580498e-07 16.17976988 60.29445537 29.80390065
617 1 1 -2.42275204058e-07 0.00000000 42.46088406 29.80390065
618 1 1 -2.27405922113e-07 1.47088817 45.00853711 29.80390065
619 1 1 -2.11053829667e-07 0.00000000 47.55619015 29.80390065
620 1 1 -1.97615752738e-07 1.47088817 50.10384320 29.80390065
621 1 1 -1.84692223376e-07 0.00000000 52.65149624 29.80390065
622 1 1 -1.76449737773e-07 1.47088817 55.19914928 29.80390065
623 1 1 -1.70470572821e-07 0.00000000 57.74680233 29.80390065
624 1 1 -1.68541456615e-07 1.47088817 60.29445537 29.80390065
625 1 1 -1.26552822246e-05 4.41266451 43.31010174 32.20585097
626 1 1 -1.22485251461e-05 5.88355268 45.85775479 32.20585097
627 1 1 -1.18153513666e-05 4.41266451 48.40540783 32.20585097
628 1 1 -1.15596187178e-05 5.88355268 50.95306088 32.20585097
629 1 1 -1.13038843058e-05 4.41266451 53.50071392 32.20585097
630 1 1 -1.11126837711e-05 5.88355268 56.04836697 32.20585097
631 1 1 -1.08177957522e-05 4.41266451 58.59602001 32.20585097
632 1 1 -1.63373612474e-05 5.88355268 40.76244870 32.20585097
633 1 1 -1.60402565414e-05 7.35444085 43.31010174 32.20585097
634 1 1 -1.48292259946e-05 8.82532903 45.85775479 32.20585097
635 1 1 -1.18305288045e-05 7.35444085 48.40540783 32.20585097
636 1 1 -1.15472577898e-05 8.82532903 50.95306088 32.20585097
637 1 1 -1.1398497585e-05 7.35444085 53.50071392 32.20585097
638 1 1 -1.13060300727e-05 8.82532903 56.04836697 32.20585097
639 1 1 -1.10286602461e-05 7.35444085 58.59602001 32.20585097
640 1 1 -2.87129371869e-05 8.82532903 40.76244870 32.20585097
641 1 1 -2.708469672e-05 10.29621720 43.31010174 32.20585097
642 1 1 -2.30900995706e-05 11.76710537 45.85775479 32.20585097
643 1 1 -1.32856623289e-05 10.29621720 48.40540783 32.20585097
644 1 1 -1.21021495116e-05 11.76710537 50.95306088 32.20585097
645 1 1 -1.14424787933e-05 10.29621720 53.50071392 32.20585097
646 1 1 -1.1458934468e-05 11.76710537 56.04836697 32.20585097
647 1 1 -1.12880134207e-05 10.29621720 58.59602001 32.20585097
648 1 1 -3.98154390326e-05 11.76710537 40.76244870 32.20585097
649 1 1 -3.95264827442e-05 13.23799354 43.31010174 32.20585097
650 1 1 -3.52483717505e-05 14.70888171 45.85775479 32.20585097
651 1 1 -1.81497890795e-05 13.23799354 48.40540783 32.20585097
652 1 1 -1.41689583386e-05 14.70888171 50.95306088 32.20585097
653 1 1 -1.15856681196e-05 13.23799354 53.50071392 32.20585097
654 1 1 -1.15696351036e-05 14.70888171 56.04836697 32.20585097
655 1 1 -1.15398242448e-05 13.23799354 58.59602001 32.20585097
656 1 1 1.68445902369e-05 14.70888171 40.76244870 32.20585097
657 1 1 -1.81161966198e-05 16.17976988 43.31010174 32.20585097
658 1 1 -1.23229295351e-05 0.00000000 45.85775479 32.20585097
659 1 1 -2.66436945396e-05 16.17976988 48.40540783 32.20585097
660 1 1 -1.15899378468e-05 0.00000000 50.95306088 32.20585097
661 1 1 -1.21542504973e-05 16.17976988 53.50071392 32.20585097
662 1 1 -1.08826596546e-05 0.00000000 56.04836697 32.20585097
663 1 1 -1.17434753702e-05 16.17976988 58.59602001 32.20585097
664 1 1 -1.26765155413e-05 0.00000000 40.76244870 32.20585097
665 1 1 -1.24962608826e-05 1.47088817 43.31010174 32.20585097
666 1 1 -1.21613747735e-05 2.94177634 45.85775479 32.20585097
667 1 1 -1.19693894336e-05 1.47088817 48.40540783 32.20585097
668 1 1 -1.15940033004e-05 2.94177634 50.95306088 32.20585097
669 1 1 -1.1211375546e-05 1.47088817 53.50071392 32.20585097
670 1 1 -1.09473709411e-05 2.94177634 56.04836697 32.20585097
671 1 1 -1.07010419041e-05 1.47088817 58.59602001 32.20585097
672 1 1 -1.28995336083e-05 2.94177634 40.76244870 32.20585097
673 1 1 -0.000247883816817 5.88355268 44.15931943 34.60780130
674 1 1 -0.000237670885224 7.35444085 46.70697247 34.60780130
675 1 1 -0.000209037208156 5.88355268 49.25462551 34.60780130
676 1 1 -0.000200403604835 7.35444085 51.80227856 34.60780130
677 1 1 -0.000185044743241 5.88355268 54.34993160 34.60780130
678 1 1 -0.000180843193603 7.35444085 56.89758465 34.60780130
679 1 1 -0.000174196387574 5.88355268 59.44523769 34.60780130
680 1 1 -0.000299938987629 7.35444085 41.61166638 34.60780130
681 1 1 -0.000289907467971 8.82532903 44.15931943 34.60780130
682 1 1 -0.000272606253396 10.29621720 46.70697247 34.60780130
683 1 1 -0.000225776810042 8.82532903 49.25462551 34.60780130
684 1 1 -0.000213921111802 10.29621720 51.80227856 34.60780130
685 1 1 -0.00019310402918 8.82532903 54.34993160 34.60780130
686 1 1 -0.000188017770742 10.29621720 56.89758465 34.60780130
687 1 1 -0.000179478052902 8.82532903 59.44523769 34.60780130
688 1 1 -0.000383143373191 10.29621720 41.61166638 34.60780130
689 1 1 -0.000361620403655 11.76710537 44.15931943 34.60780130
690 1 1 -0.000327393277656 13.23799354 46.70697247 34.60780130
691 1 1 -0.000251951241205 11.76710537 49.25462551 34.60780130
692 1 1 -0.000232247468598 13.23799354 51.80227856 34.60780130
693 1 1 -0.000203759269562 11.76710537 54.34993160 34.60780130
694 1 1 -0.000196613507752 13.23799354 56.89758465 34.60780130
695 1 1 -0.000186203859896 11.76710537 59.44523769 34.60780130
696 1 1 -0.000486943766166 13.23799354 41.61166638 34.60780130
697 1 1 -0.000452222235197 14.70888171 44.15931943 34.60780130
698 1 1 -0.00039683112038 16.17976988 46.70697247 34.60780130
699 1 1 -0.00028899136183 14.70888171 49.25462551 34.60780130
700 1 1 -0.000255022376527 16.17976988 51.80227856 34.60780130
701 1 1 -0.000216420364704 14.70888171 54.34993160 34.60780130
702 1 1 -0.000205783725954 16.17976988 56.89758465 34.60780130
703 1 1 -0.00019366997032 14.70888171 59.44523769 34.60780130
704 1 1 -0.000534198408503 16.17976988 41.61166638 34.60780130
705 1 1 -0.000222037432444 0.00000000 44.15931943 34.60780130
706 1 1 -0.000209714697711 1.47088817 46.70697247 34.60780130
707 1 1 -0.000196585854823 0.00000000 49.25462551 34.60780130
708 1 1 -0.000186894585262 1.47088817 51.80227856 34.60780130
709 1 1 -0.000178294290935 0.00000000 54.34993160 34.60780130
710 1 1 -0.000173056379049 1.47088817 56.89758465 34.60780130
711 1 1 -0.000169700105192 0.00000000 59.44523769 34.60780130
712 1 1 -0.000237838185368 1.47088817 41.61166638 34.60780130
713 1 1 -0.0002278623337 2.94177634 44.15931943 34.60780130
714 1 1 -0.00021831408396 4.41266451 46.70697247 34.60780130
715 1 1 -0.000199644951126 2.94177634 49.25462551 34.60780130
716 1 1 -0.000191422493829 4.41266451 51.80227856 34.60780130
717 1 1 -0.000180008981499 2.94177634 54.34993160 34.60780130
718 1 1 -0.000175718604353 4.41266451 56.89758465 34.60780130
719 1 1 -0.000170845807547 2.94177634 59.44523769 34.60780130
720 1 1 -0.000255351799437 4.41266451 41.61166638 34.60780130
721 1 1 0.000199796898597 17.65065805 0.00000000 25.00000000
722 1 1 0.000207129608774 19.12154622 2.54765304 25.00000000
723 1 1 0.000215979042944 17.65065805 5.09530609 25.00000000
724 1 1 0.000248708287968 19.12154622 7.64295913 25.00000000
725 1 1 0.000286450170651 17.65065805 10.19061218 25.00000000
726 1 1 0.000390693216698 19.12154622 12.73826522 25.00000000
727 1 1 0.000467133839961 17.65065805 15.28591827 25.00000000
728 1 1 0.00053246424788 19.12154622 17.83357131 25.00000000
729 1 1 0.000205755271815 20.59243439 0.00000000 25.00000000
730 1 1 0.000212778043806 22.06332256 2.54765304 25.00000000
731 1 1 0.000225065010321 20.59243439 5.09530609 25.00000000
732 1 1 0.000262705396607 22.06332256 7.64295913 25.00000000
733 1 1 0.000316146863087 20.59243439 10.19061218 25.00000000
734 1 1 0.000433197066432 22.06332256 12.73826522 25.00000000
735 1 1 0.000516528428946 20.59243439 15.28591827 25.00000000
736 1 1 0.000484639070698 22.06332256 17.83357131 25.00000000
737 1 1 0.000209749354747 23.53421073 0.00000000 25.00000000
738 1 1 0.000215875456844 25.00509890 2.54765304 25.00000000
739 1 1 0.000231455340485 23.53421073 5.09530609 25.00000000
740 1 1 0.000270891301072 25.00509890 7.64295913 25.00000000
741 1 1 0.000338116791175 23.53421073 10.19061218 25.00000000
742 1 1 0.000455383029781 25.00509890 12.73826522 25.00000000
743 1 1 0.00053229936214 23.53421073 15.28591827 25.00000000
744 1 1 0.000441195238672 25.00509890 17.83357131 25.00000000
745 1 1 0.000211156728491 26.47598708 0.00000000 25.00000000
746 1 1 0.000215875457906 27.94687525 2.54765304 25.00000000
747 1 1 0.000233770406074 26.47598708 5.09530609 25.00000000
748 1 1 0.000270891302117 27.94687525 7.64295913 25.00000000
749 1 1 0.000346194610387 26.47598708 10.19061218 25.00000000
750 1 1 0.000455383030797 27.94687525 12.73826522 25.00000000
751 1 1 0.00053306770701 26.47598708 15.28591827 25.00000000
752 1 1 0.00044119523959 27.94687525 17.83357131 25.00000000
753 1 1 0.000209749356852 29.41776342 0.00000000 25.00000000
754 1 1 0.000212778046899 30.88865159 2.54765304 25.00000000
755 1 1 0.000231455342578 29.41776342 5.09530609 25.00000000
756 1 1 0.000262705399662 30.88865159 7.64295913 25.00000000
757 1 1 0.000338116793216 29.41776342 10.19061218 25.00000000
758 1 1 0.000433197069412 30.88865159 12.73826522 25.00000000
759 1 1 0.00053229936417 29.41776342 15.28591827 25.00000000
760 1 1 0.000484639073679 30.88865159 17.83357131 25.00000000
761 1 1 0.000205755275818 32.35953976 0.00000000 25.00000000
762 1 1 0.000207129613562 33.83042793 2.54765304 25.00000000
763 1 1 0.000225065014308 32.35953976 5.09530609 25.00000000
764 1 1 0.000248708292717 33.83042793 7.64295913 25.00000000
765 1 1 0.000316146866999 32.35953976 10.19061218 25.00000000
766 1 1 0.000390693221339 33.83042793 12.73826522 25.00000000
767 1 1 0.00051652843284 32.35953976 15.28591827 25.00000000
768 1 1 0.000532464252681 33.83042793 17.83357131 25.00000000
769 1 1 1.26653000711e-05 19.12154622 0.84921768 27.40195032
770 1 1 1.25946631848e-05 20.59243439 3.39687073 27.40195032
771 1 1 1.275278712e-05 19.12154622 5.94452377 27.40195032
772 1 1 1.69473169113e-05 20.59243439 8.49217681 27.40195032
773 1 1 2.60742761864e-05 19.12154622 11.03982986 27.40195032
774 1 1 4.05857410478e-05 20.59243439 13.58748290 27.40195032
775 1 1 1.31531363804e-05 19.12154622 16.13513595 27.40195032
776 1 1 -0.000289492391015 20.59243439 18.68278899 27.40195032
777 1 1 1.28028178481e-05 22.06332256 0.84921768 27.40195032
778 1 1 1.26916418484e-05 23.53421073 3.39687073 27.40195032
779 1 1 1.32347905476e-05 22.06332256 5.94452377 27.40195032
780 1 1 1.90112453149e-05 23.53421073 8.49217681 27.40195032
781 1 1 3.1685558607e-05 22.06332256 11.03982986 27.40195032
782 1 1 3.65136587061e-05 23.53421073 13.58748290 27.40195032
783 1 1 -4.82699692295e-05 22.06332256 16.13513595 27.40195032
784 1 1 -0.000514523403689 23.53421073 18.68278899 27.40195032
785 1 1 1.28684524847e-05 25.00509890 0.84921768 27.40195032
786 1 1 1.27289407478e-05 26.47598708 3.39687073 27.40195032
787 1 1 1.35878522712e-05 25.00509890 5.94452377 27.40195032
788 1 1 1.98329454753e-05 26.47598708 8.49217681 27.40195032
789 1 1 3.46735394764e-05 25.00509890 11.03982986 27.40195032
790 1 1 3.33135965989e-05 26.47598708 13.58748290 27.40195032
791 1 1 -0.000102086325253 25.00509890 16.13513595 27.40195032
792 1 1 -0.000605561548818 26.47598708 18.68278899 27.40195032
793 1 1 1.28684537037e-05 27.94687525 0.84921768 27.40195032
794 1 1 1.26916442537e-05 29.41776342 3.39687073 27.40195032
795 1 1 1.35878534864e-05 27.94687525 5.94452377 27.40195032
796 1 1 1.90112477076e-05 29.41776342 8.49217681 27.40195032
797 1 1 3.46735406842e-05 27.94687525 11.03982986 27.40195032
798 1 1 3.65136611288e-05 29.41776342 13.58748290 27.40195032
799 1 1 -0.000102086323951 27.94687525 16.13513595 27.40195032
800 1 1 -0.000514523401032 29.41776342 18.68278899 27.40195032
801 1 1 1.28028213786e-05 30.88865159 0.84921768 27.40195032
802 1 1 1.25946677367e-05 32.35953976 3.39687073 27.40195032
803 1 1 1.3234794071e-05 30.88865159 5.94452377 27.40195032
804 1 1 1.69473214496e-05 32.35953976 8.49217681 27.40195032
805 1 1 3.16855621149e-05 30.88865159 11.03982986 27.40195032
806 1 1 4.05857456185e-05 32.35953976 13.58748290 27.40195032
807 1 1 -4.82699655048e-05 30.88865159 16.13513595 27.40195032
808 1 1 -0.000289492385762 32.35953976 18.68278899 27.40195032
809 1 1 1.26653055108e-05 33.83042793 0.84921768 27.40195032
810 1 1 1.24615801966e-05 17.65065805 3.39687073 27.40195032
811 1 1 1.27527925558e-05 33.83042793 5.94452377 27.40195032
812 1 1 1.46306102518e-05 17.65065805 8.49217681 27.40195032
813 1 1 2.60742816061e-05 33.83042793 11.03982986 27.40195032
814 1 1 3.72789594641e-05 17.65065805 13.58748290 27.40195032
815 1 1 1.31531420236e-05 33.83042793 16.13513595 27.40195032
816 1 1 -7.30620035061e-05 17.65065805 18.68278899 27.40195032
817 1 1 -2.14274775668e-07 20.59243439 1.69843536 29.80390065
818 1 1 -2.26816018061e-07 22.06332256 4.24608841 29.80390065
819 1 1 -2.43779605861e-07 20.59243439 6.79374145 29.80390065
820 1 1 -3.26563721304e-07 22.06332256 9.34139450 29.80390065
821 1 1 -4.81019663858e-07 20.59243439 11.88904754 29.80390065
822 1 1 -1.15422545399e-06 22.06332256 14.43670058 29.80390065
823 1 1 -2.42136849766e-06 20.59243439 16.98435363 29.80390065
824 1 1 -5.05223847237e-06 22.06332256 19.53200667 29.80390065
825 1 1 -2.18709916839e-07 23.53421073 1.69843536 29.80390065
826 1 1 -2.30495172258e-07 25.00509890 4.24608841 29.80390065
827 1 1 -2.58917175747e-07 23.53421073 6.79374145 29.80390065
828 1 1 -3.74925590706e-07 25.00509890 9.34139450 29.80390065
829 1 1 -6.04611693854e-07 23.53421073 11.88904754 29.80390065
830 1 1 -8.75136455573e-07 25.00509890 14.43670058 29.80390065
831 1 1 -2.00221644361e-06 23.53421073 16.98435363 29.80390065
832 1 1 -1.83567706229e-06 25.00509890 19.53200667 29.80390065
833 1 1 -2.20240278918e-07 26.47598708 1.69843536 29.80390065
834 1 1 -2.30493885528e-07 27.94687525 4.24608841 29.80390065
835 1 1 -2.67420321504e-07 26.47598708 6.79374145 29.80390065
836 1 1 -3.7492430394e-07 27.94687525 9.34139450 29.80390065
837 1 1 -6.27584945221e-07 26.47598708 11.88904754 29.80390065
838 1 1 -8.75135168343e-07 27.94687525 14.43670058 29.80390065
839 1 1 -3.29403627303e-07 26.47598708 16.98435363 29.80390065
840 1 1 -1.83567577274e-06 27.94687525 19.53200667 29.80390065
841 1 1 -2.18707382607e-07 29.41776342 1.69843536 29.80390065
842 1 1 -2.26812313077e-07 30.88865159 4.24608841 29.80390065
843 1 1 -2.58914641609e-07 29.41776342 6.79374145 29.80390065
844 1 1 -3.26560015565e-07 30.88865159 9.34139450 29.80390065
845 1 1 -6.04609159344e-07 29.41776342 11.88904754 29.80390065
846 1 1 -1.15422174761e-06 30.88865159 14.43670058 29.80390065
847 1 1 -2.00221394379e-06 29.41776342 16.98435363 29.80390065
848 1 1 -5.05223477434e-06 30.88865159 19.53200667 29.80390065
849 1 1 -2.14270012569e-07 32.35953976 1.69843536 29.80390065
850 1 1 -2.21500008405e-07 33.83042793 4.24608841 29.80390065
851 1 1 -2.43774842451e-07 32.35953976 6.79374145 29.80390065
852 1 1 -2.74876941665e-07 33.83042793 9.34139450 29.80390065
853 1 1 -4.81014900617e-07 32.35953976 11.88904754 29.80390065
854 1 1 -8.00090157854e-07 33.83042793 14.43670058 29.80390065
855 1 1 -2.42136372144e-06 32.35953976 16.98435363 29.80390065
856 1 1 -3.09785827521e-06 33.83042793 19.53200667 29.80390065
857 1 1 -2.0720446084e-07 17.65065805 1.69843536 29.80390065
858 1 1 -2.21505684641e-07 19.12154622 4.24608841 29.80390065
859 1 1 -2.34462625669e-07 17.65065805 6.79374145 29.80390065
860 1 1 -2.74882618153e-07 19.12154622 9.34139450 29.80390065
861 1 1 -3.31278830148e-07 17.65065805 11.88904754 29.80390065
862 1 1 -8.00095836352e-07 19.12154622 14.43670058 29.80390065
863 1 1 -1.15804907235e-06 17.65065805 16.98435363 29.80390065
864 1 1 -3.09786391575e-06 19.12154622 19.53200667 29.80390065
865 1 1 -1.19784474096e-05 22.06332256 2.54765304 32.20585097
866 1 1 -1.21212453012e-05 23.53421073 5.09530609 32.20585097
867 1 1 -1.4716665453e-05 22.06332256 7.64295913 32.20585097
868 1 1 -2.68622701789e-05 23.53421073 10.19061218 32.20585097
869 1 1 -3.93843554503e-05 22.06332256 12.73826522 32.20585097
870 1 1 1.70064777176e-05 23.53421073 15.28591827 32.20585097
871 1 1 0.00025067231775 22.06332256 17.83357131 32.20585097
872 1 1 -1.21564679017e-05 23.53421073 0.00000000 32.20585097
873 1 1 -1.20252648701e-05 25.00509890 2.54765304 32.20585097
874 1 1 -1.22183425792e-05 26.47598708 5.09530609 32.20585097
875 1 1 -1.57159144739e-05 25.00509890 7.64295913 32.20585097
876 1 1 -2.82902495112e-05 26.47598708 10.19061218 32.20585097
877 1 1 -3.95437392542e-05 25.00509890 12.73826522 32.20585097
878 1 1 3.51271443991e-05 26.47598708 15.28591827 32.20585097
879 1 1 0.000381420902111 25.00509890 17.83357131 32.20585097
880 1 1 -1.21848847665e-05 26.47598708 0.00000000 32.20585097
881 1 1 -1.20252636179e-05 27.94687525 2.54765304 32.20585097
882 1 1 -1.21212428378e-05 29.41776342 5.09530609 32.20585097
883 1 1 -1.5715913215e-05 27.94687525 7.64295913 32.20585097
884 1 1 -2.68622677e-05 29.41776342 10.19061218 32.20585097
885 1 1 -3.95437379989e-05 27.94687525 12.73826522 32.20585097
886 1 1 1.70064800792e-05 29.41776342 15.28591827 32.20585097
887 1 1 0.000381420903229 27.94687525 17.83357131 32.20585097
888 1 1 -1.21564654428e-05 29.41776342 0.00000000 32.20585097
889 1 1 -1.19784438259e-05 30.88865159 2.54765304 32.20585097
890 1 1 -1.19026595136e-05 32.35953976 5.09530609 32.20585097
891 1 1 -1.4716661857e-05 30.88865159 7.64295913 32.20585097
892 1 1 -2.30012530852e-05 32.35953976 10.19061218 32.20585097
893 1 1 -3.93843518616e-05 30.88865159 12.73826522 32.20585097
894 1 1 -1.80452636042e-05 32.35953976 15.28591827 32.20585097
895 1 1 0.000250672320897 30.88865159 17.83357131 32.20585097
896 1 1 -1.20663052595e-05 32.35953976 0.00000000 32.20585097
897 1 1 -1.18867453831e-05 33.83042793 2.54765304 32.20585097
898 1 1 -1.16989148658e-05 17.65065805 5.09530609 32.20585097
899 1 1 -1.32918221648e-05 33.83042793 7.64295913 32.20585097
900 1 1 -1.8133512103e-05 17.65065805 10.19061218 32.20585097
901 1 1 -3.51959730977e-05 33.83042793 12.73826522 32.20585097
902 1 1 -3.8210160071e-05 17.65065805 15.28591827 32.20585097
903 1 1 8.4188469589e-05 33.83042793 17.83357131 32.20585097
904 1 1 -1.1904413747e-05 17.65065805 0.00000000 32.20585097
905 1 1 -1.18867508418e-05 19.12154622 2.54765304 32.20585097
906 1 1 -1.19026641088e-05 20.59243439 5.09530609 32.20585097
907 1 1 -1.32918276317e-05 19.12154622 7.64295913 32.20585097
908 1 1 -2.30012576989e-05 20.59243439 10.19061218 32.20585097
909 1 1 -3.51959785672e-05 19.12154622 12.73826522 32.20585097
910 1 1 -1.80452680732e-05 20.59243439 15.28591827 32.20585097
911 1 1 8.41884646496e-05 19.12154622 17.83357131 32.20585097
912 1 1 -1.20663098509e-05 20.59243439 0.00000000 32.20585097
913 1 1 -0.000218196526031 23.53421073 3.39687073 34.60780130
914 1 1 -0.000242209215142 25.00509890 5.94452377 34.60780130
915 1 1 -0.00028586004543 23.53421073 8.49217681 34.60780130
916 1 1 -0.000377391649695 25.00509890 11.03982986 34.60780130
917 1 1 -0.000483350479704 23.53421073 13.58748290 34.60780130
918 1 1 -0.000522186600596 25.00509890 16.13513595 34.60780130
919 1 1 -0.000407734789405 23.53421073 18.68278899 34.60780130
920 1 1 -0.000210835387258 25.00509890 0.84921768 34.60780130
921 1 1 -0.00021993473124 26.47598708 3.39687073 34.60780130
922 1 1 -0.000242209214007 27.94687525 5.94452377 34.60780130
923 1 1 -0.000291179942325 26.47598708 8.49217681 34.60780130
924 1 1 -0.000377391648528 27.94687525 11.03982986 34.60780130
925 1 1 -0.00049353127926 26.47598708 13.58748290 34.60780130
926 1 1 -0.000522186599434 27.94687525 16.13513595 34.60780130
927 1 1 -0.000395218008505 26.47598708 18.68278899 34.60780130
928 1 1 -0.000210835386133 27.94687525 0.84921768 34.60780130
929 1 1 -0.00021819652382 29.41776342 3.39687073 34.60780130
930 1 1 -0.000236856976277 30.88865159 5.94452377 34.60780130
931 1 1 -0.000285860043181 29.41776342 8.49217681 34.60780130
932 1 1 -0.000358852607463 30.88865159 11.03982986 34.60780130
933 1 1 -0.000483350477409 29.41776342 13.58748290 34.60780130
934 1 1 -0.000532288429274 30.88865159 16.13513595 34.60780130
935 1 1 -0.000407734786702 29.41776342 18.68278899 34.60780130
936 1 1 -0.000208051574866 30.88865159 0.84921768 34.60780130
937 1 1 -0.000213321860047 32.35953976 3.39687073 34.60780130
938 1 1 -0.000227506831096 33.83042793 5.94452377 34.60780130
939 1 1 -0.00027154471819 32.35953976 8.49217681 34.60780130
940 1 1 -0.000326499660661 33.83042793 11.03982986 34.60780130
941 1 1 -0.000450607048308 32.35953976 13.58748290 34.60780130
942 1 1 -0.000520139910079 33.83042793 16.13513595 34.60780130
943 1 1 -0.000469118504147 32.35953976 18.68278899 34.60780130
944 1 1 -0.000202932770613 33.83042793 0.84921768 34.60780130
945 1 1 -0.000206191579989 17.65065805 3.39687073 34.60780130
946 1 1 -0.000227506835985 19.12154622 5.94452377 34.60780130
947 1 1 -0.00025230863012 17.65065805 8.49217681 34.60780130
948 1 1 -0.000326499665641 19.12154622 11.03982986 34.60780130
949 1 1 -0.00039653181081 17.65065805 13.58748290 34.60780130
950 1 1 -0.000520139915045 19.12154622 16.13513595 34.60780130
951 1 1 -0.000531084105449 17.65065805 18.68278899 34.60780130
952 1 1 -0.00020293277548 19.12154622 0.84921768 34.60780130
953 1 1 -0.000213321864155 20.59243439 3.39687073 34.60780130
954 1 1 -0.000236856979506 22.06332256 5.94452377 34.60780130
955 1 1 -0.000271544722348 20.59243439 8.49217681 34.60780130
956 1 1 -0.000358852610767 22.06332256 11.03982986 34.60780130
957 1 1 -0.000450607052551 20.59243439 13.58748290 34.60780130
958 1 1 -0.00053228843254 22.06332256 16.13513595 34.60780130
959 1 1 -0.000469118508338 20.59243439 18.68278899 34.60780130
960 1 1 -0.000208051578073 22.06332256 0.84921768 34.60780130
961 1 1 0.000486388975739 17.65065805 20.38122435 25.00000000
962 1 1 0.00055894364718 19.12154622 22.92887739 25.00000000
963 1 1 0.0007282822768 17.65065805 25.47653044 25.00000000
964 1 1 0.00516628392498 19.12154622 28.02418348 25.00000000
965 1 1 0.00223272035069 17.65065805 30.57183653 25.00000000
966 1 1 0.00516701496277 19.12154622 33.11948957 25.00000000
967 1 1 0.000727048659119 17.65065805 35.66714262 25.00000000
968 1 1 0.000558608400037 19.12154622 38.21479566 25.00000000
969 1 1 0.000409763081164 20.59243439 20.38122435 25.00000000
970 1 1 0.00223042672369 22.06332256 22.92887739 25.00000000
971 1 1 0.00516549030648 20.59243439 25.47653044 25.00000000
972 1 1 0.028746162173 22.06332256 28.02418348 25.00000000
973 1 1 0.0186305931941 20.59243439 30.57183653 25.00000000
974 1 1 0.0287482593547 22.06332256 33.11948957 25.00000000
975 1 1 0.00516621794169 20.59243439 35.66714262 25.00000000
976 1 1 0.00223042509101 22.06332256 38.21479566 25.00000000
977 1 1 0.000557308211219 23.53421073 20.38122435 25.00000000
978 1 1 0.00516520774813 25.00509890 22.92887739 25.00000000
979 1 1 0.0186295087157 23.53421073 25.47653044 25.00000000
980 1 1 0.0698139366842 25.00509890 28.02418348 25.00000000
981 1 1 0.0698141714348 23.53421073 30.57183653 25.00000000
982 1 1 0.0698139441048 25.00509890 33.11948957 25.00000000
983 1 1 0.0186295027233 23.53421073 35.66714262 25.00000000
984 1 1 0.00516447483837 25.00509890 38.21479566 25.00000000
985 1 1 0.000724525941941 26.47598708 20.38122435 25.00000000
986 1 1 0.00516520773921 27.94687525 22.92887739 25.00000000
987 1 1 0.0287476727078 26.47598708 25.47653044 25.00000000
988 1 1 0.0698139365697 27.94687525 28.02418348 25.00000000
989 1 1 0.110286576505 26.47598708 30.57183653 25.00000000
990 1 1 0.0698139439904 27.94687525 33.11948957 25.00000000
991 1 1 0.0287455715858 26.47598708 35.66714262 25.00000000
992 1 1 0.00516447482945 27.94687525 38.21479566 25.00000000
993 1 1 0.000557308211013 29.41776342 20.38122435 25.00000000
994 1 1 0.00223042671343 30.88865159 22.92887739 25.00000000
995 1 1 0.0186295086549 29.41776342 25.47653044 25.00000000
996 1 1 0.028746162035 30.88865159 28.02418348 25.00000000
997 1 1 0.0698141712072 29.41776342 30.57183653 25.00000000
998 1 1 0.0287482592168 30.88865159 33.11948957 25.00000000
999 1 1 0.0186295026626 29.41776342 35.66714262 25.00000000
1000 1 1 0.00223042508071 30.88865159 38.21479566 25.00000000
1001 1 1 0.000409763084106 32.35953976 20.38122435 25.00000000
1002 1 1 0.000558943648004 33.83042793 22.92887739 25.00000000
1003 1 1 0.00516549027431 32.35953976 25.47653044 25.00000000
1004 1 1 0.00516628388646 33.83042793 28.02418348 25.00000000
1005 1 1 0.0186305930771 32.35953976 30.57183653 25.00000000
1006 1 1 0.0051670149243 33.83042793 33.11948957 25.00000000
1007 1 1 0.00516621790958 32.35953976 35.66714262 25.00000000
1008 1 1 0.000558608400837 33.83042793 38.21479566 25.00000000
1009 1 1 -0.000608248510094 19.12154622 21.23044203 27.40195032
1010 1 1 -0.00107370059752 20.59243439 23.77809508 27.40195032
1011 1 1 -0.000913223344886 19.12154622 26.32574812 27.40195032
1012 1 1 0.00329500716831 20.59243439 28.87340116 27.40195032
1013 1 1 0.0001341219933 19.12154622 31.42105421 27.40195032
1014 1 1 0.00132055279232 20.59243439 33.96870725 27.40195032
1015 1 1 -0.00111799129877 19.12154622 36.51636030 27.40195032
1016 1 1 -0.00101605178331 20.59243439 39.06401334 27.40195032
1017 1 1 -0.00101607689769 22.06332256 21.23044203 27.40195032
1018 1 1 0.000134029182515 23.53421073 23.77809508 27.40195032
1019 1 1 0.00329492935706 22.06332256 26.32574812 27.40195032
1020 1 1 0.020070190163 23.53421073 28.87340116 27.40195032
1021 1 1 0.0117077236132 22.06332256 31.42105421 27.40195032
1022 1 1 0.011707626812 23.53421073 33.96870725 27.40195032
1023 1 1 0.000134040918166 22.06332256 36.51636030 27.40195032
1024 1 1 -0.00107374945717 23.53421073 39.06401334 27.40195032
1025 1 1 -0.00111808447898 25.00509890 21.23044203 27.40195032
1026 1 1 0.00132050819085 26.47598708 23.77809508 27.40195032
1027 1 1 0.011707621806 25.00509890 26.32574812 27.40195032
1028 1 1 0.0335375269591 26.47598708 28.87340116 27.40195032
1029 1 1 0.0335374916429 25.00509890 31.42105421 27.40195032
1030 1 1 0.0200702132877 26.47598708 33.96870725 27.40195032
1031 1 1 0.00329493503787 25.00509890 36.51636030 27.40195032
1032 1 1 -0.000913319971058 26.47598708 39.06401334 27.40195032
1033 1 1 -0.00111808447858 27.94687525 21.23044203 27.40195032
1034 1 1 0.000134029175375 29.41776342 23.77809508 27.40195032
1035 1 1 0.0117076217808 27.94687525 26.32574812 27.40195032
1036 1 1 0.0200701900845 29.41776342 28.87340116 27.40195032
1037 1 1 0.0335374915802 27.94687525 31.42105421 27.40195032
1038 1 1 0.0117076267625 29.41776342 33.96870725 27.40195032
1039 1 1 0.00329493502779 27.94687525 36.51636030 27.40195032
1040 1 1 -0.00107374945732 29.41776342 39.06401334 27.40195032
1041 1 1 -0.00101607689456 30.88865159 21.23044203 27.40195032
1042 1 1 -0.00107370059662 32.35953976 23.77809508 27.40195032
1043 1 1 0.00329492932843 30.88865159 26.32574812 27.40195032
1044 1 1 0.00329500713174 32.35953976 28.87340116 27.40195032
1045 1 1 0.0117077235402 30.88865159 31.42105421 27.40195032
1046 1 1 0.00132055277056 32.35953976 33.96870725 27.40195032
1047 1 1 0.000134040908199 30.88865159 36.51636030 27.40195032
1048 1 1 -0.0010160517789 32.35953976 39.06401334 27.40195032
1049 1 1 -0.000608248503426 33.83042793 21.23044203 27.40195032
1050 1 1 -0.000813904618479 17.65065805 23.77809508 27.40195032
1051 1 1 -0.000913223346404 33.83042793 26.32574812 27.40195032
1052 1 1 -0.00107360556233 17.65065805 28.87340116 27.40195032
1053 1 1 0.000134121979334 33.83042793 31.42105421 27.40195032
1054 1 1 -0.00111793734626 17.65065805 33.96870725 27.40195032
1055 1 1 -0.001117991295 33.83042793 36.51636030 27.40195032
1056 1 1 -0.000514416785581 17.65065805 39.06401334 27.40195032
1057 1 1 -3.87349144658e-06 20.59243439 22.07965971 29.80390065
1058 1 1 5.16243331116e-06 22.06332256 24.62731276 29.80390065
1059 1 1 9.77180478576e-06 20.59243439 27.17496580 29.80390065
1060 1 1 3.51155517881e-05 22.06332256 29.72261885 29.80390065
1061 1 1 1.31106038713e-05 20.59243439 32.27027189 29.80390065
1062 1 1 1.3110882036e-05 22.06332256 34.81792493 29.80390065
1063 1 1 -3.59074342954e-06 20.59243439 37.36557798 29.80390065
1064 1 1 -3.87274320964e-06 22.06332256 39.91323102 29.80390065
1065 1 1 -3.58996879889e-06 23.53421073 22.07965971 29.80390065
1066 1 1 1.31106780322e-05 25.00509890 24.62731276 29.80390065
1067 1 1 3.51177587656e-05 23.53421073 27.17496580 29.80390065
1068 1 1 7.73580160596e-05 25.00509890 29.72261885 29.80390065
1069 1 1 5.07915705388e-05 23.53421073 32.27027189 29.80390065
1070 1 1 3.51184655994e-05 25.00509890 34.81792493 29.80390065
1071 1 1 5.16313264824e-06 23.53421073 37.36557798 29.80390065
1072 1 1 -4.76684036794e-06 25.00509890 39.91323102 29.80390065
1073 1 1 -1.63031718066e-07 26.47598708 22.07965971 29.80390065
1074 1 1 1.31106793375e-05 27.94687525 24.62731276 29.80390065
1075 1 1 5.07915756311e-05 26.47598708 27.17496580 29.80390065
1076 1 1 7.73580172345e-05 27.94687525 29.72261885 29.80390065
1077 1 1 7.73638536433e-05 26.47598708 32.27027189 29.80390065
1078 1 1 3.51184668143e-05 27.94687525 34.81792493 29.80390065
1079 1 1 9.77153749264e-06 26.47598708 37.36557798 29.80390065
1080 1 1 -4.76683909392e-06 27.94687525 39.91323102 29.80390065
1081 1 1 -3.58996636524e-06 29.41776342 22.07965971 29.80390065
1082 1 1 5.16243702018e-06 30.88865159 24.62731276 29.80390065
1083 1 1 3.51177612107e-05 29.41776342 27.17496580 29.80390065
1084 1 1 3.5115555329e-05 30.88865159 29.72261885 29.80390065
1085 1 1 5.07915729024e-05 29.41776342 32.27027189 29.80390065
1086 1 1 1.31108856573e-05 30.88865159 34.81792493 29.80390065
1087 1 1 5.16313525031e-06 29.41776342 37.36557798 29.80390065
1088 1 1 -3.87273950922e-06 30.88865159 39.91323102 29.80390065
1089 1 1 -3.87348653463e-06 32.35953976 22.07965971 29.80390065
1090 1 1 -4.77012557851e-06 33.83042793 24.62731276 29.80390065
1091 1 1 9.77180959365e-06 32.35953976 27.17496580 29.80390065
1092 1 1 5.16234744865e-06 33.83042793 29.72261885 29.80390065
1093 1 1 1.31106084579e-05 32.35953976 32.27027189 29.80390065
1094 1 1 -1.65267056577e-07 33.83042793 34.81792493 29.80390065
1095 1 1 -3.59073883893e-06 32.35953976 37.36557798 29.80390065
1096 1 1 -5.05336919726e-06 33.83042793 39.91323102 29.80390065
1097 1 1 -5.15725571433e-06 17.65065805 22.07965971 29.80390065
1098 1 1 -4.77013109418e-06 19.12154622 24.62731276 29.80390065
1099 1 1 -4.77063877844e-06 17.65065805 27.17496580 29.80390065
1100 1 1 5.16234187079e-06 19.12154622 29.72261885 29.80390065
1101 1 1 -3.59254939399e-06 17.65065805 32.27027189 29.80390065
1102 1 1 -1.65272839444e-07 19.12154622 34.81792493 29.80390065
1103 1 1 -1.8387116715e-06 17.65065805 37.36557798 29.80390065
1104 1 1 -5.0533749574e-06 19.12154622 39.91323102 29.80390065
1105 1 1 0.00106702403382 22.06332256 22.92887739 32.20585097
1106 1 1 -0.00411223855583 23.53421073 25.47653044 32.20585097
1107 1 1 -0.00786340605318 22.06332256 28.02418348 32.20585097
1108 1 1 -0.0236442299994 23.53421073 30.57183653 32.20585097
1109 1 1 -0.00786432035183 22.06332256 33.11948957 32.20585097
1110 1 1 -0.00411222258854 23.53421073 35.66714262 32.20585097
1111 1 1 0.00106703037903 22.06332256 38.21479566 32.20585097
1112 1 1 0.000960383963227 23.53421073 20.38122435 32.20585097
1113 1 1 0.000402765651391 25.00509890 22.92887739 32.20585097
1114 1 1 -0.0078643019336 26.47598708 25.47653044 32.20585097
1115 1 1 -0.0236442387623 25.00509890 28.02418348 32.20585097
1116 1 1 -0.0393338810587 26.47598708 30.57183653 32.20585097
1117 1 1 -0.0236442596369 25.00509890 33.11948957 32.20585097
1118 1 1 -0.00786338018603 26.47598708 35.66714262 32.20585097
1119 1 1 0.000403566059814 25.00509890 38.21479566 32.20585097
1120 1 1 0.00105340875601 26.47598708 20.38122435 32.20585097
1121 1 1 0.000402765656364 27.94687525 22.92887739 32.20585097
1122 1 1 -0.00411223852784 29.41776342 25.47653044 32.20585097
1123 1 1 -0.0236442387138 27.94687525 28.02418348 32.20585097
1124 1 1 -0.0236442299038 29.41776342 30.57183653 32.20585097
1125 1 1 -0.0236442595887 27.94687525 33.11948957 32.20585097
1126 1 1 -0.00411222256066 29.41776342 35.66714262 32.20585097
1127 1 1 0.000403566064805 27.94687525 38.21479566 32.20585097
1128 1 1 0.000960383965853 29.41776342 20.38122435 32.20585097
1129 1 1 0.00106702404131 30.88865159 22.92887739 32.20585097
1130 1 1 0.000403503140194 32.35953976 25.47653044 32.20585097
1131 1 1 -0.00786340599259 30.88865159 28.02418348 32.20585097
1132 1 1 -0.00411230854139 32.35953976 30.57183653 32.20585097
1133 1 1 -0.00786432029157 30.88865159 33.11948957 32.20585097
1134 1 1 0.000402719531434 32.35953976 35.66714262 32.20585097
1135 1 1 0.00106703038661 30.88865159 38.21479566 32.20585097
1136 1 1 0.000646099021078 32.35953976 20.38122435 32.20585097
1137 1 1 0.000960853685686 33.83042793 22.92887739 32.20585097
1138 1 1 0.001050845663 17.65065805 25.47653044 32.20585097
1139 1 1 0.000403462910474 33.83042793 28.02418348 32.20585097
1140 1 1 0.00106691166515 17.65065805 30.57183653 32.20585097
1141 1 1 0.000402667268841 33.83042793 33.11948957 32.20585097
1142 1 1 0.00105327451282 17.65065805 35.66714262 32.20585097
1143 1 1 0.000960314071558 33.83042793 38.21479566 32.20585097
1144 1 1 0.000251220227749 17.65065805 20.38122435 32.20585097
1145 1 1 0.000960853681033 19.12154622 22.92887739 32.20585097
1146 1 1 0.000403503123277 20.59243439 25.47653044 32.20585097
1147 1 1 0.000403462891126 19.12154622 28.02418348 32.20585097
1148 1 1 -0.00411230859317 20.59243439 30.57183653 32.20585097
1149 1 1 0.000402667249619 19.12154622 33.11948957 32.20585097
1150 1 1 0.00040271951473 20.59243439 35.66714262 32.20585097
1151 1 1 0.000960314066809 19.12154622 38.21479566 32.20585097
1152 1 1 0.000646099017264 20.59243439 20.38122435 32.20585097
1153 1 1 -0.00687049814035 23.53421073 23.77809508 34.60780130
1154 1 1 -0.0387042007247 25.00509890 26.32574812 34.60780130
1155 1 1 -0.0604659006729 23.53421073 28.87340116 34.60780130
1156 1 1 -0.0953816032761 25.00509890 31.42105421 34.60780130
1157 1 1 -0.038704346097 23.53421073 33.96870725 34.60780130
1158 1 1 -0.0161894668341 25.00509890 36.51636030 34.60780130
1159 1 1 -0.00193624184916 23.53421073 39.06401334 34.60780130
1160 1 1 -0.0012925390963 25.00509890 21.23044203 34.60780130
1161 1 1 -0.0105330864422 26.47598708 23.77809508 34.60780130
1162 1 1 -0.0387042006591 27.94687525 26.32574812 34.60780130
1163 1 1 -0.0953817022902 26.47598708 28.87340116 34.60780130
1164 1 1 -0.0953816031164 27.94687525 31.42105421 34.60780130
1165 1 1 -0.0604658968904 26.47598708 33.96870725 34.60780130
1166 1 1 -0.016189466805 27.94687525 36.51636030 34.60780130
1167 1 1 -0.00293344265084 26.47598708 39.06401334 34.60780130
1168 1 1 -0.00129253909217 27.94687525 21.23044203 34.60780130
1169 1 1 -0.00687049811284 29.41776342 23.77809508 34.60780130
1170 1 1 -0.0161899531113 30.88865159 26.32574812 34.60780130
1171 1 1 -0.0604659004716 29.41776342 28.87340116 34.60780130
1172 1 1 -0.0387049746066 30.88865159 31.42105421 34.60780130
1173 1 1 -0.0387043459673 29.41776342 33.96870725 34.60780130
1174 1 1 -0.0068708154716 30.88865159 36.51636030 34.60780130
1175 1 1 -0.0019362418385 29.41776342 39.06401334 34.60780130
1176 1 1 -0.000655319393319 30.88865159 21.23044203 34.60780130
1177 1 1 -0.00193703547521 32.35953976 23.77809508 34.60780130
1178 1 1 -0.00293523048261 33.83042793 26.32574812 34.60780130
1179 1 1 -0.0161906169375 32.35953976 28.87340116 34.60780130
1180 1 1 -0.00687216249781 33.83042793 31.42105421 34.60780130
1181 1 1 -0.0105342043708 32.35953976 33.96870725 34.60780130
1182 1 1 -0.00129414689608 33.83042793 36.51636030 34.60780130
1183 1 1 -0.00065574237607 32.35953976 39.06401334 34.60780130
1184 1 1 -0.000401588608185 33.83042793 21.23044203 34.60780130
1185 1 1 -0.000433787971943 17.65065805 23.77809508 34.60780130
1186 1 1 -0.00293523051327 19.12154622 26.32574812 34.60780130
1187 1 1 -0.00193881382468 17.65065805 28.87340116 34.60780130
1188 1 1 -0.00687216255926 19.12154622 31.42105421 34.60780130
1189 1 1 -0.00129518160171 17.65065805 33.96870725 34.60780130
1190 1 1 -0.00129414691267 19.12154622 36.51636030 34.60780130
1191 1 1 -0.000409608465198 17.65065805 39.06401334 34.60780130
1192 1 1 -0.000401588613909 19.12154622 21.23044203 34.60780130
1193 1 1 -0.00193703549421 20.59243439 23.77809508 34.60780130
1194 1 1 -0.016189953196 22.06332256 26.32574812 34.60780130
1195 1 1 -0.0161906170475 20.59243439 28.87340116 34.60780130
1196 1 1 -0.0387049747988 22.06332256 31.42105421 34.60780130
1197 1 1 -0.010534204445 20.59243439 33.96870725 34.60780130
1198 1 1 -0.00687081551154 22.06332256 36.51636030 34.60780130
1199 1 1 -0.000655742384995 20.59243439 39.06401334 34.60780130
1200 1 1 -0.000655319400487 22.06332256 21.23044203 34.60780130
1201 1 1 0.000486058405352 17.65065805 40.76244870 25.00000000
1202 1 1 0.000532464118731 19.12154622 43.31010174 25.00000000
1203 1 1 0.000467133872667 17.65065805 45.85775479 25.00000000
1204 1 1 0.000390670053374 19.12154622 48.40540783 25.00000000
1205 1 1 0.000286418948612 17.65065805 50.95306088 25.00000000
1206 1 1 0.000248677266332 19.12154622 53.50071392 25.00000000
1207 1 1 0.000215974565463 17.65065805 56.04836697 25.00000000
1208 1 1 0.000207130259817 19.12154622 58.59602001 25.00000000
1209 1 1 0.000409762807341 20.59243439 40.76244870 25.00000000
1210 1 1 0.000484969122357 22.06332256 43.31010174 25.00000000
1211 1 1 0.000516628924212 20.59243439 45.85775479 25.00000000
1212 1 1 0.000433289404039 22.06332256 48.40540783 25.00000000
1213 1 1 0.000316096672229 20.59243439 50.95306088 25.00000000
1214 1 1 0.00026265601395 22.06332256 53.50071392 25.00000000
1215 1 1 0.000225050454188 20.59243439 56.04836697 25.00000000
1216 1 1 0.000212775652716 22.06332256 58.59602001 25.00000000
1217 1 1 0.000557642950759 23.53421073 40.76244870 25.00000000
1218 1 1 0.000442852326318 25.00509890 43.31010174 25.00000000
1219 1 1 0.00053299199655 23.53421073 45.85775479 25.00000000
1220 1 1 0.000455703204841 25.00509890 48.40540783 25.00000000
1221 1 1 0.000338095331345 23.53421073 50.95306088 25.00000000
1222 1 1 0.00027083548375 25.00509890 53.50071392 25.00000000
1223 1 1 0.00023143068921 23.53421073 56.04836697 25.00000000
1224 1 1 0.000215870360697 25.00509890 58.59602001 25.00000000
1225 1 1 0.000725759111858 26.47598708 40.76244870 25.00000000
1226 1 1 0.000442852327234 27.94687525 43.31010174 25.00000000
1227 1 1 0.000534275205695 26.47598708 45.85775479 25.00000000
1228 1 1 0.000455703205856 27.94687525 48.40540783 25.00000000
1229 1 1 0.000346200936376 26.47598708 50.95306088 25.00000000
1230 1 1 0.000270835484795 27.94687525 53.50071392 25.00000000
1231 1 1 0.000233741645026 26.47598708 56.04836697 25.00000000
1232 1 1 0.000215870361759 27.94687525 58.59602001 25.00000000
1233 1 1 0.000557642950534 29.41776342 40.76244870 25.00000000
1234 1 1 0.000484969125322 30.88865159 43.31010174 25.00000000
1235 1 1 0.000532991998575 29.41776342 45.85775479 25.00000000
1236 1 1 0.000433289407019 30.88865159 48.40540783 25.00000000
1237 1 1 0.000338095333386 29.41776342 50.95306088 25.00000000
1238 1 1 0.000262656017005 30.88865159 53.50071392 25.00000000
1239 1 1 0.000231430691302 29.41776342 56.04836697 25.00000000
1240 1 1 0.00021277565581 30.88865159 58.59602001 25.00000000
1241 1 1 0.000409762810304 32.35953976 40.76244870 25.00000000
1242 1 1 0.000532464123528 33.83042793 43.31010174 25.00000000
1243 1 1 0.000516628928106 32.35953976 45.85775479 25.00000000
1244 1 1 0.000390670058014 33.83042793 48.40540783 25.00000000
1245 1 1 0.000316096676141 32.35953976 50.95306088 25.00000000
1246 1 1 0.00024867727108 33.83042793 53.50071392 25.00000000
1247 1 1 0.000225050458175 32.35953976 56.04836697 25.00000000
1248 1 1 0.000207130264605 33.83042793 58.59602001 25.00000000
1249 1 1 -0.000289466073691 19.12154622 41.61166638 27.40195032
1250 1 1 -7.31152721986e-05 20.59243439 44.15931943 27.40195032
1251 1 1 4.00559377911e-05 19.12154622 46.70697247 27.40195032
1252 1 1 3.46883217349e-05 20.59243439 49.25462551 27.40195032
1253 1 1 1.81785768282e-05 19.12154622 51.80227856 27.40195032
1254 1 1 1.36515339383e-05 20.59243439 54.34993160 27.40195032
1255 1 1 1.24951673731e-05 19.12154622 56.89758465 27.40195032
1256 1 1 1.27022599186e-05 20.59243439 59.44523769 27.40195032
1257 1 1 -0.000608299354341 22.06332256 41.61166638 27.40195032
1258 1 1 -0.000181209072515 23.53421073 44.15931943 27.40195032
1259 1 1 2.84771476844e-05 22.06332256 46.70697247 27.40195032
1260 1 1 3.88323478769e-05 23.53421073 49.25462551 27.40195032
1261 1 1 2.1643246851e-05 22.06332256 51.80227856 27.40195032
1262 1 1 1.44608718501e-05 23.53421073 54.34993160 27.40195032
1263 1 1 1.26444883667e-05 22.06332256 56.89758465 27.40195032
1264 1 1 1.27932086694e-05 23.53421073 59.44523769 27.40195032
1265 1 1 -0.000814031195981 25.00509890 41.61166638 27.40195032
1266 1 1 -0.000231383585931 26.47598708 44.15931943 27.40195032
1267 1 1 1.37038619813e-05 25.00509890 46.70697247 27.40195032
1268 1 1 3.99254955842e-05 26.47598708 49.25462551 27.40195032
1269 1 1 2.38524047435e-05 25.00509890 51.80227856 27.40195032
1270 1 1 1.48035731283e-05 26.47598708 54.34993160 27.40195032
1271 1 1 1.2749703019e-05 25.00509890 56.89758465 27.40195032
1272 1 1 1.28228765803e-05 26.47598708 59.44523769 27.40195032
1273 1 1 -0.000814031194758 27.94687525 41.61166638 27.40195032
1274 1 1 -0.000181209069884 29.41776342 44.15931943 27.40195032
1275 1 1 1.37038632258e-05 27.94687525 46.70697247 27.40195032
1276 1 1 3.88323502695e-05 29.41776342 49.25462551 27.40195032
1277 1 1 2.3852405952e-05 27.94687525 51.80227856 27.40195032
1278 1 1 1.44608742483e-05 29.41776342 54.34993160 27.40195032
1279 1 1 1.27497042361e-05 27.94687525 56.89758465 27.40195032
1280 1 1 1.27932110762e-05 29.41776342 59.44523769 27.40195032
1281 1 1 -0.000608299350327 30.88865159 41.61166638 27.40195032
1282 1 1 -7.31152673101e-05 32.35953976 44.15931943 27.40195032
1283 1 1 2.84771512766e-05 30.88865159 46.70697247 27.40195032
1284 1 1 3.46883262691e-05 32.35953976 49.25462551 27.40195032
1285 1 1 2.16432503614e-05 30.88865159 51.80227856 27.40195032
1286 1 1 1.36515384831e-05 32.35953976 54.34993160 27.40195032
1287 1 1 1.26444918943e-05 30.88865159 56.89758465 27.40195032
1288 1 1 1.27022644714e-05 32.35953976 59.44523769 27.40195032
1289 1 1 -0.000289466067305 33.83042793 41.61166638 27.40195032
1290 1 1 1.31776011882e-05 17.65065805 44.15931943 27.40195032
1291 1 1 4.00559432779e-05 33.83042793 46.70697247 27.40195032
1292 1 1 2.73829627651e-05 17.65065805 49.25462551 27.40195032
1293 1 1 1.81785822527e-05 33.83042793 51.80227856 27.40195032
1294 1 1 1.28394509529e-05 17.65065805 54.34993160 27.40195032
1295 1 1 1.24951728115e-05 33.83042793 56.89758465 27.40195032
1296 1 1 1.25438960839e-05 17.65065805 59.44523769 27.40195032
1297 1 1 -3.09821820438e-06 20.59243439 42.46088406 29.80390065
1298 1 1 -1.87307828646e-06 22.06332256 45.00853711 29.80390065
1299 1 1 -4.72031550009e-07 20.59243439 47.55619015 29.80390065
1300 1 1 -2.34730830314e-07 22.06332256 50.10384320 29.80390065
1301 1 1 -2.54463053513e-07 20.59243439 52.65149624 29.80390065
1302 1 1 -2.56336910469e-07 22.06332256 55.19914928 29.80390065
1303 1 1 -2.31469006213e-07 20.59243439 57.74680233 29.80390065
1304 1 1 -2.18566130468e-07 22.06332256 60.29445537 29.80390065
1305 1 1 -5.15598320349e-06 23.53421073 42.46088406 29.80390065
1306 1 1 -3.87314158334e-06 25.00509890 45.00853711 29.80390065
1307 1 1 -7.88093612238e-07 23.53421073 47.55619015 29.80390065
1308 1 1 -2.30695263694e-07 25.00509890 50.10384320 29.80390065
1309 1 1 -2.2948166825e-07 23.53421073 52.65149624 29.80390065
1310 1 1 -2.54770209321e-07 25.00509890 55.19914928 29.80390065
1311 1 1 -2.39540732892e-07 23.53421073 57.74680233 29.80390065
1312 1 1 -2.22997595011e-07 25.00509890 60.29445537 29.80390065
1313 1 1 -8.70660392569e-06 26.47598708 42.46088406 29.80390065
1314 1 1 -3.87314029885e-06 27.94687525 45.00853711 29.80390065
1315 1 1 -1.08290028279e-06 26.47598708 47.55619015 29.80390065
1316 1 1 -2.30693976782e-07 27.94687525 50.10384320 29.80390065
1317 1 1 -2.1479088762e-07 26.47598708 52.65149624 29.80390065
1318 1 1 -2.54768922688e-07 27.94687525 55.19914928 29.80390065
1319 1 1 -2.42138853846e-07 26.47598708 57.74680233 29.80390065
1320 1 1 -2.22996308342e-07 27.94687525 60.29445537 29.80390065
1321 1 1 -5.15598060791e-06 29.41776342 42.46088406 29.80390065
1322 1 1 -1.87307458139e-06 30.88865159 45.00853711 29.80390065
1323 1 1 -7.88091074695e-07 29.41776342 47.55619015 29.80390065
1324 1 1 -2.34727125815e-07 30.88865159 50.10384320 29.80390065
1325 1 1 -2.29479133738e-07 29.41776342 52.65149624 29.80390065
1326 1 1 -2.56333205584e-07 30.88865159 55.19914928 29.80390065
1327 1 1 -2.39538198436e-07 29.41776342 57.74680233 29.80390065
1328 1 1 -2.18562425526e-07 30.88865159 60.29445537 29.80390065
1329 1 1 -3.09821348709e-06 32.35953976 42.46088406 29.80390065
1330 1 1 -1.15758528851e-06 33.83042793 45.00853711 29.80390065
1331 1 1 -4.72026785482e-07 32.35953976 47.55619015 29.80390065
1332 1 1 -2.61649212663e-07 33.83042793 50.10384320 29.80390065
1333 1 1 -2.54458290523e-07 32.35953976 52.65149624 29.80390065
1334 1 1 -2.50135047547e-07 33.83042793 55.19914928 29.80390065
1335 1 1 -2.31464243328e-07 32.35953976 57.74680233 29.80390065
1336 1 1 -2.10674874583e-07 33.83042793 60.29445537 29.80390065
1337 1 1 -2.42232298243e-06 17.65065805 42.46088406 29.80390065
1338 1 1 -1.15759096649e-06 19.12154622 45.00853711 29.80390065
1339 1 1 -3.95701558308e-07 17.65065805 47.55619015 29.80390065
1340 1 1 -2.61654889588e-07 19.12154622 50.10384320 29.80390065
1341 1 1 -2.60548063477e-07 17.65065805 52.65149624 29.80390065
1342 1 1 -2.50140724265e-07 19.12154622 55.19914928 29.80390065
1343 1 1 -2.19026945331e-07 17.65065805 57.74680233 29.80390065
1344 1 1 -2.10680551009e-07 19.12154622 60.29445537 29.80390065
1345 1 1 0.000251295123433 22.06332256 43.31010174 32.20585097
1346 1 1 1.69375345859e-05 23.53421073 45.85775479 32.20585097
1347 1 1 -3.9156603707e-05 22.06332256 48.40540783 32.20585097
1348 1 1 -2.67469200482e-05 23.53421073 50.95306088 32.20585097
1349 1 1 -1.47262734701e-05 22.06332256 53.50071392 32.20585097
1350 1 1 -1.21401250477e-05 23.53421073 56.04836697 32.20585097
1351 1 1 -1.19843475165e-05 22.06332256 58.59602001 32.20585097
1352 1 1 0.000960924495869 23.53421073 40.76244870 32.20585097
1353 1 1 0.000379314304791 25.00509890 43.31010174 32.20585097
1354 1 1 3.42881655058e-05 26.47598708 45.85775479 32.20585097
1355 1 1 -3.93448458189e-05 25.00509890 48.40540783 32.20585097
1356 1 1 -2.81381431374e-05 26.47598708 50.95306088 32.20585097
1357 1 1 -1.57055340673e-05 25.00509890 53.50071392 32.20585097
1358 1 1 -1.2237132514e-05 26.47598708 56.04836697 32.20585097
1359 1 1 -1.20335908752e-05 25.00509890 58.59602001 32.20585097
1360 1 1 0.00105097975134 26.47598708 40.76244870 32.20585097
1361 1 1 0.000379314305908 27.94687525 43.31010174 32.20585097
1362 1 1 1.69375369537e-05 29.41776342 45.85775479 32.20585097
1363 1 1 -3.93448445646e-05 27.94687525 48.40540783 32.20585097
1364 1 1 -2.67469175701e-05 29.41776342 50.95306088 32.20585097
1365 1 1 -1.57055328084e-05 27.94687525 53.50071392 32.20585097
1366 1 1 -1.21401225843e-05 29.41776342 56.04836697 32.20585097
1367 1 1 -1.20335896229e-05 27.94687525 58.59602001 32.20585097
1368 1 1 0.000960924498568 29.41776342 40.76244870 32.20585097
1369 1 1 0.000251295126619 30.88865159 43.31010174 32.20585097
1370 1 1 -1.76897672833e-05 32.35953976 45.85775479 32.20585097
1371 1 1 -3.91566001182e-05 30.88865159 48.40540783 32.20585097
1372 1 1 -2.29621646432e-05 32.35953976 50.95306088 32.20585097
1373 1 1 -1.4726269874e-05 30.88865159 53.50071392 32.20585097
1374 1 1 -1.19184641035e-05 32.35953976 56.04836697 32.20585097
1375 1 1 -1.19843439327e-05 30.88865159 58.59602001 32.20585097
1376 1 1 0.000646098144612 32.35953976 40.76244870 32.20585097
1377 1 1 8.41879295909e-05 33.83042793 43.31010174 32.20585097
1378 1 1 -3.82101099247e-05 17.65065805 45.85775479 32.20585097
1379 1 1 -3.51010238595e-05 33.83042793 48.40540783 32.20585097
1380 1 1 -1.81380567466e-05 17.65065805 50.95306088 32.20585097
1381 1 1 -1.3311468318e-05 33.83042793 53.50071392 32.20585097
1382 1 1 -1.17070038387e-05 17.65065805 56.04836697 32.20585097
1383 1 1 -1.18889842009e-05 33.83042793 58.59602001 32.20585097
1384 1 1 0.000250596569516 17.65065805 40.76244870 32.20585097
1385 1 1 8.41879246433e-05 19.12154622 43.31010174 32.20585097
1386 1 1 -1.76897717427e-05 20.59243439 45.85775479 32.20585097
1387 1 1 -3.51010293271e-05 19.12154622 48.40540783 32.20585097
1388 1 1 -2.29621692565e-05 20.59243439 50.95306088 32.20585097
1389 1 1 -1.3311473785e-05 19.12154622 53.50071392 32.20585097
1390 1 1 -1.19184686986e-05 20.59243439 56.04836697 32.20585097
1391 1 1 -1.18889896596e-05 19.12154622 58.59602001 32.20585097
1392 1 1 0.000646098140891 20.59243439 40.76244870 32.20585097
1393 1 1 -0.000499780773435 23.53421073 44.15931943 34.60780130
1394 1 1 -0.000518348977119 25.00509890 46.70697247 34.60780130
1395 1 1 -0.000407097553649 23.53421073 49.25462551 34.60780130
1396 1 1 -0.000314116420487 25.00509890 51.80227856 34.60780130
1397 1 1 -0.000252042449975 23.53421073 54.34993160 34.60780130
1398 1 1 -0.000225163559685 25.00509890 56.89758465 34.60780130
1399 1 1 -0.000211395365884 23.53421073 59.44523769 34.60780130
1400 1 1 -0.000431533042447 25.00509890 41.61166638 34.60780130
1401 1 1 -0.000481546045984 26.47598708 44.15931943 34.60780130
1402 1 1 -0.000518348975954 27.94687525 46.70697247 34.60780130
1403 1 1 -0.000417748935939 26.47598708 49.25462551 34.60780130
1404 1 1 -0.000314116419333 27.94687525 51.80227856 34.60780130
1405 1 1 -0.000255452670952 26.47598708 54.34993160 34.60780130
1406 1 1 -0.000225163558555 27.94687525 56.89758465 34.60780130
1407 1 1 -0.000212874351186 26.47598708 59.44523769 34.60780130
1408 1 1 -0.000431533040571 27.94687525 41.61166638 34.60780130
1409 1 1 -0.000499780771127 29.41776342 44.15931943 34.60780130
1410 1 1 -0.000502916496621 30.88865159 46.70697247 34.60780130
1411 1 1 -0.000407097551361 29.41776342 49.25462551 34.60780130
1412 1 1 -0.000301409285123 30.88865159 51.80227856 34.60780130
1413 1 1 -0.000252042447744 29.41776342 54.34993160 34.60780130
1414 1 1 -0.000221324083885 30.88865159 56.89758465 34.60780130
1415 1 1 -0.000211395363677 29.41776342 59.44523769 34.60780130
1416 1 1 -0.0004006865805 30.88865159 41.61166638 34.60780130
1417 1 1 -0.000530168889116 32.35953976 44.15931943 34.60780130
1418 1 1 -0.000461839571035 33.83042793 46.70697247 34.60780130
1419 1 1 -0.000376853977499 32.35953976 49.25462551 34.60780130
1420 1 1 -0.000279765948529 33.83042793 51.80227856 34.60780130
1421 1 1 -0.000242783388797 32.35953976 54.34993160 34.60780130
1422 1 1 -0.0002144472201 33.83042793 56.89758465 34.60780130
1423 1 1 -0.000207210130005 32.35953976 59.44523769 34.60780130
1424 1 1 -0.000469578507527 33.83042793 41.61166638 34.60780130
1425 1 1 -0.000520565751869 17.65065805 44.15931943 34.60780130
1426 1 1 -0.000461839576058 19.12154622 46.70697247 34.60780130
1427 1 1 -0.000333763553081 17.65065805 49.25462551 34.60780130
1428 1 1 -0.00027976595347 19.12154622 51.80227856 34.60780130
1429 1 1 -0.000230049507861 17.65065805 54.34993160 34.60780130
1430 1 1 -0.000214447224977 19.12154622 56.89758465 34.60780130
1431 1 1 -0.000200995474448 17.65065805 59.44523769 34.60780130
1432 1 1 -0.000469578512418 19.12154622 41.61166638 34.60780130
1433 1 1 -0.000530168893252 20.59243439 44.15931943 34.60780130
1434 1 1 -0.000502916499929 22.06332256 46.70697247 34.60780130
1435 1 1 -0.000376853981725 20.59243439 49.25462551 34.60780130
1436 1 1 -0.000301409288398 22.06332256 51.80227856 34.60780130
1437 1 1 -0.000242783392931 20.59243439 54.34993160 34.60780130
1438 1 1 -0.000221324087102 22.06332256 56.89758465 34.60780130
1439 1 1 -0.000207210134108 20.59243439 59.44523769 34.60780130
1440 1 1 -0.000400686584558 22.06332256 41.61166638 34.60780130
1441 1 1 0.000199796904031 35.30131610 0.00000000 25.00000000
1442 1 1 0.000199839076588 36.77220427 2.54765304 25.00000000
1443 1 1 0.000215979048364 35.30131610 5.09530609 25.00000000
1444 1 1 0.000232376138866 36.77220427 7.64295913 25.00000000
1445 1 1 0.000286450175994 35.30131610 10.19061218 25.00000000
1446 1 1 0.000337167085667 36.77220427 12.73826522 25.00000000
1447 1 1 0.000467133845222 35.30131610 15.28591827 25.00000000
1448 1 1 0.000517952075316 36.77220427 17.83357131 25.00000000
1449 1 1 0.000192740184098 38.24309244 0.00000000 25.00000000
1450 1 1 0.000191938099457 39.71398061 2.54765304 25.00000000
1451 1 1 0.00020579210075 38.24309244 5.09530609 25.00000000
1452 1 1 0.000216656332405 39.71398061 7.64295913 25.00000000
1453 1 1 0.000256489105598 38.24309244 10.19061218 25.00000000
1454 1 1 0.00028663460008 39.71398061 12.73826522 25.00000000
1455 1 1 0.000391616938391 38.24309244 15.28591827 25.00000000
1456 1 1 0.000435950877382 39.71398061 17.83357131 25.00000000
1457 1 1 0.000185522479246 41.18486878 0.00000000 25.00000000
1458 1 1 0.000184402112968 42.65575695 2.54765304 25.00000000
1459 1 1 0.000195851081373 41.18486878 5.09530609 25.00000000
1460 1 1 0.000203189464517 42.65575695 7.64295913 25.00000000
1461 1 1 0.000231420568 41.18486878 10.19061218 25.00000000
1462 1 1 0.000248364595513 42.65575695 12.73826522 25.00000000
1463 1 1 0.000317683594399 41.18486878 15.28591827 25.00000000
1464 1 1 0.00034228321341 42.65575695 17.83357131 25.00000000
1465 1 1 0.000179007483724 44.12664513 0.00000000 25.00000000
1466 1 1 0.000178050437137 45.59753330 2.54765304 25.00000000
1467 1 1 0.000187149687572 44.12664513 5.09530609 25.00000000
1468 1 1 0.000192642384219 45.59753330 7.64295913 25.00000000
1469 1 1 0.000212773884415 44.12664513 10.19061218 25.00000000
1470 1 1 0.000223364272739 45.59753330 12.73826522 25.00000000
1471 1 1 0.000264649103979 44.12664513 15.28591827 25.00000000
1472 1 1 0.000276992577022 45.59753330 17.83357131 25.00000000
1473 1 1 0.000173887091032 47.06842147 0.00000000 25.00000000
1474 1 1 0.000173495116438 48.53930964 2.54765304 25.00000000
1475 1 1 0.000180414091887 47.06842147 5.09530609 25.00000000
1476 1 1 0.000185353038036 48.53930964 7.64295913 25.00000000
1477 1 1 0.000200017309223 47.06842147 10.19061218 25.00000000
1478 1 1 0.000208655525622 48.53930964 12.73826522 25.00000000
1479 1 1 0.000233661810708 47.06842147 15.28591827 25.00000000
1480 1 1 0.000242654753531 48.53930964 17.83357131 25.00000000
1481 1 1 0.000170637950529 50.01019781 0.00000000 25.00000000
1482 1 1 0.000171125751045 51.48108598 2.54765304 25.00000000
1483 1 1 0.000176163653928 50.01019781 5.09530609 25.00000000
1484 1 1 0.000181611939934 51.48108598 7.64295913 25.00000000
1485 1 1 0.000192482373282 50.01019781 10.19061218 25.00000000
1486 1 1 0.000201769043175 51.48108598 12.73826522 25.00000000
1487 1 1 0.000218223685695 50.01019781 15.28591827 25.00000000
1488 1 1 0.000228783044902 51.48108598 17.83357131 25.00000000
1489 1 1 1.24504425996e-05 36.77220427 0.84921768 27.40195032
1490 1 1 1.22930949928e-05 38.24309244 3.39687073 27.40195032
1491 1 1 1.23847926088e-05 36.77220427 5.94452377 27.40195032
1492 1 1 1.29939978616e-05 38.24309244 8.49217681 27.40195032
1493 1 1 1.96732966241e-05 36.77220427 11.03982986 27.40195032
1494 1 1 2.74077818792e-05 38.24309244 13.58748290 27.40195032
1495 1 1 4.00997951392e-05 36.77220427 16.13513595 27.40195032
1496 1 1 2.86103169152e-05 38.24309244 18.68278899 27.40195032
1497 1 1 1.21675230162e-05 39.71398061 0.84921768 27.40195032
1498 1 1 1.20746691838e-05 41.18486878 3.39687073 27.40195032
1499 1 1 1.21914623241e-05 39.71398061 5.94452377 27.40195032
1500 1 1 1.22867257883e-05 41.18486878 8.49217681 27.40195032
1501 1 1 1.49347266646e-05 39.71398061 11.03982986 27.40195032
1502 1 1 1.82144011338e-05 41.18486878 13.58748290 27.40195032
1503 1 1 3.47885233748e-05 39.71398061 16.13513595 27.40195032
1504 1 1 3.90571104766e-05 41.18486878 18.68278899 27.40195032
1505 1 1 1.18511635597e-05 42.65575695 0.84921768 27.40195032
1506 1 1 1.18150152887e-05 44.12664513 3.39687073 27.40195032
1507 1 1 1.20650444956e-05 42.65575695 5.94452377 27.40195032
1508 1 1 1.21280088604e-05 44.12664513 8.49217681 27.40195032
1509 1 1 1.27704946361e-05 42.65575695 11.03982986 27.40195032
1510 1 1 1.3664331797e-05 44.12664513 13.58748290 27.40195032
1511 1 1 2.17932736183e-05 42.65575695 16.13513595 27.40195032
1512 1 1 2.41956408859e-05 44.12664513 18.68278899 27.40195032
1513 1 1 1.15548185968e-05 45.59753330 0.84921768 27.40195032
1514 1 1 1.15621549344e-05 47.06842147 3.39687073 27.40195032
1515 1 1 1.19025520116e-05 45.59753330 5.94452377 27.40195032
1516 1 1 1.20758101493e-05 47.06842147 8.49217681 27.40195032
1517 1 1 1.22972547457e-05 45.59753330 11.03982986 27.40195032
1518 1 1 1.26015581683e-05 47.06842147 13.58748290 27.40195032
1519 1 1 1.46611271661e-05 45.59753330 16.13513595 27.40195032
1520 1 1 1.53000198587e-05 47.06842147 18.68278899 27.40195032
1521 1 1 1.13301849086e-05 48.53930964 0.84921768 27.40195032
1522 1 1 1.13793445202e-05 50.01019781 3.39687073 27.40195032
1523 1 1 1.17143726784e-05 48.53930964 5.94452377 27.40195032
1524 1 1 1.19881427117e-05 50.01019781 8.49217681 27.40195032
1525 1 1 1.23367393219e-05 48.53930964 11.03982986 27.40195032
1526 1 1 1.26959784442e-05 50.01019781 13.58748290 27.40195032
1527 1 1 1.29997071992e-05 48.53930964 16.13513595 27.40195032
1528 1 1 1.33753025145e-05 50.01019781 18.68278899 27.40195032
1529 1 1 1.12108564684e-05 51.48108598 0.84921768 27.40195032
1530 1 1 1.24615863554e-05 35.30131610 3.39687073 27.40195032
1531 1 1 1.15856742431e-05 51.48108598 5.94452377 27.40195032
1532 1 1 1.4630616402e-05 35.30131610 8.49217681 27.40195032
1533 1 1 1.23740765258e-05 51.48108598 11.03982986 27.40195032
1534 1 1 3.72789656206e-05 35.30131610 13.58748290 27.40195032
1535 1 1 1.30928969063e-05 51.48108598 16.13513595 27.40195032
1536 1 1 -7.30619967325e-05 35.30131610 18.68278899 27.40195032
1537 1 1 -1.98110055248e-07 38.24309244 1.69843536 29.80390065
1538 1 1 -2.03718596909e-07 39.71398061 4.24608841 29.80390065
1539 1 1 -2.27429860751e-07 38.24309244 6.79374145 29.80390065
1540 1 1 -2.4557360445e-07 39.71398061 9.34139450 29.80390065
1541 1 1 -2.69669346043e-07 38.24309244 11.88904754 29.80390065
1542 1 1 -2.62872030094e-07 39.71398061 14.43670058 29.80390065
1543 1 1 -4.74003759575e-07 38.24309244 16.98435363 29.80390065
1544 1 1 -7.92110634548e-07 39.71398061 19.53200667 29.80390065
1545 1 1 -1.88478211193e-07 41.18486878 1.69843536 29.80390065
1546 1 1 -1.91928014074e-07 42.65575695 4.24608841 29.80390065
1547 1 1 -2.15413277149e-07 41.18486878 6.79374145 29.80390065
1548 1 1 -2.3204270165e-07 42.65575695 9.34139450 29.80390065
1549 1 1 -2.60305195666e-07 41.18486878 11.88904754 29.80390065
1550 1 1 -2.55899312034e-07 42.65575695 14.43670058 29.80390065
1551 1 1 -2.38041104409e-07 41.18486878 16.98435363 29.80390065
1552 1 1 -2.37256065703e-07 42.65575695 19.53200667 29.80390065
1553 1 1 -1.80049320456e-07 44.12664513 1.69843536 29.80390065
1554 1 1 -1.82048953e-07 45.59753330 4.24608841 29.80390065
1555 1 1 -2.00203552253e-07 44.12664513 6.79374145 29.80390065
1556 1 1 -2.12515407622e-07 45.59753330 9.34139450 29.80390065
1557 1 1 -2.48413782031e-07 44.12664513 11.88904754 29.80390065
1558 1 1 -2.57437479131e-07 45.59753330 14.43670058 29.80390065
1559 1 1 -2.34204528578e-07 44.12664513 16.98435363 29.80390065
1560 1 1 -2.24547031447e-07 45.59753330 19.53200667 29.80390065
1561 1 1 -1.738643665e-07 47.06842147 1.69843536 29.80390065
1562 1 1 -1.75710460656e-07 48.53930964 4.24608841 29.80390065
1563 1 1 -1.87712884985e-07 47.06842147 6.79374145 29.80390065
1564 1 1 -1.96458882249e-07 48.53930964 9.34139450 29.80390065
1565 1 1 -2.26461354256e-07 47.06842147 11.88904754 29.80390065
1566 1 1 -2.39173784349e-07 48.53930964 14.43670058 29.80390065
1567 1 1 -2.6104981846e-07 47.06842147 16.98435363 29.80390065
1568 1 1 -2.69679748724e-07 48.53930964 19.53200667 29.80390065
1569 1 1 -1.70177957869e-07 50.01019781 1.69843536 29.80390065
1570 1 1 -1.72788024351e-07 51.48108598 4.24608841 29.80390065
1571 1 1 -1.80645024513e-07 50.01019781 6.79374145 29.80390065
1572 1 1 -1.8845273197e-07 51.48108598 9.34139450 29.80390065
1573 1 1 -2.07427417168e-07 50.01019781 11.88904754 29.80390065
1574 1 1 -2.20879465335e-07 51.48108598 14.43670058 29.80390065
1575 1 1 -2.5111994692e-07 50.01019781 16.98435363 29.80390065
1576 1 1 -2.65905349779e-07 51.48108598 19.53200667 29.80390065
1577 1 1 -2.07198043546e-07 35.30131610 1.69843536 29.80390065
1578 1 1 -2.1418086407e-07 36.77220427 4.24608841 29.80390065
1579 1 1 -2.34456208338e-07 35.30131610 6.79374145 29.80390065
1580 1 1 -2.52622454323e-07 36.77220427 9.34139450 29.80390065
1581 1 1 -3.31272411602e-07 35.30131610 11.88904754 29.80390065
1582 1 1 -3.96256472522e-07 36.77220427 14.43670058 29.80390065
1583 1 1 -1.15804265218e-06 35.30131610 16.98435363 29.80390065
1584 1 1 -1.87465437693e-06 36.77220427 19.53200667 29.80390065
1585 1 1 -1.15406000496e-05 39.71398061 2.54765304 32.20585097
1586 1 1 -1.14590055825e-05 41.18486878 5.09530609 32.20585097
1587 1 1 -1.1585573756e-05 39.71398061 7.64295913 32.20585097
1588 1 1 -1.21126386124e-05 41.18486878 10.19061218 32.20585097
1589 1 1 -1.81545051915e-05 39.71398061 12.73826522 32.20585097
1590 1 1 -2.30511490677e-05 41.18486878 15.28591827 32.20585097
1591 1 1 -3.9298809645e-05 39.71398061 17.83357131 32.20585097
1592 1 1 -1.13816961397e-05 41.18486878 0.00000000 32.20585097
1593 1 1 -1.1288131429e-05 42.65575695 2.54765304 32.20585097
1594 1 1 -1.13052827396e-05 44.12664513 5.09530609 32.20585097
1595 1 1 -1.14440157764e-05 42.65575695 7.64295913 32.20585097
1596 1 1 -1.15554548356e-05 44.12664513 10.19061218 32.20585097
1597 1 1 -1.33055334904e-05 42.65575695 12.73826522 32.20585097
1598 1 1 -1.48390027437e-05 44.12664513 15.28591827 32.20585097
1599 1 1 -2.69693243051e-05 42.65575695 17.83357131 32.20585097
1600 1 1 -1.10873068076e-05 44.12664513 0.00000000 32.20585097
1601 1 1 -1.10284544851e-05 45.59753330 2.54765304 32.20585097
1602 1 1 -1.11117289239e-05 47.06842147 5.09530609 32.20585097
1603 1 1 -1.13977417636e-05 45.59753330 7.64295913 32.20585097
1604 1 1 -1.15611688137e-05 47.06842147 10.19061218 32.20585097
1605 1 1 -1.1846525591e-05 45.59753330 12.73826522 32.20585097
1606 1 1 -1.22669576541e-05 47.06842147 15.28591827 32.20585097
1607 1 1 -1.6029560024e-05 45.59753330 17.83357131 32.20585097
1608 1 1 -1.08386340444e-05 47.06842147 0.00000000 32.20585097
1609 1 1 -1.08178125105e-05 48.53930964 2.54765304 32.20585097
1610 1 1 -1.09470531366e-05 50.01019781 5.09530609 32.20585097
1611 1 1 -1.13022458105e-05 48.53930964 7.64295913 32.20585097
1612 1 1 -1.15920608971e-05 50.01019781 10.19061218 32.20585097
1613 1 1 -1.18199198176e-05 48.53930964 12.73826522 32.20585097
1614 1 1 -1.21669602845e-05 50.01019781 15.28591827 32.20585097
1615 1 1 -1.26723464781e-05 48.53930964 17.83357131 32.20585097
1616 1 1 -1.06759687063e-05 50.01019781 0.00000000 32.20585097
1617 1 1 -1.07013466987e-05 51.48108598 2.54765304 32.20585097
1618 1 1 -1.16989087032e-05 35.30131610 5.09530609 32.20585097
1619 1 1 -1.12102087208e-05 51.48108598 7.64295913 32.20585097
1620 1 1 -1.81335059252e-05 35.30131610 10.19061218 32.20585097
1621 1 1 -1.19668792398e-05 51.48108598 12.73826522 32.20585097
1622 1 1 -3.821015398e-05 35.30131610 15.28591827 32.20585097
1623 1 1 -1.25019463082e-05 51.48108598 17.83357131 32.20585097
1624 1 1 -1.19044075856e-05 35.30131610 0.00000000 32.20585097
1625 1 1 -1.17438339251e-05 36.77220427 2.54765304 32.20585097
1626 1 1 -1.15680871767e-05 38.24309244 5.09530609 32.20585097
1627 1 1 -1.21436862093e-05 36.77220427 7.64295913 32.20585097
1628 1 1 -1.41689194821e-05 38.24309244 10.19061218 32.20585097
1629 1 1 -2.66438932455e-05 36.77220427 12.73826522 32.20585097
1630 1 1 -3.51537276667e-05 38.24309244 15.28591827 32.20585097
1631 1 1 -1.77604040678e-05 36.77220427 17.83357131 32.20585097
1632 1 1 -1.16691300868e-05 38.24309244 0.00000000 32.20585097
1633 1 1 -0.000189606778171 41.18486878 3.39687073 34.60780130
1634 1 1 -0.00019419717237 42.65575695 5.94452377 34.60780130
1635 1 1 -0.000215271313241 41.18486878 8.49217681 34.60780130
1636 1 1 -0.000228606731775 42.65575695 11.03982986 34.60780130
1637 1 1 -0.000280280256435 41.18486878 13.58748290 34.60780130
1638 1 1 -0.000303996200556 42.65575695 16.13513595 34.60780130
1639 1 1 -0.000411088230089 41.18486878 18.68278899 34.60780130
1640 1 1 -0.00018194481052 42.65575695 0.84921768 34.60780130
1641 1 1 -0.000182177162604 44.12664513 3.39687073 34.60780130
1642 1 1 -0.000185681845972 45.59753330 5.94452377 34.60780130
1643 1 1 -0.000201527362358 44.12664513 8.49217681 34.60780130
1644 1 1 -0.000210528139871 45.59753330 11.03982986 34.60780130
1645 1 1 -0.00024281377973 44.12664513 13.58748290 34.60780130
1646 1 1 -0.000255500288391 45.59753330 16.13513595 34.60780130
1647 1 1 -0.000320229482604 44.12664513 18.68278899 34.60780130
1648 1 1 -0.000176018647303 45.59753330 0.84921768 34.60780130
1649 1 1 -0.000176365981171 47.06842147 3.39687073 34.60780130
1650 1 1 -0.000179664603223 48.53930964 5.94452377 34.60780130
1651 1 1 -0.000191552146916 47.06842147 8.49217681 34.60780130
1652 1 1 -0.000199175656793 48.53930964 11.03982986 34.60780130
1653 1 1 -0.00022018753775 47.06842147 13.58748290 34.60780130
1654 1 1 -0.000229661550025 48.53930964 16.13513595 34.60780130
1655 1 1 -0.00026453768241 47.06842147 18.68278899 34.60780130
1656 1 1 -0.000171763283758 48.53930964 0.84921768 34.60780130
1657 1 1 -0.000172684844687 50.01019781 3.39687073 34.60780130
1658 1 1 -0.000176550176666 51.48108598 5.94452377 34.60780130
1659 1 1 -0.000185448082904 50.01019781 8.49217681 34.60780130
1660 1 1 -0.000193625659757 51.48108598 11.03982986 34.60780130
1661 1 1 -0.000208237002993 50.01019781 13.58748290 34.60780130
1662 1 1 -0.000218760361074 51.48108598 16.13513595 34.60780130
1663 1 1 -0.000238572273154 50.01019781 18.68278899 34.60780130
1664 1 1 -0.000169549085607 51.48108598 0.84921768 34.60780130
1665 1 1 -0.000206191574499 35.30131610 3.39687073 34.60780130
1666 1 1 -0.000216158276735 36.77220427 5.94452377 34.60780130
1667 1 1 -0.000252308624581 35.30131610 8.49217681 34.60780130
1668 1 1 -0.000288934820398 36.77220427 11.03982986 34.60780130
1669 1 1 -0.000396531805151 35.30131610 13.58748290 34.60780130
1670 1 1 -0.000462602031107 36.77220427 16.13513595 34.60780130
1671 1 1 -0.000531084100056 35.30131610 18.68278899 34.60780130
1672 1 1 -0.000196256539154 36.77220427 0.84921768 34.60780130
1673 1 1 -0.00019792292947 38.24309244 3.39687073 34.60780130
1674 1 1 -0.000204631057539 39.71398061 5.94452377 34.60780130
1675 1 1 -0.000232574191969 38.24309244 8.49217681 34.60780130
1676 1 1 -0.000254800706197 39.71398061 11.03982986 34.60780130
1677 1 1 -0.000334163675572 38.24309244 13.58748290 34.60780130
1678 1 1 -0.000378586002566 39.71398061 16.13513595 34.60780130
1679 1 1 -0.000505260124357 38.24309244 18.68278899 34.60780130
1680 1 1 -0.00018895374857 39.71398061 0.84921768 34.60780130
1681 1 1 0.000486388981358 35.30131610 20.38122435 25.00000000
1682 1 1 0.000445841253519 36.77220427 22.92887739 25.00000000
1683 1 1 0.000728282275772 35.30131610 25.47653044 25.00000000
1684 1 1 0.000561291937694 36.77220427 28.02418348 25.00000000
1685 1 1 0.00223272033393 35.30131610 30.57183653 25.00000000
1686 1 1 0.000560956875836 36.77220427 33.11948957 25.00000000
1687 1 1 0.000727048658082 35.30131610 35.66714262 25.00000000
1688 1 1 0.000444183859834 36.77220427 38.21479566 25.00000000
1689 1 1 0.000536068838798 38.24309244 20.38122435 25.00000000
1690 1 1 0.00053955847296 39.71398061 22.92887739 25.00000000
1691 1 1 0.000447555803796 38.24309244 25.47653044 25.00000000
1692 1 1 0.000491463755527 39.71398061 28.02418348 25.00000000
1693 1 1 0.00041433138527 38.24309244 30.57183653 25.00000000
1694 1 1 0.000491133292278 39.71398061 33.11948957 25.00000000
1695 1 1 0.000445898376777 38.24309244 35.66714262 25.00000000
1696 1 1 0.00053835114224 39.71398061 38.21479566 25.00000000
1697 1 1 0.000460895790964 41.18486878 20.38122435 25.00000000
1698 1 1 0.000464269381659 42.65575695 22.92887739 25.00000000
1699 1 1 0.000540905584008 41.18486878 25.47653044 25.00000000
1700 1 1 0.000527486831939 42.65575695 28.02418348 25.00000000
1701 1 1 0.000540662405481 41.18486878 30.57183653 25.00000000
1702 1 1 0.000527386407259 42.65575695 33.11948957 25.00000000
1703 1 1 0.000540213124809 41.18486878 35.66714262 25.00000000
1704 1 1 0.000463949305993 42.65575695 38.21479566 25.00000000
1705 1 1 0.000354316633749 44.12664513 20.38122435 25.00000000
1706 1 1 0.000351524557287 45.59753330 22.92887739 25.00000000
1707 1 1 0.000446032540127 44.12664513 25.47653044 25.00000000
1708 1 1 0.000408234259779 45.59753330 28.02418348 25.00000000
1709 1 1 0.000481020634773 44.12664513 30.57183653 25.00000000
1710 1 1 0.000408257109123 45.59753330 33.11948957 25.00000000
1711 1 1 0.000445940118352 44.12664513 35.66714262 25.00000000
1712 1 1 0.000351545604798 45.59753330 38.21479566 25.00000000
1713 1 1 0.000283206107967 47.06842147 20.38122435 25.00000000
1714 1 1 0.000283392313515 48.53930964 22.92887739 25.00000000
1715 1 1 0.000336171099359 47.06842147 25.47653044 25.00000000
1716 1 1 0.000314234394166 48.53930964 28.02418348 25.00000000
1717 1 1 0.000359863063113 47.06842147 30.57183653 25.00000000
1718 1 1 0.000314264490868 48.53930964 33.11948957 25.00000000
1719 1 1 0.00033622017638 47.06842147 35.66714262 25.00000000
1720 1 1 0.000283439568149 48.53930964 38.21479566 25.00000000
1721 1 1 0.000250112541931 50.01019781 20.38122435 25.00000000
1722 1 1 0.000256854256895 51.48108598 22.92887739 25.00000000
1723 1 1 0.00027988453961 50.01019781 25.47653044 25.00000000
1724 1 1 0.000275981934118 51.48108598 28.02418348 25.00000000
1725 1 1 0.00029269247337 50.01019781 30.57183653 25.00000000
1726 1 1 0.000275991852241 51.48108598 33.11948957 25.00000000
1727 1 1 0.000279913437395 50.01019781 35.66714262 25.00000000
1728 1 1 0.000256867014732 51.48108598 38.21479566 25.00000000
1729 1 1 -0.000181067488371 36.77220427 21.23044203 27.40195032
1730 1 1 -0.000231142260476 38.24309244 23.77809508 27.40195032
1731 1 1 -0.000813833607024 36.77220427 26.32574812 27.40195032
1732 1 1 -0.000608031464078 38.24309244 28.87340116 27.40195032
1733 1 1 -0.00101588583132 36.77220427 31.42105421 27.40195032
1734 1 1 -0.000514252491034 38.24309244 33.96870725 27.40195032
1735 1 1 -0.00060537311505 36.77220427 36.51636030 27.40195032
1736 1 1 -0.000101875741279 38.24309244 39.06401334 27.40195032
1737 1 1 1.39549633048e-05 39.71398061 21.23044203 27.40195032
1738 1 1 1.41025280825e-05 41.18486878 23.77809508 27.40195032
1739 1 1 -0.000180858087028 39.71398061 26.32574812 27.40195032
1740 1 1 -7.26492731165e-05 41.18486878 28.87340116 27.40195032
1741 1 1 -0.000289142272524 39.71398061 31.42105421 27.40195032
1742 1 1 -4.78096383824e-05 41.18486878 33.96870725 27.40195032
1743 1 1 -0.000101757948746 39.71398061 36.51636030 27.40195032
1744 1 1 3.3662691579e-05 41.18486878 39.06401334 27.40195032
1745 1 1 4.03277072265e-05 42.65575695 21.23044203 27.40195032
1746 1 1 3.94640704259e-05 44.12664513 23.77809508 27.40195032
1747 1 1 2.90506624239e-05 42.65575695 26.32574812 27.40195032
1748 1 1 4.08184564234e-05 44.12664513 28.87340116 27.40195032
1749 1 1 1.37501585944e-05 42.65575695 31.42105421 27.40195032
1750 1 1 4.13280488254e-05 44.12664513 33.96870725 27.40195032
1751 1 1 3.70455014284e-05 42.65575695 36.51636030 27.40195032
1752 1 1 3.52215987794e-05 44.12664513 39.06401334 27.40195032
1753 1 1 2.44684887696e-05 45.59753330 21.23044203 27.40195032
1754 1 1 2.25840039339e-05 47.06842147 23.77809508 27.40195032
1755 1 1 3.55844837323e-05 45.59753330 26.32574812 27.40195032
1756 1 1 2.85345017459e-05 47.06842147 28.87340116 27.40195032
1757 1 1 3.82338150558e-05 45.59753330 31.42105421 27.40195032
1758 1 1 2.7185616388e-05 47.06842147 33.96870725 27.40195032
1759 1 1 3.25102004239e-05 45.59753330 36.51636030 27.40195032
1760 1 1 1.98241472543e-05 47.06842147 39.06401334 27.40195032
1761 1 1 1.53203493141e-05 48.53930964 21.23044203 27.40195032
1762 1 1 1.4838544315e-05 50.01019781 23.77809508 27.40195032
1763 1 1 1.94259584206e-05 48.53930964 26.32574812 27.40195032
1764 1 1 1.63986371555e-05 50.01019781 28.87340116 27.40195032
1765 1 1 2.10158983248e-05 48.53930964 31.42105421 27.40195032
1766 1 1 1.60302966352e-05 50.01019781 33.96870725 27.40195032
1767 1 1 1.80952253113e-05 48.53930964 36.51636030 27.40195032
1768 1 1 1.42637278312e-05 50.01019781 39.06401334 27.40195032
1769 1 1 1.35961719641e-05 51.48108598 21.23044203 27.40195032
1770 1 1 -0.000813904610701 35.30131610 23.77809508 27.40195032
1771 1 1 1.42425429305e-05 51.48108598 26.32574812 27.40195032
1772 1 1 -0.00107360555986 35.30131610 28.87340116 27.40195032
1773 1 1 1.45384032915e-05 51.48108598 31.42105421 27.40195032
1774 1 1 -0.00111793734141 35.30131610 33.96870725 27.40195032
1775 1 1 1.40378061473e-05 51.48108598 36.51636030 27.40195032
1776 1 1 -0.000514416777787 35.30131610 39.06401334 27.40195032
1777 1 1 -3.87663805074e-06 38.24309244 22.07965971 29.80390065
1778 1 1 -3.87948409112e-06 39.71398061 24.62731276 29.80390065
1779 1 1 -5.16102893464e-06 38.24309244 27.17496580 29.80390065
1780 1 1 -3.10448624747e-06 39.71398061 29.72261885 29.80390065
1781 1 1 -5.05831494827e-06 38.24309244 32.27027189 29.80390065
1782 1 1 -2.00899178371e-06 39.71398061 34.81792493 29.80390065
1783 1 1 -3.33587326446e-07 38.24309244 37.36557798 29.80390065
1784 1 1 -8.79548611543e-07 39.71398061 39.91323102 29.80390065
1785 1 1 -1.08994582697e-06 41.18486878 22.07965971 29.80390065
1786 1 1 -7.98984682921e-07 42.65575695 24.62731276 29.80390065
1787 1 1 -1.8820727551e-06 41.18486878 27.17496580 29.80390065
1788 1 1 -1.16934266205e-06 42.65575695 29.72261885 29.80390065
1789 1 1 -2.43046230972e-06 41.18486878 32.27027189 29.80390065
1790 1 1 -1.16550053585e-06 42.65575695 34.81792493 29.80390065
1791 1 1 -8.82592417248e-07 41.18486878 37.36557798 29.80390065
1792 1 1 -6.35176146626e-07 42.65575695 39.91323102 29.80390065
1793 1 1 -2.41814705191e-07 44.12664513 22.07965971 29.80390065
1794 1 1 -2.51788063425e-07 45.59753330 24.62731276 29.80390065
1795 1 1 -4.87186087244e-07 44.12664513 27.17496580 29.80390065
1796 1 1 -4.15798394026e-07 45.59753330 29.72261885 29.80390065
1797 1 1 -8.15430628265e-07 44.12664513 32.27027189 29.80390065
1798 1 1 -4.99722836155e-07 45.59753330 34.81792493 29.80390065
1799 1 1 -6.17091502277e-07 44.12664513 37.36557798 29.80390065
1800 1 1 -3.87106740848e-07 45.59753330 39.91323102 29.80390065
1801 1 1 -2.46636895457e-07 47.06842147 22.07965971 29.80390065
1802 1 1 -2.82447932204e-07 48.53930964 24.62731276 29.80390065
1803 1 1 -2.86350006436e-07 47.06842147 27.17496580 29.80390065
1804 1 1 -3.03710408193e-07 48.53930964 29.72261885 29.80390065
1805 1 1 -3.57216360098e-07 47.06842147 32.27027189 29.80390065
1806 1 1 -3.06050466136e-07 48.53930964 34.81792493 29.80390065
1807 1 1 -3.47066594807e-07 47.06842147 37.36557798 29.80390065
1808 1 1 -2.78926458801e-07 48.53930964 39.91323102 29.80390065
1809 1 1 -2.85525783611e-07 50.01019781 22.07965971 29.80390065
1810 1 1 -3.00173035377e-07 51.48108598 24.62731276 29.80390065
1811 1 1 -3.03225178044e-07 50.01019781 27.17496580 29.80390065
1812 1 1 -3.04391702079e-07 51.48108598 29.72261885 29.80390065
1813 1 1 -2.9650187205e-07 50.01019781 32.27027189 29.80390065
1814 1 1 -2.84198132574e-07 51.48108598 34.81792493 29.80390065
1815 1 1 -2.77275711573e-07 50.01019781 37.36557798 29.80390065
1816 1 1 -2.58420856544e-07 51.48108598 39.91323102 29.80390065
1817 1 1 -5.15724932216e-06 35.30131610 22.07965971 29.80390065
1818 1 1 -8.71005401214e-06 36.77220427 24.62731276 29.80390065
1819 1 1 -4.77063236078e-06 35.30131610 27.17496580 29.80390065
1820 1 1 -3.87660446618e-06 36.77220427 29.72261885 29.80390065
1821 1 1 -3.59254303042e-06 35.30131610 32.27027189 29.80390065
1822 1 1 -1.84091052724e-06 36.77220427 34.81792493 29.80390065
1823 1 1 -1.83870520894e-06 35.30131610 37.36557798 29.80390065
1824 1 1 -2.00430482883e-06 36.77220427 39.91323102 29.80390065
1825 1 1 3.40123321434e-05 39.71398061 22.92887739 32.20585097
1826 1 1 1.65274128061e-05 41.18486878 25.47653044 32.20585097
1827 1 1 0.000250959039543 39.71398061 28.02418348 32.20585097
1828 1 1 8.37662621895e-05 41.18486878 30.57183653 32.20585097
1829 1 1 0.000250335255788 39.71398061 33.11948957 32.20585097
1830 1 1 1.65967419405e-05 41.18486878 35.66714262 32.20585097
1831 1 1 3.48520154957e-05 39.71398061 38.21479566 32.20585097
1832 1 1 -3.96169576649e-05 41.18486878 20.38122435 32.20585097
1833 1 1 -3.97896538631e-05 42.65575695 22.92887739 32.20585097
1834 1 1 -3.98113150343e-05 44.12664513 25.47653044 32.20585097
1835 1 1 -1.82487067239e-05 42.65575695 28.02418348 32.20585097
1836 1 1 -3.89175323951e-05 44.12664513 30.57183653 32.20585097
1837 1 1 -1.8604371984e-05 42.65575695 33.11948957 32.20585097
1838 1 1 -4.00388329689e-05 44.12664513 35.66714262 32.20585097
1839 1 1 -3.99878206445e-05 42.65575695 38.21479566 32.20585097
1840 1 1 -2.85608649315e-05 44.12664513 20.38122435 32.20585097
1841 1 1 -2.74313014647e-05 45.59753330 22.92887739 32.20585097
1842 1 1 -2.39341195717e-05 47.06842147 25.47653044 32.20585097
1843 1 1 -3.59812605081e-05 45.59753330 28.02418348 32.20585097
1844 1 1 -2.77232389569e-05 47.06842147 30.57183653 32.20585097
1845 1 1 -3.60765014341e-05 45.59753330 33.11948957 32.20585097
1846 1 1 -2.39742037814e-05 47.06842147 35.66714262 32.20585097
1847 1 1 -2.75468776475e-05 45.59753330 38.21479566 32.20585097
1848 1 1 -1.63259735749e-05 47.06842147 20.38122435 32.20585097
1849 1 1 -1.56733309271e-05 48.53930964 22.92887739 32.20585097
1850 1 1 -1.45158052328e-05 50.01019781 25.47653044 32.20585097
1851 1 1 -1.93552508387e-05 48.53930964 28.02418348 32.20585097
1852 1 1 -1.55244327758e-05 50.01019781 30.57183653 32.20585097
1853 1 1 -1.93516898781e-05 48.53930964 33.11948957 32.20585097
1854 1 1 -1.44968911499e-05 50.01019781 35.66714262 32.20585097
1855 1 1 -1.56652465389e-05 48.53930964 38.21479566 32.20585097
1856 1 1 -1.29164821662e-05 50.01019781 20.38122435 32.20585097
1857 1 1 -1.29446066602e-05 51.48108598 22.92887739 32.20585097
1858 1 1 0.00105084566841 35.30131610 25.47653044 32.20585097
1859 1 1 -1.34989739735e-05 51.48108598 28.02418348 32.20585097
1860 1 1 0.00106691167575 35.30131610 30.57183653 32.20585097
1861 1 1 -1.34869885868e-05 51.48108598 33.11948957 32.20585097
1862 1 1 0.00105327451825 35.30131610 35.66714262 32.20585097
1863 1 1 -1.29273243217e-05 51.48108598 38.21479566 32.20585097
1864 1 1 0.000251220232755 35.30131610 20.38122435 32.20585097
1865 1 1 0.000379156219935 36.77220427 22.92887739 32.20585097
1866 1 1 0.000379068368986 38.24309244 25.47653044 32.20585097
1867 1 1 0.000960735528044 36.77220427 28.02418348 32.20585097
1868 1 1 0.000645863629074 38.24309244 30.57183653 32.20585097
1869 1 1 0.000960192130456 36.77220427 33.11948957 32.20585097
1870 1 1 0.000381174735226 38.24309244 35.66714262 32.20585097
1871 1 1 0.000381262964362 36.77220427 38.21479566 32.20585097
1872 1 1 1.67755505281e-05 38.24309244 20.38122435 32.20585097
1873 1 1 -0.00052554004237 41.18486878 23.77809508 34.60780130
1874 1 1 -0.00051331938934 42.65575695 26.32574812 34.60780130
1875 1 1 -0.000538600911524 41.18486878 28.87340116 34.60780130
1876 1 1 -0.00053099384288 42.65575695 31.42105421 34.60780130
1877 1 1 -0.000540611772951 41.18486878 33.96870725 34.60780130
1878 1 1 -0.000492972273941 42.65575695 36.51636030 34.60780130
1879 1 1 -0.000499797601294 41.18486878 39.06401334 34.60780130
1880 1 1 -0.000424981045004 42.65575695 21.23044203 34.60780130
1881 1 1 -0.000418569161222 44.12664513 23.77809508 34.60780130
1882 1 1 -0.000393480508157 45.59753330 26.32574812 34.60780130
1883 1 1 -0.000475796392807 44.12664513 28.87340116 34.60780130
1884 1 1 -0.000414373796801 45.59753330 31.42105421 34.60780130
1885 1 1 -0.000464166325069 44.12664513 33.96870725 34.60780130
1886 1 1 -0.000374080499035 45.59753330 36.51636030 34.60780130
1887 1 1 -0.000387299434949 44.12664513 39.06401334 34.60780130
1888 1 1 -0.000325324973724 45.59753330 21.23044203 34.60780130
1889 1 1 -0.00031931907078 47.06842147 23.77809508 34.60780130
1890 1 1 -0.00030586215379 48.53930964 26.32574812 34.60780130
1891 1 1 -0.000356218729682 47.06842147 28.87340116 34.60780130
1892 1 1 -0.000317502186735 48.53930964 31.42105421 34.60780130
1893 1 1 -0.000348062754014 47.06842147 33.96870725 34.60780130
1894 1 1 -0.000295257077538 48.53930964 36.51636030 34.60780130
1895 1 1 -0.000301176332238 47.06842147 39.06401334 34.60780130
1896 1 1 -0.000269157861864 48.53930964 21.23044203 34.60780130
1897 1 1 -0.000270416952106 50.01019781 23.77809508 34.60780130
1898 1 1 -0.00027068458384 51.48108598 26.32574812 34.60780130
1899 1 1 -0.000290474800171 50.01019781 28.87340116 34.60780130
1900 1 1 -0.000277709481194 51.48108598 31.42105421 34.60780130
1901 1 1 -0.000286074347515 50.01019781 33.96870725 34.60780130
1902 1 1 -0.000264165816532 51.48108598 36.51636030 34.60780130
1903 1 1 -0.000260281667342 50.01019781 39.06401334 34.60780130
1904 1 1 -0.000247306847747 51.48108598 21.23044203 34.60780130
1905 1 1 -0.000433787964216 35.30131610 23.77809508 34.60780130
1906 1 1 -0.000435125807938 36.77220427 26.32574812 34.60780130
1907 1 1 -0.00193881379972 35.30131610 28.87340116 34.60780130
1908 1 1 -0.000658788164779 36.77220427 31.42105421 34.60780130
1909 1 1 -0.00129518158332 35.30131610 33.96870725 34.60780130
1910 1 1 -0.000398581273755 36.77220427 36.51636030 34.60780130
1911 1 1 -0.000409608459411 35.30131610 39.06401334 34.60780130
1912 1 1 -0.000502259842787 36.77220427 21.23044203 34.60780130
1913 1 1 -0.000485837030723 38.24309244 23.77809508 34.60780130
1914 1 1 -0.000506093564149 39.71398061 26.32574812 34.60780130
1915 1 1 -0.000405543578448 38.24309244 28.87340116 34.60780130
1916 1 1 -0.00047546638942 39.71398061 31.42105421 34.60780130
1917 1 1 -0.000412627266232 38.24309244 33.96870725 34.60780130
1918 1 1 -0.00052808108366 39.71398061 36.51636030 34.60780130
1919 1 1 -0.000525919820364 38.24309244 39.06401334 34.60780130
1920 1 1 -0.000522833546214 39.71398061 21.23044203 34.60780130
1921 1 1 0.000486058410954 35.30131610 40.76244870 25.00000000
1922 1 1 0.000517851602125 36.77220427 43.31010174 25.00000000
1923 1 1 0.000467133877929 35.30131610 45.85775479 25.00000000
1924 1 1 0.000337167029944 36.77220427 48.40540783 25.00000000
1925 1 1 0.000286418953956 35.30131610 50.95306088 25.00000000
1926 1 1 0.000232366152378 36.77220427 53.50071392 25.00000000
1927 1 1 0.000215974570883 35.30131610 56.04836697 25.00000000
1928 1 1 0.000199840865393 36.77220427 58.59602001 25.00000000
1929 1 1 0.000535376178884 38.24309244 40.76244870 25.00000000
1930 1 1 0.000435858563453 39.71398061 43.31010174 25.00000000
1931 1 1 0.000391640066416 38.24309244 45.85775479 25.00000000
1932 1 1 0.00028666577385 39.71398061 48.40540783 25.00000000
1933 1 1 0.000256489072956 38.24309244 50.95306088 25.00000000
1934 1 1 0.000216656358559 39.71398061 53.50071392 25.00000000
1935 1 1 0.000205792354626 38.24309244 56.04836697 25.00000000
1936 1 1 0.000191939144772 39.71398061 58.59602001 25.00000000
1937 1 1 0.000460575687763 41.18486878 40.76244870 25.00000000
1938 1 1 0.000342304882386 42.65575695 43.31010174 25.00000000
1939 1 1 0.000317733867232 41.18486878 45.85775479 25.00000000
1940 1 1 0.000248395788058 42.65575695 48.40540783 25.00000000
1941 1 1 0.000231430609678 41.18486878 50.95306088 25.00000000
1942 1 1 0.000203189299068 42.65575695 53.50071392 25.00000000
1943 1 1 0.000195851131233 41.18486878 56.04836697 25.00000000
1944 1 1 0.00018440211565 42.65575695 58.59602001 25.00000000
1945 1 1 0.000354310415861 44.12664513 40.76244870 25.00000000
1946 1 1 0.000277048470945 45.59753330 43.31010174 25.00000000
1947 1 1 0.000264698780179 44.12664513 45.85775479 25.00000000
1948 1 1 0.000223378854871 45.59753330 48.40540783 25.00000000
1949 1 1 0.000212778453312 44.12664513 50.95306088 25.00000000
1950 1 1 0.000192640199238 45.59753330 53.50071392 25.00000000
1951 1 1 0.000187148553127 44.12664513 56.04836697 25.00000000
1952 1 1 0.000178050122751 45.59753330 58.59602001 25.00000000
1953 1 1 0.000283261059056 47.06842147 40.76244870 25.00000000
1954 1 1 0.000242681675545 48.53930964 43.31010174 25.00000000
1955 1 1 0.000233685984426 47.06842147 45.85775479 25.00000000
1956 1 1 0.00020865604517 48.53930964 48.40540783 25.00000000
1957 1 1 0.000200015761141 47.06842147 50.95306088 25.00000000
1958 1 1 0.000185350934021 48.53930964 53.50071392 25.00000000
1959 1 1 0.000180412998961 47.06842147 56.04836697 25.00000000
1960 1 1 0.000173495047743 48.53930964 58.59602001 25.00000000
1961 1 1 0.000250133942462 50.01019781 40.76244870 25.00000000
1962 1 1 0.000228783133933 51.48108598 43.31010174 25.00000000
1963 1 1 0.000218225074477 50.01019781 45.85775479 25.00000000
1964 1 1 0.000201764028605 51.48108598 48.40540783 25.00000000
1965 1 1 0.000192479129987 50.01019781 50.95306088 25.00000000
1966 1 1 0.000181610851973 51.48108598 53.50071392 25.00000000
1967 1 1 0.00017616335778 50.01019781 56.04836697 25.00000000
1968 1 1 0.000171125951574 51.48108598 58.59602001 25.00000000
1969 1 1 -4.8160754164e-05 36.77220427 41.61166638 27.40195032
1970 1 1 4.06784383692e-05 38.24309244 44.15931943 27.40195032
1971 1 1 3.72967601546e-05 36.77220427 46.70697247 27.40195032
1972 1 1 1.96782283334e-05 38.24309244 49.25462551 27.40195032
1973 1 1 1.49425479526e-05 36.77220427 51.80227856 27.40195032
1974 1 1 1.23444151017e-05 38.24309244 54.34993160 27.40195032
1975 1 1 1.23487687953e-05 36.77220427 56.89758465 27.40195032
1976 1 1 1.23140502946e-05 38.24309244 59.44523769 27.40195032
1977 1 1 3.67162328793e-05 39.71398061 41.61166638 27.40195032
1978 1 1 3.18437738419e-05 41.18486878 44.15931943 27.40195032
1979 1 1 2.6128681411e-05 39.71398061 46.70697247 27.40195032
1980 1 1 1.46189065178e-05 41.18486878 49.25462551 27.40195032
1981 1 1 1.29786446237e-05 39.71398061 51.80227856 27.40195032
1982 1 1 1.21464924767e-05 41.18486878 54.34993160 27.40195032
1983 1 1 1.21920654405e-05 39.71398061 56.89758465 27.40195032
1984 1 1 1.20266426424e-05 41.18486878 59.44523769 27.40195032
1985 1 1 3.49954730802e-05 42.65575695 41.61166638 27.40195032
1986 1 1 1.92425548023e-05 44.12664513 44.15931943 27.40195032
1987 1 1 1.70149348458e-05 42.65575695 46.70697247 27.40195032
1988 1 1 1.26701950747e-05 44.12664513 49.25462551 27.40195032
1989 1 1 1.22717399153e-05 42.65575695 51.80227856 27.40195032
1990 1 1 1.20407700407e-05 44.12664513 54.34993160 27.40195032
1991 1 1 1.19905688817e-05 42.65575695 56.89758465 27.40195032
1992 1 1 1.17226590212e-05 44.12664513 59.44523769 27.40195032
1993 1 1 2.03187338208e-05 45.59753330 41.61166638 27.40195032
1994 1 1 1.39047686244e-05 47.06842147 44.15931943 27.40195032
1995 1 1 1.32919585559e-05 45.59753330 46.70697247 27.40195032
1996 1 1 1.23864484954e-05 47.06842147 49.25462551 27.40195032
1997 1 1 1.21640729085e-05 45.59753330 51.80227856 27.40195032
1998 1 1 1.18974258535e-05 47.06842147 54.34993160 27.40195032
1999 1 1 1.1751143634e-05 45.59753330 56.89758465 27.40195032
2000 1 1 1.14580586413e-05 47.06842147 59.44523769 27.40195032
2001 1 1 1.42597172842e-05 48.53930964 41.61166638 27.40195032
2002 1 1 1.31154727763e-05 50.01019781 44.15931943 27.40195032
2003 1 1 1.27215454693e-05 48.53930964 46.70697247 27.40195032
2004 1 1 1.24791535206e-05 50.01019781 49.25462551 27.40195032
2005 1 1 1.2138558761e-05 48.53930964 51.80227856 27.40195032
2006 1 1 1.17456646936e-05 50.01019781 54.34993160 27.40195032
2007 1 1 1.15315493444e-05 48.53930964 56.89758465 27.40195032
2008 1 1 1.12810822478e-05 50.01019781 59.44523769 27.40195032
2009 1 1 1.34344594331e-05 51.48108598 41.61166638 27.40195032
2010 1 1 1.31776076072e-05 35.30131610 44.15931943 27.40195032
2011 1 1 1.28881998034e-05 51.48108598 46.70697247 27.40195032
2012 1 1 2.73829689045e-05 35.30131610 49.25462551 27.40195032
2013 1 1 1.20886874638e-05 51.48108598 51.80227856 27.40195032
2014 1 1 1.28394571084e-05 35.30131610 54.34993160 27.40195032
2015 1 1 1.14008062389e-05 51.48108598 56.89758465 27.40195032
2016 1 1 1.25439022429e-05 35.30131610 59.44523769 27.40195032
2017 1 1 -1.15655769307e-06 38.24309244 42.46088406 29.80390065
2018 1 1 -4.82728289898e-07 39.71398061 45.00853711 29.80390065
2019 1 1 -3.31500340557e-07 38.24309244 47.55619015 29.80390065
2020 1 1 -2.52105191229e-07 39.71398061 50.10384320 29.80390065
2021 1 1 -2.45779494735e-07 38.24309244 52.65149624 29.80390065
2022 1 1 -2.16178536541e-07 39.71398061 55.19914928 29.80390065
2023 1 1 -2.05486728132e-07 38.24309244 57.74680233 29.80390065
2024 1 1 -1.91404083488e-07 39.71398061 60.29445537 29.80390065
2025 1 1 -6.08727945457e-07 41.18486878 42.46088406 29.80390065
2026 1 1 -3.29010360865e-07 42.65575695 45.00853711 29.80390065
2027 1 1 -2.75088882028e-07 41.18486878 47.55619015 29.80390065
2028 1 1 -2.32385772396e-07 42.65575695 50.10384320 29.80390065
2029 1 1 -2.25844371909e-07 41.18486878 52.65149624 29.80390065
2030 1 1 -2.00774215136e-07 42.65575695 55.19914928 29.80390065
2031 1 1 -1.93512735135e-07 41.18486878 57.74680233 29.80390065
2032 1 1 -1.82822939265e-07 42.65575695 60.29445537 29.80390065
2033 1 1 -3.81227303248e-07 44.12664513 42.46088406 29.80390065
2034 1 1 -2.62244744598e-07 45.59753330 45.00853711 29.80390065
2035 1 1 -2.43250873926e-07 44.12664513 47.55619015 29.80390065
2036 1 1 -2.1668091484e-07 45.59753330 50.10384320 29.80390065
2037 1 1 -2.09091554417e-07 44.12664513 52.65149624 29.80390065
2038 1 1 -1.88987128167e-07 45.59753330 55.19914928 29.80390065
2039 1 1 -1.83840899434e-07 44.12664513 57.74680233 29.80390065
2040 1 1 -1.75906217985e-07 45.59753330 60.29445537 29.80390065
2041 1 1 -2.77394457085e-07 47.06842147 42.46088406 29.80390065
2042 1 1 -2.35672680589e-07 48.53930964 45.00853711 29.80390065
2043 1 1 -2.25163393006e-07 47.06842147 47.55619015 29.80390065
2044 1 1 -2.04587791988e-07 48.53930964 50.10384320 29.80390065
2045 1 1 -1.96223946763e-07 47.06842147 52.65149624 29.80390065
2046 1 1 -1.80745157395e-07 48.53930964 55.19914928 29.80390065
2047 1 1 -1.76578570165e-07 47.06842147 57.74680233 29.80390065
2048 1 1 -1.7104812607e-07 48.53930964 60.29445537 29.80390065
2049 1 1 -2.46813626059e-07 50.01019781 42.46088406 29.80390065
2050 1 1 -2.27404635148e-07 51.48108598 45.00853711 29.80390065
2051 1 1 -2.1469416789e-07 50.01019781 47.55619015 29.80390065
2052 1 1 -1.97614465878e-07 51.48108598 50.10384320 29.80390065
2053 1 1 -1.87709769464e-07 50.01019781 52.65149624 29.80390065
2054 1 1 -1.76448450993e-07 51.48108598 55.19914928 29.80390065
2055 1 1 -1.72022625675e-07 50.01019781 57.74680233 29.80390065
2056 1 1 -1.68540169892e-07 51.48108598 60.29445537 29.80390065
2057 1 1 -2.42231656253e-06 35.30131610 42.46088406 29.80390065
2058 1 1 -8.00771740397e-07 36.77220427 45.00853711 29.80390065
2059 1 1 -3.95695141107e-07 35.30131610 47.55619015 29.80390065
2060 1 1 -2.69421050335e-07 36.77220427 50.10384320 29.80390065
2061 1 1 -2.60541645918e-07 35.30131610 52.65149624 29.80390065
2062 1 1 -2.34389943779e-07 36.77220427 55.19914928 29.80390065
2063 1 1 -2.19020528012e-07 35.30131610 57.74680233 29.80390065
2064 1 1 -2.01054617307e-07 36.77220427 60.29445537 29.80390065
2065 1 1 -3.95264757005e-05 39.71398061 43.31010174 32.20585097
2066 1 1 -2.30900925675e-05 41.18486878 45.85775479 32.20585097
2067 1 1 -1.81497819734e-05 39.71398061 48.40540783 32.20585097
2068 1 1 -1.21021425289e-05 41.18486878 50.95306088 32.20585097
2069 1 1 -1.15856610293e-05 39.71398061 53.50071392 32.20585097
2070 1 1 -1.14589274859e-05 41.18486878 56.04836697 32.20585097
2071 1 1 -1.15398171533e-05 39.71398061 58.59602001 32.20585097
2072 1 1 -3.98154321503e-05 41.18486878 40.76244870 32.20585097
2073 1 1 -2.70846900254e-05 42.65575695 43.31010174 32.20585097
2074 1 1 -1.48292198064e-05 44.12664513 45.85775479 32.20585097
2075 1 1 -1.32856556557e-05 42.65575695 48.40540783 32.20585097
2076 1 1 -1.1547251632e-05 44.12664513 50.95306088 32.20585097
2077 1 1 -1.14424721256e-05 42.65575695 53.50071392 32.20585097
2078 1 1 -1.13060239131e-05 44.12664513 56.04836697 32.20585097
2079 1 1 -1.12880067506e-05 42.65575695 58.59602001 32.20585097
2080 1 1 -2.87129309309e-05 44.12664513 40.76244870 32.20585097
2081 1 1 -1.60402510557e-05 45.59753330 43.31010174 32.20585097
2082 1 1 -1.22485205444e-05 47.06842147 45.85775479 32.20585097
2083 1 1 -1.18305233405e-05 45.59753330 48.40540783 32.20585097
2084 1 1 -1.15596141226e-05 47.06842147 50.95306088 32.20585097
2085 1 1 -1.13984921229e-05 45.59753330 53.50071392 32.20585097
2086 1 1 -1.1112679177e-05 47.06842147 56.04836697 32.20585097
2087 1 1 -1.10286547838e-05 45.59753330 58.59602001 32.20585097
2088 1 1 -1.63373566175e-05 47.06842147 40.76244870 32.20585097
2089 1 1 -1.26552786325e-05 48.53930964 43.31010174 32.20585097
2090 1 1 -1.21613723201e-05 50.01019781 45.85775479 32.20585097
2091 1 1 -1.18153477847e-05 48.53930964 48.40540783 32.20585097
2092 1 1 -1.15940008498e-05 50.01019781 50.95306088 32.20585097
2093 1 1 -1.13038807262e-05 48.53930964 53.50071392 32.20585097
2094 1 1 -1.09473684919e-05 50.01019781 56.04836697 32.20585097
2095 1 1 -1.08177921739e-05 48.53930964 58.59602001 32.20585097
2096 1 1 -1.28995311445e-05 50.01019781 40.76244870 32.20585097
2097 1 1 -1.24962596365e-05 51.48108598 43.31010174 32.20585097
2098 1 1 -3.82101038364e-05 35.30131610 45.85775479 32.20585097
2099 1 1 -1.19693881897e-05 51.48108598 48.40540783 32.20585097
2100 1 1 -1.81380505688e-05 35.30131610 50.95306088 32.20585097
2101 1 1 -1.12113743028e-05 51.48108598 53.50071392 32.20585097
2102 1 1 -1.1706997676e-05 35.30131610 56.04836697 32.20585097
2103 1 1 -1.07010406615e-05 51.48108598 58.59602001 32.20585097
2104 1 1 0.000250596574558 35.30131610 40.76244870 32.20585097
2105 1 1 -1.81161902243e-05 36.77220427 43.31010174 32.20585097
2106 1 1 -3.52483647575e-05 38.24309244 45.85775479 32.20585097
2107 1 1 -2.66436878408e-05 36.77220427 48.40540783 32.20585097
2108 1 1 -1.41689513407e-05 38.24309244 50.95306088 32.20585097
2109 1 1 -1.21542438162e-05 36.77220427 53.50071392 32.20585097
2110 1 1 -1.15696281144e-05 38.24309244 56.04836697 32.20585097
2111 1 1 -1.17434686926e-05 36.77220427 58.59602001 32.20585097
2112 1 1 1.68445966431e-05 38.24309244 40.76244870 32.20585097
2113 1 1 -0.000361620397223 41.18486878 44.15931943 34.60780130
2114 1 1 -0.000272606247351 42.65575695 46.70697247 34.60780130
2115 1 1 -0.000251951234928 41.18486878 49.25462551 34.60780130
2116 1 1 -0.000213921105848 42.65575695 51.80227856 34.60780130
2117 1 1 -0.000203759263349 41.18486878 54.34993160 34.60780130
2118 1 1 -0.000188017764813 42.65575695 56.89758465 34.60780130
2119 1 1 -0.000186203853697 41.18486878 59.44523769 34.60780130
2120 1 1 -0.000383143366987 42.65575695 41.61166638 34.60780130
2121 1 1 -0.000289907462137 44.12664513 44.15931943 34.60780130
2122 1 1 -0.000237670880281 45.59753330 46.70697247 34.60780130
2123 1 1 -0.000225776804443 44.12664513 49.25462551 34.60780130
2124 1 1 -0.000200403599946 45.59753330 51.80227856 34.60780130
2125 1 1 -0.00019310402366 44.12664513 54.34993160 34.60780130
2126 1 1 -0.000180843188733 45.59753330 56.89758465 34.60780130
2127 1 1 -0.000179478047403 44.12664513 59.44523769 34.60780130
2128 1 1 -0.000299938982558 45.59753330 41.61166638 34.60780130
2129 1 1 -0.000247883812618 47.06842147 44.15931943 34.60780130
2130 1 1 -0.000218314080718 48.53930964 46.70697247 34.60780130
2131 1 1 -0.000209037204022 47.06842147 49.25462551 34.60780130
2132 1 1 -0.000191422490617 48.53930964 51.80227856 34.60780130
2133 1 1 -0.000185044739133 47.06842147 54.34993160 34.60780130
2134 1 1 -0.000175718601154 48.53930964 56.89758465 34.60780130
2135 1 1 -0.000174196383476 47.06842147 59.44523769 34.60780130
2136 1 1 -0.000255351796129 48.53930964 41.61166638 34.60780130
2137 1 1 -0.000227862331464 50.01019781 44.15931943 34.60780130
2138 1 1 -0.000209714696585 51.48108598 46.70697247 34.60780130
2139 1 1 -0.000199644948918 50.01019781 49.25462551 34.60780130
2140 1 1 -0.000186894584145 51.48108598 51.80227856 34.60780130
2141 1 1 -0.000180008979305 50.01019781 54.34993160 34.60780130
2142 1 1 -0.000173056377937 51.48108598 56.89758465 34.60780130
2143 1 1 -0.000170845805358 50.01019781 59.44523769 34.60780130
2144 1 1 -0.000237838184223 51.48108598 41.61166638 34.60780130
2145 1 1 -0.000520565746302 35.30131610 44.15931943 34.60780130
2146 1 1 -0.000396831114248 36.77220427 46.70697247 34.60780130
2147 1 1 -0.000333763547461 35.30131610 49.25462551 34.60780130
2148 1 1 -0.000255022370527 36.77220427 51.80227856 34.60780130
2149 1 1 -0.000230049502347 35.30131610 54.34993160 34.60780130
2150 1 1 -0.00020578372001 36.77220427 56.89758465 34.60780130
2151 1 1 -0.000200995468962 35.30131610 59.44523769 34.60780130
2152 1 1 -0.000534198402701 36.77220427 41.61166638 34.60780130
2153 1 1 -0.000452222228774 38.24309244 44.15931943 34.60780130
2154 1 1 -0.000327393271183 39.71398061 46.70697247 34.60780130
2155 1 1 -0.000288991355505 38.24309244 49.25462551 34.60780130
2156 1 1 -0.000232247462257 39.71398061 51.80227856 34.60780130
2157 1 1 -0.000216420358475 38.24309244 54.34993160 34.60780130
2158 1 1 -0.000196613501451 39.71398061 56.89758465 34.60780130
2159 1 1 -0.000193669964111 38.24309244 59.44523769 34.60780130
2160 1 1 -0.000486943759687 39.71398061 41.61166638 34.60780130
2161 2 2 1 26.47598707 30.57183653 36.60780130
2162 3 2 -1 26.47598707 30.57183653 23.00000000
