ITEM: TIMESTEP
0
ITEM: NUMBER OF ATOMS
3000
ITEM: BOX BOUNDS pp pp pp
0.0000000000000000e+00 3.1043045599999999e+01
0.0000000000000000e+00 3.1043045599999999e+01
0.0000000000000000e+00 3.1043045599999999e+01
ITEM: ATOMS id type q
1 1 -0.752752553055248
2 2 0.371826949337331
3 2 0.415777917522095
4 1 -0.725711081854187
5 2 0.309501975160457
6 2 0.34014242838887
7 1 -0.754096121925571
8 2 0.400044711427378
9 2 0.379759107059937
10 1 -0.741448685736528
11 2 0.35868177778552
12 2 0.36193213682068
13 1 -0.718236022783669
14 2 0.332165257229303
15 2 0.366431641736834
16 1 -0.729489863166459
17 2 0.384041495636418
18 2 0.381317423635904
19 1 -0.732832592324184
20 2 0.383139995827433
21 2 0.369575606728953
22 1 -0.730557025704819
23 2 0.338022171163989
24 2 0.315721327038395
25 1 -0.688274326507199
26 2 0.376634631339868
27 2 0.390807887020928
28 1 -0.655527789397155
29 2 0.380354862475117
30 2 0.373135964389639
31 1 -0.70701648628944
32 2 0.372249340342968
33 2 0.363536490828984
34 1 -0.691030311953021
35 2 0.348457508576132
36 2 0.322119670278795
37 1 -0.68293369819261
38 2 0.404089760710468
39 2 0.358613627007527
40 1 -0.692988509593874
41 2 0.345969894833839
42 2 0.346251514939764
43 1 -0.768956873544664
44 2 0.351708470618452
45 2 0.363921788698872
46 1 -0.71593712027206
47 2 0.379493100546115
48 2 0.31878209669468
49 1 -0.734407578817518
50 2 0.376806548468483
51 2 0.364263015300429
52 1 -0.753993354996659
53 2 0.369213792048922
54 2 0.39677396181717
55 1 -0.694270976622117
56 2 0.354609348642444
57 2 0.371359189446087
58 1 -0.699090834229971
59 2 0.350812155523744
60 2 0.364389239870765
61 1 -0.719154886199237
62 2 0.390220797560868
63 2 0.371425040386386
64 1 -0.710315185000784
65 2 0.360831126318704
66 2 0.3841090988988
67 1 -0.75721892545408
68 2 0.373694589748868
69 2 0.354372424120223
70 1 -0.719091642472336
71 2 0.377230277515787
72 2 0.370270680015949
73 1 -0.756948987098373
74 2 0.407323600746772
75 2 0.382044183621908
76 1 -0.744462772888048
77 2 0.410614503059083
78 2 0.368621795445235
79 1 -0.704729986053575
80 2 0.32829600530106
81 2 0.346438442708637
82 1 -0.776711081377729
83 2 0.374361463198577
84 2 0.348975299039085
85 1 -0.721761724893066
86 2 0.378283533866869
87 2 0.38326514877988
88 1 -0.739744268495023
89 2 0.387462450842595
90 2 0.388349509350025
91 1 -0.691769174266746
92 2 0.381323915363991
93 2 0.379762873895452
94 1 -0.732152906075142
95 2 0.355873111436006
96 2 0.365253077128217
97 1 -0.750715889164803
98 2 0.397630374317413
99 2 0.364738292555669
100 1 -0.719171255703688
101 2 0.366424942116275
102 2 0.364924406160223
103 1 -0.754565562131495
104 2 0.353801222986425
105 2 0.380220783738295
106 1 -0.704868195721829
107 2 0.349711494138595
108 2 0.361684708216134
109 1 -0.759773200301386
110 2 0.354789126059483
111 2 0.348658704442316
112 1 -0.736109489740708
113 2 0.349319306046391
114 2 0.358286425121651
115 1 -0.749656809364026
116 2 0.341959833312883
117 2 0.394559167195557
118 1 -0.719729378323234
119 2 0.374585735009925
120 2 0.351545359926936
121 1 -0.720507743727894
122 2 0.368194094164163
123 2 0.335696917460029
124 1 -0.728092688011175
125 2 0.37886278623583
126 2 0.374221389608643
127 1 -0.715781566151143
128 2 0.364939799716329
129 2 0.352591581154931
130 1 -0.709351733729786
131 2 0.372445903660161
132 2 0.337499322458279
133 1 -0.730769099474138
134 2 0.390477960024615
135 2 0.390200042473172
136 1 -0.710554264447943
137 2 0.360109145192768
138 2 0.3774786135075
139 1 -0.771733602547084
140 2 0.34613291980393
141 2 0.328191834916624
142 1 -0.741590988637264
143 2 0.365071177106546
144 2 0.362430025285978
145 1 -0.724566383197906
146 2 0.369599916733153
147 2 0.377086058638405
148 1 -0.635239037022535
149 2 0.398637848701088
150 2 0.402681404945923
151 1 -0.729110769915815
152 2 0.33992892334753
153 2 0.372377757710275
154 1 -0.718450450725852
155 2 0.363109373722188
156 2 0.378149160912484
157 1 -0.718529446980413
158 2 0.362125988967473
159 2 0.386498318321161
160 1 -0.730330171205944
161 2 0.371996432777982
162 2 0.367960123222207
163 1 -0.742781302095447
164 2 0.377926224833285
165 2 0.3730139660305
166 1 -0.777986615717648
167 2 0.359398298216084
168 2 0.397781282224522
169 1 -0.774631648563578
170 2 0.388827896203529
171 2 0.354555730438058
172 1 -0.718749744888464
173 2 0.305622032951638
174 2 0.345968613277527
175 1 -0.712564861311587
176 2 0.395348223563202
177 2 0.384209815909558
178 1 -0.679845942618766
179 2 0.369833853519283
180 2 0.366297140993239
181 1 -0.747306251210852
182 2 0.370364233685034
183 2 0.348288756329894
184 1 -0.726098416493824
185 2 0.3404652055131
186 2 0.37106071026997
187 1 -0.778136209141265
188 2 0.381159534378002
189 2 0.364963834045289
190 1 -0.764403420224357
191 2 0.36426725427191
192 2 0.378636078103696
193 1 -0.712870353549246
194 2 0.341399664158848
195 2 0.38191283881074
196 1 -0.745486965674947
197 2 0.393530372229539
198 2 0.40416461759513
199 1 -0.672593249316261
200 2 0.354983576290456
201 2 0.385051906939238
202 1 -0.692465983011138
203 2 0.364073173274511
204 2 0.360418416322077
205 1 -0.731862704279408
206 2 0.33829627882314
207 2 0.353222873580266
208 1 -0.729346726968244
209 2 0.378902130806776
210 2 0.362266604648435
211 1 -0.692062274480834
212 2 0.375075070377442
213 2 0.353314932096
214 1 -0.738196327552607
215 2 0.364618107151462
216 2 0.374073027941746
217 1 -0.707026651473422
218 2 0.39489864519535
219 2 0.376230554114268
220 1 -0.733832605685588
221 2 0.312241760911536
222 2 0.327787339394835
223 1 -0.704328567474677
224 2 0.350804803007816
225 2 0.359005329242036
226 1 -0.747220334329222
227 2 0.380689548550472
228 2 0.40263537741362
229 1 -0.731421322098621
230 2 0.371054186531481
231 2 0.37991193507359
232 1 -0.71935418097884
233 2 0.342268660868371
234 2 0.378253574640185
235 1 -0.691851278846079
236 2 0.339920720564515
237 2 0.361178310546276
238 1 -0.725265609614412
239 2 0.319188368417152
240 2 0.334851804690783
241 1 -0.735498837491675
242 2 0.369858871523968
243 2 0.369438689572553
244 1 -0.695217450008626
245 2 0.327292691652604
246 2 0.382235490290412
247 1 -0.70764136576403
248 2 0.339782658673388
249 2 0.367912104428688
250 1 -0.739313147869783
251 2 0.379983446907371
252 2 0.38701234956587
253 1 -0.730645821748689
254 2 0.35400987840938
255 2 0.399451751097725
256 1 -0.755288416022338
257 2 0.398624618234698
258 2 0.363027631996663
259 1 -0.73907679561095
260 2 0.352287421583938
261 2 0.331237176059188
262 1 -0.728232941823908
263 2 0.364384140933517
264 2 0.365643844219656
265 1 -0.727925049798867
266 2 0.339989982999298
267 2 0.364719393975122
268 1 -0.763342049754855
269 2 0.388508093872083
270 2 0.40932471043183
271 1 -0.732850640412876
272 2 0.356971652685266
273 2 0.366159401545835
274 1 -0.735678572869504
275 2 0.383899216039364
276 2 0.357928851925149
277 1 -0.747061941207294
278 2 0.404896897360865
279 2 0.39636520527296
280 1 -0.767432283075284
281 2 0.358424370680173
282 2 0.383603296119854
283 1 -0.756727611269571
284 2 0.355712146626667
285 2 0.34573929048821
286 1 -0.761653631583819
287 2 0.350393441170093
288 2 0.369699787883758
289 1 -0.688899368271274
290 2 0.370437785181462
291 2 0.357508731783317
292 1 -0.769308824688622
293 2 0.377409106318263
294 2 0.376771766426779
295 1 -0.75867667296246
296 2 0.383908211596404
297 2 0.380504778983843
298 1 -0.726266219330715
299 2 0.371128970586669
300 2 0.392789514443201
301 1 -0.784324513431085
302 2 0.369221014608957
303 2 0.38608233710805
304 1 -0.748998408225244
305 2 0.374937739908543
306 2 0.391160018594152
307 1 -0.753133625273244
308 2 0.380535174703081
309 2 0.37176979121259
310 1 -0.742975604095968
311 2 0.396810998267365
312 2 0.362968274425916
313 1 -0.728609960305498
314 2 0.357086805520255
315 2 0.391826856531738
316 1 -0.748155232877084
317 2 0.376609497399702
318 2 0.36460561563202
319 1 -0.752891699549939
320 2 0.341475615408301
321 2 0.388396985943893
322 1 -0.715221186651482
323 2 0.371958086834651
324 2 0.378039682319401
325 1 -0.720326079578977
326 2 0.35832402394158
327 2 0.387589860188186
328 1 -0.682850782266871
329 2 0.382460068302064
330 2 0.38112914293066
331 1 -0.734191961342802
332 2 0.348345077744262
333 2 0.325947269594362
334 1 -0.691940450007884
335 2 0.384367341740035
336 2 0.377493924217089
337 1 -0.732770612373322
338 2 0.345535540645283
339 2 0.332128000370979
340 1 -0.755184380788596
341 2 0.337354820115598
342 2 0.368694936827708
343 1 -0.670595304518893
344 2 0.327093594850976
345 2 0.335469734922288
346 1 -0.733919708837899
347 2 0.38831849941328
348 2 0.358489243626408
349 1 -0.724383189745409
350 2 0.399696934599862
351 2 0.354761484800713
352 1 -0.688791045460904
353 2 0.357762307950974
354 2 0.359163267976436
355 1 -0.740874486307544
356 2 0.34386354261922
357 2 0.40003173032895
358 1 -0.747657692601118
359 2 0.333701451926888
360 2 0.365669263579708
361 1 -0.720206080300809
362 2 0.35138816602293
363 2 0.377109618607156
364 1 -0.702915435614114
365 2 0.358476222012294
366 2 0.336628570884697
367 1 -0.727103241678823
368 2 0.373849702064584
369 2 0.377011977529727
370 1 -0.774862984175638
371 2 0.361169808437913
372 2 0.382677488522635
373 1 -0.730214250529102
374 2 0.371006001557882
375 2 0.359855650902963
376 1 -0.717087129857834
377 2 0.372122291609763
378 2 0.359538134129045
379 1 -0.753077062488992
380 2 0.382890892691885
381 2 0.370935764943803
382 1 -0.755274034767724
383 2 0.368158872823674
384 2 0.356513375267544
385 1 -0.712796912805246
386 2 0.360215785353176
387 2 0.33951404253425
388 1 -0.755108745141981
389 2 0.388634314430169
390 2 0.406555515334745
391 1 -0.7190335750977
392 2 0.343696320113919
393 2 0.351974784288742
394 1 -0.747228359238868
395 2 0.371940034787461
396 2 0.412759537023211
397 1 -0.702035215234504
398 2 0.320045744998373
399 2 0.385291064083277
400 1 -0.744150996085391
401 2 0.363966415985926
402 2 0.354346298833801
403 1 -0.745163008728273
404 2 0.38301442255692
405 2 0.400577332788662
406 1 -0.724898273921652
407 2 0.357373472652237
408 2 0.336151491314123
409 1 -0.737798375289451
410 2 0.371040786687366
411 2 0.365269239781451
412 1 -0.722479116147555
413 2 0.381947134559938
414 2 0.350261252912191
415 1 -0.74272997176205
416 2 0.408972585961115
417 2 0.373822397387341
418 1 -0.70399976603187
419 2 0.411553104477033
420 2 0.383689452055034
421 1 -0.67318734331813
422 2 0.395571448144455
423 2 0.324093107902004
424 1 -0.729293406195739
425 2 0.377339425139657
426 2 0.415075199146273
427 1 -0.726588561656349
428 2 0.349909185632074
429 2 0.373690280077943
430 1 -0.65456602897801
431 2 0.36489613121575
432 2 0.35321814365945
433 1 -0.744966729474235
434 2 0.360604230457
435 2 0.379312175462879
436 1 -0.696289261733396
437 2 0.38069784737325
438 2 0.362628027029881
439 1 -0.735826241973631
440 2 0.378568198775354
441 2 0.367148345489777
442 1 -0.751152067372955
443 2 0.34321230792147
444 2 0.33828462067333
445 1 -0.720556746180285
446 2 0.351652264181777
447 2 0.361917228626062
448 1 -0.703178819536801
449 2 0.35261837029136
450 2 0.363198841316638
451 1 -0.774790850702006
452 2 0.375109566036728
453 2 0.384643587480055
454 1 -0.747246233065787
455 2 0.389382965430372
456 2 0.401560783712942
457 1 -0.764994514098606
458 2 0.382122500084888
459 2 0.384167007041444
460 1 -0.733068049291297
461 2 0.377266095840395
462 2 0.34300733481343
463 1 -0.71928450725722
464 2 0.333459197740245
465 2 0.392817575891573
466 1 -0.714224962802485
467 2 0.362030166902725
468 2 0.374478240200275
469 1 -0.758313704068877
470 2 0.34606327696453
471 2 0.384866695203725
472 1 -0.722468694411232
473 2 0.355347474112816
474 2 0.359461573417027
475 1 -0.725248102089211
476 2 0.36931743943681
477 2 0.368389896887593
478 1 -0.771537303011273
479 2 0.351432537748393
480 2 0.370391978075409
481 1 -0.736864822414276
482 2 0.377325640091824
483 2 0.307176433857714
484 1 -0.724780535628939
485 2 0.389172306194793
486 2 0.348519921344198
487 1 -0.75962698572658
488 2 0.335133846543512
489 2 0.382426927019897
490 1 -0.689232265695997
491 2 0.368028480213845
492 2 0.321638213790648
493 1 -0.727533308987982
494 2 0.380748839261209
495 2 0.401807170489437
496 1 -0.757165059948988
497 2 0.374747040050532
498 2 0.305541489288045
499 1 -0.741920414309832
500 2 0.395632051000487
501 2 0.349012929968408
502 1 -0.735718620955771
503 2 0.358526764699929
504 2 0.329154420349516
505 1 -0.698601088416294
506 2 0.373363777304095
507 2 0.340738745776117
508 1 -0.725660960357721
509 2 0.352713187980141
510 2 0.38828935214464
511 1 -0.745123901229627
512 2 0.384124259807096
513 2 0.353313143860944
514 1 -0.750756048097579
515 2 0.370663183805378
516 2 0.363560230649967
517 1 -0.720669332082183
518 2 0.386595253992706
519 2 0.365307430501408
520 1 -0.719090660695722
521 2 0.393247727896775
522 2 0.373667321843267
523 1 -0.720800987021684
524 2 0.379251279625658
525 2 0.357678366749996
526 1 -0.716751434447288
527 2 0.376060858324401
528 2 0.371946010804848
529 1 -0.703752436613502
530 2 0.370729298593411
531 2 0.351225195361686
532 1 -0.705180688363242
533 2 0.391426985567219
534 2 0.356873888196623
535 1 -0.693512205374718
536 2 0.373148334208479
537 2 0.376179927337325
538 1 -0.687387831224308
539 2 0.397211153997907
540 2 0.388430271254766
541 1 -0.724037760342571
542 2 0.354296074931335
543 2 0.341323661163876
544 1 -0.750727176207021
545 2 0.379834093588704
546 2 0.393822783220276
547 1 -0.723121314493556
548 2 0.397425500106864
549 2 0.386181463117517
550 1 -0.742807528360253
551 2 0.315961176433451
552 2 0.311573407104947
553 1 -0.747828102136438
554 2 0.361776177278838
555 2 0.332486614971985
556 1 -0.711204170619769
557 2 0.372781395313069
558 2 0.345241863505982
559 1 -0.768027574047145
560 2 0.413276320756125
561 2 0.379470324712417
562 1 -0.694426989520935
563 2 0.353607824978067
564 2 0.38620539470099
565 1 -0.708895213449073
566 2 0.327544119237299
567 2 0.407146764104208
568 1 -0.717322979840719
569 2 0.387833643882495
570 2 0.377911128163471
571 1 -0.713419963359646
572 2 0.357239586393596
573 2 0.371545211031849
574 1 -0.735650343822943
575 2 0.338638831112004
576 2 0.322141531290894
577 1 -0.711275082686852
578 2 0.397138894699491
579 2 0.395473574306959
580 1 -0.712061203650559
581 2 0.374603609777156
582 2 0.368308487624104
583 1 -0.738129753786079
584 2 0.339975445631565
585 2 0.370965700556064
586 1 -0.687604825740245
587 2 0.321228537550533
588 2 0.363827778407647
589 1 -0.730556756625734
590 2 0.340997237420369
591 2 0.396405801754651
592 1 -0.7455838140092
593 2 0.368216418723803
594 2 0.341306902218284
595 1 -0.756825003108536
596 2 0.40007891356837
597 2 0.368388590908682
598 1 -0.745482484931536
599 2 0.386563095748587
600 2 0.376167425807999
601 1 -0.733618133156221
602 2 0.367050341700046
603 2 0.352431395753224
604 1 -0.732341112754897
605 2 0.360691108269948
606 2 0.363850972638617
607 1 -0.678703983216119
608 2 0.36675240547114
609 2 0.337263328637002
610 1 -0.756701326872009
611 2 0.386332392968202
612 2 0.347383700957769
613 1 -0.729308172577425
614 2 0.374073830211347
615 2 0.385652818287467
616 1 -0.691743004247919
617 2 0.376231498731073
618 2 0.383714893414945
619 1 -0.718977414064413
620 2 0.402459548247064
621 2 0.348058688517314
622 1 -0.757502364291692
623 2 0.358809808811845
624 2 0.353876310363323
625 1 -0.68070065094757
626 2 0.39621966709056
627 2 0.386429121946047
628 1 -0.752003883087505
629 2 0.364301256089025
630 2 0.363089402157459
631 1 -0.734546029508798
632 2 0.363231882559418
633 2 0.375725490477845
634 1 -0.675635443092794
635 2 0.359614394727587
636 2 0.359462783897903
637 1 -0.750293467300142
638 2 0.375758110081304
639 2 0.347758038379464
640 1 -0.747735897258445
641 2 0.359671378469013
642 2 0.395428649632175
643 1 -0.737898926731921
644 2 0.364272958414939
645 2 0.360222102419832
646 1 -0.741440158152839
647 2 0.375674763323765
648 2 0.392871291031347
649 1 -0.734356234317045
650 2 0.382785786294656
651 2 0.392867962517548
652 1 -0.713262691987495
653 2 0.376004914904318
654 2 0.347696844739177
655 1 -0.739231473048281
656 2 0.392556950446471
657 2 0.371293998743503
658 1 -0.692231417890176
659 2 0.404320355972591
660 2 0.371789949422539
661 1 -0.743461644720364
662 2 0.370403032052361
663 2 0.385174455245719
664 1 -0.788415837011387
665 2 0.353058264554997
666 2 0.318109786554484
667 1 -0.732868232928609
668 2 0.390193836993084
669 2 0.352416337634945
670 1 -0.740021971032033
671 2 0.381698813854075
672 2 0.362101814475977
673 1 -0.723630312419133
674 2 0.355796940715916
675 2 0.378744770325698
676 1 -0.765057411833459
677 2 0.363962838997765
678 2 0.330449166389199
679 1 -0.738843317608737
680 2 0.40283740462025
681 2 0.364439199933412
682 1 -0.697466241017469
683 2 0.388511189027766
684 2 0.3909894548299
685 1 -0.761853208835264
686 2 0.374209476718216
687 2 0.38011177158797
688 1 -0.727553340729051
689 2 0.357668060227292
690 2 0.366933527603291
691 1 -0.716340744546343
692 2 0.373620157926871
693 2 0.373559040956708
694 1 -0.717062679989964
695 2 0.371246911060256
696 2 0.360549657861038
697 1 -0.673726711104177
698 2 0.384852696631601
699 2 0.391281393864873
700 1 -0.724284288729329
701 2 0.392224662618936
702 2 0.376514709010041
703 1 -0.736571585811811
704 2 0.343979247703085
705 2 0.384250236498263
706 1 -0.775774924299051
707 2 0.361971965923502
708 2 0.364886463820571
709 1 -0.753218332336373
710 2 0.382044299460653
711 2 0.395736377653049
712 1 -0.764095876533492
713 2 0.381007296830871
714 2 0.364047605324143
715 1 -0.729975680237729
716 2 0.35632088487199
717 2 0.38320726311119
718 1 -0.700074404972264
719 2 0.35973659642345
720 2 0.388834312447332
721 1 -0.750182767247926
722 2 0.385506113536986
723 2 0.343375942098078
724 1 -0.745119963531763
725 2 0.339145949457877
726 2 0.36686066772839
727 1 -0.757988978821481
728 2 0.325605720265279
729 2 0.372042248926237
730 1 -0.754409416629516
731 2 0.367115058471416
732 2 0.366082172999019
733 1 -0.729391618266442
734 2 0.378850861329255
735 2 0.347887421201402
736 1 -0.749941698774238
737 2 0.371551365133222
738 2 0.33881456123308
739 1 -0.753540938143601
740 2 0.378133650183293
741 2 0.374349533529664
742 1 -0.6991107492989
743 2 0.363212765487121
744 2 0.364931481289801
745 1 -0.749572241510815
746 2 0.33452575283905
747 2 0.338762056075009
748 1 -0.730185238554413
749 2 0.342573128032823
750 2 0.3491799081916
751 1 -0.742781759689366
752 2 0.370579249265588
753 2 0.383981493419642
754 1 -0.646827133480335
755 2 0.38339715742423
756 2 0.384100766728587
757 1 -0.736165040985498
758 2 0.383966463266854
759 2 0.396166712094203
760 1 -0.723838681178977
761 2 0.330074490222862
762 2 0.360256843395616
763 1 -0.72747884548819
764 2 0.37022349285202
765 2 0.362085001916496
766 1 -0.781914012297998
767 2 0.418032177414254
768 2 0.358894339286065
769 1 -0.721237079714549
770 2 0.305148386861034
771 2 0.372580740739287
772 1 -0.769984450712154
773 2 0.370125575993403
774 2 0.358711605476214
775 1 -0.718141864897209
776 2 0.336870798559954
777 2 0.365258328514906
778 1 -0.735304783637098
779 2 0.36630727366931
780 2 0.360945436880447
781 1 -0.710531493305584
782 2 0.380689989258055
783 2 0.338297840028884
784 1 -0.723028113595473
785 2 0.377193844959229
786 2 0.360279986685202
787 1 -0.716555276646695
788 2 0.365077763263931
789 2 0.322013911197623
790 1 -0.756395276824728
791 2 0.363783003912398
792 2 0.381621967468065
793 1 -0.714604779245554
794 2 0.349072073996514
795 2 0.385773423441774
796 1 -0.763568931170678
797 2 0.402974601234363
798 2 0.380610429512481
799 1 -0.76050193066385
800 2 0.357101018576612
801 2 0.393561229287257
802 1 -0.722405275260127
803 2 0.360607305705894
804 2 0.336954476637952
805 1 -0.70222202478846
806 2 0.360582810458878
807 2 0.356776652897897
808 1 -0.754272509769043
809 2 0.375792505589092
810 2 0.346224006815406
811 1 -0.695475558607247
812 2 0.365442564357536
813 2 0.373678297686043
814 1 -0.740493097784312
815 2 0.351023378542235
816 2 0.367744853988101
817 1 -0.71145384903175
818 2 0.388263010822834
819 2 0.361282567555373
820 1 -0.725536936171557
821 2 0.35209512278122
822 2 0.3432002427652
823 1 -0.735158994979832
824 2 0.357580050098308
825 2 0.346308066918429
826 1 -0.773272780084987
827 2 0.38533905099636
828 2 0.369593913966175
829 1 -0.734326125797562
830 2 0.359568579164636
831 2 0.329874257351288
832 1 -0.696733557236127
833 2 0.358839565900684
834 2 0.375299330744698
835 1 -0.739948868947642
836 2 0.379442634589655
837 2 0.371003459983755
838 1 -0.746610036553564
839 2 0.380275686720762
840 2 0.384777428991974
841 1 -0.741010392451588
842 2 0.341191632903882
843 2 0.371838804702773
844 1 -0.746469586371023
845 2 0.367598057185614
846 2 0.35444574653183
847 1 -0.746252556106657
848 2 0.353150156026024
849 2 0.325885726267717
850 1 -0.687148506233851
851 2 0.366129264333244
852 2 0.36451910462545
853 1 -0.735204272476861
854 2 0.364956356001492
855 2 0.337518981002777
856 1 -0.728004948305433
857 2 0.38124215393696
858 2 0.344503512493398
859 1 -0.750238633599672
860 2 0.397384459455483
861 2 0.406512125155351
862 1 -0.723128042995822
863 2 0.371018913334741
864 2 0.362214055904251
865 1 -0.750453934523268
866 2 0.379748645024777
867 2 0.313711025184593
868 1 -0.732059815926715
869 2 0.385706478503361
870 2 0.378728834895574
871 1 -0.724916719509223
872 2 0.351367857293899
873 2 0.318690159028046
874 1 -0.767209299100405
875 2 0.346288631972004
876 2 0.375776842810276
877 1 -0.727981855677077
878 2 0.345332911925155
879 2 0.32785091320531
880 1 -0.704552732736531
881 2 0.376111349306596
882 2 0.353863622237426
883 1 -0.775644875656663
884 2 0.337052934381852
885 2 0.363431765154933
886 1 -0.743385034451633
887 2 0.369468455003881
888 2 0.373203927826016
889 1 -0.766855267834895
890 2 0.36811699614791
891 2 0.352747314525127
892 1 -0.751484921092935
893 2 0.379467933601856
894 2 0.343745661635056
895 1 -0.772541096898102
896 2 0.390603309214068
897 2 0.396679906622333
898 1 -0.715458934681707
899 2 0.38127057323533
900 2 0.385513720824753
901 1 -0.719550611923069
902 2 0.373925976921945
903 2 0.380811598320839
904 1 -0.667187225313921
905 2 0.38125591271977
906 2 0.354945586663524
907 1 -0.722509969370345
908 2 0.379610414411552
909 2 0.335007192017803
910 1 -0.742817757286289
911 2 0.322698067697709
912 2 0.378635952143988
913 1 -0.716709486606701
914 2 0.365705063193649
915 2 0.333254323392057
916 1 -0.718493333172082
917 2 0.370087866042258
918 2 0.372417072888427
919 1 -0.753124609707471
920 2 0.371544233388933
921 2 0.395670605805402
922 1 -0.767970759543442
923 2 0.328690798159854
924 2 0.359260190818651
925 1 -0.720441273899454
926 2 0.335857170788461
927 2 0.351103826866059
928 1 -0.748503961734697
929 2 0.357551770846452
930 2 0.359517870339431
931 1 -0.810892602100982
932 2 0.389287757414168
933 2 0.377679496674225
934 1 -0.705506626599344
935 2 0.379261910446856
936 2 0.358024553302446
937 1 -0.73313977912153
938 2 0.371936034010067
939 2 0.378894636927145
940 1 -0.759933312219819
941 2 0.330115790303396
942 2 0.359045553635704
943 1 -0.738860220767939
944 2 0.326456384584099
945 2 0.357566764235002
946 1 -0.706699887579962
947 2 0.392539457488523
948 2 0.397254170395921
949 1 -0.737877679261916
950 2 0.339311060163679
951 2 0.335223899115275
952 1 -0.742116464184745
953 2 0.360270266065993
954 2 0.320022794289534
955 1 -0.788901182909235
956 2 0.385571009648656
957 2 0.402003543135662
958 1 -0.746100438221705
959 2 0.348475293274732
960 2 0.37551104792897
961 1 -0.76642232520256
962 2 0.368574774322676
963 2 0.410226542384587
964 1 -0.744586965821988
965 2 0.376707272242367
966 2 0.40283553176448
967 1 -0.803416614208126
968 2 0.368649241080909
969 2 0.376819470474817
970 1 -0.731467000646484
971 2 0.325674339262379
972 2 0.389584680764742
973 1 -0.787755713905963
974 2 0.365707540923073
975 2 0.376826324068003
976 1 -0.76500683032064
977 2 0.356615175893713
978 2 0.349866689800844
979 1 -0.674823993460547
980 2 0.376220185938054
981 2 0.324309507014775
982 1 -0.738270193924886
983 2 0.380349092740379
984 2 0.3758994873663
985 1 -0.781153575630561
986 2 0.360839389029401
987 2 0.390020178977149
988 1 -0.739805834111619
989 2 0.352219262076602
990 2 0.350682717257822
991 1 -0.76182817109995
992 2 0.376100087298632
993 2 0.398006423791541
994 1 -0.710595677963119
995 2 0.314411629614652
996 2 0.378941650087013
997 1 -0.750194124106312
998 2 0.340415275669614
999 2 0.376733909893697
1000 1 -0.730761563155648
1001 2 0.339099413130936
1002 2 0.368318357635857
1003 1 -0.733741018000445
1004 2 0.369223828101395
1005 2 0.374249252083351
1006 1 -0.747304442193587
1007 2 0.339638244576886
1008 2 0.361996366531392
1009 1 -0.679337663101068
1010 2 0.358481115707576
1011 2 0.319597397625529
1012 1 -0.769158769192044
1013 2 0.365056195853098
1014 2 0.347190081988987
1015 1 -0.726255443629363
1016 2 0.383587693754008
1017 2 0.345255124629979
1018 1 -0.724402915012789
1019 2 0.375340082267852
1020 2 0.331277108586204
1021 1 -0.754567374499357
1022 2 0.380510112722525
1023 2 0.396539451863928
1024 1 -0.747323408524257
1025 2 0.347407801072384
1026 2 0.387813977077855
1027 1 -0.774020543133617
1028 2 0.362830235270773
1029 2 0.3635741020332
1030 1 -0.72090801525794
1031 2 0.352557465717427
1032 2 0.360593578773891
1033 1 -0.742392943012101
1034 2 0.382015958701369
1035 2 0.354301131449433
1036 1 -0.675511889010078
1037 2 0.390838304017731
1038 2 0.379266058873299
1039 1 -0.719160459915984
1040 2 0.368251797677817
1041 2 0.393811958531702
1042 1 -0.755740857225354
1043 2 0.374878320161045
1044 2 0.384436319970598
1045 1 -0.702932563066026
1046 2 0.3309007370173
1047 2 0.368596484070534
1048 1 -0.778508148194542
1049 2 0.376187451370007
1050 2 0.367142597450522
1051 1 -0.751062245652598
1052 2 0.370911106442305
1053 2 0.373552081061984
1054 1 -0.714382694313471
1055 2 0.354345400817438
1056 2 0.379728660938253
1057 1 -0.737182859036433
1058 2 0.371707842807802
1059 2 0.368248573491096
1060 1 -0.778345764246189
1061 2 0.393405877938425
1062 2 0.360375476710451
1063 1 -0.749730060862937
1064 2 0.338800497627244
1065 2 0.361240265383422
1066 1 -0.693083388740715
1067 2 0.375552704782659
1068 2 0.384761764693337
1069 1 -0.77126337307569
1070 2 0.402419786444386
1071 2 0.363701661564281
1072 1 -0.750771802599032
1073 2 0.350085920052803
1074 2 0.336887820508866
1075 1 -0.65499162034445
1076 2 0.359255237919337
1077 2 0.343580445438776
1078 1 -0.711613510046891
1079 2 0.412029994256204
1080 2 0.350583868346503
1081 1 -0.726230143588145
1082 2 0.357255101605414
1083 2 0.344334416105769
1084 1 -0.740444462952617
1085 2 0.337644654452654
1086 2 0.327224664003252
1087 1 -0.771213770937256
1088 2 0.349867624102634
1089 2 0.35301514937461
1090 1 -0.74170687111043
1091 2 0.35348179717487
1092 2 0.356988145994667
1093 1 -0.756103901161573
1094 2 0.386640296458391
1095 2 0.350647094822822
1096 1 -0.727291609168013
1097 2 0.368046241326055
1098 2 0.348381970440966
1099 1 -0.692458640321079
1100 2 0.376280733565106
1101 2 0.38034431472672
1102 1 -0.72485034742721
1103 2 0.372306506271648
1104 2 0.41528417737394
1105 1 -0.675188569650101
1106 2 0.399134779980695
1107 2 0.375101491805895
1108 1 -0.735099896554434
1109 2 0.396034490108355
1110 2 0.322841258265411
1111 1 -0.751952950540342
1112 2 0.381492037318541
1113 2 0.32793920619916
1114 1 -0.703953716820978
1115 2 0.380691053041657
1116 2 0.356468072327656
1117 1 -0.751428269058106
1118 2 0.36271979699233
1119 2 0.388352491488555
1120 1 -0.764370576055866
1121 2 0.366024051620648
1122 2 0.399508272714501
1123 1 -0.740066704339415
1124 2 0.360793655903691
1125 2 0.359504477990307
1126 1 -0.772685248141
1127 2 0.342682734912498
1128 2 0.374021928748756
1129 1 -0.744027192888777
1130 2 0.34906410996984
1131 2 0.373989559549725
1132 1 -0.786843071850543
1133 2 0.405526285624297
1134 2 0.362393171679138
1135 1 -0.71096952525901
1136 2 0.407674518048637
1137 2 0.367701243511722
1138 1 -0.761465707910293
1139 2 0.337035857500649
1140 2 0.347462469783568
1141 1 -0.708654174928691
1142 2 0.384806255113791
1143 2 0.35275749774599
1144 1 -0.728939147364334
1145 2 0.332331633452898
1146 2 0.347926315274038
1147 1 -0.754566718281582
1148 2 0.343540894307812
1149 2 0.403929028322792
1150 1 -0.734485284600803
1151 2 0.361729102356635
1152 2 0.335183733584303
1153 1 -0.709098099915644
1154 2 0.346614552678322
1155 2 0.390482305732406
1156 1 -0.73693538408282
1157 2 0.396935977859095
1158 2 0.369918110918697
1159 1 -0.775724281635123
1160 2 0.357943648766563
1161 2 0.371098222977563
1162 1 -0.77293915788413
1163 2 0.351230334411645
1164 2 0.372035316802184
1165 1 -0.77180108729215
1166 2 0.368187815459928
1167 2 0.379231801572367
1168 1 -0.717266437733671
1169 2 0.353214949856733
1170 2 0.372036962890112
1171 1 -0.688434921374468
1172 2 0.353557050312864
1173 2 0.383685539132182
1174 1 -0.711749634184776
1175 2 0.383634202327371
1176 2 0.399786953293898
1177 1 -0.721337446271192
1178 2 0.38760870078554
1179 2 0.396605183439323
1180 1 -0.706733397350798
1181 2 0.386693769262543
1182 2 0.363205791271631
1183 1 -0.737217480361824
1184 2 0.370141087667913
1185 2 0.372308587456971
1186 1 -0.717623751457477
1187 2 0.354752935793068
1188 2 0.359125056444466
1189 1 -0.715445709828315
1190 2 0.366488742178444
1191 2 0.34840560176247
1192 1 -0.751472825861632
1193 2 0.380521401920714
1194 2 0.349953383437825
1195 1 -0.706344481931172
1196 2 0.35072730572232
1197 2 0.407727471989799
1198 1 -0.737858624156053
1199 2 0.361527603555965
1200 2 0.388723124570316
1201 1 -0.73438697335639
1202 2 0.387673561768196
1203 2 0.373155237000257
1204 1 -0.738316520036133
1205 2 0.383779859390975
1206 2 0.408413266255978
1207 1 -0.726856408022897
1208 2 0.363885307391631
1209 2 0.364412687849889
1210 1 -0.73635476204255
1211 2 0.40778938657598
1212 2 0.383359447073474
1213 1 -0.742327438682337
1214 2 0.356054647568587
1215 2 0.363006598927007
1216 1 -0.726048853327012
1217 2 0.379132838285181
1218 2 0.382957704897275
1219 1 -0.746361934405694
1220 2 0.340872727912538
1221 2 0.371422598921307
1222 1 -0.757524140609725
1223 2 0.37553245279209
1224 2 0.370021255036216
1225 1 -0.735211407111307
1226 2 0.378736709145659
1227 2 0.386948575454312
1228 1 -0.724546963542528
1229 2 0.365596198672743
1230 2 0.348972992728938
1231 1 -0.735121144301426
1232 2 0.344137302799669
1233 2 0.382008831627681
1234 1 -0.701813842096242
1235 2 0.360003044042441
1236 2 0.41591417728266
1237 1 -0.731172694843694
1238 2 0.344812694876352
1239 2 0.348118161706527
1240 1 -0.75180801409554
1241 2 0.383169604963183
1242 2 0.348191401296994
1243 1 -0.731748736615007
1244 2 0.374788097990073
1245 2 0.39155055791863
1246 1 -0.751237438024496
1247 2 0.384786266211777
1248 2 0.371272010538289
1249 1 -0.771768001346276
1250 2 0.399285491112608
1251 2 0.363904244200644
1252 1 -0.69337981120979
1253 2 0.357171336596487
1254 2 0.371164352457162
1255 1 -0.753474320365251
1256 2 0.3805146434325
1257 2 0.35932982465391
1258 1 -0.752804298325609
1259 2 0.360661014782318
1260 2 0.379481753295302
1261 1 -0.780271863976378
1262 2 0.392801175331286
1263 2 0.36177176476029
1264 1 -0.725007533792601
1265 2 0.388613259886752
1266 2 0.334906377637731
1267 1 -0.725331370742607
1268 2 0.376398853865278
1269 2 0.381700339016349
1270 1 -0.761672505842595
1271 2 0.322840733528933
1272 2 0.316515210180504
1273 1 -0.751029113929482
1274 2 0.337288214222873
1275 2 0.368377798317927
1276 1 -0.754691175680043
1277 2 0.363403087074533
1278 2 0.336814237594582
1279 1 -0.720476765317958
1280 2 0.353761908074639
1281 2 0.354337167124868
1282 1 -0.726334110307263
1283 2 0.389899137659611
1284 2 0.372966257909508
1285 1 -0.720507106966145
1286 2 0.346283667916104
1287 2 0.393281059315663
1288 1 -0.710110803542225
1289 2 0.365330059668088
1290 2 0.380984430452677
1291 1 -0.717341196409264
1292 2 0.380690090073367
1293 2 0.358748279687352
1294 1 -0.758718724726607
1295 2 0.380088672322516
1296 2 0.366073875037766
1297 1 -0.78038869819089
1298 2 0.334414947327608
1299 2 0.356620774962453
1300 1 -0.748224292677703
1301 2 0.409087672292684
1302 2 0.357387908418715
1303 1 -0.787275635108891
1304 2 0.361069967871498
1305 2 0.394806085942858
1306 1 -0.732744807469896
1307 2 0.345033856604195
1308 2 0.34652540400134
1309 1 -0.77411143388746
1310 2 0.369124100971715
1311 2 0.359184486099822
1312 1 -0.730311654140738
1313 2 0.350123047431006
1314 2 0.399115301366692
1315 1 -0.706735455471273
1316 2 0.350911960469795
1317 2 0.364270716767246
1318 1 -0.738292128156585
1319 2 0.363775652459759
1320 2 0.339847341391932
1321 1 -0.658643209182666
1322 2 0.330335513511485
1323 2 0.322314473178983
1324 1 -0.745753579698849
1325 2 0.354965583351395
1326 2 0.384580859877268
1327 1 -0.792257391617413
1328 2 0.38258005936647
1329 2 0.336824717742524
1330 1 -0.784961795893321
1331 2 0.355004280029299
1332 2 0.375576795320664
1333 1 -0.752365946917503
1334 2 0.278212144220926
1335 2 0.364062446908142
1336 1 -0.748097184744987
1337 2 0.393983125851396
1338 2 0.355234081699959
1339 1 -0.71505873564854
1340 2 0.386260931552655
1341 2 0.360311587928492
1342 1 -0.68308828908335
1343 2 0.373233562759937
1344 2 0.344317676801423
1345 1 -0.740777284092244
1346 2 0.374264114311627
1347 2 0.357680363879423
1348 1 -0.706358764674027
1349 2 0.361144449174814
1350 2 0.325007627508508
1351 1 -0.718445818725499
1352 2 0.360988575099566
1353 2 0.36261588724315
1354 1 -0.747447194986086
1355 2 0.342311400930514
1356 2 0.342919416944561
1357 1 -0.724751433828716
1358 2 0.353212365207732
1359 2 0.356829450723565
1360 1 -0.674800167009384
1361 2 0.376045344155318
1362 2 0.358246457310481
1363 1 -0.728131302189135
1364 2 0.364851450160916
1365 2 0.397138566804584
1366 1 -0.74613384131629
1367 2 0.368410888756983
1368 2 0.352968877770722
1369 1 -0.742561797798474
1370 2 0.349838356735295
1371 2 0.379228218701929
1372 1 -0.722716243501662
1373 2 0.374548697622894
1374 2 0.384368532106715
1375 1 -0.749271169202036
1376 2 0.369775297124119
1377 2 0.361451794314554
1378 1 -0.724077101263077
1379 2 0.37240921431546
1380 2 0.354194773431056
1381 1 -0.702171684002773
1382 2 0.379904938830337
1383 2 0.348754773919293
1384 1 -0.719758218897355
1385 2 0.332690617740902
1386 2 0.384756749498483
1387 1 -0.725542622081595
1388 2 0.369252314403837
1389 2 0.368408568737102
1390 1 -0.740760312310214
1391 2 0.372903921281897
1392 2 0.371025831720268
1393 1 -0.716673087202561
1394 2 0.375616172584467
1395 2 0.387509954285912
1396 1 -0.681612094417593
1397 2 0.372878368251599
1398 2 0.361703872690832
1399 1 -0.73768297174824
1400 2 0.399082981862735
1401 2 0.386268806227953
1402 1 -0.690907000943295
1403 2 0.401330077395906
1404 2 0.367016852783208
1405 1 -0.717122517221735
1406 2 0.358894234126731
1407 2 0.335845931870124
1408 1 -0.781535126962251
1409 2 0.359543924602852
1410 2 0.366478945935986
1411 1 -0.707262125591504
1412 2 0.374296491808189
1413 2 0.340360931976759
1414 1 -0.733604172309297
1415 2 0.355019317464369
1416 2 0.375333548995123
1417 1 -0.70444771044467
1418 2 0.333325566218187
1419 2 0.355016380222387
1420 1 -0.768399049515012
1421 2 0.39576817870904
1422 2 0.371386490182021
1423 1 -0.763884482985997
1424 2 0.393311012080806
1425 2 0.377234048783312
1426 1 -0.732520722090701
1427 2 0.368573124993341
1428 2 0.38811322647479
1429 1 -0.737554775206394
1430 2 0.369628335801168
1431 2 0.390065162147557
1432 1 -0.668474354683097
1433 2 0.383228033239181
1434 2 0.398515175641253
1435 1 -0.721903791687544
1436 2 0.381248871547162
1437 2 0.349913180375652
1438 1 -0.764002899312662
1439 2 0.338140236305489
1440 2 0.336663046267048
1441 1 -0.732631455537607
1442 2 0.366799981659774
1443 2 0.383741322870661
1444 1 -0.6798399005356
1445 2 0.385481593355061
1446 2 0.356850632619838
1447 1 -0.780842460515971
1448 2 0.395984099249227
1449 2 0.340683998097695
1450 1 -0.745527243652692
1451 2 0.375057783440452
1452 2 0.371391270497969
1453 1 -0.751452173751696
1454 2 0.352061196916775
1455 2 0.376939621188172
1456 1 -0.691239180428763
1457 2 0.336084969986302
1458 2 0.335469256653638
1459 1 -0.760916030149829
1460 2 0.410843049214724
1461 2 0.379879021283242
1462 1 -0.752738063029892
1463 2 0.370012406959627
1464 2 0.365879056853923
1465 1 -0.706975426543796
1466 2 0.39246345795667
1467 2 0.359544558801252
1468 1 -0.720684006664945
1469 2 0.391574576937863
1470 2 0.393964269610293
1471 1 -0.705602424146183
1472 2 0.357973574306307
1473 2 0.363581415384062
1474 1 -0.733856413529421
1475 2 0.373173232176615
1476 2 0.341205003258208
1477 1 -0.715773504452166
1478 2 0.417619344288189
1479 2 0.332779867945006
1480 1 -0.743218499234
1481 2 0.362737944576215
1482 2 0.325375532447422
1483 1 -0.763201166610592
1484 2 0.403833270373181
1485 2 0.379927983426712
1486 1 -0.745697270945922
1487 2 0.349578647022949
1488 2 0.356926579753506
1489 1 -0.739090273745993
1490 2 0.318271713173719
1491 2 0.349646095518881
1492 1 -0.733166725197808
1493 2 0.319215394074589
1494 2 0.360730294730406
1495 1 -0.746981714787305
1496 2 0.360636488472681
1497 2 0.386928331391466
1498 1 -0.727450639511915
1499 2 0.384995578397001
1500 2 0.357409549106655
1501 1 -0.692874805367613
1502 2 0.327512430695157
1503 2 0.373314909051204
1504 1 -0.738140001433637
1505 2 0.335514291048254
1506 2 0.37428661289798
1507 1 -0.754374220346459
1508 2 0.395992173283921
1509 2 0.387709573227814
1510 1 -0.750877465191882
1511 2 0.396742431508006
1512 2 0.377891754480335
1513 1 -0.724303328146558
1514 2 0.339337260920268
1515 2 0.34854482983756
1516 1 -0.670679378294139
1517 2 0.350277984909004
1518 2 0.372976263001252
1519 1 -0.744229980031183
1520 2 0.350817678653501
1521 2 0.388550525524706
1522 1 -0.758919715267442
1523 2 0.356171166967199
1524 2 0.372920519338288
1525 1 -0.759924033303116
1526 2 0.393765044311899
1527 2 0.40100579123661
1528 1 -0.751495977365578
1529 2 0.389463676937551
1530 2 0.375750403291128
1531 1 -0.703745534007339
1532 2 0.416767172808532
1533 2 0.392957506093206
1534 1 -0.720795194762693
1535 2 0.348160033190828
1536 2 0.29020526404528
1537 1 -0.737777392181404
1538 2 0.327446389517266
1539 2 0.381536922043566
1540 1 -0.696173487131421
1541 2 0.366344475373566
1542 2 0.35572350314203
1543 1 -0.760391067597651
1544 2 0.372611745941041
1545 2 0.335479967672772
1546 1 -0.736976223801264
1547 2 0.391664706784569
1548 2 0.401236721043829
1549 1 -0.743932535884338
1550 2 0.359453216216393
1551 2 0.410609896311019
1552 1 -0.759132523627161
1553 2 0.337597280538241
1554 2 0.350621863654376
1555 1 -0.734179398495287
1556 2 0.346080429985743
1557 2 0.388363997155789
1558 1 -0.709827820836388
1559 2 0.350399549061874
1560 2 0.370608391838466
1561 1 -0.724420673802506
1562 2 0.401135282900526
1563 2 0.417639649046738
1564 1 -0.687780486006048
1565 2 0.361227789237802
1566 2 0.377861587734121
1567 1 -0.743185107262008
1568 2 0.368339629583412
1569 2 0.362878865329321
1570 1 -0.758938553170938
1571 2 0.383883203315891
1572 2 0.403403367930053
1573 1 -0.725232804492976
1574 2 0.358632040091414
1575 2 0.360524611037417
1576 1 -0.66410178132622
1577 2 0.395415635280796
1578 2 0.380192002475252
1579 1 -0.730791144454677
1580 2 0.366602295017744
1581 2 0.340450560858475
1582 1 -0.69633366510292
1583 2 0.383307584676987
1584 2 0.373381057712762
1585 1 -0.756091997392023
1586 2 0.379139845757805
1587 2 0.387170009044319
1588 1 -0.70224714824923
1589 2 0.355855300347961
1590 2 0.392993321284808
1591 1 -0.728821675152138
1592 2 0.371391473102771
1593 2 0.362947469582659
1594 1 -0.754170697701191
1595 2 0.362445559698632
1596 2 0.389077751599402
1597 1 -0.688792419316666
1598 2 0.35615958734763
1599 2 0.34109121900434
1600 1 -0.778413037993731
1601 2 0.323581813374097
1602 2 0.357482229389574
1603 1 -0.723523030717068
1604 2 0.357842377104246
1605 2 0.351117532753703
1606 1 -0.782744404980542
1607 2 0.349502923173453
1608 2 0.384157719775213
1609 1 -0.732094705431228
1610 2 0.376311255257663
1611 2 0.358633175027712
1612 1 -0.738149670717187
1613 2 0.362116006256452
1614 2 0.366630180513226
1615 1 -0.701952468151402
1616 2 0.36508008332253
1617 2 0.372992438842331
1618 1 -0.721509550605385
1619 2 0.308654991142588
1620 2 0.336039746813585
1621 1 -0.76435427182554
1622 2 0.379586450012823
1623 2 0.335537359741306
1624 1 -0.739564182063646
1625 2 0.347740067964182
1626 2 0.322291179916393
1627 1 -0.722729820479141
1628 2 0.356834142799589
1629 2 0.40207413608373
1630 1 -0.725470222829943
1631 2 0.368616825481705
1632 2 0.381671203017084
1633 1 -0.729670884476797
1634 2 0.369221778664501
1635 2 0.364603577724105
1636 1 -0.734785168947709
1637 2 0.368064065091773
1638 2 0.380621807189221
1639 1 -0.723733305708396
1640 2 0.354136750601654
1641 2 0.34073561359156
1642 1 -0.771049081755369
1643 2 0.345777557025588
1644 2 0.354301742409946
1645 1 -0.729755229555849
1646 2 0.352479576921017
1647 2 0.360758723879726
1648 1 -0.687312870318643
1649 2 0.369937968536016
1650 2 0.350353042471147
1651 1 -0.78285085575091
1652 2 0.357947572384528
1653 2 0.358831728262634
1654 1 -0.727779688352671
1655 2 0.370932007716597
1656 2 0.38027153005621
1657 1 -0.753908981913329
1658 2 0.375980205701497
1659 2 0.38143989895303
1660 1 -0.754428019119541
1661 2 0.358064241823606
1662 2 0.356186011250983
1663 1 -0.718348985489039
1664 2 0.362387083224711
1665 2 0.347986672560543
1666 1 -0.748044430069332
1667 2 0.343168548343707
1668 2 0.382048125802787
1669 1 -0.779738184065957
1670 2 0.355377338556544
1671 2 0.379064333861638
1672 1 -0.732530441204055
1673 2 0.364152027685579
1674 2 0.376078573083172
1675 1 -0.754952007534943
1676 2 0.346716989895202
1677 2 0.379290362523428
1678 1 -0.745423447935476
1679 2 0.394156130951163
1680 2 0.377974597944581
1681 1 -0.711950989581656
1682 2 0.359128406481597
1683 2 0.336095288922044
1684 1 -0.728145087488751
1685 2 0.367949861518276
1686 2 0.352405446096971
1687 1 -0.717194485984351
1688 2 0.38521026275558
1689 2 0.353664278731966
1690 1 -0.732613914381009
1691 2 0.398633386501305
1692 2 0.365223659043346
1693 1 -0.720288456580498
1694 2 0.375208531542503
1695 2 0.357698120679644
1696 1 -0.699063084316279
1697 2 0.356659833581644
1698 2 0.378356935449804
1699 1 -0.729313338222483
1700 2 0.341746515602492
1701 2 0.371592065998942
1702 1 -0.734451738479121
1703 2 0.352138928335167
1704 2 0.346841491760324
1705 1 -0.746197413193975
1706 2 0.352839262714057
1707 2 0.344782571708288
1708 1 -0.728049171514976
1709 2 0.377595091906666
1710 2 0.331643213519753
1711 1 -0.688191383623417
1712 2 0.374295157456008
1713 2 0.363174034265215
1714 1 -0.708022792495657
1715 2 0.365922626820867
1716 2 0.348986899852623
1717 1 -0.710243676956036
1718 2 0.359884410057606
1719 2 0.413395406565027
1720 1 -0.679790408421807
1721 2 0.365559921773068
1722 2 0.314088463783987
1723 1 -0.70291342560002
1724 2 0.341342944780952
1725 2 0.359992032433861
1726 1 -0.726472884589467
1727 2 0.367645341891953
1728 2 0.355579480769648
1729 1 -0.662448201613395
1730 2 0.39122307877935
1731 2 0.353888414967109
1732 1 -0.745330757033876
1733 2 0.368957187792099
1734 2 0.394574261007736
1735 1 -0.751134002050353
1736 2 0.378694891251793
1737 2 0.325723717749188
1738 1 -0.789151359347397
1739 2 0.388017945925372
1740 2 0.381913897219791
1741 1 -0.732056012764641
1742 2 0.377338065780866
1743 2 0.377650627306335
1744 1 -0.734486061864907
1745 2 0.371838110930112
1746 2 0.409227531277124
1747 1 -0.769771937166778
1748 2 0.399324397279095
1749 2 0.380695648861898
1750 1 -0.765219617793074
1751 2 0.365204349367712
1752 2 0.382167425593648
1753 1 -0.750223927652944
1754 2 0.383919090647428
1755 2 0.388719089122248
1756 1 -0.759200259799107
1757 2 0.336497581172278
1758 2 0.363384646683143
1759 1 -0.702072227707194
1760 2 0.335848203304159
1761 2 0.330336769326691
1762 1 -0.74836514007655
1763 2 0.354926301547451
1764 2 0.357882620787849
1765 1 -0.768381872958833
1766 2 0.410122681616504
1767 2 0.361002556643299
1768 1 -0.748211048120376
1769 2 0.364207779368398
1770 2 0.351703872087825
1771 1 -0.699453945377148
1772 2 0.365757165925418
1773 2 0.375748743348236
1774 1 -0.738088351502555
1775 2 0.379306975519445
1776 2 0.365986998734124
1777 1 -0.740666880581441
1778 2 0.340142692277754
1779 2 0.339851669428784
1780 1 -0.667277979115182
1781 2 0.372995286846808
1782 2 0.349659915150774
1783 1 -0.673357153453036
1784 2 0.361214499480808
1785 2 0.382814305296625
1786 1 -0.726947738587406
1787 2 0.36506585047676
1788 2 0.373003332695471
1789 1 -0.707888303497376
1790 2 0.399593935427619
1791 2 0.408413237416239
1792 1 -0.737382143854558
1793 2 0.415726426648449
1794 2 0.386592314060388
1795 1 -0.768707019443854
1796 2 0.356523685758596
1797 2 0.390859711330485
1798 1 -0.741432527691791
1799 2 0.401807618544103
1800 2 0.412634060902561
1801 1 -0.743950156570962
1802 2 0.3470616474699
1803 2 0.352264762381438
1804 1 -0.73711057545589
1805 2 0.373109837156072
1806 2 0.340740681093126
1807 1 -0.717084205524105
1808 2 0.35707967047131
1809 2 0.370015684139729
1810 1 -0.688993161638022
1811 2 0.356091679577062
1812 2 0.345871003015669
1813 1 -0.694422661577317
1814 2 0.340982637429031
1815 2 0.365566896252696
1816 1 -0.740395739928234
1817 2 0.338633515533728
1818 2 0.362310509067607
1819 1 -0.723845347456637
1820 2 0.348354065558787
1821 2 0.353181434095698
1822 1 -0.738696188853785
1823 2 0.352597759064422
1824 2 0.400997763091009
1825 1 -0.694021685813603
1826 2 0.351313275204986
1827 2 0.367399190729139
1828 1 -0.748482172145915
1829 2 0.35994293425555
1830 2 0.345623704313647
1831 1 -0.721634561835299
1832 2 0.358410283496853
1833 2 0.352218870031643
1834 1 -0.721619055067504
1835 2 0.372079233442086
1836 2 0.391875490772045
1837 1 -0.713647465073302
1838 2 0.364266017473722
1839 2 0.360791755702878
1840 1 -0.69152496197408
1841 2 0.397908754385924
1842 2 0.367254899716613
1843 1 -0.73135120906656
1844 2 0.375957590535188
1845 2 0.400372067742404
1846 1 -0.762894894137996
1847 2 0.355499730077741
1848 2 0.402062499924402
1849 1 -0.758265583392609
1850 2 0.343686267916171
1851 2 0.375578145846499
1852 1 -0.760916979233192
1853 2 0.385579734736271
1854 2 0.360466330776033
1855 1 -0.744129511211279
1856 2 0.378008625905619
1857 2 0.347764178574272
1858 1 -0.713556949715278
1859 2 0.376622850814076
1860 2 0.362595267936431
1861 1 -0.729489994417308
1862 2 0.376256771881028
1863 2 0.368547104313739
1864 1 -0.756190718449207
1865 2 0.378466038109083
1866 2 0.368885872671074
1867 1 -0.727036045561642
1868 2 0.382601374854345
1869 2 0.406826745296871
1870 1 -0.748071911089108
1871 2 0.377429014168015
1872 2 0.361432883355188
1873 1 -0.776450639596815
1874 2 0.344536160874789
1875 2 0.307632614209412
1876 1 -0.711224674452304
1877 2 0.321120437882687
1878 2 0.376362996862032
1879 1 -0.725812118194863
1880 2 0.363305638523665
1881 2 0.373091408753451
1882 1 -0.729623405198493
1883 2 0.352948987710115
1884 2 0.358732053036195
1885 1 -0.759051634218638
1886 2 0.391343714978104
1887 2 0.344011032493733
1888 1 -0.75231045054177
1889 2 0.371543868348087
1890 2 0.378264694810316
1891 1 -0.715113137126304
1892 2 0.335590723308467
1893 2 0.370369285833757
1894 1 -0.730850548001134
1895 2 0.336338087337124
1896 2 0.338666993086107
1897 1 -0.7428370340217
1898 2 0.356048171149089
1899 2 0.350068141211508
1900 1 -0.750171131498254
1901 2 0.353179138208178
1902 2 0.377424137729183
1903 1 -0.697926941567266
1904 2 0.36724923913667
1905 2 0.36418768540243
1906 1 -0.767909405946788
1907 2 0.33404048149086
1908 2 0.343897556817686
1909 1 -0.728529738051741
1910 2 0.373255938227733
1911 2 0.363332584793034
1912 1 -0.741044894586858
1913 2 0.39777220293265
1914 2 0.388477438161062
1915 1 -0.769268700358253
1916 2 0.336139913935551
1917 2 0.328317157805822
1918 1 -0.741554761825214
1919 2 0.385353600667448
1920 2 0.35570798553804
1921 1 -0.707955154177374
1922 2 0.343626240090032
1923 2 0.338981930880911
1924 1 -0.724043141521456
1925 2 0.340959863935073
1926 2 0.317171677029721
1927 1 -0.71226105242171
1928 2 0.367443739845861
1929 2 0.373043622298805
1930 1 -0.714671653067237
1931 2 0.373407835936799
1932 2 0.344211168205199
1933 1 -0.754892550953315
1934 2 0.351676567723883
1935 2 0.365468465892354
1936 1 -0.708566998082663
1937 2 0.391630853179858
1938 2 0.362798126446562
1939 1 -0.721357722700856
1940 2 0.351607621868999
1941 2 0.38549117178766
1942 1 -0.68838225708157
1943 2 0.328048603582907
1944 2 0.370093461503142
1945 1 -0.764029510360824
1946 2 0.343193697295801
1947 2 0.357038626232884
1948 1 -0.749533890662021
1949 2 0.359274275114131
1950 2 0.382114998285517
1951 1 -0.793281401217742
1952 2 0.379237514771764
1953 2 0.406460391253202
1954 1 -0.746442130020934
1955 2 0.323457550042903
1956 2 0.343398213823938
1957 1 -0.74849232033417
1958 2 0.347507544938143
1959 2 0.356767930952658
1960 1 -0.745777629312802
1961 2 0.367206928119971
1962 2 0.3367660514454
1963 1 -0.72978182813956
1964 2 0.401878864852671
1965 2 0.36027165841919
1966 1 -0.705980482102983
1967 2 0.35178695506336
1968 2 0.350028611110207
1969 1 -0.718609408554035
1970 2 0.366314361822241
1971 2 0.343783393520421
1972 1 -0.700471892002118
1973 2 0.391844460109374
1974 2 0.391243532760665
1975 1 -0.774789009096214
1976 2 0.350691395864678
1977 2 0.362272395015934
1978 1 -0.76845052319112
1979 2 0.358524321954516
1980 2 0.353053066035313
1981 1 -0.696094164775633
1982 2 0.354233928823948
1983 2 0.339947097066735
1984 1 -0.697836921796026
1985 2 0.337364901547656
1986 2 0.354872914993307
1987 1 -0.710823037519907
1988 2 0.363409259678681
1989 2 0.344540754614281
1990 1 -0.758003048262014
1991 2 0.38459640390154
1992 2 0.360516879103363
1993 1 -0.785447389138895
1994 2 0.380394099625434
1995 2 0.366111353496105
1996 1 -0.726407625735159
1997 2 0.366635994676297
1998 2 0.380927879315368
1999 1 -0.7364284699757
2000 2 0.312749303658052
2001 2 0.367835107279718
2002 1 -0.703785216028609
2003 2 0.387810222475412
2004 2 0.378516998458774
2005 1 -0.736704392907147
2006 2 0.382604213468692
2007 2 0.364134925533785
2008 1 -0.713192425543777
2009 2 0.355371191679214
2010 2 0.353341747057481
2011 1 -0.747100293894693
2012 2 0.395847309675768
2013 2 0.394232256429542
2014 1 -0.712140940039885
2015 2 0.363637101161398
2016 2 0.374789704433014
2017 1 -0.734923746020827
2018 2 0.366800175872562
2019 2 0.415617765923098
2020 1 -0.777208646057274
2021 2 0.353825008487624
2022 2 0.374741947291289
2023 1 -0.736054536844014
2024 2 0.323281717140939
2025 2 0.354941562672248
2026 1 -0.760008871878174
2027 2 0.369973407116834
2028 2 0.372887260374593
2029 1 -0.782839222681241
2030 2 0.380776743071681
2031 2 0.393045576162358
2032 1 -0.716704968120278
2033 2 0.372319371856064
2034 2 0.360583655330416
2035 1 -0.748507737266999
2036 2 0.353691898688346
2037 2 0.383620874399572
2038 1 -0.724780985817023
2039 2 0.386019996264125
2040 2 0.348418633117881
2041 1 -0.711677154462898
2042 2 0.381328397840823
2043 2 0.388050082444743
2044 1 -0.765418140251158
2045 2 0.368433377910147
2046 2 0.375042139899363
2047 1 -0.707766396871795
2048 2 0.33591704685971
2049 2 0.350882217562559
2050 1 -0.73036014255102
2051 2 0.353223312795358
2052 2 0.364157322530426
2053 1 -0.737669303641882
2054 2 0.379909156512006
2055 2 0.390624369216009
2056 1 -0.721993186040364
2057 2 0.365065828742478
2058 2 0.340096566903904
2059 1 -0.736381973949347
2060 2 0.381632785301688
2061 2 0.325382130903821
2062 1 -0.752336229732746
2063 2 0.382094176740942
2064 2 0.349820749137209
2065 1 -0.682151685844753
2066 2 0.387430436434792
2067 2 0.370862844951167
2068 1 -0.72808049091284
2069 2 0.385209237916591
2070 2 0.388821155072807
2071 1 -0.746914134532864
2072 2 0.388915678267256
2073 2 0.395238184792144
2074 1 -0.774146060637621
2075 2 0.402849317154794
2076 2 0.379155577133475
2077 1 -0.691126675276543
2078 2 0.368965737779777
2079 2 0.395831802658786
2080 1 -0.714976150805697
2081 2 0.371624287794535
2082 2 0.367315243355162
2083 1 -0.702620746951458
2084 2 0.36571968360066
2085 2 0.381227365667452
2086 1 -0.705596208328705
2087 2 0.381329894663716
2088 2 0.379721401655395
2089 1 -0.704968653078567
2090 2 0.314165664016689
2091 2 0.350926245808863
2092 1 -0.754666798777132
2093 2 0.352804595747259
2094 2 0.363541591106713
2095 1 -0.708318475447055
2096 2 0.352816306742697
2097 2 0.326166039069346
2098 1 -0.716242311044584
2099 2 0.35589939063223
2100 2 0.363228534863764
2101 1 -0.743551305094304
2102 2 0.374104026466687
2103 2 0.371754921645919
2104 1 -0.721660384565876
2105 2 0.349572419709689
2106 2 0.388910926652769
2107 1 -0.768033749984302
2108 2 0.391557091006962
2109 2 0.368419959136046
2110 1 -0.727123585518914
2111 2 0.350656406413979
2112 2 0.357496227022621
2113 1 -0.745321859315674
2114 2 0.362947830736179
2115 2 0.362396525121295
2116 1 -0.774677250748133
2117 2 0.341660017261316
2118 2 0.37032698699853
2119 1 -0.748995483129152
2120 2 0.359754564686099
2121 2 0.38585567186712
2122 1 -0.76643934586903
2123 2 0.33328438801218
2124 2 0.381771571586366
2125 1 -0.725640788056921
2126 2 0.353109558136896
2127 2 0.383113560469934
2128 1 -0.748876853556766
2129 2 0.346558530066829
2130 2 0.327494389938245
2131 1 -0.779453190107239
2132 2 0.400492564269286
2133 2 0.385709166322321
2134 1 -0.727383067730399
2135 2 0.377078011717348
2136 2 0.373532653047964
2137 1 -0.707045453212184
2138 2 0.36574566107187
2139 2 0.379282749808726
2140 1 -0.759109896414124
2141 2 0.347417443988855
2142 2 0.382897823779154
2143 1 -0.75804503603652
2144 2 0.335523723193456
2145 2 0.353409832531231
2146 1 -0.721040727461811
2147 2 0.370382914741533
2148 2 0.376510060010655
2149 1 -0.741486447872333
2150 2 0.363557308771885
2151 2 0.358928984790939
2152 1 -0.728403289615842
2153 2 0.348148977635899
2154 2 0.364201829520214
2155 1 -0.7278521372601
2156 2 0.352888339619194
2157 2 0.347337696998556
2158 1 -0.76119668296506
2159 2 0.338236093752554
2160 2 0.358741713326024
2161 1 -0.727420897468813
2162 2 0.349706941306386
2163 2 0.364723576165026
2164 1 -0.753522115387947
2165 2 0.361874790217689
2166 2 0.363354292255729
2167 1 -0.741747744964785
2168 2 0.375071599484333
2169 2 0.372834686546898
2170 1 -0.763496624659587
2171 2 0.343267792932468
2172 2 0.325633301003781
2173 1 -0.73404623144641
2174 2 0.383630879028891
2175 2 0.369570390694439
2176 1 -0.756141459477124
2177 2 0.375774310853817
2178 2 0.356759537916299
2179 1 -0.735769342915388
2180 2 0.3704968813682
2181 2 0.36130654672943
2182 1 -0.755432154283766
2183 2 0.361234964856907
2184 2 0.381077916884159
2185 1 -0.720266202622839
2186 2 0.380860461363436
2187 2 0.391994016232018
2188 1 -0.745941611295913
2189 2 0.371843705365805
2190 2 0.360151048544941
2191 1 -0.730832714874917
2192 2 0.366589869753375
2193 2 0.37234193793475
2194 1 -0.770052960784172
2195 2 0.371916756400856
2196 2 0.382585308093887
2197 1 -0.732701986315334
2198 2 0.38695646106362
2199 2 0.333011007347788
2200 1 -0.708061321894704
2201 2 0.371148583129972
2202 2 0.35398286701267
2203 1 -0.752582377283993
2204 2 0.33502445110479
2205 2 0.358165647407906
2206 1 -0.743193162327418
2207 2 0.357872855359919
2208 2 0.397220475880904
2209 1 -0.74059070757158
2210 2 0.390546916350925
2211 2 0.394275520991005
2212 1 -0.684841922658426
2213 2 0.399058525870064
2214 2 0.384364104293431
2215 1 -0.757595249464351
2216 2 0.34190490337131
2217 2 0.370076266384211
2218 1 -0.775056354025467
2219 2 0.355050484160088
2220 2 0.327931411411598
2221 1 -0.759965853591383
2222 2 0.376679811528932
2223 2 0.372472252867311
2224 1 -0.762873010575282
2225 2 0.377510781109756
2226 2 0.34778055055686
2227 1 -0.729293946946687
2228 2 0.348046454138692
2229 2 0.322586759922235
2230 1 -0.752639140146681
2231 2 0.393178218930674
2232 2 0.348152652493688
2233 1 -0.768618440055922
2234 2 0.362004090302658
2235 2 0.398365580760363
2236 1 -0.748806095883101
2237 2 0.372201315367251
2238 2 0.374616960383117
2239 1 -0.726326640828887
2240 2 0.350784156209838
2241 2 0.396598012796968
2242 1 -0.752755306988986
2243 2 0.374103529823896
2244 2 0.355479236270053
2245 1 -0.731990636879046
2246 2 0.376279033625747
2247 2 0.372788635269877
2248 1 -0.752608583011298
2249 2 0.362712798450267
2250 2 0.351424564124636
2251 1 -0.657907784485464
2252 2 0.332340426945125
2253 2 0.384047442108461
2254 1 -0.75742298636077
2255 2 0.36204466291586
2256 2 0.357475889615296
2257 1 -0.7315558751461
2258 2 0.394868410754752
2259 2 0.364204019001689
2260 1 -0.701031826157331
2261 2 0.345299934782623
2262 2 0.407732570794711
2263 1 -0.74090786023138
2264 2 0.368759571626485
2265 2 0.360875499450602
2266 1 -0.748379290942298
2267 2 0.296681239795708
2268 2 0.384571592752639
2269 1 -0.717524609119699
2270 2 0.351807245105838
2271 2 0.409096565223714
2272 1 -0.710712766865955
2273 2 0.361996517222434
2274 2 0.403298864263957
2275 1 -0.647745645166016
2276 2 0.361496168025248
2277 2 0.341304732084987
2278 1 -0.780092505836006
2279 2 0.302870942567396
2280 2 0.371198444995603
2281 1 -0.723379277691796
2282 2 0.387995563479955
2283 2 0.418236900361272
2284 1 -0.749866767412556
2285 2 0.388434207351928
2286 2 0.340014114705698
2287 1 -0.759713868378182
2288 2 0.367414332499828
2289 2 0.345692111455466
2290 1 -0.723118243934918
2291 2 0.331056267118442
2292 2 0.352826797725905
2293 1 -0.727262755674233
2294 2 0.401473201987693
2295 2 0.356238786081337
2296 1 -0.712366395949359
2297 2 0.379348170329198
2298 2 0.364578256700474
2299 1 -0.749352595576548
2300 2 0.376597141420027
2301 2 0.355878878485467
2302 1 -0.706712835169565
2303 2 0.335663108332629
2304 2 0.359030992508532
2305 1 -0.733635748940514
2306 2 0.367307164787159
2307 2 0.410926180778325
2308 1 -0.735692281752388
2309 2 0.383669838677927
2310 2 0.394984946496568
2311 1 -0.730054217760663
2312 2 0.392747332177456
2313 2 0.404582026345424
2314 1 -0.793219634529871
2315 2 0.376577587188168
2316 2 0.382553450896202
2317 1 -0.777540534325528
2318 2 0.420904370905911
2319 2 0.394892420914137
2320 1 -0.779961265519042
2321 2 0.327064145933121
2322 2 0.32454206652646
2323 1 -0.762747847903541
2324 2 0.365280991995537
2325 2 0.347523384308297
2326 1 -0.759592538803592
2327 2 0.337783170675598
2328 2 0.37945066271396
2329 1 -0.715873489591599
2330 2 0.317254030386448
2331 2 0.35079166492413
2332 1 -0.736115349610436
2333 2 0.374271728574562
2334 2 0.401713465007236
2335 1 -0.706639241518799
2336 2 0.347607622306753
2337 2 0.359150715619613
2338 1 -0.715008982372698
2339 2 0.311138190700573
2340 2 0.345461436918123
2341 1 -0.762764703318865
2342 2 0.383622075396406
2343 2 0.34907190348832
2344 1 -0.72028498128578
2345 2 0.334079579703994
2346 2 0.400817919975919
2347 1 -0.6999495897452
2348 2 0.392423199088238
2349 2 0.349258293813079
2350 1 -0.712530230853392
2351 2 0.372633165484213
2352 2 0.336822436852594
2353 1 -0.771690720766698
2354 2 0.379559120917384
2355 2 0.350284550560002
2356 1 -0.732192676910765
2357 2 0.382108826600727
2358 2 0.380087317722382
2359 1 -0.683702443637084
2360 2 0.340481795378805
2361 2 0.340369247934072
2362 1 -0.726277936437947
2363 2 0.391828801941623
2364 2 0.376000995328682
2365 1 -0.703409879489388
2366 2 0.365576776011071
2367 2 0.359310841878623
2368 1 -0.741340542471744
2369 2 0.386013197461292
2370 2 0.389386222922225
2371 1 -0.760841184074494
2372 2 0.327087329607137
2373 2 0.34132527600681
2374 1 -0.755498637756264
2375 2 0.356056350274976
2376 2 0.341007905125277
2377 1 -0.772860095475167
2378 2 0.367412985907974
2379 2 0.381716814119535
2380 1 -0.709665297283021
2381 2 0.35399665704973
2382 2 0.340112895513377
2383 1 -0.77168721055167
2384 2 0.376606959136265
2385 2 0.381125032442636
2386 1 -0.773765187577924
2387 2 0.371715826606639
2388 2 0.338550948136047
2389 1 -0.745681347502188
2390 2 0.354925701696193
2391 2 0.393262957355291
2392 1 -0.768812416501753
2393 2 0.384193408232674
2394 2 0.379551579665439
2395 1 -0.732624305606488
2396 2 0.367846666676105
2397 2 0.362849440402351
2398 1 -0.725699145048741
2399 2 0.391507979642044
2400 2 0.362404377360488
2401 1 -0.735473953708377
2402 2 0.332329512915671
2403 2 0.358068334781692
2404 1 -0.729190853422023
2405 2 0.340205483389751
2406 2 0.357591752948193
2407 1 -0.727982149242513
2408 2 0.360415965542318
2409 2 0.363488695781139
2410 1 -0.760114035798168
2411 2 0.35218490090552
2412 2 0.346230593116832
2413 1 -0.730428384184505
2414 2 0.362575190720827
2415 2 0.390856696831179
2416 1 -0.753567255712448
2417 2 0.383413068151117
2418 2 0.344451216944691
2419 1 -0.734231638198317
2420 2 0.333201024978446
2421 2 0.348164981363336
2422 1 -0.755291914503816
2423 2 0.412373047640288
2424 2 0.350570546706742
2425 1 -0.714820864594728
2426 2 0.390137821524135
2427 2 0.377814916458396
2428 1 -0.763217049803909
2429 2 0.398901130479805
2430 2 0.382390460865657
2431 1 -0.734383695678048
2432 2 0.390844953786708
2433 2 0.367910655710227
2434 1 -0.766842379086231
2435 2 0.369729149612167
2436 2 0.330643565683357
2437 1 -0.731542721810802
2438 2 0.369054392928006
2439 2 0.36826205885453
2440 1 -0.720294448471651
2441 2 0.342300427030994
2442 2 0.356778360282742
2443 1 -0.706957333220851
2444 2 0.375975850792205
2445 2 0.389105767666539
2446 1 -0.673865157584112
2447 2 0.397703333846023
2448 2 0.378914926540507
2449 1 -0.730987783927568
2450 2 0.389532784703995
2451 2 0.379016608400353
2452 1 -0.719332735612101
2453 2 0.379042733286592
2454 2 0.35521724334166
2455 1 -0.722121461942373
2456 2 0.401672876761756
2457 2 0.319165621876838
2458 1 -0.69004081987695
2459 2 0.4043408047337
2460 2 0.350308367210758
2461 1 -0.766724318728127
2462 2 0.381278317831314
2463 2 0.357972672535907
2464 1 -0.765473341102197
2465 2 0.410489942437287
2466 2 0.395577403113026
2467 1 -0.744106086800856
2468 2 0.356155597640963
2469 2 0.393522556028386
2470 1 -0.710061028146831
2471 2 0.386934333411864
2472 2 0.347403825375299
2473 1 -0.783759980408614
2474 2 0.352906123296581
2475 2 0.357408623805946
2476 1 -0.751951381281318
2477 2 0.353345297496707
2478 2 0.335702537042383
2479 1 -0.74283279069481
2480 2 0.389048958556718
2481 2 0.390321015663124
2482 1 -0.668845243659031
2483 2 0.380492172077966
2484 2 0.373075707754318
2485 1 -0.733053284188942
2486 2 0.371241973614424
2487 2 0.366831471500922
2488 1 -0.731925226963239
2489 2 0.390104840779578
2490 2 0.355522429991074
2491 1 -0.743135937926083
2492 2 0.34668046946868
2493 2 0.392134105741095
2494 1 -0.741343305754989
2495 2 0.383804642541701
2496 2 0.400084359904865
2497 1 -0.780083365174163
2498 2 0.380974654874464
2499 2 0.395193384865782
2500 1 -0.76572598872343
2501 2 0.385910279869214
2502 2 0.323007925025211
2503 1 -0.722673635646877
2504 2 0.390064709273705
2505 2 0.395051712780521
2506 1 -0.763173626260667
2507 2 0.347964194050899
2508 2 0.366266597536891
2509 1 -0.701962479809669
2510 2 0.398910367822829
2511 2 0.375977017630245
2512 1 -0.714479801858002
2513 2 0.335444641424482
2514 2 0.357043373682284
2515 1 -0.680062378012206
2516 2 0.342088363991219
2517 2 0.360532979357736
2518 1 -0.700208345987617
2519 2 0.394507328456142
2520 2 0.388066446362451
2521 1 -0.746472234022192
2522 2 0.37573397163362
2523 2 0.369292254796854
2524 1 -0.715408873569048
2525 2 0.337130799065624
2526 2 0.386823770667798
2527 1 -0.726984844450231
2528 2 0.321104226099569
2529 2 0.343806233258988
2530 1 -0.744765521259836
2531 2 0.34503870149763
2532 2 0.341935191480891
2533 1 -0.74481843976484
2534 2 0.376985968290028
2535 2 0.354129690287084
2536 1 -0.731187217185665
2537 2 0.341541835297176
2538 2 0.370381589066311
2539 1 -0.761767201080164
2540 2 0.34933677383963
2541 2 0.361007453882514
2542 1 -0.743357044145797
2543 2 0.39132801704893
2544 2 0.359256060992734
2545 1 -0.765491323359404
2546 2 0.382047041881561
2547 2 0.383340536852128
2548 1 -0.72501054959629
2549 2 0.359423956830779
2550 2 0.393778609002642
2551 1 -0.69442627253575
2552 2 0.346907602212059
2553 2 0.340543002488691
2554 1 -0.685875941816258
2555 2 0.35006636873142
2556 2 0.370159399316712
2557 1 -0.706048466854656
2558 2 0.367460819124472
2559 2 0.342604596371134
2560 1 -0.710327451626491
2561 2 0.397054021223802
2562 2 0.401914746091623
2563 1 -0.676110779642943
2564 2 0.407789908793483
2565 2 0.404365494498957
2566 1 -0.722379998121509
2567 2 0.386699782830074
2568 2 0.343345804956539
2569 1 -0.731772727920711
2570 2 0.361243744461047
2571 2 0.347055481515241
2572 1 -0.74531074206301
2573 2 0.357378114624587
2574 2 0.342014697467354
2575 1 -0.739245512739562
2576 2 0.36944068678028
2577 2 0.391113713688233
2578 1 -0.68685302726849
2579 2 0.371020601753178
2580 2 0.376666556376217
2581 1 -0.72464824649385
2582 2 0.389776290998007
2583 2 0.373275985440243
2584 1 -0.75666808382825
2585 2 0.376598707634532
2586 2 0.355927064495455
2587 1 -0.751625825154434
2588 2 0.365456760301605
2589 2 0.35864957287586
2590 1 -0.729067803463181
2591 2 0.378541564259114
2592 2 0.341107914210627
2593 1 -0.755847716508439
2594 2 0.409425751133096
2595 2 0.417136311655504
2596 1 -0.738846821645819
2597 2 0.348471472113602
2598 2 0.365107125795
2599 1 -0.754883027804407
2600 2 0.372621819960203
2601 2 0.353154966816428
2602 1 -0.68614734671145
2603 2 0.356984136883055
2604 2 0.362358587198488
2605 1 -0.700243565831859
2606 2 0.384887565065533
2607 2 0.392061007101937
2608 1 -0.69546571644342
2609 2 0.362079308982709
2610 2 0.380977509891592
2611 1 -0.751688313166446
2612 2 0.411771396677973
2613 2 0.392094010314446
2614 1 -0.76820621630702
2615 2 0.385280780917148
2616 2 0.359403256248671
2617 1 -0.712644573058923
2618 2 0.371216522633099
2619 2 0.345757330698631
2620 1 -0.706992244512901
2621 2 0.37009771098211
2622 2 0.403094280700313
2623 1 -0.78517914786103
2624 2 0.36799110404279
2625 2 0.370468182269733
2626 1 -0.725975384568696
2627 2 0.327449846987425
2628 2 0.360129852589724
2629 1 -0.712408088397313
2630 2 0.39094866593304
2631 2 0.391349625275862
2632 1 -0.739155634678369
2633 2 0.399330751666741
2634 2 0.372511319829067
2635 1 -0.719300037329127
2636 2 0.368014220429421
2637 2 0.393111984499327
2638 1 -0.739463312317451
2639 2 0.353826905992256
2640 2 0.380000706138373
2641 1 -0.696865078584191
2642 2 0.369817688361605
2643 2 0.370397455925374
2644 1 -0.715204150641606
2645 2 0.379658903687736
2646 2 0.351609674396644
2647 1 -0.720238664683461
2648 2 0.366050971492149
2649 2 0.343585407592038
2650 1 -0.684095317250453
2651 2 0.371347397724164
2652 2 0.397890460721655
2653 1 -0.714081241264608
2654 2 0.405523069059189
2655 2 0.370644439852581
2656 1 -0.735954791572305
2657 2 0.346765770631426
2658 2 0.330466786701695
2659 1 -0.731999432079448
2660 2 0.352863074929379
2661 2 0.365211546567159
2662 1 -0.74003491924074
2663 2 0.37514753199086
2664 2 0.362489348100684
2665 1 -0.763264559363802
2666 2 0.332539903863177
2667 2 0.347312435894297
2668 1 -0.72586833779189
2669 2 0.347168905559189
2670 2 0.37884730063557
2671 1 -0.789813569242052
2672 2 0.373000642803708
2673 2 0.354620109571214
2674 1 -0.752517293226911
2675 2 0.36376065493079
2676 2 0.356238149425312
2677 1 -0.696069231768393
2678 2 0.349520157996461
2679 2 0.343377652709529
2680 1 -0.732029169557568
2681 2 0.374088054359693
2682 2 0.354442341175942
2683 1 -0.727292643007953
2684 2 0.381652002589654
2685 2 0.367160098705357
2686 1 -0.742814145798902
2687 2 0.390875875211738
2688 2 0.332442028479094
2689 1 -0.755964680596097
2690 2 0.380779435856898
2691 2 0.343243918514439
2692 1 -0.731147661662741
2693 2 0.33339335117322
2694 2 0.3633739022871
2695 1 -0.731482924471182
2696 2 0.351912853519728
2697 2 0.389487601620408
2698 1 -0.775454335214449
2699 2 0.356588846264742
2700 2 0.371999174405622
2701 1 -0.752851225345126
2702 2 0.368651608955928
2703 2 0.36169262179519
2704 1 -0.725388076322599
2705 2 0.355696790991857
2706 2 0.401343545804325
2707 1 -0.749089516031654
2708 2 0.331813076145202
2709 2 0.377015226563377
2710 1 -0.749382688773209
2711 2 0.378449603718858
2712 2 0.367406159907041
2713 1 -0.774965930956631
2714 2 0.38020019679411
2715 2 0.386792050129888
2716 1 -0.697904751455035
2717 2 0.341795452379583
2718 2 0.372273806267377
2719 1 -0.729662806012286
2720 2 0.359029563989986
2721 2 0.361082369796672
2722 1 -0.755839806139171
2723 2 0.329661825052067
2724 2 0.370146692009013
2725 1 -0.738733369814787
2726 2 0.360697670886739
2727 2 0.345783951177843
2728 1 -0.696508926993698
2729 2 0.377040693129218
2730 2 0.402517508094352
2731 1 -0.719008280647795
2732 2 0.363990481416288
2733 2 0.37517557624389
2734 1 -0.723831142889294
2735 2 0.404662581123657
2736 2 0.347699647244687
2737 1 -0.759495194231477
2738 2 0.353826524234053
2739 2 0.380922622194559
2740 1 -0.748665622781946
2741 2 0.336786640538248
2742 2 0.360842614911517
2743 1 -0.714541815427248
2744 2 0.355224446206575
2745 2 0.371117998319984
2746 1 -0.732735407080634
2747 2 0.375269125494855
2748 2 0.381689164903608
2749 1 -0.739343143486087
2750 2 0.348444875603316
2751 2 0.397109784422747
2752 1 -0.757945530683224
2753 2 0.378127970992305
2754 2 0.379540247754618
2755 1 -0.761484732094234
2756 2 0.385228528342921
2757 2 0.387092525476722
2758 1 -0.729682208261585
2759 2 0.37682590726039
2760 2 0.352696211280998
2761 1 -0.721611836536665
2762 2 0.364730314699138
2763 2 0.378830240241639
2764 1 -0.756955902112502
2765 2 0.353810150820526
2766 2 0.383350644186823
2767 1 -0.743379378054741
2768 2 0.360625846397091
2769 2 0.368166367396734
2770 1 -0.772055892274229
2771 2 0.37489203609233
2772 2 0.363905906243546
2773 1 -0.702898031550992
2774 2 0.354652933021062
2775 2 0.371895560354906
2776 1 -0.770323928330122
2777 2 0.327459425645025
2778 2 0.332403510304481
2779 1 -0.727279130646245
2780 2 0.368478209521592
2781 2 0.410306352208958
2782 1 -0.743116748835452
2783 2 0.343522669380394
2784 2 0.382846490683762
2785 1 -0.685895755606654
2786 2 0.36187123374093
2787 2 0.379008194672949
2788 1 -0.703210532107406
2789 2 0.379148287437391
2790 2 0.368116563594405
2791 1 -0.734113401024195
2792 2 0.356457308008846
2793 2 0.368147973389353
2794 1 -0.71956040684909
2795 2 0.392241667355651
2796 2 0.422131368628313
2797 1 -0.740535969171912
2798 2 0.338516911855798
2799 2 0.37812035428544
2800 1 -0.768633635731081
2801 2 0.376799609007143
2802 2 0.377751890273777
2803 1 -0.742138907590017
2804 2 0.343629589716066
2805 2 0.3739120391889
2806 1 -0.780771849515409
2807 2 0.396149496450736
2808 2 0.384321700860158
2809 1 -0.73262929984708
2810 2 0.390937599167631
2811 2 0.343482628617743
2812 1 -0.709357980000503
2813 2 0.390451913074739
2814 2 0.391509885042493
2815 1 -0.759214613979742
2816 2 0.348573115736279
2817 2 0.363621669999427
2818 1 -0.754646020244983
2819 2 0.339143446492685
2820 2 0.376804237734766
2821 1 -0.693177309750824
2822 2 0.384102993396786
2823 2 0.333620322748961
2824 1 -0.759276506444411
2825 2 0.336343809108826
2826 2 0.348875841555084
2827 1 -0.751789619826851
2828 2 0.392779140979585
2829 2 0.3885244336245
2830 1 -0.743299444524873
2831 2 0.401201728151736
2832 2 0.368338179935007
2833 1 -0.776809850057398
2834 2 0.339042258458191
2835 2 0.33871442611804
2836 1 -0.723385647345212
2837 2 0.370133164575037
2838 2 0.345146595740169
2839 1 -0.72406541117851
2840 2 0.347986811090802
2841 2 0.367961027634765
2842 1 -0.786245128058827
2843 2 0.362866051615907
2844 2 0.370700748537988
2845 1 -0.687692310369214
2846 2 0.380388317765524
2847 2 0.398358123378873
2848 1 -0.746399300516704
2849 2 0.354804160030706
2850 2 0.383150817868805
2851 1 -0.713967004740765
2852 2 0.38642834834515
2853 2 0.362594035658908
2854 1 -0.76148318335294
2855 2 0.361946831014709
2856 2 0.362868483872827
2857 1 -0.718611201206184
2858 2 0.352891406294153
2859 2 0.338984254449649
2860 1 -0.752853230421162
2861 2 0.371371945521858
2862 2 0.372499106526506
2863 1 -0.722107498037144
2864 2 0.327006625930599
2865 2 0.383212219955466
2866 1 -0.718387849918001
2867 2 0.333668840159244
2868 2 0.339364723333771
2869 1 -0.727883223774037
2870 2 0.382357987540005
2871 2 0.356757660196707
2872 1 -0.762692220885404
2873 2 0.381564614717577
2874 2 0.308891822057808
2875 1 -0.688138280705523
2876 2 0.395840607724809
2877 2 0.372236416577289
2878 1 -0.715491321052736
2879 2 0.371644429939454
2880 2 0.364705877635978
2881 1 -0.74833714424896
2882 2 0.345679303790542
2883 2 0.334053754786444
2884 1 -0.732684546247265
2885 2 0.391189331237686
2886 2 0.379606638860646
2887 1 -0.666864357235011
2888 2 0.372212060861927
2889 2 0.398057321164379
2890 1 -0.711344801853153
2891 2 0.315003248020311
2892 2 0.343941868700745
2893 1 -0.670435288434348
2894 2 0.38818693694207
2895 2 0.347217184515541
2896 1 -0.741137569054646
2897 2 0.39101238138148
2898 2 0.356985235754273
2899 1 -0.69839266740749
2900 2 0.37818238593336
2901 2 0.42375896898581
2902 1 -0.696531980379221
2903 2 0.36697601340776
2904 2 0.337481605714913
2905 1 -0.710751738101614
2906 2 0.377541494271456
2907 2 0.330000226521517
2908 1 -0.727162602695232
2909 2 0.373054051910028
2910 2 0.371018870651427
2911 1 -0.732964595950011
2912 2 0.356546725371052
2913 2 0.373051016792411
2914 1 -0.764222463274665
2915 2 0.385517685968789
2916 2 0.363993973717718
2917 1 -0.730921410144299
2918 2 0.367448306691208
2919 2 0.336575583350759
2920 1 -0.744143713590536
2921 2 0.36796792454822
2922 2 0.363593223676689
2923 1 -0.735714049520765
2924 2 0.337766210628529
2925 2 0.373872880911783
2926 1 -0.655182315857637
2927 2 0.372316342134886
2928 2 0.377330701209694
2929 1 -0.715469405154885
2930 2 0.355682862877552
2931 2 0.323004552965242
2932 1 -0.78039686020234
2933 2 0.368850437581368
2934 2 0.403113009540255
2935 1 -0.730589907822931
2936 2 0.375926108987682
2937 2 0.324294199918712
2938 1 -0.74112096655868
2939 2 0.382236598358619
2940 2 0.346330473035661
2941 1 -0.744622774157517
2942 2 0.384480836629245
2943 2 0.395148536935058
2944 1 -0.780311441544548
2945 2 0.384930810279846
2946 2 0.354641467907791
2947 1 -0.731954585278888
2948 2 0.338766662092456
2949 2 0.375383966642863
2950 1 -0.755410407257922
2951 2 0.351160277404676
2952 2 0.381704352202688
2953 1 -0.776977950784202
2954 2 0.375822893566487
2955 2 0.378732833366836
2956 1 -0.719759678412389
2957 2 0.345928495004605
2958 2 0.398698226696752
2959 1 -0.73013533961096
2960 2 0.356229192779324
2961 2 0.38798213880638
2962 1 -0.720128140575283
2963 2 0.394760223114052
2964 2 0.362794952187626
2965 1 -0.725838193189256
2966 2 0.383243777505383
2967 2 0.396943627456946
2968 1 -0.705851628697763
2969 2 0.361409862726321
2970 2 0.366885112126715
2971 1 -0.731966571797114
2972 2 0.352474648084224
2973 2 0.356627375730601
2974 1 -0.723450691830916
2975 2 0.3838103782806
2976 2 0.398873747299158
2977 1 -0.745185225405067
2978 2 0.333286669588488
2979 2 0.343979340547636
2980 1 -0.724350847715185
2981 2 0.365114978698326
2982 2 0.35160752582876
2983 1 -0.734143674920392
2984 2 0.349422767480399
2985 2 0.35959282707879
2986 1 -0.705174341182419
2987 2 0.365607586570461
2988 2 0.365368616761619
2989 1 -0.737451399811615
2990 2 0.377260617904986
2991 2 0.309825438552538
2992 1 -0.759138443958393
2993 2 0.356017538642398
2994 2 0.33185609941887
2995 1 -0.712660783433633
2996 2 0.366504873763696
2997 2 0.352254825489179
2998 1 -0.73773101330611
2999 2 0.350817673000951
3000 2 0.347856315710741
