ITEM: TIMESTEP
0
ITEM: NUMBER OF ATOMS
3000
ITEM: BOX BOUNDS pp pp pp
0.0000000000000000e+00 3.1043045599999999e+01
0.0000000000000000e+00 3.1043045599999999e+01
0.0000000000000000e+00 3.1043045599999999e+01
ITEM: ATOMS id fx fy fz
1 -24.2919670036706 -14.4229728009675 -4.79400504247567
2 5.48469072059133 18.4462942834339 -1.6941069191616
3 17.6299315070147 4.44802412219843 4.56341435908059
4 -28.2855191794698 21.1209056396592 15.1575850122796
5 9.36943978139964 -8.27663444210186 -14.4440714286987
6 4.93877198014542 -15.5747598760867 2.80489268110312
7 -13.8129917666026 49.5815757859894 17.060801898773
8 18.1286245135662 -24.2539174126799 3.17406930340903
9 -8.70955242723297 -19.8831465892616 -12.5922655054514
10 13.1194223471302 -6.2447064657249 13.0204870809143
11 -3.32533933646853 -1.20633410569567 -12.0985772147236
12 -6.4156940369543 22.0616549936319 -2.62052683181876
13 54.5384043604832 28.4629597562683 2.77128727804893
14 -33.7495655875728 -40.5468576923257 1.6255356681312
15 -15.6944875950967 5.62783603434082 -10.5577635136432
16 -3.53143123535758 6.35444702974349 -33.6842143564518
17 -3.49518373731173 0.523792695220066 1.02029836306723
18 6.07964512828114 4.29722286091278 -7.26432184764542
19 14.4712852875406 -0.16807782707662 -5.14276841425203
20 10.1069942625411 7.22663345303985 1.26177154610183
21 -17.6378608505321 -22.0739967508367 -1.19720713726825
22 -22.0409353006225 -26.5653358515909 1.69291722920559
23 18.0201203473671 6.44617809888074 -8.52573622353312
24 11.600537501474 17.2088888662629 2.37319491524994
25 5.60074594478909 -11.3309571083214 1.64575953957574
26 5.99565882536977 5.98139699438437 16.4143725517466
27 -8.61564015424449 8.51523871826053 17.602557973296
28 -15.162802852844 0.195712240529047 29.3666894147305
29 9.18803932935194 0.965877598777798 -16.7053671105862
30 6.07069746765383 2.38303870349659 -15.7081800535274
31 17.3713139694011 -48.7447310033816 -4.69955509455917
32 -7.14037763419194 58.2200649301838 -12.8486494162163
33 6.52088408747405 9.27622274041406 -5.02881843977134
34 -34.2377228016664 -35.4732035653954 -9.30705221522808
35 -8.11884862619232 18.8606604826865 -2.82533355219608
36 3.8318757391088 37.3242962265111 -0.852249693890587
37 9.49786490785344 -20.8285300887198 5.46437767866386
38 25.0420399587857 -15.1655837033552 25.002540729976
39 -20.6653566265575 33.7061773715869 -28.2142662742733
40 -11.0193240037119 5.26510028892822 8.38837883042223
41 11.2393035010638 -0.990020326489962 -14.9093608313311
42 -9.21678828648155 2.22529631161749 4.01733326034593
43 -11.351808389546 17.6512285099585 -7.69602340443725
44 5.86498532799142 -9.91029737237032 -1.13048496434419
45 4.56393656705156 -4.28522419559002 7.58932996217786
46 -25.6355401570418 -69.7420822128399 -13.3281102762104
47 15.4656688368627 -3.5208673533767 1.13923797578466
48 39.9399085252502 27.8833816342643 12.2690012296603
49 -13.1390606084735 5.53599249707539 -3.3977230234763
50 9.14432954708793 1.1845754786749 9.6637739040277
51 3.99790567758884 0.962453846890561 -3.62452451094682
52 48.1691082934032 28.681703568469 -9.677936872822
53 0.329061987192377 14.4570744448925 32.186037454025
54 -35.2090278017036 -37.2797113993645 -16.2969690701915
55 -2.12891267020413 -8.31068444633662 -3.45959785091006
56 -22.9002417186304 4.43937680814273 9.59180602217886
57 11.4594532143846 9.59192355150256 9.0881837702934
58 -18.6263374106219 10.0758966494844 -8.84144327600154
59 1.18765780544957 -1.41699956351364 -3.85552474033457
60 8.73955041560643 -1.70525412877252 13.8839953726559
61 19.5300427704953 -23.579285203525 6.73539131560007
62 -4.97837885051135 1.44116969190267 -2.8078117266065
63 -25.5650128697939 10.1110360208294 -13.0403475021412
64 -4.77504929521706 0.430518669604835 -10.216900755725
65 -11.455578825978 0.522592490627645 -9.21267575465829
66 12.7961170053213 -0.30884961590935 13.6188187118663
67 -2.47408783381723 13.9700208766119 -19.2705719419397
68 5.82979255008081 -11.4517081768916 3.39457625178932
69 -11.9024404320599 5.37657256017429 12.3492016186696
70 17.8100693590303 -8.65949893594612 -18.6048960669237
71 20.8164651468375 -8.60761433593047 -8.50714482931902
72 -10.4989320826526 8.51881048245934 12.6925525536334
73 -28.1730284305216 11.3873054850555 -21.3796569115189
74 25.5872057470503 -3.6982033453483 -4.88219952458748
75 4.06119648794253 2.02133980694926 10.0099779678803
76 -29.0377020008677 15.2097452342677 11.9380404176144
77 7.95511469138172 -9.79396603616071 -3.31316377744499
78 20.2712755160755 -2.97402797936659 -4.6734680410579
79 31.3443911390586 6.52795203568776 14.0087872889817
80 -9.65735080526002 26.511252973153 -4.05976023152008
81 -21.1947039243833 -39.9366591813683 -10.9626071624214
82 9.77579688313758 -21.9634648507514 -14.9329350365265
83 2.65350961199989 11.2222607923254 15.1685098023648
84 -11.9241696539072 12.6736734671168 4.17254217388177
85 -4.32694270623841 7.67909662456416 12.9278283308612
86 2.7472228477926 -1.27903402804008 -6.59576928405032
87 4.14369996267581 -1.69952007125903 -2.09239401343305
88 4.83251969336572 -0.58247949798981 0.978270193354155
89 5.45621307758383 -8.49294896802663 -4.30146024697862
90 9.88814900272403 7.33160627836759 4.40108333464495
91 -20.1310449134192 -28.6327803033635 25.7431821486992
92 20.3691808402985 11.2777195495668 -0.818455621506584
93 6.79904170795432 21.7759561583507 -29.0465522671092
94 -8.25805606205936 26.3429235565699 -25.4966546227303
95 29.4248497948476 -3.83495771719544 14.0597067134101
96 -11.118879819511 -2.56930017525761 5.41861998639923
97 -10.9161263975649 -27.1069530418405 -40.6038957608022
98 6.98499886489441 -4.14680494279456 30.9580763459876
99 0.821215648516405 20.6774473417853 3.48789619002572
100 -2.29128744785519 -6.64953124674638 -26.1002781503359
101 9.32861420676824 4.84003054667204 26.0082510413624
102 -1.48543758594741 5.14725788635103 -5.57371758894447
103 -22.5560232070351 -16.0926540505229 1.15626187098886
104 -12.4975678296387 2.3143904851314 -2.07045260811046
105 -4.90268171347046 14.2562204142329 -8.25294842470019
106 5.85044929146042 -27.6420884074646 25.5282079231286
107 -21.5116559474252 -5.84775851559667 -11.9476095631539
108 18.6922349518037 42.8212029414498 -8.04628464775069
109 -3.58681139781854 6.9384685173961 7.16699507496942
110 26.0630135019826 1.64247624736198 -18.9175348142506
111 -20.4607656456855 -7.46240381002292 11.60580129803
112 -8.64855498167925 10.6278058535954 9.47090128777095
113 1.57644875957929 -8.7747874384107 -24.8170842025803
114 4.7522127122168 2.94959375974121 16.8122345623812
115 7.91229163407866 18.4510312430987 7.96556781327956
116 -2.06474695092225 1.48260453170946 2.6196443735777
117 -6.05893982857896 3.07293115429695 4.76883256227614
118 -24.8109393780041 9.55979732903771 -3.0592582838206
119 9.20242511338683 -2.84665687727734 -3.18381389256584
120 8.59750948227189 0.334023972278497 2.99027394242311
121 8.68460944694064 -0.306939572612878 -4.77427588829765
122 1.41400925517167 -7.81408357339734 3.87366811750602
123 -4.37469100017133 8.71234282142993 2.47842254899336
124 1.72558797103181 3.89850097067363 -0.146238272839806
125 -0.733309227423805 6.86915400570735 16.0969522048584
126 8.32539711639148 -10.2365005520071 -5.73317641718848
127 29.0460110666313 -46.3860874771528 17.300667115663
128 -10.9343718578757 -17.719457478905 18.78904544214
129 32.3016521148247 0.302810368943396 -4.95038069594473
130 -22.4353570225137 3.16964919551 -18.7577774625502
131 6.94522086167589 -8.13141215571469 5.30780006818511
132 15.8327837672425 -2.45682128012069 18.0633585831221
133 1.12510944229224 -38.3817101955099 -14.6682699033191
134 -14.7460838532119 2.50872682235869 -0.116864828083879
135 -6.15790784163642 -10.5971726214861 -7.34504634283285
136 -28.0212819130196 3.60097249061715 11.3208562334834
137 -10.3739521289364 5.76124231975548 3.03937528077766
138 3.24229612465744 0.137046665358049 -0.950270721392037
139 25.4035904226017 1.77078488402191 5.23893381459957
140 -5.53409293256635 4.78270252863913 11.6896599357962
141 -19.2899529003525 -4.04802937859301 -9.11304813263621
142 5.19898431935057 24.8740204349353 -22.9408074505203
143 -12.9516789853978 -6.94506665811617 12.9975834749054
144 11.0377393724431 -5.82871403539323 18.1296112246778
145 23.0853907198796 -8.12168831683869 29.4722179948079
146 0.185566062895851 -5.3121641926632 -5.58775022429332
147 -17.1605830389775 -1.85931576576905 -14.3881784563623
148 13.0567946585832 -25.2406764733999 1.04974021523179
149 3.55690829882226 -3.31993998350302 6.97967939739952
150 -16.924871597378 20.8360033722575 -12.1914187374922
151 1.9665387486435 8.5626732246341 -5.13753040451986
152 -3.42338975641454 -5.38401219446347 5.01322040091255
153 -0.204943544000419 -1.15695920031548 -3.21719976053199
154 -13.745048805479 9.14997220255037 -4.16139340920874
155 7.90051137908571 4.580022908104 3.8614899936526
156 1.77726391108174 -11.7147045240202 3.54279516797694
157 10.4142478553224 7.42800872691379 42.6754707349348
158 -12.662861142672 8.79573872202201 -24.1828392713128
159 1.37308245079986 -16.2588655050072 4.6823268858682
160 -22.7107257772952 39.0071768397974 -14.969081737239
161 -1.07556229162481 34.9790057204702 -12.8802705078864
162 12.0531470502298 -30.4284909440356 23.8987337787738
163 12.2081051511734 -7.99035754466803 6.78462360882528
164 22.5557780820465 -17.1839247924638 -10.7919829305937
165 -38.0151480034684 9.24077691436596 -2.60634544454195
166 42.7101410353391 43.5291635596557 11.8063399992209
167 9.81851597396993 -4.10940295589696 -18.4676533598107
168 -34.8805424901535 -30.6959617116471 10.5872131958037
169 -8.20033676637643 -22.0632414268151 1.9586779786215
170 -0.50035817186571 3.68235484136555 3.41723399200633
171 -4.48558582480254 -1.6760607261735 11.6465415028129
172 -77.775304695607 8.97324049749029 43.1150040239576
173 33.7567673549674 -16.8912262365987 -24.5516810841825
174 48.8460120224506 -1.78966060543514 -6.25318262525168
175 -14.8516925582117 -11.0785015651609 1.35197354488891
176 -5.4674846183264 -8.75425740980298 5.2430495959359
177 13.1693977738108 11.1219458609473 -8.93174165097499
178 13.7909551120081 24.9724365616643 38.129792181565
179 -3.85288853456335 9.45226000669017 17.6857898404216
180 -10.7805951138785 -21.0375225234097 -50.1879611941366
181 13.6274309105029 0.08718202075889 -13.3041379440074
182 -6.72489502578505 -14.6947415115206 -3.37912833451467
183 -13.4360313853742 2.45530268093225 14.1162345786791
184 -5.78467435873779 -5.11267750846202 35.5887169524792
185 9.19499269891865 12.2153405789131 -20.2407183323623
186 -6.06308761538043 -12.0426213792658 -19.8387818391116
187 -10.9232986299136 20.9688169269942 -8.11663593896134
188 9.63193046933533 -17.7938594153504 2.51502631886287
189 -2.90213397193044 5.91108121840476 14.5163270138173
190 9.29339245497173 19.0011955836879 28.4942412463363
191 3.49786422835208 16.5427839264202 -17.5924186588911
192 -13.2093139897549 -26.9770037428395 -7.57755906543056
193 -27.3075166688186 -9.24289338840772 -6.01994285908979
194 37.4292432543206 13.4026278905005 17.0731746597814
195 -15.0609255310869 -2.23833214990875 -6.58721630510708
196 32.5668961750362 26.3369525404346 -38.8676636816717
197 -31.7201676823237 -17.8413949936293 30.3326650677284
198 -2.02104798385197 -7.42560395154476 14.9855841133571
199 -16.3443603756103 15.8079449004522 22.2061996676999
200 -0.869255446948199 -15.9988515628896 -12.3434043752536
201 17.6891731490934 -4.24195663680616 -11.1881660322683
202 35.5644561620909 0.746605977229266 -13.4280468835442
203 -34.7275477162852 7.62009129725917 5.85896382788197
204 22.8278342022322 -15.4386474288496 -5.22834315461654
205 4.81832523937411 -9.99984686302355 -26.1676773369944
206 19.5875819104084 14.9652951302808 28.1948421459048
207 6.70938007519037 22.7841862035181 2.7129306691119
208 3.62129177994948 12.8272883836981 -7.93636333689989
209 -8.24355110328197 0.659591300001701 0.338542742646145
210 -27.4900478990695 -4.33663027293303 16.8285413753697
211 12.1283242975311 -16.4473243329939 -13.1347147480154
212 3.11539623365084 5.16847222777179 -0.311665731207272
213 -10.9392052690567 9.05565200225225 18.5200469484277
214 -25.4974776162854 -27.8125282366887 17.3192462396198
215 25.0355275385697 -8.78350337857902 -23.1372673713066
216 0.557532040785155 38.3473860503674 1.42229756733501
217 15.2853128535293 -36.0012619332895 -6.69169510565769
218 -29.7838205100597 25.6057041865712 5.27559133041732
219 12.4634350424672 6.21395814092731 9.23342125383884
220 4.225942821077 -18.8431142317095 7.51105329328059
221 -5.45630809830414 15.9412642578169 -0.41564981229048
222 4.85198179093083 2.60099142488165 -13.5160585971327
223 30.8037666406074 -4.17167093833836 2.55988440519145
224 -33.8588422119921 -3.94544286549438 2.66061462625255
225 1.00039244089283 6.22951399625195 -5.12098814437359
226 -19.8085172069471 10.4177509844807 24.8144217106512
227 22.0351148452986 -14.7766947489114 -20.3932918652513
228 1.67257599855752 5.39009476256237 -13.5648039071518
229 -7.07870526979866 15.9446051119454 -17.1030244361766
230 21.0931310439026 -16.7535293322858 10.0003321147279
231 -8.88783564202872 1.68831128686193 3.71238861231604
232 5.10934536423602 -16.1076227683968 2.06805505597979
233 -0.161349785571244 15.4371326857744 4.73755444458232
234 -10.7148206026407 9.49395921460828 -3.13446320590754
235 24.3671078737763 -17.8629460004211 5.47868709247491
236 -18.5034973960918 10.1867823119836 7.14601989061181
237 -14.8075070850202 1.36035582654464 -5.17487700733289
238 -25.6731310197457 -16.4227826561902 5.0599809911769
239 11.4713024449466 11.9553051675209 -1.91455814376167
240 17.1522945173087 -8.02001946069144 14.196680818258
241 -4.78606847832514 -20.7704629499065 -0.247978027823593
242 2.02297100422024 12.7868231759523 -8.12035646163762
243 3.37826559466574 8.23281825877099 6.600026329184
244 -9.98061588400276 30.2624477200647 34.8865217781189
245 -1.77925298834641 -22.4912102090484 -7.37024984364916
246 8.73858936863296 -8.93049885263276 -18.2348938603335
247 -11.873417158309 -22.3847796679323 8.70776215235991
248 30.0453753895835 19.7076811362105 40.4354915842593
249 5.62762086595457 3.3833423004392 -6.38003146667075
250 -5.97316884107316 0.91923782809717 -3.94625743797603
251 8.58276875235173 -8.35109710219014 5.30115274998188
252 0.670889080618942 17.3692383872153 0.116478629256221
253 4.32555876794119 -13.61272015802 18.9271220303974
254 -6.30968519485414 2.23521518647637 8.28231952606754
255 0.366450879017774 8.55183979647789 -4.78458296550902
256 12.6487712593123 29.5702245824249 20.6936780805732
257 -15.9672118918285 -8.12692718770952 -12.6235293546912
258 2.28531135559966 -20.2795082135491 -6.54518612916715
259 23.5960803252403 -4.19715578416672 -13.7492808404081
260 -3.25682837324286 -4.80604188194506 -14.6708905078093
261 -14.3787587299939 11.9226911468289 2.49826939407602
262 -38.3929384404805 6.16574182074523 28.5463260260743
263 -5.99783109592136 4.69147892565915 -22.1976337413447
264 33.3436124929056 -17.6420321277892 -10.7777577507111
265 -9.83217456448543 -12.4784931722042 -19.6101553425323
266 -12.7948457075124 11.51995746706 5.50009700279571
267 4.38238964981754 -6.04516410178269 -0.791901187902566
268 -17.4979123285486 6.0823366756953 -28.1261196334352
269 1.25550352133379 10.7046750395997 16.9115298576412
270 7.61614830018036 -9.00943717236869 14.2432534418576
271 -14.3946166122606 5.03834592443042 -16.5898139361131
272 4.37145042095321 -6.33538990713261 15.2328772386831
273 13.8037290758053 -3.27733319462729 0.324722836494953
274 -18.1639117840754 4.47524702514546 27.9126554405019
275 20.4603583562166 -12.0008847043627 -19.0285372928922
276 -8.64977014893335 10.4253733707303 -16.2291415350215
277 -23.9154113001585 8.88960835921107 -5.94898543276949
278 3.24186769787761 8.53647191251094 9.46065831857048
279 11.6263989582682 -12.1328702273825 0.437769591217455
280 -45.3033646366618 2.69953801348806 35.8351139178348
281 -6.51469752107651 4.67710587829023 -10.3920214565033
282 47.2544942527593 -0.0925684749190915 -29.0527691942235
283 -43.1699283154814 15.1882618807179 1.21306663524171
284 20.248005329491 4.19944064720112 -14.6411316444889
285 9.15378963668592 -4.72677063021463 10.5726810240663
286 -4.85741405229325 -4.00914181885979 29.9898801304891
287 12.1322418012857 -3.2768068896908 -2.49392970549671
288 -4.71286445784074 10.2886953538383 -27.5324179927809
289 -24.4958629167283 27.6555732664893 11.2597333588656
290 21.0592387926175 -6.4038835164881 0.799348914802719
291 3.61897210843133 -23.7221694203906 -16.1206321236968
292 8.39947606388274 -6.98363505247114 -12.796485282768
293 4.17344110437736 0.810499599471367 4.13840730035421
294 8.81190892151205 -13.69579899149 7.9293845798668
295 2.73647617189123 39.3281464477211 2.42069696753034
296 -1.94866312355368 -25.5938151315102 -16.6459532167875
297 -4.29109523602214 -11.2863911723031 18.9867378469219
298 19.8415777135845 -0.549327582408317 -3.3283888232674
299 -7.35148854943892 4.72886676775347 2.13370162397554
300 -10.7895017768105 -0.675913062841991 -2.35223918405388
301 -51.6984015772311 21.8063032887932 -27.8404399327667
302 10.7190370468414 -26.9704922168816 29.1801096033612
303 -11.6264111054067 -16.9361470657064 -14.3153322929733
304 -19.3336646302129 14.7685009283535 6.88846879303045
305 3.71889840636149 -19.7852180235816 -3.26559768599267
306 -2.54199441478603 3.8466534782593 0.333979848707404
307 -11.6391398176971 2.30323325384636 -8.82600781062944
308 8.42801056610341 1.62972439438658 5.83753793340185
309 -0.260228344602728 3.54218059931103 -0.770761833917499
310 7.55778113580112 -4.18299324771147 -5.58387452197178
311 15.6866095903796 -1.4074763948732 -7.8436860222606
312 -34.7451348043982 9.87304019536572 14.9093743514863
313 -17.2562693790668 -3.77137575551398 -9.00048375367025
314 9.42290964948071 -3.21861549298495 11.44620728374
315 20.818932322284 -0.152645886103845 -0.100624634600941
316 -34.0619205515351 1.36664073667362 37.6012474641894
317 25.9905035629678 19.4260563147068 -13.6850815885868
318 -7.11048218800982 -14.361205500016 -13.9733260952655
319 32.9928505945175 -1.72570987723202 -9.64306069822707
320 7.61305114132562 -13.6711203507197 -15.4233173399171
321 8.38850657945115 -9.10514685122183 1.02645525936924
322 -5.43889994611803 1.9077706604316 -4.05758009527237
323 -1.45759682495393 3.95574332624777 5.39386290001425
324 7.81803654270065 -6.07709280323508 2.17670436345166
325 -7.15143339193046 -4.36332792482947 10.1150030268387
326 -0.962032969319887 9.7531469399129 -20.9866971913095
327 13.0821605337002 -7.9421675148682 4.80051698015492
328 -5.81323479113603 -23.1797177112852 -1.07273202181368
329 22.8163389209706 7.89192690882502 -5.11096121219555
330 17.8646544022895 26.7139480600006 -10.1309938617039
331 28.9673709794643 5.49968587697572 3.12608880094468
332 13.0819662697285 41.155756693665 9.94243863882035
333 -14.1484049776676 -5.72661754924647 -2.99969905594358
334 -0.426352412919166 -1.11380088302592 -21.9533691320184
335 1.69874172733858 12.4983890304137 27.4602146727373
336 -9.35014513112077 -8.7386461940658 0.172474253230836
337 52.9054760397043 27.2792220238184 3.6777450930364
338 -38.4795565195738 -18.7566477069055 -1.95804537606672
339 -2.82622552537925 -0.115176984867361 0.64469859578249
340 -13.6531730665909 -20.1438688728328 10.1210373775011
341 5.45819721078094 11.8957122188929 -18.2612042111452
342 9.19543149891025 10.5595380274063 -1.13315329966216
343 0.494032368906908 -25.5234434647121 10.4245456350881
344 -5.50579313570457 2.26694408139175 -26.8136753530119
345 4.86355660785768 20.3689008059953 16.9874867640279
346 -2.23495353520948 -10.4578168592935 -9.42356592508254
347 0.639658093586342 5.62361850187233 1.82506316865435
348 2.75775916959781 -2.35097832848159 5.8383064484284
349 -0.24184056060955 35.7366632019411 33.9478834635253
350 1.47683203435146 -2.02329401748938 -16.3704353741871
351 -7.77773343144793 -12.5147990179529 -8.3013838027212
352 -21.1016487209957 -26.430412464661 -48.8327535261467
353 40.7082594173477 25.4318103056368 0.826156063442845
354 -18.4610556022907 0.767395596113194 52.7273338302776
355 9.68469238005355 4.56618460451029 -6.80509279428572
356 -11.4802552529343 3.9847020770989 2.96174004219727
357 -14.2946589790931 -15.9826612420558 3.21548037192373
358 35.0689037169841 -33.4520587401135 17.1353272674902
359 -17.8775961428718 6.96298026069581 -15.8880427768397
360 15.1115048558772 12.8428506433609 -7.53517142736363
361 -56.8054302363085 8.15157351395286 10.0243598279587
362 -6.18532476498097 -0.395375581313263 3.61923891842974
363 53.6594053706032 -13.1026200087825 -9.47651674452756
364 0.175257780221997 1.63322379489551 47.2413280262223
365 -11.3530361933609 7.94028911424716 -4.28099683291758
366 18.7940888265889 -0.97663632029057 -39.2306396808386
367 13.358534740653 -1.30835469532426 -21.11630891137
368 7.23309128241632 6.89749827527108 -8.74562637774681
369 -15.2371419973719 -12.5162972347349 26.8300669266396
370 40.2235468594905 -22.1267860863064 19.1562906240387
371 -16.6832827150423 7.19618637656867 -14.3137635491361
372 -23.6297575423535 16.3384796783033 -4.13113090315095
373 15.4065905222851 -13.7004498086836 -27.6813379219238
374 -13.168541266484 13.9342963206193 22.6885856067351
375 -6.29851689411016 7.21859904219739 11.345582354338
376 0.755469067799361 15.4365771826971 27.6519766088566
377 0.228955189280278 -17.0632130538612 -16.5458083636233
378 -4.97840106931602 0.0713526219642212 -12.3900856452101
379 -11.3564624367086 16.6111382157471 1.30118698868618
380 -2.76077220554817 -17.9662369628052 -6.09183268254096
381 12.6816917372307 1.47168259778083 1.45854513483738
382 -12.3172013838824 -2.86107287701674 -14.5250427973205
383 5.03212384507486 -21.839192754206 4.68543932097762
384 10.6144933946911 -6.21377203843537 29.3576289976355
385 22.6436676086466 -19.3782623771736 13.7581278380172
386 7.37346964843184 -2.10251190289939 5.0904021649245
387 12.8372191082617 -8.1674171138905 13.3890486296226
388 -37.8580957792465 -9.3585645419442 -21.8262556370819
389 -4.04605143652803 -10.8976851303553 22.5289824850694
390 29.4304554095329 7.47321723406972 -7.69202600563737
391 -18.4276838316075 15.6116546198323 10.588542586611
392 9.06902579429613 -10.2346841794627 -8.39984165539997
393 2.78141619192786 -11.6686050862264 -8.48514784185149
394 23.4305313737975 -5.30753041983854 -3.31679609875981
395 -1.08597462864738 -20.1874432652268 3.0745487569787
396 2.50616483586896 17.7816696836702 1.4994072168395
397 1.459241082857 11.3431824481198 -5.27604960339627
398 5.33458817103757 9.19713116982198 0.463754890262447
399 -11.3984773747754 -11.2820068495018 3.56258994906302
400 -15.788301762948 -5.50308334893562 30.4777456065736
401 4.57942749959005 25.4333027229466 2.07039700459606
402 20.8898105018925 0.22085180011721 -16.2424801706144
403 37.492594401586 -2.43093780807064 27.0025896951462
404 -4.63988148389019 2.97780075611011 -29.578072761942
405 -21.7150458613771 -4.13718588713478 1.36521534438839
406 5.30341500755635 -15.7286748083035 -2.60406734380468
407 -10.4477296524198 11.6351021501205 0.745284559333778
408 -0.486482573437654 2.9355660071693 -2.72696080550106
409 -15.4201994226334 5.95021161609664 6.28007136452299
410 28.56077003138 -13.3583890606977 -3.0522084998488
411 -7.4548117137689 -9.38773580775851 -4.67885188568396
412 -20.4564091842376 -36.3075499174521 8.89990104505262
413 1.1976051020628 14.4856644126292 -14.1206608549293
414 19.6495099189073 12.1003115473845 13.3321715334571
415 -41.5148677534201 12.0913617074227 -6.0339349639186
416 8.4764073052233 -6.29422510129519 6.58651499077717
417 4.98504936473446 -4.60395048509503 6.25479516401151
418 7.46766028081566 10.5802161527558 36.7564537335724
419 -5.34995195256231 -9.15785142736499 -21.6047207292956
420 -6.05645659266652 0.740033982039569 -15.3997506516211
421 60.5495771155728 -28.0877783313655 -22.674611996304
422 1.09827509237309 -10.8132873174195 2.94443830379528
423 -36.3461936885952 26.925323184311 14.0015630744596
424 20.5821526118129 -27.4589747353474 -22.6053564397296
425 -4.46286932208225 2.55143078679146 21.8254433969344
426 -10.1840410439786 16.6110450221685 4.14746898379278
427 -2.68987004547267 31.9931299406771 -9.8654716347967
428 4.39923464743166 -22.9859792158491 5.23882164153293
429 -3.70050944146912 -5.70438358800925 2.24616200387511
430 -16.3422075817545 8.18204897366929 -12.6456460484742
431 -8.16323779953929 20.6063369977296 14.2498920336877
432 -15.5420708102519 -11.5545833193628 -23.214258233541
433 -26.2550982147246 -21.8420668536501 -29.9948465206669
434 8.95619765966086 16.1848257666658 17.8204820152598
435 15.63025200759 10.6534167583048 0.656724585722714
436 24.4705211639785 21.6371506923299 41.8036350293667
437 18.0072326546026 -35.7394363899602 -23.434348849092
438 -39.3928516306563 27.4456601555516 -13.6274343060271
439 4.04640258873852 -3.31320957863013 34.689359772762
440 0.956468691816508 13.6580404549205 -2.6661090298821
441 -6.16168607141295 -13.8024459339837 -27.6816836966918
442 -8.46003470189807 -8.76129451552832 -14.7570022462464
443 6.92746786215103 -5.07580559408182 -2.91317153415139
444 2.17804510526639 2.4839141418393 -6.68211979437954
445 -37.1547529415413 -30.1509451456657 -23.6177037429249
446 4.65847626092037 -3.12461168043175 7.14580947987581
447 35.9178824838936 34.4653940869805 38.9152061735726
448 12.7954177071832 -35.3552760606271 23.6046967217344
449 -3.14826281250395 -2.39875655754209 4.63224039750262
450 -2.92398018120052 -4.50298715903133 18.4608384987985
451 -4.21794827084336 -22.5930299436306 -9.19402300578153
452 6.89900943594048 4.47928752310446 -1.81868056645157
453 -4.68757116109599 9.64971579424292 6.31688396977077
454 -4.572915135495 15.7193981822365 -0.883833586585403
455 3.2745901918724 -29.8401334509502 3.22711703569769
456 -1.1700886764368 12.5188290571501 -18.9353639256054
457 -10.9499792940046 -11.8790009825137 -5.00632397945843
458 -0.171760434266777 5.31904963840301 -2.19378401964366
459 -0.632145320680457 5.68924738562461 -0.876446455039325
460 -8.71836508170611 -1.35981854627113 -21.6443764114892
461 20.7011998985483 6.34027111258509 27.5418438774384
462 -6.32190447113901 -8.99184274746609 -6.75403227660151
463 -25.150935883414 -15.3072832201368 -5.94107095776261
464 33.7772250029041 15.576252850032 1.77049096480955
465 -11.20008847812 -3.68536010453679 4.06953812704366
466 -0.207405214732569 -22.4601669692434 -3.99552794562205
467 1.17069149400048 11.7319628919813 0.12741746950636
468 3.76047907623065 14.7306773563107 9.77228102464863
469 12.1172737823258 8.72468531752338 0.937261669956623
470 6.10308366672468 -8.2141329850117 -1.67398683211666
471 -18.0981017032759 5.61087343888202 -1.79262022201144
472 -25.5336741259332 -27.8045837875233 -20.1234456182771
473 1.64830256939301 5.08898814865538 14.3777664766663
474 26.6765811902397 1.70694623236881 -0.264929880356608
475 15.8686683483011 1.58690809747719 2.14257902142594
476 14.6398639713947 -14.378824886163 12.8035920759362
477 -4.92218897142556 2.56300033894559 -7.12546660772655
478 5.93507875822626 34.0349396803343 8.31530780258075
479 35.5326092794383 2.7611881897829 32.1956904189696
480 -0.0946840459760588 -9.72915924142015 -3.40439536468475
481 0.998494137670971 -9.25887703343439 40.957171201621
482 10.9864867636205 2.30822646768586 5.34278749932385
483 -14.197471656034 4.76936772862889 -36.4263271451068
484 8.56775979230055 -18.0047258602079 46.4327790066828
485 -3.48807871489851 5.68423019557316 -7.13795197832412
486 -4.31864695246564 8.99495285810887 -38.457067515021
487 18.4092796498766 -16.5698037839016 -5.08357466951446
488 6.44316224408688 17.9724872406867 -10.6631179300744
489 -18.8174619057087 0.90092116236229 9.276825309901
490 -50.7103992378815 33.432153397135 -8.69079536852177
491 9.50305140366154 -3.04990539929452 7.345462883361
492 34.0541947714204 -33.8669584466134 -0.0644806275787584
493 3.24820624685153 -29.9454828245914 -17.5165413091821
494 -2.25146008936044 13.566402285699 0.950312158737665
495 -1.38514492283484 4.75980193070824 13.3718612097049
496 -10.2693287771323 -43.6640606038118 43.3967433737878
497 -0.825721516900176 37.8205726791276 -27.6873764945255
498 9.87462501712567 1.16298452322872 -14.5632283749457
499 -2.46550095160329 41.2567606873041 27.0287615148914
500 -7.63659166855276 -32.8071721168547 -21.5262664040151
501 6.96089541859048 -1.032915028454 -5.10417807781538
502 -23.355211290474 6.91053366901042 -6.1111900165531
503 36.2582151048418 4.36248214189551 25.0047014941971
504 -26.3597558199719 -13.0300510189555 -9.45546813281078
505 10.7269157707256 -6.00735137538967 -8.06131897692863
506 -6.09836208095902 -4.80204403997474 -1.95131841990088
507 2.60243995875032 -6.74612897330391 5.34489253031031
508 -0.560962293927043 -1.03323151036451 17.3800636000715
509 4.51295573176946 32.1602258954673 29.8157573177935
510 20.0288597473225 0.449812000449824 18.4907152194888
511 16.7819403064852 -7.30312450797347 -11.4290936941501
512 -11.7180567115875 6.06260392069301 3.66446609479462
513 -26.3267492380632 9.40673415647191 4.36419890719009
514 5.62505577541308 9.37081387499411 -8.35902855549405
515 3.00396691495776 15.4207517345608 17.6394164012497
516 0.185940009786883 3.13155086590298 1.23566681478146
517 -24.9820762929865 -41.4095868100028 -32.0934460288956
518 13.8970180200826 5.61675164797997 31.6516029748792
519 12.5583364801788 28.9364688725219 -10.4418775002319
520 -1.40850398952192 27.4803715227892 16.9920305104415
521 -10.2795767579888 -12.2409363691007 -4.75222313821271
522 -1.52139713949182 4.08109420302254 -10.4724605920774
523 -26.2597114835598 31.9846264015449 -49.9011941548938
524 6.15240743273496 -37.5986256222932 28.4856942639829
525 18.2494800923344 7.92159005606611 18.6757438619188
526 -15.7546899746145 -1.34735767363469 -8.77662082536302
527 9.0499546096569 7.50936064238085 -1.35416348100714
528 6.05443883503382 -1.28942938676802 0.687771273909675
529 14.5166821212718 -0.301286661029389 -9.64223949495555
530 -3.82133389050685 5.21367227336735 10.9110473045973
531 -11.480022753835 -2.35612091758518 -7.6940148736706
532 -10.3433314334555 22.2818707371336 -38.6246558604426
533 7.10079128269004 -20.8574780073479 0.545688334293856
534 4.61754380546076 -15.5815018634983 23.3086398657738
535 -1.90865751034989 8.63379917791121 6.33066466252067
536 -3.7408638802899 22.5298577833313 9.58036794462251
537 9.69732360543539 -26.3037018592639 -16.6509277824067
538 20.1974012901084 16.1619606407793 24.5417664098918
539 1.02694947173326 -11.0954439189087 -8.6988776417971
540 -10.0995660058559 5.01264281156063 4.70599985176852
541 -22.3515267605445 11.3237313830403 -9.59985667349333
542 -5.49486779313659 -15.8941245544508 19.4229561878507
543 33.115474988057 10.0495565982026 -7.62544046550989
544 -34.422740262698 -13.1828099148049 -23.0939492148765
545 6.16255647823869 19.6712493847601 -16.7860192257201
546 18.9208979516953 0.533229726111891 15.6370527509675
547 24.0983789202132 16.1483830326369 18.1280207824078
548 -0.899653305600139 -14.8371342142956 3.45558636500067
549 -14.9232730405875 -21.6976850940996 -20.7355792668968
550 -7.99242937164565 7.93989704890046 -18.8814744012224
551 -2.95940739132582 -7.25923935449647 29.7525959756506
552 10.0750459425275 -3.50571099527194 -1.62399071431511
553 29.0337521361466 9.69958843830294 -4.87360448577547
554 -17.5949104498732 -10.192009677765 -2.65910751887901
555 -7.44125939503236 7.21876376696621 17.5619830943262
556 -0.0137175526013615 -8.64048732554506 -5.63689272972348
557 -11.9313405438302 0.383451117377812 -5.44952649152158
558 22.2644877843356 11.1652138203643 9.21165652113467
559 2.5851930143963 -27.7240089293356 -9.9364248773034
560 -2.16460417186949 7.31813053292586 2.01142723282033
561 -0.124733156266158 6.9302440427761 2.08220188051349
562 -59.2194627019144 -4.66932581381192 63.6821420943101
563 39.5310245717186 -13.8699035552262 -4.41701312852726
564 14.1209659763736 14.6670008761967 -45.4929487006594
565 26.7618740967986 22.6895221002726 -2.65628933534401
566 -5.7490885779709 -3.82806142147914 -13.6769406035397
567 -17.6546750113968 -8.82479325422226 7.18892857023198
568 -50.0959230038089 -9.96180441107333 53.870415684071
569 -1.71421167560428 25.3457054601587 -27.1498646994027
570 33.2973596185766 -18.2881555951606 -23.5232617578634
571 -23.1396303294938 -2.23719990603247 5.17023924743567
572 10.4202644099444 2.06922828030776 3.66766289529979
573 18.6085739873393 2.75223080656422 -8.74344370414939
574 28.4038455021004 42.2818269030724 -15.9287702310279
575 -1.48217925420559 -15.8787900685981 -6.34238175223869
576 -26.333477110287 -17.9067340198274 11.8883525599006
577 1.47690739154743 2.56024099047781 26.1829816873885
578 -15.6677514966165 13.8311158571536 -21.0026941604009
579 -7.61838496276685 9.4126378197812 1.91025463481428
580 -4.38198720034838 -6.757312502626 -9.99892780931724
581 0.642696012780916 5.61306833052245 -1.87094120267304
582 2.53397477491405 -11.9133077526818 14.5590053045674
583 15.8218295400673 18.9446216661558 25.5243105309264
584 -22.564712268758 21.3310717706209 -22.5042364277339
585 -8.49017270308785 2.74591482286395 -12.8569537531986
586 0.892785592362392 -16.4869109278484 -18.9737230482561
587 12.768230532825 24.8948463858128 11.0229533464215
588 -11.6940403873875 -10.7321624108033 2.84608587221836
589 -3.57984468777927 -3.40479852505229 -8.51271798528725
590 -2.97329431234998 2.46957219155261 21.4104698873252
591 7.27336199305744 2.93830612404428 -8.02671559779744
592 -26.520378343585 -25.8575943068426 -28.7450644444659
593 12.1224609009243 -0.684267375335504 -11.6163094503128
594 18.4578704987287 26.9080739934624 34.3369683233168
595 -0.439504047843957 -51.2711889498684 14.9580913868239
596 4.5357818088704 31.1474951590783 -6.42993585660986
597 -0.94280254942891 3.26896207224084 -5.45930797527864
598 66.8901093404842 19.2343408982398 16.6655335787648
599 -4.9899947648266 -14.5014065097671 -12.1178366384738
600 -51.2852231297846 -23.2833922385697 10.8854902278667
601 4.59592290361691 -4.11118540708592 -16.2974590228002
602 -2.90179967470378 -9.42300736586665 0.987665373936689
603 -4.7915040387815 0.186423011609575 12.2277911731796
604 60.4717316756759 -17.950774284848 17.8425383752331
605 -30.2598831855011 24.1736172020085 -13.1745024233653
606 -13.9614104757118 -10.8732354792538 -1.82587125737381
607 -12.2018722761294 -6.38647979473823 16.0934976408738
608 -8.63056377717696 3.33913727476635 -8.44428300138712
609 15.9974072700895 10.1922220022129 -3.18083626732491
610 -2.33268839614854 -36.8468989390417 -22.2657861067947
611 5.46250404810832 21.7620077873943 11.2199598499895
612 -5.43738189597013 17.7796814369984 9.64163069250973
613 -11.0494630816699 -32.9406492705292 -25.2376768003558
614 -8.72066356239521 27.3006750706328 -4.23105109194623
615 14.8667501154536 10.8142549437754 20.2547884136497
616 2.23740244571372 2.18996673941451 -18.4660485180081
617 -10.215661085144 -3.37724279619076 11.4170913570805
618 14.9856407834839 4.28869032578588 6.37421069751883
619 -1.79201304414662 8.31225181374262 18.0210638716213
620 12.7956009364767 -11.5453690406984 1.97209134210727
621 -8.67110367096894 9.61306545128399 -16.4348894930465
622 -5.4135425250411 25.4332541791705 -22.4612903893715
623 18.9242842844608 9.03371480512942 -17.2527334350775
624 -2.28758577428615 -13.6745302130368 18.3760476458522
625 1.81255697755687 -15.5104111850416 -8.56351065092114
626 3.28451538849091 13.1888062337349 -2.16616497357854
627 -4.90541242749478 2.20321331212465 8.72332564579726
628 -20.9167726064098 -2.48766156477695 -19.2692862238397
629 21.9574371811485 -2.51104324382216 -0.446270417186634
630 -2.1098675418281 8.4912537037001 16.2344139739998
631 0.55506445446629 -16.6751215240554 5.73677005788612
632 0.0565170848573473 0.376037951650879 2.84329443144173
633 8.86847090938358 -8.65013351504914 3.14324478240232
634 -10.0143771786223 37.7907222558506 0.268306144997645
635 -1.40334885338717 -29.1616535234939 -5.35409085341445
636 17.1784929973753 -14.2076663733785 4.99517117475245
637 -1.53793397459335 -6.47810274607443 24.6383478861959
638 10.183652282177 3.58024138597723 1.65011413508128
639 -12.7502645804311 2.04269551831857 -16.9641315435925
640 -25.176495643244 0.382853406478448 -18.5360756876129
641 4.80350103273365 8.04567547116739 -13.5658810632544
642 6.18778004046699 -26.7935242267782 1.33311020904829
643 -15.2846041940988 0.580286269232573 0.926073361032992
644 0.579780267014529 2.64663865603274 12.6414284752477
645 7.71702938985204 -0.0881776828798102 -14.8327276632963
646 -13.0805417267306 -0.0314936040873466 -19.8245235709279
647 7.23474945116069 3.05792377963603 8.26071347203222
648 12.3423270219143 -1.64785250360697 1.49756660480692
649 9.16995703200343 -4.210377603365 -42.70794721675
650 4.39462037769287 10.1217912102214 5.09522966423933
651 4.61454320250971 3.79330288484848 0.166252187737335
652 3.23563521077967 32.4774581814018 42.3581459771216
653 -5.3325676206817 -18.1483146390336 -10.9481336006004
654 11.1146750256796 -11.3198349039494 -16.210243133257
655 18.5556647250521 4.87231702455741 1.30417663336041
656 3.5635354115262 -13.9781952329407 2.39549513278616
657 -21.496967678047 4.65417338541274 -7.34851346832738
658 -11.8342530584155 14.8265953801624 -1.99409724271322
659 0.254809990300612 -28.1306693647834 -0.385521155653677
660 14.9526478335837 -1.71468747847856 8.19976553288443
661 -13.6414532606836 20.7536190602782 -5.41113325105756
662 3.09051655048008 -14.441198572668 -5.97369082520851
663 7.60051041715398 -1.02590579825394 4.10207029988623
664 12.2324284815943 -10.5110098318795 -1.18789649502365
665 -7.57276229065418 7.83858299152857 -1.48221117753008
666 -0.469636657999291 9.94569462274229 -1.32038669190221
667 1.92425265252709 -12.8116132846802 30.5126715742883
668 11.2167363274537 8.56675978392893 3.295296563369
669 10.2881342727895 -14.1103642734717 8.48035229412899
670 -6.46494137688595 3.11441124950016 3.61644799774047
671 -0.288216107863962 4.90186389652545 -1.15907784635167
672 17.0658573802898 -4.40525970904778 -1.35733614977523
673 44.807332931599 -13.1566008720503 15.8902016294118
674 -28.335997461446 5.06624079470772 -15.1021076276272
675 -16.4507252170105 7.22544390981462 0.589787677834369
676 -20.0027586617646 1.45373293901559 -10.1697346100724
677 5.07808328674212 -14.6606601667904 6.92975413543845
678 10.1201012776762 4.66480204357329 8.17620162201813
679 -9.7638172877257 21.3671181699524 20.9864556512694
680 2.83202672727288 -2.60467665175159 -8.54686079993299
681 6.62115973754397 -5.80106063336446 -21.6899122851273
682 -2.82784832824121 -5.25583693524439 1.3884156878075
683 -9.68342249850147 -3.08777613024145 10.6163451814675
684 11.2567625525358 9.6634565957439 -6.44404992422393
685 10.96790823392 -6.84166929393184 -1.46029399422058
686 -12.8320131430505 10.7194378672814 -9.82796030478852
687 0.96524787547665 2.61249030488491 4.93962060892574
688 -28.7184900856431 41.5846801673995 4.81646246869312
689 41.9373419171499 -45.4385013983887 -11.1933871641273
690 -13.5707745531635 -4.80986947115441 14.7222947677512
691 4.72501102309783 -18.9484261480369 -45.9445242410847
692 -8.38267234532887 18.5918268063504 -10.728675465756
693 -2.38980908697053 17.5130266567422 2.68644983265646
694 8.94597202402514 3.08370909299226 0.235873503828979
695 -3.8227490224189 -9.80781147918528 1.48890929594954
696 -7.4973148373285 9.13141800767579 -14.1584077758364
697 45.3960495536621 -2.85254990704715 -8.21899971206115
698 -23.7274961656042 6.88971911374664 3.0915398775955
699 -23.8149925123435 1.15149445061503 2.29761908484631
700 34.0333352860334 -10.2248093975892 9.96560439050173
701 -29.1886362620416 -10.1578657433642 -5.79905187901922
702 -4.65195104205523 10.3091100258005 0.381850094219112
703 18.7731362281325 -49.9220140393896 20.3967130852875
704 -35.3945818524848 48.2146156424785 -9.2524209096783
705 -10.1133984388907 -16.6725303152786 -5.74413418902024
706 7.86113879372875 -21.8609085616758 -0.213509464037482
707 1.43227226829425 16.7801529553025 -0.946067788200913
708 1.31160950622922 -21.1221624066897 3.41793171948949
709 23.2077066662917 40.8207882809529 11.937150457433
710 -7.92933984922723 -19.073319565116 -7.37422220933264
711 -7.50141711054507 -21.3750347912387 -0.699975867681946
712 -8.30552769337608 -15.086457388768 6.93156492290579
713 3.54698466536445 4.84678285297048 0.959088949373762
714 7.31217829129104 5.56258418737017 -1.0573670134919
715 -9.39089120558591 0.375080937809991 -6.99182303160437
716 8.22105347487712 -8.97640567763815 2.63775599451877
717 -0.847480329742813 10.3956605408196 -1.24077662042082
718 4.32552157475678 13.4903087540358 2.2217891233779
719 27.1964128899876 -0.89985253827879 6.1636743509733
720 -26.6751813287507 -7.32052589313286 -6.85977344823028
721 9.90462971205532 15.2592763548409 -14.4712649053997
722 22.910194382673 23.4157369993804 -7.4136053290849
723 -4.57188616687432 -1.74651360592842 1.49688951981746
724 -23.4101302914898 -3.28509823610459 4.65297089837025
725 -4.82349319497269 14.8849167398342 5.64333866887982
726 4.61566253725846 9.8939888042354 15.6051600062375
727 21.8849017436724 -5.99948664890907 -17.4972402076694
728 -7.95234591468394 3.07298012585667 16.6649628452152
729 -9.10885248094581 0.897435203602517 7.3942403026374
730 -3.49329620833386 -1.66925046386213 4.00737747931729
731 10.7028901740615 -3.35430022003064 -8.87602377762496
732 -4.14119404506772 2.7069844528455 10.0817781022419
733 2.71341279763537 -6.99377267492738 -48.6244171809465
734 -18.304317014876 3.9291153024606 21.0618754147791
735 37.8635987600212 25.2316834622147 31.7179981889488
736 -9.76623033336923 -4.20494354241828 15.4729905012943
737 -2.43157811928571 -16.3938925722209 -15.499425992757
738 21.3735858833532 19.3489774403192 4.34652243014728
739 5.57283283120672 11.9518056752556 33.2793648109603
740 10.8964774264808 -9.13050882405619 -26.358245720788
741 -12.0901840405804 0.920817870748685 3.97309423188843
742 4.45007731860099 -18.4247180387599 6.13130302822793
743 5.7900229098493 10.4382557311174 12.0183174511659
744 -13.0366069494635 11.2869504142687 -11.83998834949
745 6.56266942954685 10.9614089761242 -29.5294824443734
746 0.789896135162322 -2.54162368857381 20.887088217106
747 -13.8872470027076 -6.64225416886485 3.14984340879617
748 16.8917369881812 2.7680658883906 10.4780392862454
749 0.904757113547076 0.61708131827378 -6.45327932794323
750 -15.7333799187012 -6.67000236884476 -5.65589691926295
751 -13.1644496168056 12.3399257420207 -4.76404323606684
752 7.47413492347915 -7.41525782026604 1.66752359384139
753 8.53785068125169 -7.65824904773451 5.55244148774801
754 -11.8770898216895 -13.2377774582155 11.3554740212588
755 11.4943852767226 11.4441432589809 12.2269455675798
756 8.51111036852329 7.9973706265734 -13.405700819255
757 5.54983117416034 7.61450482740094 20.0521205005858
758 -11.5574508902904 -1.23546259404215 -12.6097760625551
759 -10.7693934301726 9.33898762732559 -23.3265720081293
760 14.7043851881027 -5.46147637542421 16.3512529982467
761 -0.764236138262698 -4.66615317832151 -7.81268463843261
762 20.5413299453146 -10.5180431638906 9.6312814358894
763 -7.84301159461928 0.597030810063194 10.2402945008946
764 13.0335194407796 0.159143889625516 -7.24030028917871
765 -7.28937993429127 -3.51458588033147 0.71695874843007
766 -8.48759519563016 -20.7942716520703 -9.46588667877315
767 19.1330736702057 35.3911617381368 7.11228173699392
768 -15.9544525797955 -29.6736987830879 -2.16964460072084
769 -6.38827329398546 -8.03108169212423 9.32771034553463
770 9.67244453772765 10.4891762404831 -4.99271196161831
771 -12.5951246526999 -7.71838440400629 -0.537432769559783
772 -4.84749311053013 -4.38858109972079 -12.6087010068321
773 -2.77990055127524 -5.9537680170199 0.0731294876283889
774 7.14263501576622 4.0091740009512 7.23882973410341
775 -12.1442515743233 -23.1406379298289 32.491128709937
776 9.14974795780036 8.76928402310446 36.3697745195053
777 15.9081191304544 -10.390107254211 -25.2133716578965
778 -39.5721544369915 -0.326280900140521 -11.3272090086447
779 -16.2628347654198 -12.0357357472466 2.03985759434903
780 13.719509187807 8.6223712783114 -6.03184894827188
781 0.627170928817833 -6.23071187615132 8.18709088108985
782 5.30396613964325 5.13947010794284 -0.0470224883030355
783 -0.274234545085856 6.42686428757545 -7.14390697510457
784 -29.9657644577447 -26.0655730014866 15.0665492942607
785 -1.38013214901989 0.273716910525309 -1.279487281241
786 13.3677169443767 24.2201953155563 3.14533631850254
787 6.63621702261301 -41.4820660929314 33.3112775546676
788 9.39326476979142 22.9490261747546 -12.8643852396451
789 -23.2194443477074 11.35455373943 -13.2813292448187
790 -10.3642551270535 -0.34084770244921 27.2926234257751
791 -1.12220627385233 1.28598874650633 -11.0483255930028
792 19.5960897359264 -2.65444721575912 -13.0682782690113
793 0.183913206746456 30.0751518653096 21.9498873534734
794 4.8492153655161 -21.2166949709615 14.7240045023736
795 10.5243110948308 -11.2724847924393 6.82080529865135
796 -7.79908931711855 -13.7119324225348 24.0719330838474
797 31.3393250806967 16.1586966853003 3.59268013768827
798 6.74942056025417 17.8204791860708 1.50121182424927
799 -9.77298202904615 -20.4929095888576 -0.437777901258931
800 -0.0834171112672036 7.91232527853325 9.5906446916079
801 0.191564514745157 18.9782171551855 -5.00422007950165
802 -6.80656463899054 -5.56797787298354 7.90125676896841
803 20.2546196813745 13.8280284617026 5.20553681542608
804 18.5487706675889 7.19003359042872 -18.3124005254272
805 -11.0494110394544 -8.05532463137053 14.6343963953006
806 30.1868909882105 1.72942760583351 -0.707484039716643
807 3.97680314872724 17.4189884025154 -7.44926436220131
808 1.22185682468433 -15.989305470824 -16.4525148056886
809 2.30780303433159 10.9521130977318 12.5222951960323
810 -10.3298025616725 2.80466059128525 6.20458164728291
811 8.16482120947082 -23.0839577579504 2.07072027649663
812 -7.19096667446297 20.9631006570035 -4.46415966639601
813 2.66238767032041 8.78078340608471 0.153699978070948
814 -4.87153787440374 -0.609370524416185 25.3167079812052
815 -3.12451721154488 4.92320991453125 -3.90106948622792
816 17.3040355713751 -7.1095734361738 -23.0517287836044
817 5.6651339473323 10.4984099967397 -15.78172723603
818 -9.48701452824065 -14.6439472996642 6.98200732655497
819 -7.19290179004272 4.29622199212473 9.42849068837467
820 -24.8790711099492 4.20816107617429 -2.33669879266533
821 11.617336028488 13.1656860902338 -6.93545063600344
822 -21.9014519128524 12.2606866753518 25.8401853318527
823 -36.5414713267861 11.3532938570176 -17.6306597804574
824 6.67762875874915 8.18337796295562 14.0366256962382
825 22.4122582265862 -15.5518141795331 -2.55702911231301
826 46.1401689848938 -0.618630152251693 -1.28866600351335
827 -29.5132053625287 -5.92890709408316 13.5481926155239
828 -27.1400651801101 9.01258553691655 -21.4477132065732
829 -0.077979225075265 24.474296377499 13.203419921795
830 16.1202564155719 6.99210169419667 8.74851692999252
831 -13.5615791169333 -13.8171482265119 27.9447146727231
832 30.1415104464471 21.9950631827223 -43.143167509904
833 -11.5194131483778 -1.56893810443916 18.2216255481657
834 1.48075357361364 3.79616586604568 -3.85369935682001
835 -22.1751009779776 -5.29126838689855 -7.77781057795516
836 -11.2018197026773 -4.16568081373747 -3.76891689047815
837 14.9188789527422 -7.85767268941489 -8.67412209299816
838 -2.95471350358245 20.6953390723123 -13.2067344907709
839 13.9200189197959 -9.75867583966215 2.17389804680375
840 0.285035972830048 -8.60284849554523 11.9699293915331
841 5.5404051098624 19.8745450336448 -16.4006791896907
842 -5.36766903779532 -13.9276910652559 1.02398896333259
843 -11.3786132798311 -6.44876169780936 17.3204157570394
844 -6.05407154180144 2.17734141342011 -9.01749175203457
845 3.44743620949082 -5.19851909376664 3.86370719208421
846 8.89779054807386 4.01104890673923 0.983050302932828
847 22.2666410515909 -16.9202468601124 -5.90333777852257
848 -3.86482183507086 15.6550254096754 0.214005486858576
849 -9.69555381405823 8.28250868007924 8.79698524936964
850 -9.73716526686327 -47.1638228581026 7.7658056971183
851 -1.55241550798407 16.1955027353007 -5.84494004666155
852 10.4507703216597 26.9727226814582 -6.35617108888292
853 -12.2911633892567 29.722385244485 -15.2995451044583
854 1.90114140296893 -5.69134537821819 4.42195264351468
855 24.9293624493144 -14.092568680955 12.7173242370066
856 22.9227325483217 44.5778816889174 38.0440654491758
857 2.01596611299991 -21.6486496443079 -0.891846250198597
858 -25.6547677392929 -22.78516282863 -40.6550256641269
859 -8.20096741933238 -20.0516557119539 -9.007684154975
860 5.26620660348139 14.4685200826568 6.64451799551697
861 4.13992585746378 1.26846468912277 -0.349094855845063
862 18.6948225507402 -33.5727719179727 -6.90385592505371
863 -19.8479489234206 -1.34557342609073 -17.928643843702
864 -6.56781545721231 42.4349123718331 24.4215940066733
865 25.3496715801413 20.1429280084576 -35.9766371736254
866 -16.1544706453353 -5.65245973172111 33.8843455487191
867 -10.0845012052205 -16.9962286835297 -0.00480774231773269
868 11.3116750707084 -18.1443569520819 -0.725205492866793
869 -9.78116699369485 16.811506729301 -3.31076451395871
870 -1.05663324076603 -1.06542041709266 0.198282284507304
871 8.45849778835692 -15.8644177410447 34.4575464071607
872 -13.4405503384309 6.66663090117894 -29.673805128257
873 1.30293748354405 -1.31770819382914 -1.0266010278584
874 -8.46326125675321 -40.7235261986576 -1.87266175160099
875 -5.24231797034629 8.68327271291811 -3.06464307414691
876 -8.90983279973056 7.64397473804082 -10.0625918889847
877 -3.12233402418799 9.47084570160497 -25.7103816755561
878 5.18064349769394 -9.96071959479327 16.3503311955822
879 -5.04815428931503 -27.4708865511683 -23.5127265853286
880 -8.45611431871433 -12.1769462647277 3.21532612378054
881 -7.74322054422819 12.1261846322483 -9.91504606947035
882 20.364330720999 -3.94723106864002 4.05929783649826
883 19.9023137579136 3.21884450210006 4.57581821644471
884 -9.34113238916392 2.79739726931453 4.74073041046949
885 14.6623635786092 4.94161433167556 24.7549345718051
886 0.329897243103365 4.22123106232627 -5.86576501677435
887 -6.75402939550371 -12.5725525038446 3.92133899619875
888 -9.29651938480282 -6.09271096618811 2.3284291374542
889 3.11964449626686 -9.57346284546594 36.4958647155284
890 -7.05588224545777 -1.9673914340473 -29.0319887966118
891 -2.92791719709901 10.1008951571985 -11.0828474054456
892 -1.81407264311491 -2.77602270651136 11.5425305110271
893 -7.91874300796153 9.55795560938751 -5.33442237323879
894 14.7026191196215 -4.12897717900528 -8.36318340904635
895 -11.8934254386378 1.61949853107594 -28.0087533579197
896 15.3893771264392 2.10059158740438 4.52808808511276
897 -5.6333664407596 -5.02207994165112 25.6894677182533
898 -22.0290750330992 -15.9735040262607 -20.7326471813907
899 9.17286949252361 20.1081039962573 4.95525885046781
900 14.1711117548374 -2.73979943898394 10.9410517536954
901 12.1033062836954 -25.8941503963562 4.00030519182989
902 -14.229130576017 17.6353310314853 -15.5665250636739
903 5.18486372961974 3.04721403795393 3.80363538345773
904 3.32915577160143 -18.0826480535216 -9.30134353629815
905 -0.0367532864082884 16.6357023227405 -6.49219369309214
906 -19.003945438802 3.81911391660918 8.0833619725574
907 33.4162625013681 65.8572213479612 -46.0326522299094
908 -19.249943339684 -64.0069718107701 19.7571842926755
909 -11.6247822862221 3.72726246980014 22.3553098097617
910 -10.9912264348194 6.38353469327072 -3.31523368527188
911 -5.1149688389161 -0.22996235169324 -5.60472877121291
912 9.11019791642822 -10.4536442617812 13.3405225693586
913 -10.2452121422235 14.9403383026344 -18.5116147039573
914 11.6062942864261 -8.64538043597167 11.2632637622186
915 -3.88256368835871 -3.68054983978347 -4.54389300696895
916 25.4384520488213 -8.09351119033341 -26.5543864568238
917 3.14592374124503 3.34663638965604 20.0154570872524
918 -27.1125514807018 -1.80741309238065 6.37814210408879
919 -28.4981347121564 -49.364204993862 21.8862629541313
920 21.0913088910539 15.6894383100992 -13.2554044128944
921 5.44698100578419 26.3900261460866 -0.578368783587988
922 -9.48161911731482 -16.5653501138755 9.61128017601447
923 16.6259062400855 -5.31831193518203 13.5311018796099
924 5.10305697026002 -4.41605894302558 -8.76712294591887
925 -23.0731425567234 -35.279274602153 -12.9420158736863
926 17.2404435934472 33.1503314253494 27.7628221718326
927 5.46665915739414 1.31055511749518 -17.949564277882
928 -9.6046479666991 -8.84503696354285 -0.86437585978162
929 4.9253044499337 4.16119105160073 3.41247692328484
930 6.49704953088135 8.51148236673379 -2.42383424516504
931 29.2376397051944 11.6217759531422 -24.992021037667
932 -24.2767479106435 -9.32153138344754 32.4414083163183
933 -10.738600964555 0.0935876069497819 -9.20720197105545
934 -22.0629049431175 -2.88963526851489 -16.793395820358
935 5.90323039792508 4.47999809770702 2.97908493166794
936 10.3157742182085 -6.0212444233484 16.2798692133436
937 2.28384686548354 18.8571287091217 14.5356408590626
938 12.0504015904194 2.45497858325759 11.1213356261982
939 -12.9692917695204 -15.621627699873 -30.0927383155712
940 24.6361537900263 -10.7707772832588 -15.2519779848817
941 -12.4491842618579 1.09827376487517 -1.75974742109809
942 -14.696952528117 6.59387838312545 15.8686168113857
943 38.4918556271737 -36.1051449788747 13.3007764435048
944 -8.52519290808847 35.9019337878941 4.82639428012378
945 17.4380624891844 -29.8783080329586 -39.8798507500533
946 -28.5778596163184 7.65347683422218 -30.0440331521038
947 26.1608435453347 -1.3164107401144 28.1041620743733
948 -10.954080233049 -16.4802682080659 -5.87441720624675
949 0.501827268942973 -2.1528560329291 14.9156086568751
950 5.41907099557124 17.7366649524134 -8.0032316803353
951 -8.53241672012812 -12.4041587137927 -1.82902991017224
952 4.55999674455258 -6.47761235599231 -6.38170376463079
953 -22.3590261896599 33.4176143479858 20.210808921698
954 16.6038144993221 -11.5655614850884 -14.7065230610606
955 43.3553115865098 5.78536469929492 29.79043811324
956 2.13881369761495 -31.1923762366741 -1.70026095480634
957 -33.0230711816146 11.7387176397171 -24.1836790027116
958 -17.607499548034 28.1954706924826 38.6657318458976
959 -11.5114907128603 -0.751912847050203 -14.5446730283941
960 5.42692847708047 -14.1798260907427 -19.6490563980059
961 13.0594511807148 56.7302739204438 -19.7584007858044
962 -2.712725058331 -10.6872114916289 4.29299035449611
963 -11.9250690252019 -34.2334858376894 4.09436070404718
964 -12.9902862617706 15.1262679413282 -8.92686636952169
965 14.1212026756017 -5.61511889458514 -7.42205662400467
966 3.26423812344177 -4.74200971440739 14.296862943459
967 -24.2917622622775 -11.8145671766958 35.897182272291
968 3.81590388205816 14.1956880106236 -5.05661750590881
969 4.05623786350956 20.3784762391853 -32.7408610777272
970 33.4109333251595 31.0451688368976 -27.6384736210223
971 -27.137279545789 -13.3495019009421 24.5987528473663
972 -2.07705623614729 -24.6285916535441 -21.4681854233535
973 -35.9441283870776 -2.68303252611063 -0.855658364419971
974 8.50520656388232 -5.73427326352278 9.62391064178449
975 28.1962483739332 7.59974667971582 -13.3650231479925
976 -19.271960916366 6.22881327806984 46.0118009984234
977 0.475798634512587 18.8333432810842 3.6046480888743
978 0.32294444338417 -0.245245098674032 -5.17598874780438
979 34.2071453763785 -12.5518271150184 30.9534833298374
980 9.35790129000173 -5.79455736133374 -0.919867928778439
981 -47.7459534895007 19.3103459797888 -35.3566225853078
982 -6.21935161938135 -1.2534405931213 4.26804237882937
983 -1.50786295705752 -8.69240171054187 -5.47108451372681
984 3.0353955983882 5.15098761919833 3.24172552970131
985 6.17982668312916 -25.1547032031388 -6.30287150793469
986 -17.1574270543763 29.4150085418697 5.50794506161043
987 0.935309802752144 7.06580032550355 -14.8027840179147
988 13.1430051720005 11.0268880626235 2.28681802147734
989 6.28385505289941 -0.810042657531004 4.31681508643843
990 -23.1455843413151 -2.78872444054536 0.183678657034784
991 -34.0856797802025 -59.8493159316166 -35.2388891464369
992 -8.24315738710204 -16.566694323221 -28.1115448568048
993 11.9969666922831 51.5727435751586 -20.4077646737607
994 -3.17365104485195 -29.7002601513974 -8.63657599367752
995 -4.82712878589687 -15.2895214916959 14.2002458626686
996 -6.54566575241249 -9.95287872732501 2.33970070146445
997 10.9532705018164 -18.1373412393792 -20.1909352823117
998 16.5618921956801 12.1791127513189 -4.72914536111566
999 1.40885025986506 4.16956096290369 9.46218310223309
1000 -17.1190974058268 -22.6633085823973 -8.7438638390269
1001 10.4667688506172 4.9427285649572 31.6477685261853
1002 -0.612019234647065 12.8383300621497 -31.3982715267517
1003 -3.9078001875223 -8.28876153844759 13.5221714302105
1004 -7.77310527874312 -6.88716340980263 -8.59148798440094
1005 15.6534414205538 5.09672231047747 -5.43187002498879
1006 2.30286069893671 -11.8340390923697 6.20652176683224
1007 -11.0037838378818 12.785847110511 -16.102473535435
1008 7.33285682101256 -0.890936166777335 3.29000961701286
1009 -9.50656938377892 18.7560903095126 -17.5717181874567
1010 -6.47973821131225 -4.36668790499061 -2.26399979926705
1011 13.2273030662395 -22.9379760446022 14.8992727532143
1012 -9.28772995642057 -0.155529556753577 13.5644424561424
1013 9.43142774483112 1.08984744919922 -3.93357640067739
1014 -0.141098413964728 -5.32473364998268 -8.10019661921892
1015 2.57041694324668 12.3443342518974 -6.26320870840784
1016 -1.06333959980383 -0.828084889828887 2.49494246630183
1017 2.5826243041508 -13.5045517462436 -1.99746274654863
1018 -12.5067131883553 23.4425302020184 -1.86596013885628
1019 9.48891000541405 -8.11216007299302 11.0444781667937
1020 9.20543566129823 -16.6262953685253 -13.3426076567681
1021 13.9195318281384 -21.537836594196 20.6383981831427
1022 -9.11933032000035 7.0203198706803 -8.00043084184214
1023 -5.03874032847737 11.3618681233947 -4.10276361952547
1024 8.12512220914438 -1.41910698765984 33.2116293385028
1025 3.05475712859098 -7.39086073393411 -14.448115745794
1026 6.73589806383087 -3.22042729564447 -14.6855949952813
1027 -13.433682358163 -0.155728102010244 -25.3893140438291
1028 -6.31741696278337 19.2557544537394 17.4936395533092
1029 14.2443555808869 -9.83748609671476 5.19307403862331
1030 0.479586255140966 -14.3384347732665 3.10118515153203
1031 -7.90525506214471 2.35726447292251 -12.9555440623935
1032 3.98267068040502 17.434803971171 20.6068394938167
1033 -24.2235573710397 17.5674960022376 8.93428634584079
1034 23.5685943673575 -13.2521281860186 9.20376813275489
1035 3.16615637864493 6.65558837240942 -8.59732514271607
1036 -11.289021682871 23.45206331929 -40.2445135112721
1037 -10.1591600373547 2.19058579430129 8.15910030125093
1038 26.5642401272777 -21.0472051603881 27.2252998317096
1039 21.3078067617038 -46.2918165590509 5.09518398264878
1040 -1.74822112963247 7.78025141023719 4.23481136035539
1041 -14.8754851108697 27.1635042277483 -9.6396627824598
1042 -15.1526656117079 -29.0893034674772 -21.8396226063758
1043 6.50721952170403 15.1959602385619 0.468208011989573
1044 11.2156804371087 7.74473568381987 25.5839792397023
1045 18.200732085576 -12.6477684156354 23.7535207285687
1046 -17.3882430447427 18.06088438947 -20.6153766023348
1047 -0.663481845536967 2.17927655130581 -9.18851652154979
1048 -41.2233330075771 48.7813062492676 17.360185473672
1049 6.68353864024216 -8.25043233811726 -4.90685754310133
1050 36.1059132240062 -16.9965882665077 -18.8056921892378
1051 -24.6166812535869 -24.982321126571 -8.74011857081548
1052 -5.11499755486804 13.8829033431088 18.8533282516654
1053 1.16598579292218 -10.8566631031201 6.5772229209988
1054 -13.9765074713522 0.915934074800202 11.6250236741697
1055 8.9544678579082 -3.45184336144998 -6.19837184890972
1056 0.269113459292146 5.74499554219318 -8.47094037569343
1057 12.3704535882593 -32.1217235594495 8.10400577740196
1058 -9.38034924212866 20.4319488948467 -14.5446510390495
1059 -9.16200334953364 11.0069498940873 -1.42026484775916
1060 -15.8971371077629 -13.5185713783386 55.296241078928
1061 -9.82056431416347 16.6108528218053 -19.4344183854766
1062 5.73013575062186 -3.59319794389757 -34.8334920749099
1063 -20.3299299696004 15.646051968947 9.09793713013463
1064 -1.35105231869396 -8.1226642957796 -12.3909759416181
1065 25.0455991358627 -6.28469077349111 3.64697241031817
1066 -4.42348116655212 -17.3647957181575 6.99545628934545
1067 0.111351749288629 17.5468866126075 -9.43895088541267
1068 6.56548424564685 -8.73381381945179 -1.75735997321714
1069 -33.1323184784417 -7.13142699727975 2.35691927408538
1070 -34.5078456363068 5.6825742268175 31.7191709229253
1071 1.27389255817853 10.1876875443123 -3.46861276644561
1072 -19.1897198721435 30.3227838705686 13.9013380667963
1073 12.2827765938999 -0.952351515477861 -21.0730679620487
1074 7.90926984371655 -19.7965579973584 3.33950983375156
1075 -11.3496918607152 -5.78609769538305 2.35395530258254
1076 -1.77319989346665 12.1981678876171 21.4185811773132
1077 12.1137949520591 -2.14421014108718 -24.0647583367146
1078 -20.9592353917167 -5.57775133777351 62.849737624734
1079 3.344306659027 3.40268636881756 -32.4995546972083
1080 -8.27822045365196 3.10362361908187 -19.4893615017022
1081 7.29674607713952 -5.23483004029734 14.766076429317
1082 10.7741482070403 1.87293482122797 -11.6343899951511
1083 -21.2150647085069 6.09339273226017 2.76938677750166
1084 -35.4239159212597 -12.9380408985595 34.8190971382438
1085 0.319847495692543 -13.7132061185476 -11.2258395652309
1086 5.60857715354427 -2.21665887042102 -6.43202519566474
1087 -1.45743308128671 15.0624112447557 21.5101534620766
1088 -3.71718227603526 2.04784274475127 -15.8856926319063
1089 0.349024818948891 -27.9570623222226 -4.02959401904555
1090 -13.6619586429346 -4.45140750549543 -11.6425144141561
1091 -11.9888030004343 1.64067680323785 9.97332685850696
1092 16.1508691745485 6.54783994199433 8.47675021621933
1093 6.7650542862541 4.71969238696768 -3.46822773492335
1094 -9.82859825258067 1.50677548185853 -8.80224630337472
1095 -2.46073566066848 -15.9482104504267 8.38588943196532
1096 -3.86964998655402 -24.8899549950967 -36.5497502727251
1097 17.6447046481577 10.8488336926343 24.9412538963633
1098 -8.46262643788257 11.6424022451371 16.2747017749085
1099 -27.2792107599407 -1.32527676726701 -8.63897367029339
1100 1.06126231702093 1.47655230644569 9.52842225746884
1101 13.5939716521229 10.4850013706164 -4.8794255162155
1102 2.99102573099745 -8.8952516311654 -21.1890497865266
1103 11.0301926126833 -12.8714401990096 -1.50173156506757
1104 27.2759714957436 4.2946807042035 54.8519037852025
1105 1.21086596863346 11.0033864493803 4.15094171310052
1106 0.257635036267796 5.52272304973043 13.2558894243466
1107 0.681682961079403 -13.1350283182411 -14.4651816408906
1108 -1.56543695733414 18.8379423268645 3.53999847387847
1109 14.9224406399378 5.39446652487044 9.09774402485654
1110 -2.24681952658286 -4.97982880922185 1.5868008407497
1111 51.673450750465 12.8011284961831 36.6727571328761
1112 -14.047413397961 -28.0912155207246 -7.01205860506626
1113 -29.460519212525 17.2634602648312 -27.8714078678904
1114 -17.82490733698 27.8964753577952 -13.8022826474783
1115 3.13866087429562 -13.3107642698451 21.6105064537428
1116 14.8929368845745 -18.6805758571385 -7.27579871479624
1117 28.6767398093738 -4.22547783074534 15.2905405431736
1118 -7.02578142504248 -0.274719037861152 -11.3576979206937
1119 -16.262112678389 5.45727510587925 -4.79213166082652
1120 -27.79329285528 3.14789713982941 -7.27278969421302
1121 33.5224109195331 4.37283167222892 23.9438587860283
1122 0.856501742876124 -3.11534334848302 -10.5100420148575
1123 -7.34136423379492 -28.5680498465697 -17.7464987648542
1124 2.59968264020505 16.3497506754861 10.8549175562
1125 -4.03964383476067 9.99905457932916 3.16011609515266
1126 -4.0393746119491 -31.9125318506051 19.6949605295935
1127 -6.10055589895156 3.10185125787369 -14.0907145032914
1128 11.203857948428 23.8480446068525 -4.65199401336444
1129 10.3477268106142 30.761918631125 -26.2686276687795
1130 -9.92469653092146 -16.7485395908177 -0.187625896865594
1131 4.56651332680228 6.73468349763504 -1.27236462028805
1132 -23.4488099744364 17.1740276773187 -4.02241873685831
1133 4.22399001328992 -7.03091875315991 -7.92107660032553
1134 10.4825216321343 -7.1146840915954 3.94224632041005
1135 -49.5320493718075 27.4292162694161 5.69406874500058
1136 16.3000065118159 -15.2002562463066 -12.6968249643933
1137 -1.68342980122231 9.67834551482853 9.04236960404304
1138 -29.9641996421899 -2.79977235766488 26.6495729388516
1139 10.3859215411668 10.1538736796164 -1.4400947153965
1140 3.72057563575401 -5.81206501147177 -18.1139963181936
1141 -46.8910718247041 -32.6531910765263 -14.9701040327697
1142 6.46494488708035 13.3635182083026 -18.640915493109
1143 -63.7660426448322 -13.1990218238165 -27.676574382786
1144 1.16462939570098 -9.50647747145295 2.41440735234817
1145 -10.8385157541439 -8.45241868943879 -8.6734701539588
1146 -2.30564700602962 -5.21762240597371 10.8724991975385
1147 48.6347173891625 -0.968481568940907 -18.1959432827851
1148 -43.1469839356026 8.26877105232577 9.69345726596756
1149 -5.91424180999725 -7.48341729469001 6.23609909853834
1150 16.1121059806383 36.6255919015703 -2.00158723327189
1151 -5.55567400798355 -5.91275048280549 -0.205053490037796
1152 -14.6380573417899 -8.75904525803848 9.08800507915894
1153 -28.3973717398745 29.1547487482072 5.68012033211962
1154 24.2306130252788 -12.9554187792147 -12.5015104325677
1155 7.80721595137245 -29.1012898535738 18.8725183326818
1156 -2.58105694328451 -29.4697820217423 29.1751692232503
1157 3.79280897726147 12.4433522082619 -14.0184674863659
1158 3.41645592947543 15.9473775799507 -0.0238315439717858
1159 -1.76172373988777 -5.77220973363798 -17.7205340873846
1160 -3.59659578745372 -9.68439131071361 -24.4681408760834
1161 5.97409900604486 -9.65916570721393 -1.54869392311954
1162 7.64114494740074 17.1642549227009 -18.4441786029599
1163 -8.87675762991239 -7.84974759600441 5.41350639613108
1164 -4.13946893559619 -9.51278542789004 0.786872095027273
1165 -12.094632832855 -4.10531438026247 -21.4127220652536
1166 10.4658032151146 10.3484548550335 6.97985389643141
1167 -3.88631118987895 4.38709708551601 15.0871108132897
1168 -10.2817124886304 16.3730043974631 -13.401023704772
1169 -30.9399332362925 5.49117158145518 2.74785341611081
1170 12.868357813713 -3.04501957839763 10.5385011032843
1171 11.8975323447744 5.10107462596842 15.4151853394174
1172 3.07297494874042 -7.00158715255307 -13.0988570293975
1173 -5.08520809519893 -4.22997074759601 9.08993873999973
1174 2.83931778329026 -14.2114690287333 7.23951264975798
1175 -11.3187726063855 8.57410798184707 -2.04447488538773
1176 8.9824021509072 4.91230747767389 -6.21580123603905
1177 -3.88657200749363 13.1033957806507 -17.2398390660142
1178 -6.1056902446033 10.3885548732341 -18.8410106185568
1179 3.82999735345877 4.82435392078421 -12.7162329178407
1180 10.5231414658025 12.1557307703129 12.1692666614641
1181 3.39747920807726 25.6513595489429 -12.7593490822172
1182 -10.8573780922657 -13.0868024215569 -15.9523868245672
1183 -10.0576073193497 -19.3969924847018 17.2994956828323
1184 -7.33101290456737 10.0190944116368 -14.7912909620783
1185 18.0354511736889 4.77532781693058 -4.73443867563466
1186 2.04206218583715 2.15216031227772 -0.334020059792646
1187 7.57357839640804 -17.2005655032084 9.26903901654868
1188 -3.17392767989152 13.5797446102448 -5.73143361125038
1189 28.4766138331728 -22.4241487584002 51.8828206520719
1190 -4.80956893030359 -10.1652623388088 0.144451799656102
1191 -18.1817292833304 26.2923359913541 -5.4795666993637
1192 -20.3761718591627 -7.69366640060788 -1.90844070742546
1193 11.8874667866919 7.55432721433629 3.70917297274587
1194 14.4045120539563 6.73163480404662 4.40979840203774
1195 -27.9836879711068 11.2302417452733 9.05607438957499
1196 15.4314203035078 -34.5520595683968 -37.2171064986117
1197 19.2506855303454 29.7447607893214 35.8747856748679
1198 -33.5163703199599 3.12328857672126 14.7147376149898
1199 -17.6746018385504 -22.2494481729026 -7.97653784544095
1200 20.5741962601607 10.5808530631018 -10.1009942031149
1201 -33.2527585304112 1.29738951111627 -22.2481704070174
1202 37.8332351855798 -9.21732417485688 23.2641604285465
1203 -12.7856088606344 -0.217444916029467 -2.07797811764222
1204 17.5200530865948 -1.76431505075938 -9.51729157499584
1205 -1.28734216352647 -2.08910853151049 7.75045956961031
1206 -2.59701665504154 -6.39602344176523 -0.553436917254108
1207 -63.204159671058 20.7026882849712 -2.56897241267632
1208 35.5594685755567 0.216200117276433 -13.4716350016175
1209 28.9999975671497 -27.4710441178069 14.7628123853153
1210 -35.5858078481129 14.500888684262 -14.31580975132
1211 16.2410306205632 -9.37907018297742 10.8000864899243
1212 3.76730938239747 1.18472226228358 0.170371785793326
1213 2.91109882725998 -3.41161766378719 -15.6417308080887
1214 6.35439673202829 -9.15903432911351 2.62597541368971
1215 2.44985801866415 7.1319548841458 17.1258122657548
1216 -15.7744534334048 -17.7487749547616 -7.08219119169848
1217 12.7292050327461 1.96851790136857 -15.6598382944354
1218 0.450671052285433 15.4242194721023 -15.241211573346
1219 32.6041921223626 15.5222965990945 -3.2685175492211
1220 -8.99951896642713 8.22315093789721 -1.82785924638794
1221 -23.4495979905491 -24.1552512724955 3.30953266941228
1222 14.0159260681515 23.4780973586593 15.8030537387941
1223 -16.0868683169971 -18.6206973569646 -36.7059481722482
1224 3.50998082690247 9.16855658525936 15.8205391464367
1225 -3.52108796492296 38.0996851119179 -7.31308284319404
1226 11.7227248145271 -25.3456012771749 -0.731080748737121
1227 -14.5571952624454 -10.7379967004783 8.951293764098
1228 43.1690352822281 -43.6486264811526 -1.38080204328922
1229 -0.0640252393819253 -0.617972934871156 7.66851902542655
1230 -40.1989625002257 42.0391260072902 10.7814285374083
1231 5.32589473628256 15.8049735373621 3.87392334360048
1232 -3.92064643229465 -11.182057695715 -9.75865858711935
1233 0.426404147764705 -1.98677056278846 1.11501630556283
1234 -43.7140924442464 -50.4417339877579 23.3834056363437
1235 45.1959280247884 1.06947580091018 -11.4649578214857
1236 1.47734060893292 42.7355795334356 -8.50650255037809
1237 -25.7144913089306 -6.16930935512895 23.195237424052
1238 2.91017838190188 1.8446157335625 3.11897738036645
1239 20.2881839989682 12.6469607653323 -22.3463178320309
1240 -27.2885596259117 -15.3039941609577 -34.374979853072
1241 1.99210065416191 -3.60512539570431 23.9925829270001
1242 24.1469314755191 12.5271256348625 12.2366073485398
1243 -9.7146971640162 -15.9974709740327 -1.61964432964021
1244 1.52105111472857 3.82568945839456 -10.0095460380888
1245 9.19460890113713 1.355035560757 6.9814845823099
1246 6.2902804131151 14.011881490508 0.937766511797709
1247 5.37302227153736 -2.99127326141304 -7.97967499505149
1248 -8.95044381372896 -0.174675529057803 6.03374934668206
1249 -42.1739314161417 -20.6464583604095 16.0981682829293
1250 20.4680362528985 19.706291411653 -7.50539216129427
1251 9.53865717501824 -12.3819074305503 1.53404966182472
1252 -15.1105876710967 10.6061034498755 -10.6303775969878
1253 -6.18410232751284 -18.6471465856993 7.22661382166193
1254 -13.3673953127316 8.56841200135308 11.0215733936783
1255 -16.4718606966327 19.3107032251618 -13.5250476323418
1256 -2.13200676437661 -4.77078941870534 9.88709475392519
1257 -0.364635883385664 -16.4699217933223 -12.7208707545701
1258 27.2065522876937 50.3751874726127 -14.1418835257813
1259 -12.529511604891 -12.9207936749876 5.36099606116312
1260 -10.3867936380034 -44.69285758268 8.51081205387952
1261 4.71280193320371 25.612191688581 13.0669115672672
1262 6.6577678255206 -12.4603709101926 -5.19563575196095
1263 3.82803920743589 -8.0461351912597 -16.1588221439689
1264 -23.5239103840554 9.72058180618768 31.8472004068164
1265 15.4642013583626 1.23558463493685 -29.9175396414772
1266 6.85234708041011 -0.338089346605446 -4.05117804344196
1267 -16.2340030480997 -43.7849483066466 24.6295261808733
1268 -8.01650409756253 9.49797632104464 -14.2236927830086
1269 25.7481221893516 20.0645354894005 -9.09466591066947
1270 -9.34367729065316 15.9708290663257 -39.3187786591758
1271 1.86557271694177 -16.0322347816788 27.1353260887933
1272 -11.6488045291975 -7.49067850137484 -0.380860723026318
1273 -10.6131521805701 -23.2942452190736 7.60283070850169
1274 9.49546097271236 -9.73156856580075 25.6820539920917
1275 12.94892808011 3.88753460341464 5.24804821411627
1276 -13.4889883312912 -35.942492060798 31.1946175152209
1277 23.374502605329 41.2259861556576 -12.5670599168951
1278 -6.92869465415587 -10.2156468773244 -17.8729573165917
1279 21.7658181364533 -19.1441903267579 -15.9054650805793
1280 5.07109169763141 1.14074860064977 6.12477025080596
1281 -27.7169110521975 10.4389109993893 13.1196379363668
1282 -2.91096869032809 -16.6900692924844 8.93521969743724
1283 -10.8554352258559 8.70649552289038 2.87894930907965
1284 -15.1731477393137 -11.4429450238837 30.8811290930733
1285 -2.32323304891498 -14.933137339696 -24.4912378135456
1286 0.98925482175836 15.4398539349445 7.47721633135146
1287 2.58152440083492 15.8741700707311 -16.2495080127897
1288 -7.72782361296616 27.8533834822742 41.0069567641588
1289 -4.3859673948052 -8.39082010670251 -15.5563206174587
1290 11.1476668623085 -17.15379833998 -20.4668926494967
1291 24.4179914261716 22.0920336019861 -23.4110675740886
1292 -4.23663011377724 -0.976664335194467 9.51345295642767
1293 -18.3260107414144 -21.1366191899006 16.118104777017
1294 37.8366705597418 -3.30343365039914 -7.64657639280463
1295 -15.2559447106082 -8.36664319855761 0.948718834823017
1296 -5.61258003246134 8.74911615000454 3.77469137805613
1297 -19.7144873381052 21.4246253949318 -28.6225038771716
1298 -14.9260405098778 40.8664047247012 -11.3756920426127
1299 3.47355370729691 -11.2848105812207 10.9602446786058
1300 -7.12381914456912 25.1480881250914 -46.2147321112979
1301 0.362640616733375 -17.7117699380859 36.9086194469633
1302 0.72760928395138 -0.542270826563207 0.929192985689648
1303 -1.09044374599159 -0.423354876867756 -12.624197171487
1304 8.37104545072131 4.24048102850789 15.7436215782927
1305 -1.69356782283125 -2.50880695029306 -6.88758060499204
1306 -14.3527304827761 0.521750509096702 -20.6413458074391
1307 17.7767417140439 -0.211326336820682 18.2966589309316
1308 -9.33248227626022 -1.75378568337593 3.05910968827828
1309 2.29370574243841 -6.3341752286849 -10.3589370907081
1310 -7.46366737810899 -3.10028228470838 -2.62227455556556
1311 2.0322632005206 6.05991939110843 5.68125876719624
1312 22.5450204434446 -10.2905410172339 -46.6539578523099
1313 -8.13320382115622 12.0508764229841 36.0644432814582
1314 -1.5041051406362 0.517805136546053 6.41231739315239
1315 -5.04036070287404 10.0403373729069 -9.26372994067639
1316 4.43687376249377 -7.12448039974668 1.71883433548619
1317 3.55922822039894 -2.72681649070847 6.15972608310366
1318 -29.9762012938393 -20.6872681493655 -8.49401946180332
1319 25.0928928595499 12.4961376969786 16.3185209186052
1320 4.56111570646719 8.29227439130622 -4.08102420542011
1321 14.4761895679739 34.5956698375531 -31.5143213481717
1322 -5.51685734256443 -8.76857349492586 5.90908820789084
1323 -7.62542805356436 -20.5167527302006 26.8131575607811
1324 24.8513596380263 2.74425209284832 -30.2778278002747
1325 -8.48363489996279 -11.1237497273612 18.6068467811141
1326 -18.5820497196971 8.74519976214156 2.94944413861628
1327 -30.8883768867347 12.2477640087476 -12.043455614929
1328 -5.17282915782314 -12.7568903843861 17.5728685118748
1329 -4.38575313512465 9.18440131664595 -7.89088285503172
1330 0.888355491314839 -45.2035386989835 49.0436217478163
1331 -6.96209545788097 43.9374030723199 -60.9571409408634
1332 6.00978241144518 -5.08540462219636 6.69183795123031
1333 -12.8387314189513 -31.7172159953038 9.86587422165474
1334 10.369241921552 12.3174281134784 -14.2004824604549
1335 4.89794380445931 14.5954591062673 4.12785685546565
1336 -24.5135614534691 13.0775979369885 25.9498589644818
1337 18.0397624563474 -4.20289694223305 -8.66550547695624
1338 9.8493822612688 -7.69127499115565 -19.7175334839375
1339 -23.0199080636953 -13.5346119567002 37.6689407024319
1340 15.5990383191436 23.3044546146078 -0.503478270717062
1341 8.43209421955976 -11.9117537397709 -26.8510751271133
1342 65.8563551021871 4.11201996336453 8.95824116795381
1343 -5.32941709168764 4.96748399037642 16.9903474972189
1344 0.118129401161844 2.21889779070239 18.3499193345064
1345 -5.65736940672109 -20.9461011903243 -5.78169558232746
1346 -5.35942376515756 11.648463986567 12.2616012368642
1347 8.71634185447721 15.8600304775446 -2.84022534493779
1348 27.9647944520277 4.41293848031569 -19.1091780581563
1349 -6.75696936844256 0.543023767423707 1.15895622805532
1350 -17.8886813105737 -3.61356052516727 12.6352915698866
1351 9.09319762411708 1.3387842715933 1.14972574063618
1352 22.5397918974163 26.7296332147115 2.00795457200325
1353 -1.59195716018491 -1.85296805336171 4.56102671886689
1354 -3.40134069684735 13.3447616080685 -11.7860580257714
1355 3.99297036219514 -8.08512924448902 -1.51131190556942
1356 -3.4915412552395 -4.07715381525931 13.0106340722188
1357 22.7708663384263 16.4348917863392 -23.0096108862531
1358 -16.9293422495227 -12.6857994159855 26.332806276739
1359 -12.8420619084015 -5.59824226233414 2.50835788937151
1360 -33.5869481124721 -4.63589970615609 34.1151192522536
1361 13.8809393477354 -11.2545383889601 -22.8399620710506
1362 9.23182464493711 -10.4025886246859 34.2285337061588
1363 31.6917040885207 21.0519976819203 -17.2556107032166
1364 -6.02617955971131 3.86691336289477 -13.7393745089703
1365 -19.2429557036523 9.57686814139557 0.808768158478991
1366 4.37201748161543 -0.635776722334809 2.16062060275235
1367 -17.0442706423862 -0.919429145161475 -16.8500236417211
1368 19.0937859614811 -9.89211147159497 12.6075554027069
1369 6.20367696909266 -9.39026217151664 3.34122445237464
1370 -6.9116180622204 5.65846215737091 -4.27340073228371
1371 -10.4636793706007 -7.4352036920596 -1.28177580641472
1372 15.9455507934798 -10.2945216294552 -60.5729934153238
1373 1.67555034783589 1.35168549748587 8.27184431889488
1374 -21.6521705980935 0.467028240217934 20.4201207634414
1375 25.0348922340639 -7.77639207078663 -29.0377262467117
1376 -19.1389442106384 -1.83444764850968 25.963203364239
1377 -5.90894627332813 -19.4433956493253 2.97346487927976
1378 16.0190010673371 -5.52050491954857 31.5555941824653
1379 -2.87961090711956 -14.0950591623805 -16.4103622785523
1380 -15.4113607863598 16.0339931321539 -18.4307513855441
1381 38.1533254347143 -11.9261268708632 12.3639297758614
1382 -0.0235386667647013 0.460292799125652 -9.48732594020372
1383 -34.1905901999988 6.73096964834462 -1.95857063167971
1384 -19.9363176432052 7.85594201753042 -2.90289411572034
1385 7.61941534001857 -7.12670103636381 4.91752290904645
1386 7.47963240106131 -10.9920143379585 10.3779535061865
1387 -26.3151614573515 9.77479199157719 9.93266487499653
1388 0.345076645244308 -2.33784830752026 6.08948305774287
1389 29.5493464437404 -14.2601743429545 -11.8915662403481
1390 13.3265699331952 35.8604504384402 -17.3741907687757
1391 25.5438001150778 -7.58958020228417 31.1973801580214
1392 -16.4208869839902 -13.6102624731849 4.09132410423106
1393 9.3242441065386 -7.54563358544883 -4.17756378097864
1394 -3.35210334688492 5.74133281244936 -21.3927529316981
1395 5.22577492567853 -23.3881912006659 11.1866635523783
1396 -15.9433963992938 -10.813962097845 9.85787296020986
1397 6.60856027601046 3.90227933406119 1.43957359721631
1398 14.8678269647388 9.68928343962445 -9.44779364459965
1399 6.12314108996276 -20.558985079163 -8.18243428503982
1400 13.3406642799451 23.72967705401 -2.14508919286822
1401 -20.1796539194843 4.40414223281223 -5.87286809643867
1402 -5.04827831237476 -6.46025704150582 -25.0326807784011
1403 23.5956678787556 -11.081176477605 -9.20347404760264
1404 -23.6557054002592 25.6112283276684 41.0935207708843
1405 10.9400057723321 -3.00415346408375 -3.95919674427424
1406 -28.7169595635225 3.50060714522805 2.31630633736194
1407 18.6997740625671 4.56454821263136 -4.17504185084235
1408 16.6213749399356 0.710139520008202 6.15001422791327
1409 -21.8324095443305 11.9124552321812 -8.05268428312802
1410 2.80514996986637 1.79975777990803 -4.693848579489
1411 -11.9110605121719 -1.00595382815879 2.44509798607948
1412 3.77170624094434 0.680549838746515 -3.57388385184266
1413 -4.41225734470831 13.8833962986493 -0.658442064098332
1414 -7.83965318974478 30.020489288729 -10.0376087729162
1415 4.61984155621149 -37.4985746492497 -4.75998539876636
1416 4.93880655171225 0.872383536675877 20.2185144562677
1417 13.5439865865877 -9.44892863423478 3.52443686806173
1418 -8.21019777614382 -0.348898244643157 7.98064997112059
1419 -7.32491780824325 5.55383591980542 -12.2974589501758
1420 -3.24440425795252 30.8879765816435 -17.2995864108913
1421 -9.3564886433344 -2.29892291248341 25.368627620822
1422 -0.578400482384931 -21.3333462363594 7.44830685304469
1423 -14.5877290714442 11.7745087910939 -32.7400425699899
1424 -7.53622482114018 7.65231670820313 14.7520863869101
1425 10.923317082114 -6.26487362246219 11.3647437793907
1426 4.44333744284174 13.2979395120433 22.3369070433383
1427 6.67637042412696 -10.260158973882 -23.6432292550877
1428 -5.52860429650471 0.0760827763465157 -0.688174519258981
1429 3.28825830920535 -16.3085479062474 33.9969921733293
1430 -19.0924632248336 4.89299147928571 6.49930329216511
1431 15.9886376794402 0.949746610119105 -40.3491806653344
1432 -7.34621841898149 -4.76331339981789 0.432961670063166
1433 7.64638741646605 8.01999822441121 7.23255501774248
1434 -5.47727835181634 -3.34874358138773 -18.196388333321
1435 40.9273434465991 -3.55859836894873 -2.5452247789409
1436 -45.16777092487 7.18206886268418 2.7566675219352
1437 7.19557277979644 1.88347928010651 -7.17971562900149
1438 16.5172951290317 -2.20479359907879 -10.2525595264944
1439 12.804557597472 -4.48107397740897 1.50712498811135
1440 -29.0477713748811 6.02182640880971 3.82071502305304
1441 16.1070325685017 -5.16888454567709 -9.40829113282143
1442 -25.380449957372 8.90489458244063 22.9856607396222
1443 10.1686347247027 -11.0391513962467 -8.03409646000986
1444 -32.4302807006304 -24.4901247452668 11.9299889649769
1445 12.2850701248574 9.50293145311491 -8.03483378510006
1446 7.12977388865334 -6.48003393171595 -7.08811787804473
1447 -18.7748587594117 19.5799780822395 5.00541691357106
1448 1.51372979917378 -12.1863399938702 -2.22529101374094
1449 14.4531686780491 0.213958801168707 -0.874594826568929
1450 3.02465465615556 29.1088842773948 -6.98312744428452
1451 -12.5087507088242 -18.0727924650993 -4.40831192100094
1452 15.7002158945809 -13.2036433663364 6.20656904442078
1453 -24.1796933183479 -3.31955940469448 -21.5138256340859
1454 12.8448371003288 0.401911924440101 9.10740991352151
1455 -2.24177875354301 12.5718175696082 -10.9978876834523
1456 -39.3894750839214 -6.26774519428232 18.4703364869939
1457 8.75735717029148 -0.976221972436113 -5.06376610812571
1458 29.585275012385 5.0992649243285 -16.0297322857197
1459 -10.1710455907057 -13.8931300892221 18.6088260864047
1460 7.5589108650441 4.02934472563953 -24.4270703553527
1461 -0.624228015248547 18.0243142339891 13.4191121369352
1462 12.8404604029613 -18.8113676795947 25.311059372462
1463 -16.1864234931101 14.2017798465738 -5.82090124164438
1464 -0.925087586832293 3.33713560706734 -16.8337011635738
1465 -25.9279993104408 0.206633888057591 -16.0567273290649
1466 -7.38292957318109 -8.99460156374841 1.14724655419322
1467 22.9874335929404 9.43940998892595 11.3933975152557
1468 -18.3414702725713 10.8099494909221 -10.5528096781705
1469 4.33336373880909 6.9869838380301 3.03230459138444
1470 -10.0516046755556 -3.08927843124292 11.0450245449134
1471 -1.97436721925038 -21.5374424935962 -5.84692733623345
1472 14.6585043599459 9.46893427683756 5.12339399604682
1473 -4.98998365111442 18.2227243971943 -0.260123703885713
1474 4.56974378883496 -32.0520681006255 -1.87931307156851
1475 -3.7322317793968 3.06937168317101 -0.781902084777632
1476 -3.91823202286469 28.7686458316829 3.55573947264749
1477 3.03661036523875 29.7647125580623 45.4563550693527
1478 21.7888632140508 25.55041262293 -53.3316639073553
1479 -17.4243525317781 -16.2952381988811 -21.0445093064859
1480 9.68965802395406 -8.1501637489728 -37.105413443906
1481 -10.6790343854863 -0.428457378196166 8.02932068070535
1482 -12.0741548852769 -2.65606825184266 19.349610039484
1483 4.95868345769009 -4.40107790580749 3.59523672666661
1484 -2.98805865869045 10.8824034700491 3.77653888468015
1485 -1.07307628297279 12.6383992329671 -4.59423124416217
1486 -8.99638363019047 -1.66692033425643 -25.5326267717455
1487 -4.80068790316142 2.14746778588616 8.44153487739969
1488 16.9580020135434 -4.52431191670605 20.7914536572326
1489 8.46853357671104 10.7593764984678 -1.03655543987995
1490 -4.80981358496981 -18.2674648443952 -13.7877027396661
1491 6.65491663290584 14.1617816541466 8.27160255330594
1492 22.8644785359673 -1.76035084192362 25.3545264048713
1493 -10.5432630861498 -16.2438143435239 -4.74756691709335
1494 -11.0497250309075 23.9800502185554 -18.9908352152924
1495 12.4161341458662 -26.5553150298927 -28.9521428820006
1496 -2.2134570351796 20.9611953116226 6.10678622972692
1497 41.7378789372135 -13.6866253909389 -2.57301236336129
1498 -8.15880516593426 20.8636943689413 -5.75179640947632
1499 -8.27421924256757 -7.26394946343306 2.77451054416798
1500 15.9085864644257 -13.1199392025318 1.65704683213099
1501 56.681115522122 7.77343744009335 -2.48203901212403
1502 -48.3579033138594 -0.00739390096087706 -0.936044305365869
1503 -6.0758317677254 1.86248349853122 -1.84431494807185
1504 3.41735595407669 -18.0207005747989 9.51439913245219
1505 1.83965259402277 3.81300561148435 -2.79338712612354
1506 -0.367209105153329 11.5995597151944 0.192380530731322
1507 -24.5294593536034 -0.710935997007148 -7.81281321295005
1508 18.7548088303448 -3.45442371922375 -7.07111246759685
1509 0.571949768307247 2.371464788824 16.1192258108552
1510 39.653909134154 -16.1844953849592 3.76071078587553
1511 -20.6592097827051 4.07889860083147 14.6166332276393
1512 -13.694351170618 10.1123537854396 14.8223374105627
1513 -12.6915565027297 15.8588225363453 3.95509005250928
1514 11.7290327176459 2.64613637323825 11.5353730922718
1515 -6.19855857382358 5.94238699570356 7.60332224253297
1516 34.0394897433558 -14.9065665169359 -37.9966180653147
1517 -34.4024054546018 7.15199754718165 9.89781039217117
1518 0.428656858702564 6.91197109473529 28.208810701947
1519 -4.26150402735293 39.8733092219991 1.6515274637194
1520 26.7608675134636 -27.8880478497771 -20.4838655868243
1521 9.78414580193735 -7.90178167028917 15.1383211520508
1522 6.03713390451648 15.822296518207 14.3258393555669
1523 -2.36724748187194 -15.5724314425751 -17.5229299208777
1524 -9.59692731179384 -1.56483127184117 1.36220585561383
1525 13.1071629534702 -29.2362680313374 3.63052356200456
1526 -17.6599675683269 -3.50743317902969 -28.2402438619073
1527 8.73407019269555 17.6703938469704 -12.2473386826506
1528 11.1999488300667 8.74495245821744 1.56812662988067
1529 9.00046681201776 7.88804043412386 -19.5386230068696
1530 -13.1129299536752 -9.76750652816379 3.17156283020179
1531 -7.53568173510004 10.8624205239798 1.00641912708081
1532 19.4915210650964 17.1938381818394 12.4849974939491
1533 0.606421832919184 -36.8421363808281 -5.40890739038579
1534 10.4611113949358 34.7306238381338 -12.4037579004529
1535 1.40331554399048 -22.1893064465331 13.7894152389276
1536 -3.72193343686377 12.0556010855018 41.9279420731659
1537 21.352850114098 8.45552149695037 -10.8962102916753
1538 -8.57899612864322 -10.7762542592143 21.5452997169936
1539 -10.7865261332574 -2.57550116751206 -15.3382514550755
1540 14.2039367485521 -4.18885131342561 -19.1506717376259
1541 -16.1208607854576 1.09225473271429 2.93283945284531
1542 8.49482619687267 4.27596404928269 3.45263558561918
1543 3.32134297919043 -33.4922711219601 17.2427194948748
1544 -7.73055647541778 5.01926619962588 2.11260929889966
1545 11.6715944144559 4.56500520865518 21.7027093727988
1546 -28.800675742836 -30.7557484425549 25.7894014329
1547 4.56420759335593 -15.6479473653106 -9.4953988281199
1548 30.339680541484 11.4423440618743 -19.0375853330763
1549 34.4188010056651 -43.6810417133642 -18.6444098783959
1550 -16.5069449233584 -2.54336890363192 6.86853079920487
1551 -10.7515944150479 27.8461835162735 6.35922292369519
1552 -0.872776510801156 -20.9266682053278 3.58663541563258
1553 -0.994014718018856 11.9465312924757 2.57083896295876
1554 0.565938933278839 5.90335255815457 -8.4574988425371
1555 -25.0391964981171 -2.7083035648237 -7.60721495873832
1556 8.85786467848413 -3.82795141559105 4.476222871696
1557 17.4753762604006 6.85031045315391 10.4005195558565
1558 13.1700679717878 -36.3980186847203 17.0757982783597
1559 -8.78224796542042 29.8642166301081 -3.39971632344402
1560 -6.01633932990192 5.6113151183296 -15.9161152619785
1561 33.230667775955 -13.1775001262174 -44.4801905111406
1562 -8.64886997894352 -8.20809792466273 3.05036633966103
1563 -12.0012548560722 13.6589053845549 24.146972235818
1564 21.4494374467752 29.9031075984674 -19.6076733090032
1565 0.942348028872698 -19.3469708603127 2.16636468764508
1566 -16.3852943699157 -4.99568562062577 22.3143059444393
1567 31.6744793561555 25.7827087056842 40.8948987096368
1568 -29.5777071335148 -50.8503783873338 -21.7635104426186
1569 4.78957675289299 18.5125478408271 -21.8958167743186
1570 -14.4455264289105 -6.48717033394932 -8.03097672490334
1571 9.3808408154299 6.21674155901288 5.51734921775867
1572 2.97430074646622 2.40141506082193 2.85464898506386
1573 -35.1189165307852 -10.0200469884218 45.2377676947998
1574 9.64056141223212 -0.832592275880816 1.4249066626073
1575 3.20146254963097 -6.83980722252087 -31.3788614363472
1576 15.5605347850696 -16.0613973295218 4.22228193442264
1577 -28.8737216555232 13.8989878873537 0.739006973986039
1578 9.10691604753553 3.17109368755909 -0.0124835859731749
1579 -21.6822874520374 -0.655838924444793 -4.86505950944769
1580 -0.288397417455271 3.9541721467806 8.58826514804125
1581 14.7424663438242 -2.03972714679122 -6.66625829344162
1582 -1.44808826237694 34.0283129752496 34.9328042660637
1583 3.42385731562656 -20.3653809362758 -6.10338440834449
1584 -31.3868322247423 -1.37059149381652 -12.6058509144431
1585 28.5008723151085 -43.8384878527355 -28.8627994975057
1586 -11.7806054167974 7.5948081673117 -2.73906000254712
1587 -8.44990992432029 15.1767399730352 21.1430591821697
1588 18.6482578178005 -1.92162721378796 20.7895888415653
1589 -9.99477844004319 3.5783093847098 0.751070839878575
1590 -9.23656922064897 -1.85144256822112 -18.6590148077547
1591 -21.5544645689818 -24.5352983050601 -16.5113308117244
1592 15.3049708881732 18.1331311760294 8.82377713205299
1593 6.75143234649747 8.59948674661439 8.31785653990449
1594 -4.01028825301496 13.3667248005338 14.9902374756097
1595 15.5583651675199 -16.1438180185856 -5.07718889827679
1596 -11.3608795490401 13.2667753415829 -18.5176740850278
1597 14.4763985851075 17.0510361282491 27.830911240826
1598 -4.4818000908739 -3.42270166384216 -24.202652853903
1599 -5.97827680986639 -8.44186807401567 0.820976149050895
1600 -20.8763806431052 -7.66179103659144 -25.5870471175382
1601 -11.6110959429734 -1.87279636003739 0.450208421893933
1602 11.4204438552338 6.38936062755178 32.9641718022382
1603 -4.9673501858841 -4.3063677562086 -13.3268250848641
1604 -10.2142373264176 -0.88174768217302 -9.6042094544522
1605 9.77849813362352 4.25639957076572 21.1033288961091
1606 -13.5152266015806 11.7120804449756 -35.0000075169648
1607 -2.61885121647045 0.231643507078891 6.12903463928448
1608 2.4672236079182 -23.7732023862487 21.5013094799123
1609 2.49497636179139 -45.0994270384897 16.0889385875775
1610 6.59688665868037 28.8626123823306 -16.364100754758
1611 -0.868084192075215 11.4622497715265 3.81779463431539
1612 -17.7761875386773 4.61947901456705 -12.8553241524132
1613 4.91719709487167 2.78412387447953 16.3658322820745
1614 13.488642526616 -8.06211344764599 3.0031464106677
1615 -31.5272682132783 -21.9540351472855 -10.5958173557748
1616 8.40747323949448 16.0236879623395 13.6934936048946
1617 22.5924426124071 9.93776600675561 6.11899019199751
1618 -28.1239358299262 -12.9292528961652 20.0857047387789
1619 20.4892696206865 15.0239655318352 -3.24424235723871
1620 4.84006188243843 -4.15563253610409 -10.7983986037497
1621 23.0951372327755 -7.69582441482803 -13.9307922563269
1622 -8.57846155030644 -22.6224361268579 -4.63355873359999
1623 -24.6387743274648 -6.46563741760167 -24.2087606589335
1624 8.68212158331082 18.9462504769065 -3.92792186670038
1625 -9.82787487543044 -14.5280802986177 -9.91356178705839
1626 3.09972529324854 11.6894495386318 1.93903655520734
1627 -2.60521251376264 -6.85544837059708 4.99294323798953
1628 -0.546561522396805 -4.6375343691415 -5.61029227711083
1629 10.0048068941173 22.0605110477131 -6.77843644880792
1630 25.9991272639573 -22.8922667308973 30.0862071714334
1631 5.72245908578813 -2.23152966683848 -2.69981281628254
1632 -6.25575251156627 11.4501240681324 2.29935858120858
1633 -6.88762880903454 -4.26251266405743 22.9638053664307
1634 -1.3199904720575 -1.59164775434347 -22.6835391775596
1635 -21.5756829611183 21.9570984522466 11.9700959650934
1636 -7.6532454802297 12.0856236964631 8.57771886632947
1637 -11.503472769079 -4.30772162209619 0.59583415825219
1638 3.92448886793761 -5.62013078198971 -13.7579618504603
1639 46.3119439220772 -34.7949518417271 -10.2540301344697
1640 -12.2315898948318 8.88209426110874 -17.762369825869
1641 -32.4358168300331 16.8705338337601 22.0550768255968
1642 -26.1844907598918 -13.8795137038085 -12.3425236962993
1643 17.8177409183447 1.68428342065886 19.070765081598
1644 7.23628765174202 7.04470067462208 0.212841882299361
1645 -1.51319390490831 -19.9599868661311 6.63986348397832
1646 -0.504423501916757 8.63703854057725 -0.131568402856438
1647 -0.243877303745042 8.31894718338533 0.85156436134379
1648 -6.55439173698884 17.4652097621194 17.2349347271734
1649 -2.74019216024499 -19.6042878485788 -7.12052669356751
1650 15.36512434239 -2.81083614012939 -11.546858096166
1651 -20.9298931836942 -33.0929432036253 16.4706703646816
1652 26.170492907146 5.50270073302141 -29.3788046130035
1653 4.79764468636075 -1.28766063805206 7.7689668919003
1654 -6.55111842845411 -2.88833624453 -54.5874252784842
1655 27.2041886985734 8.94472716458759 11.8991728653349
1656 17.9802614689327 7.89487634387504 13.3672904352865
1657 16.2374742286674 -14.4323470555065 9.38149437409523
1658 -3.17177810546326 9.82664470874209 4.29399865041529
1659 -8.46955438228578 5.59278160866969 -5.27302512037661
1660 6.77547952456563 10.9219015450498 -6.845973588354
1661 10.6611072733501 -25.2185735001845 2.69557341071726
1662 -20.8285808021832 15.299362546563 -4.38029553809219
1663 -0.279702396072198 1.36744869986412 48.816871201636
1664 -0.37020501696079 -13.4748684026543 2.18584572858718
1665 0.107478975757415 6.40007630463551 -2.99290852149172
1666 -29.3359946936219 -42.2917721614018 12.5839077778408
1667 15.1671428392085 31.3571418985084 6.41212172119561
1668 7.34948418104471 -2.20920409973312 -7.26219164315597
1669 5.683665768564 -26.9096927804538 -2.86169649179528
1670 -5.77665062818442 24.7310456503111 11.9078580898667
1671 16.9337797109579 12.9191241207338 -12.4418722767361
1672 11.9064413973145 3.50854069685787 18.2460645076603
1673 0.0531829320225412 -2.25768232588942 -3.41129064707927
1674 -9.67954551944841 -1.65977278606953 -11.5523521496832
1675 -8.89391022841778 0.992791284529759 -2.18302435296351
1676 8.46748071626272 -2.36504115353644 -13.8332913685293
1677 7.21609811022875 11.9896601872114 6.74363462206628
1678 1.84233391942218 -38.417515406334 28.1312652175295
1679 12.9732235895155 21.1070513127458 4.22955697695007
1680 -16.1994850478728 20.4381459454959 -32.2383159527457
1681 11.6769492903424 -16.3970579737355 -0.238455713125072
1682 13.7181737499294 8.62668563429798 -21.3304368004817
1683 -20.9249885847899 5.06677223732432 11.8624685796002
1684 -23.5865280482662 16.6438582035763 -50.2362695160298
1685 23.5731451984194 -17.3895064602007 43.6216367870202
1686 -0.103034651004354 4.48626042283748 1.99686179310155
1687 -1.29544791495561 -2.55684432474414 -19.3511002212209
1688 -5.49911145546089 1.36223823962937 7.89775756286555
1689 -1.18018712840002 -0.83186836361993 -1.22785411344591
1690 -4.44278245364511 8.08789999889293 20.899219803385
1691 8.57221074822227 -0.0230363754839209 -16.4942533281912
1692 -4.16144799211904 -6.68507906882617 8.51856032982689
1693 -4.04723853533716 7.7497249559371 -49.7568255147933
1694 -4.53740245408993 -1.10737397282226 30.7393853816344
1695 -6.36378574608494 4.8995738216122 11.0530238841796
1696 7.52100482139733 5.27072379263154 -3.63572655894913
1697 -14.1095404541684 13.4122249232448 -9.26991385913295
1698 9.81464478048872 -8.12144390285578 18.2041326150946
1699 -10.6981403557403 0.928046664843348 -4.68696814934476
1700 12.5605470055 0.0098068076888304 20.1460934299744
1701 -1.54305996879024 -2.2755946457859 -18.6814786515575
1702 -7.5877743473044 73.7732553420871 1.90727449003045
1703 -21.560667290995 -3.63512720233814 -12.7270116567445
1704 0.457845409229306 25.2872891197981 4.71569654666885
1705 6.89037118096165 2.84692651310265 -1.45065708735664
1706 -19.456886645755 -1.5412914267108 -7.99612255417665
1707 14.4832550329046 -0.383475787956978 8.95768187215047
1708 -20.9808764091263 -17.6984878568021 -1.73908652330382
1709 -12.386509414345 9.60464642597806 -18.6969037601343
1710 14.0651105310459 -10.1654868093362 -1.2277437477947
1711 2.24688984661623 -19.2690299659155 31.3801869198693
1712 -0.985808995419635 24.6688231521161 -19.9275376161149
1713 12.1104976116322 -9.13261328559287 11.805006979576
1714 16.2678168981618 15.208586548685 5.49939418613743
1715 2.25041061501093 6.16777075354209 -4.58414160862608
1716 -18.4389883570861 -16.8118400192737 -0.800041906353513
1717 3.21635103016984 -2.28557941968783 6.41806447354853
1718 1.16526309635058 8.66465685569597 -10.5633169905146
1719 0.583253517478934 -10.5421590904992 -6.51682636495843
1720 -18.0786865015223 14.0378788087348 -18.6752551252494
1721 -3.33238019083909 2.93035052852046 2.74909589899772
1722 26.245997102992 -12.4362911547262 16.6865049430504
1723 6.32574759041265 -10.4824827590624 5.57049512924104
1724 -4.26748372470321 10.3736240783594 -3.93908010510359
1725 1.67875732581786 4.48116342075942 0.457138546918517
1726 -12.1340793225055 22.2988034539417 -33.8694906214692
1727 4.46122865050955 -9.13028574796767 -5.21900591829154
1728 9.31960697797279 -22.6711043385465 19.6801628355989
1729 -8.5915530555744 1.70257962281766 3.01925388045158
1730 -1.57637017215644 -7.39658964676775 9.77498440197199
1731 4.21734688229716 -5.16180327445494 -5.34335909110686
1732 19.7619520772016 5.44125035268495 -1.61626391463615
1733 -44.2101724424487 -0.757705792738973 3.94718373843188
1734 21.9612891074088 -1.20456607715408 4.88724548500412
1735 -10.6222249040382 -6.55464719125641 -10.0285856072582
1736 1.65894137673768 -4.04658060831949 3.76765686675788
1737 5.19380173571416 7.48568819662879 1.9392996052022
1738 -13.3518194615 -24.1156954044973 -39.2377377040821
1739 16.2511012018442 24.9339732846701 31.7662011012725
1740 -0.896997006579171 4.14289606413128 9.78737838120909
1741 -6.49823667735902 0.133881776451455 -14.0973675806048
1742 4.30726729028974 4.34670368670289 6.66355235186467
1743 1.60831907024454 3.69669249334062 7.42462455449112
1744 29.3594587031303 19.4054626410398 8.26809576710986
1745 -6.87346437351564 -19.7490955597302 -3.79897615005695
1746 -8.34072007182749 -3.98755857603563 -4.46885559685215
1747 -3.32804438327177 8.69545265817107 6.7474965379284
1748 5.93404004764988 -16.234016105511 0.0857765042689749
1749 -1.50540455513879 -4.58121289760671 -13.1251318095379
1750 3.75671870520041 18.8240941112198 2.70912204791478
1751 -4.07624083485481 -9.61639512351431 13.4612967789521
1752 -2.15294557610202 -8.3878375961562 -12.14006554128
1753 24.1936993565752 6.20489617178024 13.6546088758647
1754 -4.37434789106356 -3.22672659767576 0.666496213142031
1755 -4.75127260115333 -5.19528579202868 -12.8267513562944
1756 -13.5095546248298 -27.133912605477 -47.6166476123345
1757 4.67290540974413 -10.8383916557849 13.4468454667158
1758 -0.233560765102625 -2.54683228515891 7.82936853399955
1759 0.0499943277997298 24.6937492001925 11.1816288316174
1760 -6.85506534200831 -16.8966397556258 -19.1076905918393
1761 -2.20096403216615 -9.66924594735971 17.6054089105777
1762 0.648389151332852 -29.7059297178763 -40.0188889657541
1763 -14.7885103533332 29.1659782477721 25.1028660185535
1764 8.94593051428409 -4.71145714491348 11.0654994049111
1765 -13.3487147485784 17.9368489702761 13.5792605935538
1766 8.78893467695247 -5.33734949083035 -8.99194132520915
1767 -13.2267341538663 -5.77479048076058 -16.526994626686
1768 19.5516949523053 11.8488469928375 -14.0040086875747
1769 -8.14618253232564 -6.3986394476446 -5.86565406708192
1770 -11.4838414617444 -3.34155313965271 19.6666182301357
1771 22.9960808951826 13.8463622611364 1.39088209036125
1772 -9.52024889872432 -24.1505813162472 17.8833675247576
1773 -22.1764964125964 3.9791807057504 -22.9029192334838
1774 2.20298458065666 -13.3803546735508 -3.60944795210908
1775 6.44151436187638 -0.727201307350238 2.48452106922798
1776 -4.92272848190369 -4.91540373239022 -13.2717089731596
1777 -7.58718165172996 20.9672247868412 -2.21875203085271
1778 1.08686250530478 -1.88039840978248 14.1913867588322
1779 1.23292446865161 -21.0003447246484 -8.91896154711139
1780 6.27534586087759 24.138093242473 3.29812406872751
1781 -1.29302445864804 -18.7194024585096 4.74133491427191
1782 -10.6182296106059 -8.3241944571907 -12.5975609006652
1783 -16.3751951910809 -31.3810876505148 7.09477433938881
1784 13.5157230743109 29.3992524594995 -1.35282629484743
1785 0.839753565377554 0.291271290359778 -1.02783371639095
1786 13.4003781078034 -14.6641295381297 -1.40149247232217
1787 3.95735645583352 -21.6257672554592 5.25178802203202
1788 -17.013516347307 41.0828924156891 -0.740400449527806
1789 -6.88667350607126 2.54337465649962 -2.93786499090863
1790 -9.34849964973451 6.48191086971427 -6.23847137011713
1791 9.74711204246366 1.90123207599604 -4.71803970221081
1792 24.8017842969199 -23.8595012565075 -11.6618852094459
1793 -14.3223853295363 14.5731812760796 5.31904670794142
1794 -11.5104402862845 23.1755554798654 4.55165267153188
1795 -5.2403949886624 12.5076467012038 2.12541647587911
1796 4.73197579373269 0.594868250311873 -3.77656677488053
1797 20.8906813744048 -43.0148836972271 5.98950351006564
1798 -19.0608705543469 -9.60882491503738 -9.19309661696489
1799 7.69885306773161 6.41587057114152 -11.2946644202352
1800 1.88357720514656 4.09574546615615 4.95578846384956
1801 24.9369070338241 -6.21415573690743 -5.70701597414526
1802 -20.8341348587509 9.84302317165529 13.2315883364883
1803 -3.83498054277089 -1.03218095825288 -11.1767053986383
1804 -0.815795758025986 30.8281159215649 -35.2703278619881
1805 13.985111328892 -20.6339377554931 35.9214084136053
1806 -10.9951842036808 -9.63018964966968 2.06597066081063
1807 -16.4111142637777 -12.2089989655325 5.9379373619419
1808 8.98255330142726 11.1775162542412 -21.9412435825326
1809 8.3876809730392 -4.14213964153554 10.4863101718833
1810 17.1525942115454 -6.63520791021213 -14.0470181636675
1811 -7.35753608872881 -7.15385098822157 3.06685134158931
1812 -11.4347288042547 12.3020394128648 8.74288043923315
1813 -9.08179562274799 -50.0116287523046 12.7715946670159
1814 4.79389556437786 36.8673014055989 -1.63729282772267
1815 5.77924839881389 15.4368634204089 -2.29391252993377
1816 17.3286773310755 -7.01063414312876 5.98726642755039
1817 1.87090076362538 6.2823018499483 -0.213177280923138
1818 -24.3811532740734 -4.21488825503925 -8.28028035419745
1819 -12.6399194222432 0.109902069733621 22.7457834742279
1820 7.54134234143466 2.05857760889084 -28.3082882710205
1821 8.16660147263336 24.6903538632163 13.4539646895621
1822 -25.258097322202 6.18699865187624 -13.4078751819721
1823 6.65632212169325 -5.36754172698546 1.37193471814757
1824 13.3192066479911 7.81404940986615 1.83270749955442
1825 -8.36021180491626 15.008722695043 16.1366197410085
1826 -10.1587357014273 8.16351621910836 -5.42375126349946
1827 17.2001187373481 -17.8014431121615 -10.0150895473853
1828 -19.6314280882712 -48.9174594274761 -26.5515264220793
1829 3.23852684984158 38.3656705807976 -12.9083534714837
1830 15.8068547320698 10.9586899077195 35.3146643072954
1831 24.1292418340992 32.2214699920037 -16.4430368559296
1832 -18.91211845308 -23.3522777101422 10.7603352772359
1833 -5.24282438228046 -12.9622925325629 0.647521419321674
1834 -45.4820180087986 3.28066981499106 5.41789406234851
1835 38.7926933028685 -3.44548433207016 -10.089675279613
1836 0.971077929891496 7.14536849163972 0.999537026993821
1837 -23.1107814417081 12.4339397157187 -17.8678044822369
1838 -13.5008828394681 -8.28450500749886 5.36738233012883
1839 7.32547580527254 -2.46581986827916 14.9359336586552
1840 28.251624841534 -3.06461260631762 12.5011366527686
1841 3.13000585591166 10.3732473485292 -45.6582188315162
1842 -26.703028463952 -2.43781065636522 -4.62725197651226
1843 -1.7084357918662 -2.18123020042105 -18.5934186169866
1844 -5.80034385852043 -13.5484148625922 19.2739812346261
1845 -6.075073621054 -20.9623066701366 45.0184133184602
1846 -5.8723431275359 6.34587611992723 19.2679107817369
1847 0.438386772884253 -4.35038511077765 -4.65803434726748
1848 -3.51711253516549 8.23727777968173 3.18985188210034
1849 3.49303420968605 19.7958337789653 12.1730822383757
1850 0.589547901319777 -10.1554804158776 -5.44622622266626
1851 -1.44694795054941 -4.69994819938583 -10.7041076872506
1852 9.18549900672179 13.8037086282835 3.47184304066631
1853 -11.9780734640967 -7.18714893876469 -4.09331256017674
1854 -4.91502312039953 -7.86661950537766 8.52664673836615
1855 1.11822427821951 -12.9023792763504 3.49854504019709
1856 10.2344527043409 7.21570273543719 8.22777743125937
1857 -10.7575434840881 1.14851960884651 -1.64247048681869
1858 -16.8075326743502 -4.39167455200344 -0.505909560293961
1859 14.4655494024509 2.95100601028235 4.30781328868448
1860 9.91942151122281 -13.2889985803586 -3.03854467062234
1861 -24.6994436478734 -6.89233094875464 7.88167584113966
1862 21.6462920711725 -4.37518429536103 -17.4364232982156
1863 13.4152268539156 5.09087719745117 17.6736245876315
1864 -9.70058403662008 -17.3865917009416 -14.4535415050945
1865 -6.84236950532437 -17.3000762548857 30.1016653981173
1866 8.99965114442422 26.5583033109828 -12.4415249665341
1867 -0.238452039827113 -12.9509363942485 -17.3509818623433
1868 -0.874833345032975 -7.32924453094294 -9.99415683939071
1869 -13.6418063288309 8.36404162819158 -8.47624529515138
1870 16.2562358752834 2.36554465176135 15.5542365454036
1871 1.18906702834437 -6.65464723860957 -8.52086562191497
1872 -17.3762017486192 8.05145291374924 2.3486760418671
1873 -4.01078789109319 14.4683131615763 -21.6429021263395
1874 6.22248549164281 -14.064390150328 18.415721334012
1875 -0.444843857701686 -2.34213612275357 -0.39060720912831
1876 42.1216964361358 -11.2491684653028 18.363773789687
1877 0.637268072431812 9.52895777263831 4.7136075698755
1878 3.00357818534195 -5.96596537506367 -1.27382381701221
1879 7.55586204590356 0.416453999966517 -8.07921649757754
1880 -8.20072465789475 -14.9924114804175 14.8265929548271
1881 13.1361363113776 8.43146666510163 5.56929554910625
1882 51.0793488825834 23.0964542865296 -28.0776752855365
1883 -11.6133008871862 -15.0907210873575 5.27453459431952
1884 -37.7962429297384 -8.97957902493442 11.4435092547538
1885 13.2309514683221 -40.6137231288123 13.8689914356657
1886 -0.991031139801931 30.0628881394723 -28.7601701806544
1887 -10.5289293344053 10.9322932342826 -19.034636648469
1888 28.4355535363849 17.4466817891731 33.2374836756079
1889 -22.9826457015343 -6.84246771991668 1.09077876475348
1890 -4.08469303057911 -8.68677379538719 -22.9760796199744
1891 11.8559350539684 -8.74660614385215 4.67008261304047
1892 -10.8931358263874 4.00904453889461 -2.58681227999086
1893 0.990639662704238 6.08083759364273 2.64238349475323
1894 21.162136811141 -10.3707069643335 -18.4482680413623
1895 -35.1371111485311 10.3838010101989 13.4063089363422
1896 7.03692447520744 -4.95798635230969 8.59269786821191
1897 -9.05248739643739 10.0688443813078 20.733014774911
1898 6.50153207513482 6.01799378289216 -14.5692171576867
1899 5.46451418939 -3.89625978907706 -11.9198607277921
1900 -14.2193055068415 1.81359108345881 26.0538020279914
1901 -42.5723306387788 -3.86511173943271 -15.4538527127029
1902 -2.6782862159767 2.46255977368601 -5.72695188658538
1903 -53.6855296264358 -29.8026107346451 4.84304269151591
1904 39.510348654634 23.512262547047 -5.55384864429755
1905 12.8469668184586 12.1808098011527 -2.15142859360779
1906 -74.2231002622514 9.3382485320882 32.0545163501126
1907 42.603001811511 24.5345380558797 -44.4601321903036
1908 32.0600945036911 -16.3372883954749 14.6107696090821
1909 31.8149940573551 -4.83579063590599 4.11435489070646
1910 -4.02142097450287 -7.06647994070948 -1.32416456845154
1911 -10.8980483864517 6.45220071456052 1.20513218861016
1912 4.74931060278193 -0.870289548444839 12.4724418484737
1913 -3.03513417070253 -0.313311037769246 8.40585367141455
1914 -19.3686376652588 -2.5771582579916 -7.7209292377281
1915 -10.4362829499884 -35.8671099469789 24.224756415831
1916 -7.31339709601242 11.4288467119016 -28.2939006836388
1917 11.4979339221159 -4.93780760243043 2.21102150353132
1918 -8.42341114769679 17.7172652892714 -2.85870180886059
1919 -12.0310051665953 -2.49885717384623 17.0206382380391
1920 6.77368939001943 -1.74092307499666 12.5100284404875
1921 -15.4732067420845 5.77714408654338 5.60244727892523
1922 24.6159633767149 22.4678746307058 -16.0555717602907
1923 -19.465708769181 0.613910145270051 -9.78305469094279
1924 -2.95798547112977 -13.3338606838318 27.0620028300836
1925 -10.8876261821198 18.0417288100395 -4.68711951901212
1926 12.8495298596339 1.82025780394296 -18.2235678043453
1927 32.4442394046451 3.68530633302969 -15.6311203366119
1928 5.32290206586999 9.86200499993835 20.7309131349622
1929 -37.8674097440846 -11.255246109139 -5.5958749598252
1930 6.35190152229561 13.4064553855489 7.94568974442812
1931 23.3405833827343 -5.41692428005084 -1.55988327251184
1932 -0.326633453656692 -11.7159724014799 -0.485359430422642
1933 -3.8801091821932 7.05281901104885 13.3925094866285
1934 -8.51478328096518 -12.1376626980218 2.95665863953319
1935 14.2091412971143 -3.14463895573045 -6.77857344441355
1936 28.1464880877904 -0.665496325447885 4.24110407686073
1937 -15.5494052206458 -15.668989914688 -5.34766989998543
1938 -1.99120614050206 32.0072449055735 -7.42054636479226
1939 -11.201341091261 -21.8423221163946 -5.94450127983085
1940 4.49804119169648 13.6814035058099 -10.7116037637345
1941 -6.19421550491777 7.32390122155069 15.5085192759284
1942 7.61305955756476 19.9096043360799 41.6820330628921
1943 14.9374418494493 -20.4984806377135 -31.7560277143992
1944 -28.8063083866474 -34.5059230084652 -0.104385904768196
1945 -2.885906195959 10.2861160131284 12.1202284860998
1946 0.854550569923688 -4.13673584262099 1.53743339108721
1947 4.95509602196287 1.7935437894689 -9.80060145337882
1948 6.93369769660205 22.7645511505447 -3.58402934919027
1949 21.8595323529216 -13.8498470245602 8.42732058798871
1950 5.51170164768255 -22.5114557663073 1.14613307981477
1951 23.3520887318775 -24.6680808230142 -43.2913880197394
1952 6.54311357566756 -7.75141904151909 5.02705632915605
1953 -19.1656100457014 22.7055946080836 26.0434592162926
1954 -15.6935089441887 26.5825356551345 -11.8897893756086
1955 18.1809024890952 -2.49006908621239 4.03393374943021
1956 5.50532826936481 -13.836693948989 -6.43113188313935
1957 0.0132519709557455 -31.6087743752638 18.2962723875274
1958 2.766998018634 17.1546541159007 -13.8732284108026
1959 -0.500228001030467 1.46424957213755 -16.0797061678885
1960 20.9036998773424 -4.92996727804246 -26.0555936103822
1961 10.967184420448 -0.228745592559576 -9.55102689764139
1962 -6.41504106839318 4.97790393868236 6.19970418113782
1963 5.02351106006418 16.5952253885576 -18.8748475695759
1964 20.5386575100233 23.7740961988093 -2.34515000362012
1965 -10.6738160658889 -19.6674215731339 3.53825282373493
1966 5.85082326342437 -0.894990464115379 -7.62726400431734
1967 -1.58601891031091 -11.3323158692895 8.8540681204178
1968 2.25277261215072 6.90380635356967 -0.372298629992364
1969 31.1540747940225 30.2250594816532 40.8772463301792
1970 1.22841492764659 -11.8411580978888 -7.79496341150051
1971 -34.4907897661698 -20.6448993722149 -30.5073855190934
1972 -5.90285317917014 5.550134050714 4.21243796467949
1973 6.33701392448788 -5.28172776813905 -0.577069472199614
1974 -2.17452915615167 3.1325373455032 -15.7382847311081
1975 -31.6375846513708 -10.7061463640021 57.7094600003917
1976 9.60680419514086 -3.2470923546917 1.37011257471886
1977 25.1685062011239 1.35142478876346 -67.2988254350605
1978 -33.0999819035355 -17.3908453556021 1.19040891367299
1979 -2.10168300112816 -6.18579239925735 -5.99767858824864
1980 10.4713555535914 3.8668363166067 18.8340842777163
1981 1.35250279659154 -14.7297909355052 24.4188454495
1982 -2.31197604775501 3.14377337978978 3.55820169104738
1983 3.93407265011155 14.1462870928488 -21.2114610655757
1984 2.25342326263962 -12.4749391386479 -25.3772314936686
1985 -7.5996767347024 4.07876148744385 -12.1003275534206
1986 4.92286241222647 7.93910765355165 33.5979840645415
1987 21.3647145899392 -11.8935189725478 6.05657254594584
1988 -17.8015389080749 -3.68192884577322 -7.96554602596844
1989 6.72552634107966 13.7778299505737 0.356983598717619
1990 20.3547063800397 -16.5273835771336 5.68371058258629
1991 2.76988368381764 -2.31000906647258 14.5546370356174
1992 -21.3915179474382 23.0667229438849 -17.197523751343
1993 -1.23193870054139 -3.87241579067676 36.1833939123588
1994 24.112914193483 12.5620234306818 -20.3210136717232
1995 -4.67808058078997 -2.84117554537287 -16.2876601769236
1996 -24.4886913061555 -53.1627425025014 26.6516639963666
1997 13.1734144611003 40.8614885184188 4.59380946640876
1998 6.83305597070563 0.0584336391446745 -17.8401581539433
1999 -4.71211909244205 10.5796500323247 -4.04756968363687
2000 1.94133389106103 -3.38487730930014 5.24600484410258
2001 3.44134344107354 7.24385733877485 3.22998559197539
2002 -4.66228013414412 37.4786753204657 -2.86784538210208
2003 -5.83371439875669 -22.4336211232671 -1.67135233416648
2004 2.50463099553764 -2.25516986987335 -17.8610306466444
2005 6.30097581042435 4.09697520500602 -3.32062031925352
2006 -6.48325668453196 -13.489630308968 1.41179920246749
2007 -4.53157898779345 2.46290335001952 3.6705389930999
2008 -15.0354210980417 -19.1721061124858 1.27811674637853
2009 12.2207287401456 -2.53050812374576 -8.5221894144848
2010 -4.57352642605859 22.5348766038477 8.15702238763907
2011 -28.7838640863663 27.6078693241196 -33.9129711555956
2012 4.47456603330694 -5.42266641759662 27.554019029501
2013 2.57549745245717 3.1257890865047 -3.17571612050833
2014 -0.699219274456025 -8.11258970858225 -15.0266216670506
2015 8.12854156740674 11.0219676728974 10.2305744452676
2016 -5.32416220419878 -3.79745072480525 7.46537223498051
2017 -43.938308967586 -25.6260705229462 -48.9354120377863
2018 -10.9332907180647 -6.22175923937194 0.140230674407232
2019 28.3408765902505 26.4620464365045 33.9684882469831
2020 11.1533728311659 3.30555526659616 -36.5594500625223
2021 1.37455273843908 -0.0261287638497133 31.9958783311701
2022 -3.06498958475337 17.827751625482 -7.42920004228416
2023 -3.99910155380932 21.5177772668887 15.6935905506607
2024 26.44773486687 -13.210765074736 0.241075816404785
2025 -5.25725918961849 -9.21615642386099 6.03205878364448
2026 4.98230406022593 1.77098918786876 8.69611306846743
2027 -21.5747121504662 -14.5019736684176 -14.6686368898382
2028 11.6023713991704 9.02857211263849 -0.225962509616422
2029 -12.7706081527145 -16.1893597538906 -17.1756759610219
2030 17.3978552508245 7.92832242190616 15.7700898656942
2031 14.6268377472396 14.789061586065 9.04310646729515
2032 -10.7380396507569 -6.75664405137545 -17.5526570422556
2033 3.53772902799463 18.7144791063932 12.1674499990694
2034 8.75131776423872 -13.8381025318957 7.89708209336325
2035 -22.2637316115684 8.32522574903393 -13.8132300864386
2036 6.64863408937492 -5.62642990179453 -9.74388172478465
2037 15.4764624386283 -2.23353294358438 7.56314024966824
2038 -6.89083502439714 18.6729453294171 -28.8375602296437
2039 -23.796505036914 -10.525225023316 8.85997250720242
2040 33.529368406228 -0.566893687105409 11.6361972680125
2041 18.7850979300764 -11.5231731406658 25.8359155594202
2042 -28.9976026769054 8.77719260778613 -20.3583914637273
2043 3.13011466176116 3.50008889254811 -4.03349921895293
2044 19.7752198331935 -7.53212530704785 0.871564904515957
2045 -14.6158769194986 -4.01161484717517 18.8317741301702
2046 -22.6573746411263 -17.3257142639819 -7.74540318147141
2047 35.8845223015943 -14.260944791447 31.0024069449705
2048 7.76804877748786 27.5042799478651 -3.48864304155526
2049 -43.4246351723183 -5.47292755629849 -26.3482717187491
2050 -13.8094357059931 -20.8898469370905 -5.50263148892854
2051 -4.45119847744646 -5.12114075803678 14.0728189916168
2052 10.6146400538682 26.8252962140739 -6.59085204278253
2053 -20.9200910499246 -27.5244832533016 -31.2025370441433
2054 10.5030316898206 30.5569576363391 25.6830812682758
2055 17.5634129963023 3.75747846937356 0.523015397624111
2056 8.97669823877465 9.33645094609066 -31.9406664813487
2057 2.61649554407354 -21.3513571130957 14.3116862146368
2058 -15.4596340556761 8.98699163805548 14.8280372058602
2059 -6.20760690300927 21.4233787794962 29.0827346209463
2060 -4.01569654725115 1.02357555706444 -24.7678115728661
2061 7.75236365632272 -22.7985586346386 -1.46555086378064
2062 -15.7922529324667 -30.6314454058516 0.709246333324328
2063 17.3908668700426 -3.7684041561589 -7.27269523419791
2064 0.0289234514896984 35.3924702182776 11.5796418059
2065 11.5689142205268 -2.70417353290079 -8.67706419497184
2066 -2.16335341290336 -10.277410591737 -1.69291879449031
2067 -4.77886037130009 10.0651325944642 5.60000653888948
2068 -39.350554635025 -56.694897729843 47.1702359252663
2069 12.2620616276682 0.397906692718339 -0.756457787948809
2070 18.9768341815697 25.7440686004868 13.7292364675971
2071 -62.1469931126303 -44.356514357083 19.2635927965773
2072 -10.8728905993725 7.47729675538449 3.96759417712285
2073 34.8003072240616 26.7932786637539 -14.4856495750636
2074 -42.9917243602951 -0.870716997802437 -33.1540930889957
2075 24.1316557642894 -4.79939001637311 22.1358738895672
2076 12.9651581511 6.0799546176646 10.264783238984
2077 -5.46273689453482 2.21000696825942 -43.1040108675532
2078 11.0266342047924 -11.2793653110753 38.786287595609
2079 -45.2343101523161 -16.7476290686243 5.61260857630047
2080 5.47951084513062 -1.25905014322726 40.1010214248856
2081 12.6160310706199 4.50624764539441 -22.5491275388777
2082 -8.79228050707539 2.29027234360383 -30.8180074218577
2083 34.2432156017454 24.1799953468553 -5.53654409444733
2084 -19.611774106485 11.242563727276 13.7887702322314
2085 9.09663851642153 -9.18971633095964 -6.46512376665591
2086 6.33793397104635 -14.073033296227 -3.60690121448168
2087 2.51844343570013 -12.3985104000788 4.18589136321406
2088 -9.37480746208823 29.2534996590786 -0.686001223130286
2089 -42.4696213606988 -65.9725931423012 12.8663032558288
2090 4.024581653864 -14.5672243268269 -24.8867981260281
2091 5.10202721072555 41.5432095329502 -24.1266122381119
2092 21.6187729941275 17.0130032398412 28.5413344071346
2093 -24.5575631290647 -13.5714950118122 -37.8411827021377
2094 -3.92893519115439 -3.14495908489852 17.3122885215928
2095 -6.98228331131506 29.6615471017349 -34.4948146937796
2096 -11.2250982966138 -28.8712392013801 16.7054705445722
2097 -13.5836932044584 5.61430366297118 -21.8517910198554
2098 -2.53557095192392 13.7442885389599 11.944476954204
2099 -10.0604349504127 -24.2893302038953 -1.27913073804335
2100 -3.89738541054406 -13.9472974121595 3.74416102331572
2101 -1.32262919073276 14.0443217525943 2.90756850497835
2102 -4.3647121494789 -5.6953791547121 1.82249042035766
2103 9.05371213523087 -13.4597081931959 -3.4175723353999
2104 -6.66981617546924 35.1482126510719 -20.7417857183008
2105 8.09583399089411 -10.3062418524457 3.29420181904143
2106 -1.32630361357981 -21.4033948241044 17.4590912957488
2107 34.7144343367158 -8.64759040328565 -11.4911053433567
2108 -20.1176228900132 12.3689342938319 3.05519349386147
2109 -10.5260218022496 -9.60123625786244 16.0613135719846
2110 -15.8257834645599 31.20312763694 -44.631618055197
2111 -6.53685439370428 -19.4745257902061 28.8014576680743
2112 4.99031846852306 7.02568985541868 12.9308573804788
2113 -29.2657704304915 -19.8722452624918 -14.4140427366401
2114 22.67329992737 10.3406148153884 0.385113106750156
2115 11.6811506506789 -3.19271740271245 14.7626136094746
2116 -1.29757564020486 -23.4401313317929 -42.3523397653094
2117 -3.69780312874211 15.596734969723 21.5177752831813
2118 -1.31710742664169 17.7791806898204 20.0196329550312
2119 -3.89709987695926 -19.620201029075 9.95129479091272
2120 7.11819030815496 4.81536262943351 -1.11880172570791
2121 -9.38617292793088 13.5724050136501 1.03698231509425
2122 30.5693008688888 4.37598664502902 10.406138867928
2123 2.09504798467576 -1.35642720453027 -3.88451438699405
2124 -11.6882367162962 -16.0011044251397 -7.78473930601964
2125 -22.4969499782043 -2.23504331427912 8.95401872865314
2126 1.29186878429419 6.31057847479764 6.35146643312879
2127 9.69827628129459 -13.4485914138804 6.62933632652515
2128 -6.43628850737172 19.0880964770386 5.29293990763016
2129 -2.26735519244406 -12.4748317813388 -1.2113040817297
2130 0.57705181685765 1.22851742745173 3.13994422865842
2131 -2.68144319340316 -19.3474485093074 5.99976691599478
2132 3.64445628680815 12.5049085456703 0.86091738504195
2133 5.08670727374616 -1.651276058401 3.6007990839689
2134 8.26176673911754 7.09376792396555 -42.4203833756974
2135 -2.70664022058049 -9.73994463557026 28.2192696454587
2136 -5.8192852446101 -4.36732854007688 14.3627243505365
2137 10.748701825277 11.4579314771003 6.15805960424551
2138 -11.215472983373 -3.63188466213925 -19.0172590045278
2139 2.69721419580243 -0.399228612890003 2.35593133876886
2140 -2.5121590823978 -2.05722197673409 -8.92175887712773
2141 11.4267307659677 -0.844194165976447 24.5503856410998
2142 -8.52022986125839 8.80078159571893 -10.5653052371848
2143 13.0413529972283 -21.3460407473107 20.1824892795404
2144 -6.35452443316276 14.8628017650266 9.72043052853385
2145 -10.5992359674312 18.1347703638954 -26.4109324520437
2146 7.45281099532735 12.876895532809 11.2939003363721
2147 4.6245550016962 3.93367012040921 4.6715548247196
2148 -3.20734089658343 -6.78119517418387 -16.996318364857
2149 -12.4820435766226 41.8306694652002 1.63972717015307
2150 -10.287777231487 -22.9078417324702 -11.0492352063198
2151 11.0494929625879 19.6183563152888 -11.4435395218556
2152 -20.0778273775939 -11.5280673298264 6.16773747283057
2153 11.16501816172 15.5696597568574 -7.82514580820967
2154 8.00592892574994 7.41748117214774 7.63252039727629
2155 -25.7783012538667 -8.45359256467307 -5.81065538157469
2156 13.5353915389477 3.71189397876031 -8.2444182499032
2157 15.0381716752349 4.937105047411 10.7098240980049
2158 31.1230753675014 2.09423477423881 16.3879651458725
2159 -26.2881487291355 13.9820235043136 6.49875937531589
2160 -2.85689510214563 -11.6236344811623 -21.1543966601698
2161 -17.3172063588981 -4.1858064226127 20.4417072862314
2162 11.6946512035252 -0.429287441169897 -25.5851126046651
2163 -3.62372962373029 2.22759836086688 1.15374222349276
2164 -0.604480904393338 5.47891318682095 -0.96934399698023
2165 20.0639138145186 -2.65049630835674 -3.08751180082314
2166 -14.9378304468308 -11.4280365077739 -2.62095740724266
2167 30.3708455406652 -22.2632419069178 2.47003437675278
2168 -27.9183815811523 15.749045252649 -6.2465904647236
2169 -1.26923935490077 5.01560831844098 -22.4927277053857
2170 18.0280660072155 18.3595048821508 9.94815266376305
2171 -11.5375781241544 -4.93905805656221 -5.2669478127869
2172 4.88260201187031 -7.55511516915683 -0.141870768304814
2173 14.7884958539067 -6.26736824883246 -28.2352274437633
2174 -16.1513590986755 5.50730372739306 8.21169268048425
2175 -4.65251293701389 4.32703000291143 13.1044975322059
2176 -27.669080662686 32.5821567955095 36.509445825761
2177 17.9332176671617 -10.5884879571247 -1.86692610838036
2178 -1.22731693676197 -16.7100063193422 -24.6025847354436
2179 28.5625307411092 -13.0607102624608 -37.8433749075133
2180 -0.414101419558305 -8.4029676882924 0.583837424516817
2181 -25.5767536908453 12.3167013048164 30.6885203148311
2182 -1.75123368816209 -13.7148083478741 -16.9634415217711
2183 17.0716711082442 19.8972775162462 -2.25159847056308
2184 -11.9018380838662 -0.837524410923104 18.0809246712696
2185 10.8700191530032 5.78927750807779 37.5771508366734
2186 10.9179146094549 11.1967985829313 -38.3587226772106
2187 12.7556774122323 -8.97376129557707 3.99909909597526
2188 -25.691189242213 38.6377809589394 20.9648674472775
2189 16.0791361600465 -17.125284347882 -20.2845133856324
2190 -11.9214612039416 -13.4495597797037 4.42105079164506
2191 0.759516114198768 -1.21004448022095 -4.68982716820937
2192 7.08714928307505 -8.80370444938726 14.42793857239
2193 -4.90306009836304 -3.97356617410799 -14.8451459529157
2194 -24.9369147770364 18.9881938749452 -24.3477799028734
2195 4.75561216140971 -17.4288120986287 16.9321563398608
2196 4.29485521969392 -4.39293693356876 22.8684357328831
2197 15.032489589541 17.3791085342167 -29.6731421290558
2198 1.57175052664038 -21.4092270239333 16.0292398985204
2199 -16.1689779027757 11.0009875741074 15.7880690584451
2200 -25.6888259945654 3.18496039431048 -1.87696980830907
2201 13.9692709952272 -3.69727109446866 3.02840898472913
2202 8.27803599146856 6.64670690202161 -0.421237517041898
2203 -16.5630437358855 -14.5172654391952 28.288959547611
2204 -1.33451072415828 19.1484452310259 -18.2837381597234
2205 6.12751712032127 10.2629008221672 -18.2108337785534
2206 -18.5401793870953 10.1854527955596 20.5113157889466
2207 20.8058907818518 5.23386684181714 1.89308473857716
2208 0.0269639726232108 -6.62816839067429 -11.3005955487149
2209 13.2886206254089 0.0540839641589655 -9.17353180644406
2210 -6.99474973811654 0.0469694719248694 1.17257540082442
2211 0.280962725740981 5.78000487599664 1.14565720239901
2212 15.2165889576335 -27.7158630125887 -4.77543794520269
2213 -2.97401698403832 15.7233121641976 14.3490693097764
2214 -6.92964217568436 11.2138190542098 -6.70491637027761
2215 9.19403327498314 -24.9310175531156 -33.5986662788941
2216 -3.20306480773693 -6.29313569623407 9.36825601286457
2217 1.15732645760286 6.40185488012644 6.61746324406004
2218 -9.39705202714405 -15.2285248587351 -65.8192589315819
2219 1.84829596581243 0.666425164188968 52.0406147714953
2220 4.04727131413808 9.22555611069242 13.7632881195321
2221 -9.28903769120853 -31.5970838072258 5.74268494676303
2222 1.53856927246952 15.6899364903747 -2.91094374518997
2223 2.44531471457247 7.83713716424222 -7.46091010684707
2224 0.498776399680579 -14.7274241136284 9.21582257799454
2225 -2.04247612121226 -0.0615058706861111 7.56655152098268
2226 -4.85138830428742 18.2076112297032 -19.1099833230655
2227 28.5499638356593 4.77745637694792 20.8183771547537
2228 -2.86983546358968 -14.8714450664031 -12.1476855308602
2229 -23.7221405189697 7.82948763878799 -8.37899697840307
2230 57.7805502004368 -13.3038358975396 -29.8427857495747
2231 -49.7613840062053 -0.717460276778829 -7.46312730285606
2232 -4.65863116727712 18.0077440112003 43.3047465487797
2233 -21.5265739451036 31.5750125798572 -34.0338459147769
2234 6.70673697511924 -15.7738862881647 -6.5784547001074
2235 14.5643218732846 -25.6360864244915 16.7182304330429
2236 -1.51929287966945 -7.84394424971435 -3.24881931962225
2237 -3.76810392462443 0.0983315112477126 0.208691903884969
2238 7.99470563109436 4.27948601916679 7.35786513602983
2239 46.9264300372343 -1.97351752122598 1.90408689795351
2240 -4.27514047705846 10.3624639934036 5.78870639966946
2241 -35.4431279840082 -1.90767718773619 -10.1516739142356
2242 -10.5495883296847 -6.67234601134712 4.99377756379324
2243 1.48387500221107 -8.96372083562241 8.58494686616845
2244 37.8180285459746 22.7437280818881 11.7414542241019
2245 9.61458941529189 -13.6400383270402 -5.71920238089776
2246 8.86969969158309 2.65822794182792 -7.02844883987941
2247 -5.91654104291522 4.61399689238356 4.59090220837602
2248 1.2005702703188 7.75161345777305 13.9863104305038
2249 -0.200336869708306 -4.59588163725664 1.66635241927716
2250 -4.01837485340975 11.4972056010638 -21.3621078297495
2251 3.84576435914569 -24.0095613094366 47.7100498654285
2252 -8.30463303047316 24.8941588003155 -46.8248631232917
2253 3.41500544454917 -4.34022200471362 0.636636236864546
2254 -4.63211820594569 16.0100525391105 -5.06631111041938
2255 2.16485678011777 -4.86921418160082 8.70496878422833
2256 6.96772335138157 -8.40682087380343 5.38912721569717
2257 17.6437324677211 2.82164938555077 -17.3521943477268
2258 0.0707344306464118 3.96918967009201 7.56050120339187
2259 -10.5197975252176 -9.64000319752857 8.06347302519723
2260 -9.74034038345344 2.35103276645976 13.2360801921091
2261 11.8570813138123 14.2729300641658 -19.7948401338795
2262 28.6126202517572 -23.6307658521221 -2.5778012194453
2263 2.60309985277497 -0.013012894883996 50.8317157896829
2264 12.7068230118752 6.21454959292289 -55.5802104852266
2265 -12.5285553215384 2.45423612393609 0.107934280521666
2266 -40.6691466068278 21.7669408776768 -8.4198939053594
2267 21.6124567202757 28.698972103218 4.27627991039579
2268 -0.695772001553984 6.65222042677993 3.73830289397254
2269 -24.1017021891915 -4.14335765524048 -30.406967661906
2270 -0.297801000663939 12.182113726423 14.7684042345844
2271 13.9475336658491 -1.25463487597264 6.52286918651641
2272 -28.6523682830165 -31.1367724013729 6.88305089694806
2273 19.3005112751781 25.8979821991794 -7.19384259062488
2274 7.71508557738062 3.97023177711411 2.31001819436036
2275 -26.6480530949562 -17.6662939301412 4.62527229032593
2276 -18.0084230122464 -5.19148598897717 -17.2248088468397
2277 22.3048688296994 4.16468826714467 -1.95657570828554
2278 6.9268151785316 -3.49802846251821 -5.09645122779099
2279 6.79515569990459 -0.680051390657005 4.83996406443861
2280 -5.69063297929898 0.922993824334761 2.21321890166992
2281 -10.4446991563946 -15.5838636561383 -29.1430628163422
2282 32.3797905047013 6.56235150757216 24.0319358126533
2283 -17.9142454536012 11.5510440174579 6.91075545236351
2284 -1.86703658086107 39.8166632417101 2.74053740841815
2285 -0.69179293896014 0.706004628065655 23.0871639724951
2286 25.9390220942608 -30.5274039150386 0.36767937610683
2287 -0.119432059141794 -5.29163436917145 -4.47939384988688
2288 3.13220762796946 26.0269751684694 -0.540495024913073
2289 -2.96611365023151 4.80576552592447 -8.82467988303773
2290 1.15840854920492 10.1951732009951 -20.7669286244713
2291 1.16121595131089 -16.166839201999 6.23260535725521
2292 -5.87438783993971 0.529365847331759 13.4115176538594
2293 -4.28542426563788 -5.53827565395422 25.1936969014562
2294 -3.66066959483185 19.475061927832 -8.52966860320298
2295 9.86432798143948 0.153357428938882 -17.8974421283857
2296 -3.37862267610681 -25.4798634221842 -36.9992022332753
2297 4.31745439637281 1.68659530562253 -0.855555669960257
2298 19.7172075495171 31.6654724817897 4.54746955409196
2299 22.2005125158035 -19.8032913635076 -42.5626736525052
2300 49.536729536359 -12.6665850408981 -28.5871259064572
2301 -34.4062488580472 18.3341661577072 20.1844131252711
2302 2.01472506195723 -10.7501092786248 4.78224213044638
2303 -1.22947108165871 5.19434552997646 0.383753424863853
2304 0.0611416132734441 1.08506284272065 -8.62383017477697
2305 11.5962750799316 -21.2838809813583 -30.0263030192463
2306 7.0904189285444 -12.0670123385008 15.6076331398301
2307 8.4655065442114 -11.9637548328452 -5.96603102214285
2308 12.3857224563928 13.3441194742713 16.9647560597756
2309 -5.79683303653188 3.81155824803988 -18.7868931515414
2310 -1.12531847892884 -10.1137960109014 7.51743204388299
2311 -25.4922234057459 -21.7300911963466 -32.3875457298056
2312 21.6861258099095 12.9882664727796 14.1626006896147
2313 0.214338164134034 1.86448249349224 5.54221840470368
2314 -1.52815529203998 -26.8700778781381 31.4262036268032
2315 -8.63731033113518 -33.144381730644 -34.7963790739457
2316 13.9799885083653 52.2201871408795 6.46395940904285
2317 -39.6512968830161 -36.8899671118621 -3.45342197351914
2318 55.3017447223249 0.813907641650424 -0.942227957277304
2319 -2.69578125157344 35.8970846374607 -16.356570796854
2320 1.057247301087 -9.28409905084963 5.55086447094812
2321 -4.25401201192334 -1.74226206745758 13.4480172908084
2322 -4.45095752874471 15.8906148591581 -12.2508723679265
2323 0.541259318006269 54.9712785033131 6.33978932775373
2324 21.8096892652809 -7.15398358441365 3.30027830882928
2325 -2.85316694265234 -21.379807077977 22.9342469586351
2326 -12.6474185136343 -4.86515352468335 11.9996932351296
2327 5.81766806471128 2.83557990492424 -9.18639674618765
2328 5.62755645201961 9.7400270014871 0.33218511064029
2329 6.14710415344069 -6.09447065223463 -52.5412928052623
2330 -3.0484006219881 -0.0514157967340076 7.99135601993168
2331 17.2719047187088 33.8831354746921 -26.4333704594308
2332 -47.7378272877636 -42.5597595843269 -29.8437353574772
2333 17.9004758175227 20.1801277313039 -1.58633812670339
2334 29.3557912327956 34.873592251856 13.7886801261739
2335 -49.0719951068832 -1.02467362611434 -25.2589787804485
2336 48.3976142816835 -7.72718816148964 6.75314744350282
2337 1.21742637453209 15.6991514097 16.8315564144931
2338 -8.4923437136093 -12.0458905202947 1.3693666039436
2339 -1.73363010503535 1.55996699354272 -4.55554233701004
2340 2.1650704943206 5.11597472814826 2.82280364184495
2341 -15.1941446971174 -5.6095586268572 14.8992628462322
2342 8.55445399157043 9.42354785596941 -8.34063550418359
2343 9.28587448807298 -2.75786029885622 -5.46697002414291
2344 6.19249180741806 -45.1948502745527 31.8438289381773
2345 -12.588524807041 -6.83549496600138 4.13094457198046
2346 -14.8831107658916 27.6594024894135 -22.9208925330133
2347 13.020936612451 26.8320665628041 38.9176285422216
2348 -15.8486149343819 -32.8252439504983 -35.6891487838144
2349 0.564708650283802 9.89427882108143 6.52637552700755
2350 -23.5124078927588 -9.95488297533276 4.27851266329968
2351 12.9379434319162 15.6086780801555 -6.24819799481229
2352 9.97264822817034 7.78753769112615 -10.0021220483224
2353 -2.94782272480056 -6.0700774704675 28.5798677937648
2354 -11.8959803142571 25.0473495943446 33.8628287315332
2355 8.91000317607595 13.6535317730429 -25.7295678454751
2356 -9.79255830642504 -38.8909700952142 4.14476900743428
2357 -6.52253770331888 11.1020705371421 -0.663156075279601
2358 22.2855323007336 25.9130592319048 5.98567302196737
2359 -3.85219804935195 -47.3514363497029 19.3164089312248
2360 -6.60412791424475 33.1763650118134 -9.27812524368813
2361 10.2507630652619 7.17655926360903 -8.5830032454145
2362 20.4975364456179 -20.1910890156081 -0.719756606663307
2363 -6.90421691292956 0.133963555671151 -1.14479248401186
2364 -7.47288465209761 15.0804699086418 -4.92684048606962
2365 -26.4919791960496 37.1511597294077 -2.75284442103153
2366 3.45038634380789 -21.7809548998326 19.0009884323993
2367 23.9414936353998 -11.5134090125088 -18.5541926767217
2368 -4.35970974788202 -18.8554515805353 20.3455549904699
2369 -2.95951369448584 7.36320718714225 -23.7711574891133
2370 0.311189563162971 15.9396355460335 4.06229275139058
2371 -10.6636992335238 -9.07522729597762 -11.2337604941778
2372 20.4039685531078 -6.63327924072943 11.5346286992248
2373 20.5920425576421 2.39450242424392 31.5534377030005
2374 -4.84371581420281 -26.861163007004 9.03994265627711
2375 1.67923259462932 17.1499435810515 6.05365119851073
2376 5.95958314131559 8.9438330381252 -16.2857918400966
2377 -55.5485760197214 7.81161120521488 6.93276776570263
2378 5.13787086728743 -13.4500060383494 -1.83183914810239
2379 14.7756566454716 2.22887974805761 16.1725399976905
2380 4.36147246079421 -20.7544461687925 2.8118655970999
2381 -1.78934906627687 10.7880393473086 8.87187314609921
2382 -4.83768797696893 9.35272197736855 -10.0913161867052
2383 15.2965927630251 -26.4473629180012 24.9858976014906
2384 1.57645970888833 2.5142600397563 -41.7884306956722
2385 -12.8360431393947 31.2399794114724 26.058447493415
2386 -45.6016147263251 21.3397296064702 -11.8095370791324
2387 25.3278515851912 -18.0459393105613 2.49992794863757
2388 -37.5148883210367 1.20858978267578 -35.772263427373
2389 27.3828708124036 28.4157768561859 21.9798072143999
2390 2.6392717653931 3.91478576356625 -1.7633541220235
2391 -18.9743971577503 -19.2610192331796 -13.9238151201242
2392 -19.318152274011 -8.30963305058043 -12.6266350671161
2393 5.77464251509989 9.59734711169603 15.4908649402701
2394 15.1019836952943 4.40649127168271 -4.95530279006257
2395 -17.3330736746254 -20.8212893550549 16.3281771360352
2396 7.55196333294273 -2.03318826368778 -21.6499020452061
2397 18.5741769872061 -0.548067955558407 1.46579243676775
2398 21.2610994043131 30.4838024101538 12.9980242582852
2399 -7.46145863251329 -26.1284900567693 5.12604875777046
2400 -14.6374384589733 3.24288090488938 -11.2200038973995
2401 11.8248348736848 -6.08056462045244 -18.4034950146058
2402 -13.8204821244436 20.8402966912647 6.87940199724
2403 -2.17760495008061 3.00051352531415 6.68026601759283
2404 10.3621779199555 12.5466415329374 7.70651075720795
2405 -1.94997799043829 -9.1408352754284 -7.46604056186743
2406 -8.71397065199421 -2.73226350472632 2.99246991598238
2407 -17.5058926697551 6.91137443976689 3.76178164474867
2408 1.27888626741544 -12.8587454083623 -2.49752201310319
2409 13.2178634240387 4.9487736583728 -3.91875183134484
2410 -17.9170056815493 5.57188521447928 -14.9571682111966
2411 6.59640290527327 -2.443265189545 -6.63133833823379
2412 17.5422787007795 -3.57776885480701 19.2389703838864
2413 -7.04015699334077 0.806294286921759 0.664399802499522
2414 1.94687239780038 -5.93882711617195 -13.1506429088676
2415 6.48120958265742 3.35443099471914 16.2538163750898
2416 8.17902212109867 18.9290024086195 -21.4272008706309
2417 -1.3583359059805 2.8722997668048 -20.1911240326504
2418 3.39673579381774 -31.3953996827494 20.3822553911917
2419 -47.0887555376824 -11.1371081430886 -25.0329715071702
2420 -14.8240404823525 5.59901650367612 -10.7934665864567
2421 1.50131021088092 -2.31531117041816 0.717423009715887
2422 44.4099970887184 28.6940254059005 7.42634874072604
2423 -47.6740075132324 -42.0163397980704 0.199604473558685
2424 -2.15514267767152 0.0878915277953913 7.04871419159499
2425 46.1138884839179 -14.5913610675479 -34.4776144120651
2426 -42.6881261853013 2.14772285936546 22.5021882736491
2427 2.27094094552298 17.7066912659878 9.98811494120046
2428 7.86968474175583 -24.0453962311638 5.34646862194136
2429 -5.40184454837126 9.31392883463941 -21.805860585848
2430 2.88836167173422 16.1348722625588 12.2628681599357
2431 3.74939483750164 5.40762718706185 14.7452253322567
2432 0.0994823928151483 0.254387908841336 -12.3471938133839
2433 0.478943588615177 -3.82998696329402 -8.45121291127617
2434 13.4079893535185 1.85719566376515 1.23200777168937
2435 -3.28625927820581 -2.07997245878422 1.71077071763598
2436 -8.57926664723065 -15.4334528407922 0.928135579419495
2437 27.3763543008009 15.6282258628771 -15.9054659072957
2438 -29.5178970686002 -4.11072087572658 2.49644248964317
2439 -2.66465964551394 -9.17466269300249 18.4650830353007
2440 -4.86710424793212 18.5882417911489 15.8185970462839
2441 10.8516846400795 -7.42327167750176 -20.1800670935864
2442 -4.61506495968413 -0.399392962357064 11.565676771207
2443 -0.777775528634787 6.91440713233693 3.83526430699899
2444 -4.18068622168681 -9.83507243581568 2.24060898080426
2445 1.01997664056089 3.63853130568952 -2.51001983862879
2446 -16.6226004954672 7.96784571299502 -18.2750787026033
2447 4.61626596653146 -1.47879229868874 3.12904212630083
2448 10.825142594163 -6.66299794370937 12.857484379822
2449 14.7873087782265 35.7103525949908 -8.34830312661854
2450 24.521624996952 -3.15952139684718 -36.806473845633
2451 0.492066683401266 -24.942622135986 -0.448269291156018
2452 -21.5978871516971 8.59268488798605 19.1432227317453
2453 0.735003420064593 4.95495249111391 5.97407932846637
2454 -4.0464235507275 -2.29395152147404 17.7208425338123
2455 9.18761607010803 -25.3927020488277 20.1952126153565
2456 9.76796147579884 3.94522304022848 5.06256041458094
2457 -2.87061307966772 27.0827018984875 -10.0736393479694
2458 -21.6098251157792 -6.47773593445168 56.9651229107662
2459 12.857086995696 4.95450066118987 -7.64389358731298
2460 2.3370979242481 2.22872343470591 -30.989159776031
2461 16.4901764952149 4.4739553233622 23.7571359837321
2462 -14.0393192102958 -8.76558895557109 -12.7244066245667
2463 -10.5357102196404 -17.1341994662603 -1.99438167044179
2464 -7.03046700117204 34.2602750109935 -4.68736615987315
2465 -1.26603949150363 -5.63648655117203 -1.60585928230805
2466 -0.73764864986058 -5.80567655224562 5.25868550993942
2467 26.6726654302325 36.0318727410009 5.58551326255422
2468 -0.198604265907405 -1.32412785932573 -1.90044946192778
2469 -22.0525594926998 -30.5393564203708 -15.2628009705665
2470 0.17109298958826 6.55444360984111 -5.24065495522498
2471 -14.5334626209664 13.4231610001567 9.50645220046603
2472 24.399797190737 -11.6608400114443 4.33907882429659
2473 -0.753002638259425 24.2180187177734 -6.38413245866735
2474 23.3407880454381 11.7569113015747 -14.4655823819056
2475 16.2778441425212 -2.57267394026652 28.5508156883606
2476 21.715186522571 11.1182171397704 17.9602732343259
2477 2.77376569083964 -8.82118501702464 2.69002171774021
2478 -27.146576333289 -6.87525104886808 -17.9550820918667
2479 4.8200101190274 -24.0347499427922 -9.03272753052536
2480 2.6932180159242 -8.07738983096963 3.96704157344934
2481 0.0281982502147011 21.3942571816679 -11.3670256719206
2482 -0.985079201779314 30.9423594510881 2.11774033678334
2483 -4.77473408340991 -1.10097475137654 -3.1042130162332
2484 -1.88364540568069 -28.8259818115721 17.3167456816956
2485 25.4212463970612 0.473756710599835 -5.54544490005559
2486 -46.0559582423342 -13.0994667285531 7.02669966156934
2487 10.8696501308734 14.7916933333179 1.20417159661126
2488 0.990951445872072 25.3337927706247 -11.9122973629121
2489 -2.70900334972363 -13.4310912672789 10.802259905909
2490 0.664865138428145 -4.99249057277787 7.60713359119168
2491 -4.67644052985355 20.5180278423422 -2.84576443656197
2492 11.2316464882625 -19.3904910216965 8.13301328294933
2493 8.97328333361553 -6.22109431041041 11.6949213956276
2494 1.77118077173995 13.8076480364544 2.69692450803362
2495 -16.3648779720916 11.6170262446889 -4.07308967856868
2496 17.8660569236965 -17.9757277866126 18.8103874889249
2497 0.997810800366242 -16.0903687893769 -20.1393866692633
2498 21.572904516374 6.42475978997933 12.8527550081578
2499 -8.09024497312932 25.8614585389365 2.44452717251289
2500 31.741135253811 -7.8993591115734 -81.8535506821697
2501 -21.1070948493951 -27.9186562586656 48.8854627041784
2502 -18.6524651842899 31.464610930151 26.0917696178805
2503 3.64413221937021 24.5035004053937 -32.6027354565668
2504 -2.54982449690909 12.9484986891382 -21.3290561205628
2505 5.22685800764829 2.80904725856921 16.1138534312851
2506 25.2732379150113 -20.6631979012666 -4.22552544194814
2507 6.01615306552007 7.61925641315233 3.39568270237926
2508 -24.2138596757248 -8.32896981030425 8.55795220281258
2509 16.0688698344653 -17.6952718591556 -22.986498373964
2510 -2.42359058147337 -7.66982308959015 -10.9464074718187
2511 -15.5609875751102 16.6834234156196 26.324396232008
2512 -18.714915564644 3.61058291572456 -36.1522250527039
2513 -7.99600255495862 -5.37959730001938 15.3046197985884
2514 21.5394590163472 -10.1532659551649 0.194807990069537
2515 8.81798927779919 -6.80472006810994 0.642049769918737
2516 12.5950499509624 17.3237762959019 -6.88313495157421
2517 -19.5160855863292 -5.56187316610812 -0.234902462017875
2518 0.57825694601479 1.99647420083466 7.7316639306652
2519 -0.478494140719018 5.27054333805637 3.52362383407789
2520 -0.893389674132205 -0.29666716105717 -1.37996728250848
2521 -17.3735363978303 3.30541225725178 21.9989613752815
2522 3.23827392447081 -0.520659149306686 7.89192952404916
2523 13.6104215804789 4.91706934567545 -10.2198463097143
2524 -7.77895014569096 0.659097916095647 37.9321604168096
2525 -6.40121693654679 12.013850636716 -44.9179783734439
2526 -7.62805776650491 2.24328898601192 -10.447812764501
2527 19.7132490613882 -23.3277404256937 5.15967321605928
2528 -19.4904845674044 -8.33756885737047 3.63896111523752
2529 5.24580863685228 23.5215063615261 0.111864759309026
2530 26.6856957543875 -14.1231704105009 10.8355255874461
2531 -21.8459168055337 7.56066080774726 -10.300346015334
2532 -5.35926970578232 2.17750729274119 -6.0778336279124
2533 -18.0914510457815 -44.8579682963885 23.1180785509253
2534 15.0006746860001 34.536504119531 -17.7975610560232
2535 5.02433461713517 7.82514753720633 -3.92400442715491
2536 -12.0641593317919 13.6002790954179 9.44478705734944
2537 23.7614745233412 -19.7366611970091 -10.1567795433767
2538 -12.5717750355816 3.76270754456618 -8.40839822103172
2539 8.65185838081689 12.9313831206342 2.3954709058161
2540 -5.11659300833674 -5.04138825143176 -6.12532274154986
2541 -3.75812326366289 1.80900972479006 6.69405808134475
2542 14.570475265927 10.1891458182718 -17.3173282207293
2543 -15.2959828190437 -11.5828762455838 6.18836665966998
2544 -2.57025422331347 6.59293184448402 -4.94910314834709
2545 -12.458023505786 -7.57408855698153 15.4106956301673
2546 0.701908621649191 1.24703404804593 -4.13166620360423
2547 4.88890861288789 14.0891908988906 -7.17039066907717
2548 28.3154022853635 -52.6572431161512 -22.807457986872
2549 -23.6771589303295 41.5206348693868 8.77508913136495
2550 -13.4233101933544 5.92850298746301 6.71870748573662
2551 3.29429014224386 31.4246068372954 7.47105100220455
2552 -14.7717092476108 -13.9721619012079 4.56819976292291
2553 1.97307986631087 -5.67730371200775 -12.1698893774181
2554 40.4432099264134 -3.01789974863295 38.3373674914895
2555 -16.6900808766509 1.68491987983325 -25.0704561164182
2556 -13.3179042638955 2.60915604946107 -16.6850909300163
2557 1.75231329479828 5.81251154872802 -8.9450151105061
2558 -4.11698551378249 -2.73922877880257 13.3057894630644
2559 -2.47533773560614 -1.80774360715764 -2.36112476113757
2560 -16.92802500222 -33.2919174479359 5.23660203084632
2561 22.7121500219123 21.673186228163 9.30941407417779
2562 -0.0791932168156819 -22.9541438900101 -5.34699984717443
2563 27.835500902943 -7.12649127059585 29.7517159946483
2564 -9.58087531797062 -3.10398260181955 -8.50338831950948
2565 -10.1247137842087 8.29301864755728 -5.15984434524671
2566 -31.5098130334227 -19.4560178358883 -53.3983554809503
2567 2.40967125904588 23.0648105963047 -20.5323272589469
2568 26.3203673725266 15.9572069831469 44.5139008369343
2569 -15.8992355593247 -24.3221740282854 17.1251294453417
2570 -0.127531155121516 -3.20006426035043 -40.053011204687
2571 13.0338658142572 23.8051544889358 30.0197575555445
2572 26.7856497905742 10.3098211288819 24.3572202113718
2573 2.2785277627505 1.49277660474168 1.80173119602322
2574 -24.8688021609471 -8.12048325761009 -25.5359417400856
2575 32.1165097520771 14.4136829314123 10.8826206665672
2576 8.77589269649939 28.7820575394923 6.98529884925852
2577 -13.3281959489094 -24.8754465445588 9.00435182872525
2578 -5.7986780900194 11.348265357331 -7.51535627194054
2579 7.34955967798482 -10.6764415004923 15.0963688705546
2580 -3.99279205677183 -6.90560692509852 1.82398830160797
2581 -3.24409375084277 6.84400585992379 -0.118625299325945
2582 -8.01578084612709 -4.51789788426094 1.12427915251968
2583 -5.82066402242518 -14.2955250076592 -5.74616823010947
2584 9.07600407698776 -4.21352120695102 -9.01152689780897
2585 0.367918069942494 1.24635097527717 3.22515656061296
2586 -9.14593210301376 1.39396887761972 -1.51643436632706
2587 -27.0814952174118 -58.7486143187691 -28.6856761335987
2588 8.18880189335184 0.422498202730927 29.2996641901844
2589 16.3434823667838 45.5231770648263 -9.52996178654516
2590 -4.53565838590711 22.934251578564 -39.2655008610223
2591 -10.224466689717 -25.7222777725078 19.9613060370843
2592 20.9737948837486 -1.2591723359077 21.7080637955791
2593 -29.4049731725046 0.718565550125237 -33.5055931198407
2594 7.49316235092328 13.913898829295 46.4299090846017
2595 31.0571303254361 -12.8052958935092 -14.8398292565273
2596 9.10355463880949 -6.79541647611304 -2.57204761563169
2597 4.61643815223334 8.05635522987007 -1.70969011841264
2598 -4.38801230291296 -7.6388615843556 1.61664668553253
2599 -13.5704094398272 -33.0895733601165 25.8594730289933
2600 -1.97082455362363 -22.7908697637717 5.54822810945922
2601 -5.72201923026233 -2.10357233091065 1.26764693913262
2602 11.5923247421676 20.0851610070891 -5.49886716107188
2603 -5.57786906298566 -3.26933820071175 2.7582345529184
2604 -4.09498249394844 -5.28882919600093 1.84529139357526
2605 14.0852375807402 22.7966509295861 -3.16867800259295
2606 -5.79688762122754 -26.3055265166253 0.832735439606674
2607 -4.82513200334828 -7.32780554609209 -0.155212265278962
2608 12.6797901364845 6.04986069458888 14.2082072284713
2609 6.59060469280202 3.54865713721781 2.96818800650652
2610 -7.65832913148731 -0.793985370820891 -6.47241584703512
2611 -8.00561491796995 -6.93103571676272 21.2864822406221
2612 -1.82063924737341 -13.0351249163892 -19.8028462478615
2613 4.19104291694321 -0.596509508065314 -3.3443150448337
2614 17.4089857329891 16.8317778039911 10.4198965915088
2615 -13.4597847112979 -6.43290169406923 1.96196981884391
2616 -10.7527572568034 -12.7136582157156 -12.4112472006813
2617 -13.1192243301839 -48.1636312868445 -1.0370385346401
2618 -0.752340272405098 24.0888474680097 -1.81096621404459
2619 8.72783268646046 -3.407230415459 18.6574112765111
2620 24.5125459452875 -31.1675004344948 -4.00700662220109
2621 -30.2430644747314 7.70436245371127 9.16840631547585
2622 8.74469771158254 14.0495480173407 -0.911540467313454
2623 -36.7550335809105 13.497018185705 -26.9346191916829
2624 -18.038520034877 8.85010129271598 38.2576842614418
2625 51.3317385375404 -20.3397531716511 -14.6392668490935
2626 -6.39875085365187 -1.82882789385596 -2.96308031893263
2627 6.84776551581865 -9.52865695939225 -8.41081071496709
2628 -6.50786675696882 9.7557767136395 11.1786984798913
2629 -27.7291842291521 -28.4731834346444 -43.4301395996118
2630 -7.04210238868392 5.17400750399569 -0.51958802991132
2631 33.1000055703122 26.0169357117959 42.130880360066
2632 29.9489026541731 6.69661142138968 -2.53149948008544
2633 -7.29563847865006 -15.0247731849034 3.30959546357313
2634 -5.88893245286945 5.25361902245432 -6.6765493361894
2635 -1.44053226336748 -4.76715473384202 23.0510144912155
2636 -3.3784449689575 7.8973262480474 -3.06503330554402
2637 2.10090533733407 10.6364829233379 -9.8863362771475
2638 -19.4345928385967 -15.3035171994729 16.9083806847648
2639 3.95040265650414 15.6167343504605 -21.7522515199198
2640 3.8100141931116 6.81437290649194 4.89699108866984
2641 13.0626947800983 29.9232887460419 11.6150810255906
2642 -8.09043085138903 0.630940795500399 -29.867608891774
2643 -8.90537061118524 -27.8003268865798 -0.168004369258923
2644 7.43785071606378 -2.89454326215211 -10.0147978110815
2645 9.07988035544585 -6.72032434528633 -10.8879734290617
2646 -15.6321695762874 7.32599552032529 26.8351063732749
2647 -20.1417334838053 -21.9448950592952 -23.8576395978156
2648 12.9993549714387 1.83682880973322 13.7541372931931
2649 10.2961076041943 25.4413297709335 6.44724302881181
2650 2.27453387108693 -6.94946252849135 11.0669681702693
2651 11.0176943545612 -7.8016816079889 21.2566523616097
2652 6.89983188686627 -5.10567131974412 11.5807760350551
2653 -8.87811972762427 15.5312813029813 50.8283583277039
2654 9.6002297625849 7.31459790040579 6.25811044375
2655 -9.99061813189634 -26.5591443956171 -49.1922907354694
2656 -8.39365835982161 -18.4810295575433 7.62460276398922
2657 13.7950415010522 9.64076923765801 -9.93482706954275
2658 -4.7182087657887 10.1895724082458 6.22634549742954
2659 32.7068605964441 -9.00147586652244 -21.5400975718736
2660 14.3885094297041 -9.4999996637263 3.68501947285106
2661 -12.9206107830949 8.83439442213745 14.1136708852954
2662 -5.44089427848842 -3.0936376229345 7.38091975029035
2663 3.11308450275229 2.0808697749567 0.948501874282724
2664 -3.55696767416654 4.93881905181562 -7.78706589109201
2665 -23.3527734808259 20.9409263357393 -4.6952746727458
2666 11.6049007035492 -1.76594187813308 4.70079930878779
2667 22.0945325875217 -17.8872363747528 2.013504448274
2668 2.10897334992968 -31.9115897506214 0.0315112786943645
2669 0.904143194545092 17.5624993963241 -10.5631906596567
2670 -4.93574521407204 4.87089395975932 9.28434396952357
2671 -39.0432027529305 18.9685201038782 17.250719103835
2672 5.78921389863793 -0.189334663982809 -4.06585226014751
2673 35.9427696415949 3.46337053063339 -9.39998203900825
2674 -3.65807688036443 13.8472096976528 15.6521343858199
2675 13.4528389126694 -18.2085000449638 -19.3309862402038
2676 -11.227708920455 0.0474736966933116 5.59821773726215
2677 15.9895855331974 10.4904221684798 -4.15483594329465
2678 1.9790301081442 6.49779549615011 7.85086106948054
2679 -21.5488347668698 2.71814542825834 7.59603209655498
2680 12.2934465743832 3.5277719492521 -22.3410365806543
2681 2.8500346131232 -4.94145287098013 0.486097244043951
2682 -7.95914739128701 -2.09371948252885 9.27821260254516
2683 37.8092200501765 14.2906015057206 4.25410066181777
2684 -34.0932312005881 5.59023655983401 6.70286285842321
2685 3.33089838445739 -21.9192810384361 -9.3196775383282
2686 0.545513470473123 18.9198170281238 -0.0159584749062258
2687 -10.5283982067056 -26.9296793872668 -0.630359285071636
2688 10.0328179158861 5.04508803803717 0.85015366209869
2689 -12.332197697384 -4.27590830630788 5.76287526488979
2690 23.9587828369279 12.5157140308717 -8.93943171522673
2691 -6.56243654462827 2.22544312533435 -3.60749983539776
2692 12.5508458966334 25.3374402917128 4.43148791981065
2693 -0.25991117305168 -3.6212914496159 4.45540987640757
2694 -14.4271265032887 -16.6803402438527 -7.97673643431693
2695 -23.8889022101151 20.2746309259703 -1.48507453020693
2696 6.97034770647882 -8.90254258623992 -1.44252082885859
2697 14.8807573347476 -11.3746320329348 8.74334320362729
2698 13.2568049029821 -17.8715949481744 -11.8377010936064
2699 8.19990452016783 21.3750777736288 25.2453949438177
2700 -0.859051435663177 6.13692555626897 8.24277028918769
2701 9.37378116352522 -17.2071575714849 -7.09974108305149
2702 3.68504040174191 24.7592960526521 6.56540205121459
2703 -9.78320227151255 -5.94528088123229 -2.49533698780087
2704 -10.0831722559241 2.20711672138815 17.3206684858261
2705 12.8372629306148 -9.66950560148167 -14.5336352040157
2706 0.511274202143207 8.54150089457509 4.55514005325746
2707 3.65800387598648 0.118023585337343 10.0727020150947
2708 -2.58618898753073 -3.81511661851668 5.82652609837921
2709 -4.19891736279694 0.0505137399685523 -8.00820587483044
2710 0.107557877697395 25.5836274957838 -28.4082567552305
2711 9.59120221818629 -7.79870893646936 27.9158162969457
2712 1.75646652729708 -9.79314424929944 -8.28159470457849
2713 -7.21175493916187 20.3397995581544 24.6712171002934
2714 -1.2454480972052 -1.28521571094965 -10.2781669072751
2715 -3.36889936212212 -21.3769530649751 -10.9177037125417
2716 41.1200954088636 2.99017349752621 57.2225712234918
2717 -40.5429959123217 -3.08905376648361 -28.1411404640716
2718 -1.19114656442001 -7.47851306695198 -2.90301755657023
2719 -2.70238162115635 22.1673471151248 -25.4194850121689
2720 22.7639075031103 -7.53596342449595 -9.50111231318886
2721 -5.53776098081772 -0.906469494607062 17.6184104703112
2722 13.3879035766974 -18.512998574769 9.55589188310855
2723 -7.02817914337428 14.7109153871105 -3.03769698861783
2724 -7.87297601588876 -0.507457733500718 -1.68987962682897
2725 -1.44400111577466 9.4075910045246 8.42052857622501
2726 0.314378801251361 4.08790316880231 -8.96376767403619
2727 4.35655117153997 -10.0662842034477 5.83398786820239
2728 -9.5891577084517 -30.83813716706 -16.2986175860828
2729 -4.38847626264686 12.5003597619039 6.84849438355598
2730 4.76554445683927 25.8151133227039 9.84343012847178
2731 -28.8266230475964 9.59831557678238 13.5009213906801
2732 -5.68992783567414 6.23516244012421 4.33929878145975
2733 11.4715885711014 1.73453449071228 -0.792682988450291
2734 25.7630199608943 -48.4009142996442 -21.903563607751
2735 -11.8540495938455 35.4030846947463 -7.69118622849086
2736 3.73534316434538 10.7369597747527 16.5207745223043
2737 22.7776835961116 8.09708297881422 -10.2500977389863
2738 -12.1783260083332 -0.0190051733476811 5.40949715582222
2739 1.21141341432696 -5.98158558028608 3.26321725525955
2740 30.4429805030417 19.5910123000768 25.2607168944347
2741 -13.6249014265876 9.58558423812393 -9.99906844422142
2742 -15.8016104924614 -28.4424512749512 -20.7404982039739
2743 -20.798665935571 -12.6810600734803 16.1220174611446
2744 21.6096085062931 2.91119426322828 -22.3449450367778
2745 -1.72086128308904 8.44815959843948 5.95585365141721
2746 -53.9885553089025 26.4932905597216 -27.3870424106327
2747 21.7293446842751 -8.44120128539445 -5.01374007389083
2748 26.7854314255367 -17.7670811651807 21.5023204495158
2749 6.43701809081787 8.33456738931069 -29.0617054504234
2750 2.85086138496796 -2.00555854144309 19.4920495930705
2751 -3.13111724740525 1.46915527423727 -0.0379849657909874
2752 -36.5445512713122 -7.59930313968694 -7.94614864129727
2753 14.4643859659628 -9.3646571898569 -10.1862852852443
2754 8.89758965676995 -5.49176266331112 -0.991023667318762
2755 20.5845370834726 21.5560324997725 11.7312068819819
2756 -10.5091490275693 -8.2184182125954 -10.189930898158
2757 -16.3103923663544 -2.92629619406733 -5.26437827732815
2758 -30.9182456649437 1.24481045156664 21.3064688609681
2759 -0.609280903971053 3.21487250843618 -1.53866046520694
2760 7.41625397574818 8.5436566685986 -15.0389011625187
2761 6.98505731263422 -6.93548376419088 -32.5242700104815
2762 -22.1843598297707 -13.3950224123436 1.05815989935188
2763 -15.4609417416247 -10.8516394673006 -8.4262062588903
2764 -3.3173626084073 -25.94614749929 -18.6089255201571
2765 7.19689860647688 5.49211471245398 26.3968757944062
2766 -1.89425063889345 16.6900611518251 -5.51101440622087
2767 10.9168103981217 -25.2458673224289 -10.9903332970183
2768 -7.37561240526012 8.38168352155779 3.74084081331212
2769 -5.77801037599014 18.2273448969828 6.87857215945505
2770 -37.2127626460865 19.6689406675203 -35.9769095972497
2771 25.3376521579373 -0.542880407186806 9.41031863957638
2772 -3.78383005101687 -7.52884401135249 23.7471024816088
2773 19.2957242336874 -3.93004409718042 -15.9396753542587
2774 -3.2524102006223 0.346060801625803 -9.92562141397638
2775 3.53078012833708 -1.20114859995496 9.23554799470697
2776 2.04064494456466 -3.49867794817961 -4.51228216118574
2777 6.07837220479423 2.64460494587724 5.29506293874739
2778 32.1977099385956 -17.4010532615426 -4.52367875039643
2779 7.89502395896116 6.58644361106543 23.7024393364155
2780 7.93752841239117 -23.0177629040349 33.4575264505292
2781 -13.1884216986064 11.1683599903718 -8.89792456378254
2782 13.3273288116285 12.9113932140538 -28.4640128999058
2783 -1.79984371206357 6.4078606406117 12.1140856878433
2784 1.76260493001498 -3.28993989449125 3.37980448926362
2785 -18.56956389442 -8.88405300457208 16.3180379282222
2786 17.329750693154 10.9463062718008 -20.4084022655038
2787 -0.010384944569679 5.48311662246618 5.81074971612312
2788 -4.36263513868015 15.8005437982247 41.043676632117
2789 -19.5241567002137 -29.1282016734595 -24.506498326237
2790 15.2025361904102 8.34396953001603 -14.1090634461718
2791 -0.280200201391701 0.20560277083909 17.4611818508714
2792 -11.8450543270119 6.86131901125489 2.20378830877122
2793 6.21384419645614 0.210796910210909 -17.445945424522
2794 4.85876130527429 12.3474595030079 -14.879627517733
2795 -9.63131513745643 -0.272897159836363 2.04843169914291
2796 6.31477593618152 6.45443836569975 16.8462676857455
2797 -32.581741860444 21.0799500331026 2.03265514896415
2798 -1.35130423755455 5.85854099174987 0.206446107840663
2799 23.7753911859737 -2.63661222087054 -6.88402886217351
2800 -6.69645341904051 -23.1026519615023 6.37274352498964
2801 -4.70538433304608 34.2299101140597 9.03800273098817
2802 2.87008351484804 -7.52285385348791 -15.5311041101159
2803 -0.464583060227823 14.6481331153744 14.613937732083
2804 1.68622175660519 -6.95895622014507 -11.0205268399157
2805 1.18134092521291 -2.21771064318973 14.7585330350003
2806 -11.4315274631947 -19.1464504163406 43.7792376656735
2807 8.67654989349496 11.0485039709322 -4.90603724479645
2808 9.58539595794331 19.0690459009103 -18.8297170319088
2809 25.4818307098082 16.8574023718195 -10.0859310357722
2810 -7.9952471908048 -2.7181563403102 4.64890719416139
2811 12.749473665305 5.68308997123095 -0.539780629718443
2812 -11.0054772373251 11.2231368964549 -24.8680581846177
2813 12.2968441406726 -2.79695864387257 -2.74387613551379
2814 -7.23557733454852 -9.23921892242248 32.6764543451335
2815 5.09597307776553 9.4651183390174 48.0749898925618
2816 -2.96923033464023 1.27580362743571 -6.8764272264652
2817 -1.64039171700896 -10.3438017515387 -39.4366244649653
2818 28.451263825174 -19.1021078489192 -5.35959654812193
2819 -13.8287982155094 -2.93330145118891 -5.66794503615878
2820 6.7276711088441 -48.1424546042823 -15.6469828433773
2821 -17.0126547584988 -26.6288024184455 2.5688329175646
2822 15.3396224334552 23.0005421282725 -5.60210424970662
2823 -32.9870086895621 -14.1918167464093 -28.5903824083459
2824 -48.8514617821226 -1.14843767657013 -4.86950885147207
2825 17.8275114617319 -4.80077171119429 8.41523785784005
2826 30.9801533971388 7.07783136098098 -6.65809798342613
2827 -34.3361750801962 -33.1965136456411 -18.6314164888154
2828 -0.361797221527256 -2.69619944019141 -11.110987856132
2829 6.78659991189101 -20.9533449358748 20.2179193803874
2830 5.26542952650488 -20.6020657086133 -23.8204786315256
2831 -6.50189842945827 12.2898526415778 18.709057031642
2832 10.2437759288075 -2.23781424491917 -13.83824218193
2833 -49.1173850084967 49.9833649955212 14.6282927592162
2834 1.86020366510767 1.67590305093205 -10.196563350979
2835 24.4983370995634 -11.5094898797414 -22.9043990840637
2836 -52.9266568252695 22.5900022953941 13.1212900968441
2837 6.09547842214169 0.621990621928727 7.49224622913494
2838 4.01786582266008 0.97762127859955 -11.1436524743793
2839 16.7099706071737 -21.4526327128828 22.1715313145223
2840 -0.454373714294147 -8.62782146045888 -15.113447927783
2841 -5.60522367563463 1.63997734317774 -1.44074283088655
2842 -28.3754696644992 60.2545706432121 10.108629110598
2843 20.2529988152891 1.03856540349598 -19.52558551903
2844 13.399006618488 -12.2991449818729 17.8387026495068
2845 -18.456998599513 39.4285601587533 3.99504141863552
2846 1.73329889886008 -11.1193513513038 5.10056538219404
2847 15.1619237729069 -28.1644740474969 -5.14702922988151
2848 27.3372778722203 20.1062919473005 52.603685964902
2849 -2.03006787931995 -2.72655081897398 -9.60749515327942
2850 19.1416796574563 17.9296506215908 20.06382335604
2851 -0.705484152326375 12.2439917294556 -28.6141905044375
2852 4.02898881159605 0.296846579583748 2.06151869449315
2853 1.39187526301463 -10.8323465536695 32.6201506292963
2854 2.7657830913241 11.1664256283808 -19.5086710155881
2855 -2.6816293533141 -9.55856163642739 19.7229034835505
2856 5.19180183936313 -0.87958458151565 -3.17952644406479
2857 11.6721272813424 22.0086322295819 -18.3560706421106
2858 -9.47836286121927 -22.1720408565913 9.69595846959307
2859 -3.04345283184787 -3.04226874011239 8.335451552917
2860 7.10588293718068 5.34005391923408 13.766631351548
2861 5.78522782867575 -12.8410100071256 -21.0535609765101
2862 2.93685694314426 -3.67235959936516 -2.59718550735476
2863 -7.89531109631317 48.214047034194 21.1693222297757
2864 42.293488788275 -22.0975434124436 -19.2548467948524
2865 -13.2922549079116 -49.1904857481803 -6.27263222282879
2866 9.52923985536877 -13.4692088125394 19.7368581275233
2867 -14.4424442703976 32.6182758973433 -0.27326254900319
2868 6.38301077777928 -9.09907268296783 -13.0871909198903
2869 6.91562934850064 -16.9011710292191 -3.54575811766294
2870 0.488588397675696 1.74004712198592 -0.396370908493448
2871 -4.05292863597634 5.94889757577278 3.49315148783402
2872 23.3246628859034 -0.952139092517939 17.9223443355883
2873 50.7128142323571 5.1030318560798 -2.22550223404641
2874 -1.29003188939123 -1.78754938201045 -0.640223368045846
2875 21.1601102436186 -4.38623069818775 6.93573692256799
2876 13.183454696565 6.27918386549568 -17.6975060109218
2877 -30.5581900497643 -7.57712563552106 15.611875641572
2878 16.2923377599524 -40.2723987277293 -49.9706205047618
2879 -1.55066876774574 18.2950501232938 24.223705377492
2880 -14.827428410816 26.2009364031321 22.9989006324314
2881 -2.93678716914306 22.7867672251905 -0.447315729491578
2882 14.5587477537901 -10.9339843821923 3.37599555074935
2883 -8.18625958806046 -8.18668217811751 0.487171023049539
2884 22.3077324508957 -9.4810893915109 -31.1176775122517
2885 -34.3510682521404 -3.39365781087438 22.2240068559903
2886 3.0366698237616 17.9650052347359 14.1547073740693
2887 28.367621478707 8.8050535110326 31.6973536246861
2888 -13.4503691812291 8.98124079436296 -7.95976002883968
2889 2.12029684562844 7.66769253654139 -10.3610780128072
2890 21.9617445489499 -2.76789565446018 0.818906699922209
2891 -24.482348903306 2.71278561710175 2.86912016890671
2892 20.2556041784758 7.83353533970496 11.3058422908931
2893 -6.31550852621471 -8.85459620830289 -17.5480311051295
2894 15.2698623437617 -1.79930906903394 11.1767045068511
2895 -2.86961554801467 7.25298417586869 8.49503362920335
2896 -1.27994550027027 44.5514659914751 15.8135309868491
2897 -8.86683364173388 -23.3074864414551 -11.3889190540297
2898 13.4149186434452 -18.1168610143387 -7.8296974153786
2899 11.1282078453711 11.0643625365694 -2.54416464647071
2900 1.64325446865987 -10.8194076543236 -0.929390476311053
2901 -1.29784228501194 4.22844394108996 -7.19315399779749
2902 -4.5053656436423 -6.62535406650272 -7.63158261524102
2903 -28.480738273726 22.8809853360036 8.88156834422032
2904 31.8389335958546 -18.9062128770366 -4.7779837492732
2905 -11.4625393010053 16.2873473092255 -3.66333626102137
2906 8.41567364220226 -25.5772754676529 3.91545187492737
2907 0.889490839901543 9.27689132432639 10.1063674785444
2908 0.562835351309674 -15.4131003046145 -7.66109492305578
2909 -1.85128201404855 -22.1506154097599 -6.94027423109641
2910 0.0724009720476996 23.0177581136142 16.115105275716
2911 24.937363034716 -0.698532052525551 -14.0342152398713
2912 -1.96634027347421 1.22452033006173 -2.08653571215995
2913 20.2642338070806 -7.75551697513136 3.29396492540809
2914 -21.1115727853683 -33.6274187057461 -0.170595896091621
2915 18.2499666653226 41.8082486780609 -4.97649161651446
2916 -5.54491887107707 -9.21224018390756 -0.236090811183963
2917 0.274323014081721 -9.13526776395062 -5.49521320209642
2918 -4.66640982385998 -0.115334471595888 -6.84039281944353
2919 16.5937288544949 12.3850546280826 3.17900116930269
2920 -7.43515863790244 24.4816429901423 -2.2316681140827
2921 -7.75433487239845 -13.3787256127085 -3.96174741962985
2922 14.9979386137313 -12.7008793728621 4.58910940564983
2923 22.2908565211238 5.73060233853306 17.499110920023
2924 2.21371143636709 -7.09414070734272 -2.57689207413627
2925 -25.2595689177736 4.45965911448995 -8.65952960074877
2926 30.7830615432839 -42.3557473266036 -2.92967884423682
2927 -5.16782413784132 32.9752831029836 -6.97434182787945
2928 -23.2369292584739 11.8126046631583 7.41124196179068
2929 -10.029073798306 -5.37244991336914 -45.9102689385015
2930 12.5998640731739 0.187352366408835 -3.1748815062675
2931 -12.8156730203277 5.1591248980048 6.15822121163332
2932 -11.2198632628471 -30.5540522593216 0.57149920882103
2933 -3.93651804561635 -0.283755374286506 -9.64896502976622
2934 -5.91034853478466 4.60144664344271 -12.7213491340925
2935 -34.7069744687021 -43.9940806855781 13.9500806415364
2936 -0.231938646321725 20.7052099362245 -8.99406005117414
2937 33.6923479689155 17.4300859508791 -12.2799020717062
2938 -25.3346883484076 -48.7392746665089 -11.757666376946
2939 24.0121931021518 8.75340094512792 18.1501643734469
2940 -0.360832814657874 30.5644624337044 -7.14290675088727
2941 -25.9816873227801 20.6059855523501 29.5135232352203
2942 -8.67379354297757 -3.66626316991634 5.7415168001694
2943 8.5003040540432 -15.9337816284347 -5.32338230713515
2944 13.1188062971281 14.5623906996994 7.56867424239814
2945 -20.6884041529593 -15.1248187201786 -14.3576026570839
2946 8.66315967806369 -18.1687091301723 5.99784433903746
2947 -0.763216667729739 -2.47688290820153 13.6519395978213
2948 5.91860501133137 -5.8699379239247 -11.8551796494261
2949 -2.81153663285675 11.1477425190093 1.921663051062
2950 4.87644562356981 6.722477093234 -59.3394767898421
2951 -16.9432072653958 -11.7570403979556 55.0202749794238
2952 15.5692216302466 -3.11559723518059 6.64913811546684
2953 -10.113136684647 3.25723644827572 -34.1863719774417
2954 -2.83083493878569 -7.74035586819941 -4.20667625361858
2955 4.79129534205893 -6.85421711019213 29.8333191943437
2956 -2.33492811324738 -0.179705794077838 -6.40938178024858
2957 21.7814392584301 -2.01406326764481 -12.5007877305807
2958 -9.08950757723273 3.36899164710392 18.2238427494754
2959 5.92310404959187 -11.9570743871984 -9.32869948155673
2960 1.96728383866978 8.40486658364553 0.559755596527292
2961 -0.0785849617734757 -5.12714195146552 13.4216661857908
2962 -22.0749226290304 5.3354509636142 -11.7552406159083
2963 7.1963691502159 -36.992646818696 5.91617444313978
2964 17.4568813899414 29.6899754463145 11.0762183449029
2965 33.7976662502709 16.1289180660157 11.6946293528636
2966 -8.5621842655899 9.76179816663168 -0.555263306269461
2967 -22.2592762575847 -20.9213336543081 -2.93864270750667
2968 -0.901337631386074 20.3925383703689 10.3792438920272
2969 -6.08139976391281 -10.6613356739664 -4.4929973933079
2970 3.99013812149808 -4.24529303849507 1.22655214227004
2971 -28.6854567063681 -28.3010506920479 -0.381650795996032
2972 -0.068415954796522 21.1500640217757 -8.1499826747233
2973 27.0931678970104 -5.20798183194937 3.91638615466816
2974 6.76833056363885 -6.78488468586451 8.62638767210434
2975 -13.768401056625 -14.3344846123802 -9.0465075109401
2976 2.43793065081668 13.2061436715484 -1.44210229003356
2977 20.5190174584564 2.23307528037773 3.93990528166814
2978 -18.5891170161258 -14.160027606784 6.77452451569055
2979 -2.18314503047052 7.0010384057627 -8.22579694053497
2980 -3.51082932138137 6.38065198345988 0.821691353086637
2981 1.35052227776698 11.141339607529 7.79623553139944
2982 -4.31989246212903 -5.84184533100238 0.722079771526502
2983 34.6524730395162 14.3674932969786 42.5074025543005
2984 1.97380600925372 -6.150596224458 -5.60568459841252
2985 -2.91961899802975 2.60735952975235 0.0903225637785858
2986 -0.836534283587254 -1.69295137120525 3.31895643008113
2987 7.8417073274838 -6.39051121774271 -4.16333271835113
2988 0.96320714325469 3.86265921849919 -8.843791976782
2989 18.4850597093864 -12.0551862466055 53.1504188455255
2990 -17.2207479135858 14.2558826643482 -1.34569264616815
2991 3.26029016649251 -7.28827811359307 -45.9392300330786
2992 -5.01445440387477 13.9396483830313 2.63905188057513
2993 -26.2000707278313 -9.84133783898493 11.2368364363892
2994 -17.8740566551327 -8.78223494802194 -3.55438540069588
2995 3.3685533722904 19.547408265736 17.0654145641463
2996 10.3712256671577 -5.1709290928421 -11.4301078775156
2997 -8.6876376592256 -7.52417975660119 -5.79465147687309
2998 -15.0774043224271 9.92198551209499 -23.0681884400026
2999 7.71899135403233 8.79390260831432 1.09898330708606
3000 6.5408219319701 -11.7573257005033 24.2751816328186
