ITEM: TIMESTEP
500
ITEM: NUMBER OF ATOMS
1600
ITEM: BOX BOUNDS pp pp pp
0.0000000000000000e+00 3.6149999999999999e+01
0.0000000000000000e+00 3.6149999999999999e+01
0.0000000000000000e+00 1.5834399999999999e+02
ITEM: ATOMS id mol z q
1 90001 25.9995 -0.000665522
2 90001 25.9995 -0.000974309
3 90001 27.8065 -0.000165428
4 90001 27.8065 -5.10853e-05
5 90001 29.6145 -6.72018e-05
6 90001 29.6145 8.68167e-05
7 90001 31.4215 0.0125016
8 90001 31.4215 0.0209715
9 90001 25.9995 -0.00080577
10 90001 25.9995 -0.000828256
11 90001 27.8065 -0.000461154
12 90001 27.8065 0.000405181
13 90001 29.6145 0.000663136
14 90001 29.6145 0.000378965
15 90001 31.4215 0.00523919
16 90001 31.4215 0.00598374
17 90001 25.9995 -0.000511781
18 90001 25.9995 -0.000988411
19 90001 27.8065 0.000138266
20 90001 27.8065 4.45188e-06
21 90001 29.6145 -0.000296759
22 90001 29.6145 0.000861056
23 90001 31.4215 0.00270887
24 90001 31.4215 -0.00258767
25 90001 25.9995 -0.00103188
26 90001 25.9995 -0.000760058
27 90001 27.8065 0.00041629
28 90001 27.8065 -0.000371753
29 90001 29.6145 0.000662845
30 90001 29.6145 0.000170462
31 90001 31.4215 0.000981517
32 90001 31.4215 0.00858131
33 90001 25.9995 -0.000866496
34 90001 25.9995 -0.000718219
35 90001 27.8065 0.000468483
36 90001 27.8065 0.000134632
37 90001 29.6145 -0.000651293
38 90001 29.6145 -0.000296511
39 90001 31.4215 -0.00929501
40 90001 31.4215 -0.00299549
41 90001 25.9995 -0.000726102
42 90001 25.9995 -0.000516628
43 90001 27.8065 -0.000264334
44 90001 27.8065 -0.000169184
45 90001 29.6145 3.38534e-05
46 90001 29.6145 0.000134693
47 90001 31.4215 -0.00160278
48 90001 31.4215 -0.00526006
49 90001 25.9995 -0.000753944
50 90001 25.9995 -0.00081294
51 90001 27.8065 -0.000349298
52 90001 27.8065 -5.57765e-05
53 90001 29.6145 -0.000308545
54 90001 29.6145 -0.000712701
55 90001 31.4215 -0.009607
56 90001 31.4215 0.000346854
57 90001 25.9995 -0.00064247
58 90001 25.9995 -0.0013093
59 90001 27.8065 -0.000190069
60 90001 27.8065 0.000375622
61 90001 29.6145 -0.000650218
62 90001 29.6145 0.00120927
63 90001 31.4215 0.0161652
64 90001 31.4215 -0.00915061
65 90001 25.9995 -0.00124213
66 90001 25.9995 -0.00102401
67 90001 27.8065 0.000381134
68 90001 27.8065 6.1762e-05
69 90001 29.6145 0.0177833
70 90001 29.6145 0.00258346
71 90001 31.4215 0.0475983
72 90001 31.4215 0.0414176
73 90001 25.9995 -0.000839985
74 90001 25.9995 -0.000645317
75 90001 27.8065 -0.000380575
76 90001 27.8065 5.94587e-05
77 90001 29.6145 0.00189877
78 90001 29.6145 0.000509588
79 90001 31.4215 0.0291982
80 90001 31.4215 0.0409487
81 90001 25.9995 -0.00104043
82 90001 25.9995 -0.0010172
83 90001 27.8065 0.000253078
84 90001 27.8065 0.000171577
85 90001 29.6145 0.000486474
86 90001 29.6145 -0.00221419
87 90001 31.4215 0.00776453
88 90001 31.4215 -0.014004
89 90001 25.9995 -0.000964904
90 90001 25.9995 -0.000427545
91 90001 27.8065 7.94586e-05
92 90001 27.8065 -0.000110213
93 90001 29.6145 0.000835872
94 90001 29.6145 -0.000544881
95 90001 31.4215 -0.0150576
96 90001 31.4215 -0.00470466
97 90001 25.9995 -0.000559938
98 90001 25.9995 -0.000789515
99 90001 27.8065 -0.000410122
100 90001 27.8065 -0.000201157
101 90001 29.6145 -0.00133155
102 90001 29.6145 0.000152687
103 90001 31.4215 0.0321823
104 90001 31.4215 -0.0222854
105 90001 25.9995 -0.000664164
106 90001 25.9995 -0.000650797
107 90001 27.8065 -0.000333256
108 90001 27.8065 -0.000408972
109 90001 29.6145 0.00237389
110 90001 29.6145 0.00194945
111 90001 31.4215 0.00212633
112 90001 31.4215 0.0220599
113 90001 25.9995 -0.000706348
114 90001 25.9995 -0.000783497
115 90001 27.8065 -0.000160723
116 90001 27.8065 -0.000267723
117 90001 29.6145 0.000261591
118 90001 29.6145 -0.000601406
119 90001 31.4215 -0.000241161
120 90001 31.4215 0.0114674
121 90001 25.9995 -0.000458075
122 90001 25.9995 -0.000839358
123 90001 27.8065 0.000378391
124 90001 27.8065 -0.000415041
125 90001 29.6145 -3.62087e-05
126 90001 29.6145 -0.00160557
127 90001 31.4215 -0.00136869
128 90001 31.4215 -0.0226611
129 90001 25.9995 -0.00111573
130 90001 25.9995 -0.00131825
131 90001 27.8065 0.000170543
132 90001 27.8065 0.000142865
133 90001 29.6145 -0.000114825
134 90001 29.6145 0.000929181
135 90001 31.4215 0.021209
136 90001 31.4215 0.0157225
137 90001 25.9995 -0.000640999
138 90001 25.9995 -0.000908998
139 90001 27.8065 0.000510144
140 90001 27.8065 0.000461142
141 90001 29.6145 -0.00101129
142 90001 29.6145 -0.000825573
143 90001 31.4215 -0.0141822
144 90001 31.4215 -0.00436493
145 90001 25.9995 -0.000970882
146 90001 25.9995 -0.00049827
147 90001 27.8065 5.2213e-05
148 90001 27.8065 -0.000281061
149 90001 29.6145 -0.00110342
150 90001 29.6145 -0.000155132
151 90001 31.4215 0.0364154
152 90001 31.4215 0.00364338
153 90001 25.9995 -0.000638436
154 90001 25.9995 -0.000552403
155 90001 27.8065 6.91207e-05
156 90001 27.8065 0.000173105
157 90001 29.6145 0.000401856
158 90001 29.6145 -0.00296761
159 90001 31.4215 0.0126605
160 90001 31.4215 -0.00690121
161 90001 25.9995 -0.000606185
162 90001 25.9995 -0.000746193
163 90001 27.8065 0.000452537
164 90001 27.8065 -7.87193e-05
165 90001 29.6145 -0.00111947
166 90001 29.6145 0.000803226
167 90001 31.4215 -0.0312788
168 90001 31.4215 0.00569053
169 90001 25.9995 -0.000574071
170 90001 25.9995 -0.000543716
171 90001 27.8065 -0.000131658
172 90001 27.8065 0.00073451
173 90001 29.6145 -0.00148504
174 90001 29.6145 -0.00136077
175 90001 31.4215 -0.0241309
176 90001 31.4215 -0.0128735
177 90001 25.9995 -0.00058147
178 90001 25.9995 -0.000747724
179 90001 27.8065 0.000254694
180 90001 27.8065 -0.000395874
181 90001 29.6145 6.64541e-05
182 90001 29.6145 0.00232566
183 90001 31.4215 0.00115048
184 90001 31.4215 0.00263228
185 90001 25.9995 -0.000649539
186 90001 25.9995 -0.000950953
187 90001 27.8065 -0.000568535
188 90001 27.8065 -0.000268907
189 90001 29.6145 -0.00033851
190 90001 29.6145 -0.00133165
191 90001 31.4215 0.0118154
192 90001 31.4215 -0.0133054
193 90001 25.9995 -0.00067535
194 90001 25.9995 -0.000621146
195 90001 27.8065 -0.000304556
196 90001 27.8065 2.52143e-05
197 90001 29.6145 0.00116316
198 90001 29.6145 0.000668982
199 90001 31.4215 -0.00179072
200 90001 31.4215 0.00458748
201 90001 25.9995 -0.000782948
202 90001 25.9995 -0.000803062
203 90001 27.8065 -0.000703716
204 90001 27.8065 -0.000596617
205 90001 29.6145 -0.00128602
206 90001 29.6145 0.00140581
207 90001 31.4215 -0.00480397
208 90001 31.4215 0.0090962
209 90001 25.9995 -0.0009375
210 90001 25.9995 -0.000824049
211 90001 27.8065 -3.5619e-05
212 90001 27.8065 -0.000465893
213 90001 29.6145 0.000580009
214 90001 29.6145 0.000351928
215 90001 31.4215 0.00642167
216 90001 31.4215 0.0154224
217 90001 25.9995 -0.000825615
218 90001 25.9995 -0.000882219
219 90001 27.8065 8.91385e-05
220 90001 27.8065 -0.000679804
221 90001 29.6145 -0.000305599
222 90001 29.6145 -0.00126012
223 90001 31.4215 -0.00789159
224 90001 31.4215 -0.00561759
225 90001 25.9995 -0.000883898
226 90001 25.9995 -0.0010342
227 90001 27.8065 3.7317e-05
228 90001 27.8065 0.000208708
229 90001 29.6145 0.000562277
230 90001 29.6145 0.000366207
231 90001 31.4215 0.024573
232 90001 31.4215 -0.0173894
233 90001 25.9995 -0.00107404
234 90001 25.9995 -0.00100321
235 90001 27.8065 -0.000109698
236 90001 27.8065 -2.82854e-05
237 90001 29.6145 -0.000840707
238 90001 29.6145 0.000223664
239 90001 31.4215 -0.0255451
240 90001 31.4215 -0.00607144
241 90001 25.9995 -0.000657379
242 90001 25.9995 -0.00106043
243 90001 27.8065 0.000165028
244 90001 27.8065 0.000219719
245 90001 29.6145 0.00083176
246 90001 29.6145 -0.00205526
247 90001 31.4215 -0.0023442
248 90001 31.4215 -0.0338043
249 90001 25.9995 -0.00069522
250 90001 25.9995 -0.000725268
251 90001 27.8065 -0.000200655
252 90001 27.8065 0.000407943
253 90001 29.6145 -0.000452109
254 90001 29.6145 0.00068291
255 90001 31.4215 -0.00455027
256 90001 31.4215 -0.00438914
257 90001 25.9995 -0.00104201
258 90001 25.9995 -0.00116225
259 90001 27.8065 0.000241295
260 90001 27.8065 0.0001022
261 90001 29.6145 0.00191763
262 90001 29.6145 -0.00372472
263 90001 31.4215 0.0165958
264 90001 31.4215 -0.0244531
265 90001 25.9995 -0.000514515
266 90001 25.9995 -0.00116913
267 90001 27.8065 0.00035952
268 90001 27.8065 0.000469726
269 90001 29.6145 -0.00153371
270 90001 29.6145 -0.000980337
271 90001 31.4215 -0.00948813
272 90001 31.4215 -0.0484427
273 90001 25.9995 -0.00106668
274 90001 25.9995 -0.000445542
275 90001 27.8065 -0.000422661
276 90001 27.8065 0.000346061
277 90001 29.6145 0.000857772
278 90001 29.6145 -0.00117987
279 90001 31.4215 0.00493537
280 90001 31.4215 -0.00278295
281 90001 25.9995 -0.000792264
282 90001 25.9995 -0.00107811
283 90001 27.8065 -0.000284955
284 90001 27.8065 0.000416582
285 90001 29.6145 -0.000677039
286 90001 29.6145 -0.00137694
287 90001 31.4215 0.0085796
288 90001 31.4215 -0.00173492
289 90001 25.9995 -0.0010622
290 90001 25.9995 -0.000391355
291 90001 27.8065 -0.000530605
292 90001 27.8065 0.000288221
293 90001 29.6145 -8.26902e-05
294 90001 29.6145 0.000141336
295 90001 31.4215 0.000473193
296 90001 31.4215 -0.0106704
297 90001 25.9995 -0.00063045
298 90001 25.9995 -0.000672022
299 90001 27.8065 -0.000255033
300 90001 27.8065 -0.000535032
301 90001 29.6145 0.000330769
302 90001 29.6145 -0.00120582
303 90001 31.4215 -0.0348801
304 90001 31.4215 0.00804585
305 90001 25.9995 -0.000653455
306 90001 25.9995 -0.00103193
307 90001 27.8065 -4.99253e-05
308 90001 27.8065 0.000130916
309 90001 29.6145 -0.00643533
310 90001 29.6145 -0.00348381
311 90001 31.4215 -0.0139279
312 90001 31.4215 -0.045777
313 90001 25.9995 -0.00124959
314 90001 25.9995 -0.000615406
315 90001 27.8065 0.000320225
316 90001 27.8065 -9.78231e-05
317 90001 29.6145 0.000394344
318 90001 29.6145 -0.000388471
319 90001 31.4215 -0.000580984
320 90001 31.4215 0.00456036
321 90001 25.9995 -0.000980705
322 90001 25.9995 -0.000821947
323 90001 27.8065 8.10772e-06
324 90001 27.8065 0.000146276
325 90001 29.6145 -0.00439217
326 90001 29.6145 -0.000401976
327 90001 31.4215 -0.0248617
328 90001 31.4215 -0.0190181
329 90001 25.9995 -0.000817444
330 90001 25.9995 -0.000470179
331 90001 27.8065 -0.00043127
332 90001 27.8065 -0.000440028
333 90001 29.6145 0.00083028
334 90001 29.6145 -0.00123526
335 90001 31.4215 -0.00709106
336 90001 31.4215 -0.0283884
337 90001 25.9995 -0.000661805
338 90001 25.9995 -0.000606044
339 90001 27.8065 0.00137132
340 90001 27.8065 0.000259457
341 90001 29.6145 -0.00326323
342 90001 29.6145 -0.00455733
343 90001 31.4215 -0.076987
344 90001 31.4215 -0.0244539
345 90001 25.9995 -0.000991113
346 90001 25.9995 -0.000988072
347 90001 27.8065 0.000658295
348 90001 27.8065 0.00047957
349 90001 29.6145 -0.00496024
350 90001 29.6145 -0.00161958
351 90001 31.4215 -0.0546723
352 90001 31.4215 -0.0781963
353 90001 25.9995 -0.00150575
354 90001 25.9995 -0.000755641
355 90001 27.8065 0.00046981
356 90001 27.8065 0.000822866
357 90001 29.6145 -0.000858323
358 90001 29.6145 0.000827622
359 90001 31.4215 0.0162102
360 90001 31.4215 -0.00408412
361 90001 25.9995 -0.0013628
362 90001 25.9995 -0.00102777
363 90001 27.8065 0.000250648
364 90001 27.8065 -0.00041883
365 90001 29.6145 -0.00037254
366 90001 29.6145 -0.00260742
367 90001 31.4215 -0.0213565
368 90001 31.4215 0.0104787
369 90001 25.9995 -0.00113731
370 90001 25.9995 -0.000858739
371 90001 27.8065 -0.000312874
372 90001 27.8065 -0.000180374
373 90001 29.6145 -0.00110233
374 90001 29.6145 0.000512858
375 90001 31.4215 0.0381627
376 90001 31.4215 0.0105628
377 90001 25.9995 -0.001129
378 90001 25.9995 -0.0011581
379 90001 27.8065 -0.000242731
380 90001 27.8065 -0.000419374
381 90001 29.6145 0.00155219
382 90001 29.6145 0.000435867
383 90001 31.4215 0.0112543
384 90001 31.4215 0.0291895
385 90001 25.9995 -0.00114619
386 90001 25.9995 -0.00116886
387 90001 27.8065 0.000742629
388 90001 27.8065 -2.537e-05
389 90001 29.6145 -0.000472311
390 90001 29.6145 -8.97023e-05
391 90001 31.4215 -0.0167612
392 90001 31.4215 0.00544857
393 90001 25.9995 -0.0012376
394 90001 25.9995 -0.000554489
395 90001 27.8065 0.00092249
396 90001 27.8065 2.83775e-05
397 90001 29.6145 0.00013189
398 90001 29.6145 -6.41931e-05
399 90001 31.4215 -0.0199263
400 90001 31.4215 -0.0137357
401 90001 25.9995 -0.00080621
402 90001 25.9995 -0.00104662
403 90001 27.8065 -0.000257021
404 90001 27.8065 0.000258895
405 90001 29.6145 0.00115603
406 90001 29.6145 0.000284268
407 90001 31.4215 -0.0137666
408 90001 31.4215 0.00418495
409 90001 25.9995 -0.000492932
410 90001 25.9995 -0.000692755
411 90001 27.8065 -8.95309e-05
412 90001 27.8065 -8.93247e-05
413 90001 29.6145 -0.00167974
414 90001 29.6145 6.03328e-05
415 90001 31.4215 -0.0228798
416 90001 31.4215 -0.0101993
417 90001 25.9995 -0.000692184
418 90001 25.9995 -0.000969564
419 90001 27.8065 0.000383269
420 90001 27.8065 0.000174865
421 90001 29.6145 -4.36973e-05
422 90001 29.6145 -0.00107625
423 90001 31.4215 -0.0583416
424 90001 31.4215 -0.0322389
425 90001 25.9995 -0.000700915
426 90001 25.9995 -0.000807115
427 90001 27.8065 -6.01047e-05
428 90001 27.8065 -0.000169393
429 90001 29.6145 -0.00433671
430 90001 29.6145 0.000894251
431 90001 31.4215 -0.00588157
432 90001 31.4215 0.0297808
433 90001 25.9995 -0.000476877
434 90001 25.9995 -0.00131394
435 90001 27.8065 -0.000263005
436 90001 27.8065 0.000115859
437 90001 29.6145 -8.27842e-05
438 90001 29.6145 0.000160836
439 90001 31.4215 0.00590115
440 90001 31.4215 0.00976688
441 90001 25.9995 -0.000842256
442 90001 25.9995 -0.000517537
443 90001 27.8065 -0.000258022
444 90001 27.8065 -0.000314373
445 90001 29.6145 -0.00131155
446 90001 29.6145 0.000282327
447 90001 31.4215 0.00989572
448 90001 31.4215 0.00232611
449 90001 25.9995 -0.000408472
450 90001 25.9995 -0.00117362
451 90001 27.8065 -0.000490191
452 90001 27.8065 -0.000767918
453 90001 29.6145 -0.000735698
454 90001 29.6145 -0.000193567
455 90001 31.4215 0.017724
456 90001 31.4215 0.0146977
457 90001 25.9995 -0.00114357
458 90001 25.9995 -0.000899957
459 90001 27.8065 -0.000515562
460 90001 27.8065 -0.000623148
461 90001 29.6145 -0.000233737
462 90001 29.6145 -0.000220996
463 90001 31.4215 0.00656623
464 90001 31.4215 0.0176267
465 90001 25.9995 -0.0012091
466 90001 25.9995 -0.000953333
467 90001 27.8065 -0.000279425
468 90001 27.8065 -0.000490774
469 90001 29.6145 -0.000589994
470 90001 29.6145 0.00155693
471 90001 31.4215 0.00410955
472 90001 31.4215 0.0196464
473 90001 25.9995 -0.00054319
474 90001 25.9995 -0.000893705
475 90001 27.8065 5.76329e-05
476 90001 27.8065 7.54656e-05
477 90001 29.6145 -0.000258872
478 90001 29.6145 -0.00109301
479 90001 31.4215 0.000502775
480 90001 31.4215 0.023224
481 90001 25.9995 -0.001442
482 90001 25.9995 -0.00087385
483 90001 27.8065 8.47983e-05
484 90001 27.8065 0.000341001
485 90001 29.6145 -0.000278131
486 90001 29.6145 -0.000140222
487 90001 31.4215 0.00295697
488 90001 31.4215 0.0213254
489 90001 25.9995 -0.000525927
490 90001 25.9995 -0.000653324
491 90001 27.8065 -0.000377563
492 90001 27.8065 -0.00023242
493 90001 29.6145 7.61903e-05
494 90001 29.6145 -0.000654334
495 90001 31.4215 -0.0276996
496 90001 31.4215 -0.0085437
497 90001 25.9995 -0.000738539
498 90001 25.9995 -0.000929491
499 90001 27.8065 0.000116813
500 90001 27.8065 -0.000273813
501 90001 29.6145 -0.000268526
502 90001 29.6145 0.000169602
503 90001 31.4215 -0.00556599
504 90001 31.4215 -0.0135086
505 90001 25.9995 -0.000755439
506 90001 25.9995 -0.00114753
507 90001 27.8065 -0.000343924
508 90001 27.8065 -0.000476831
509 90001 29.6145 0.00180092
510 90001 29.6145 -0.000174023
511 90001 31.4215 0.0142591
512 90001 31.4215 0.0049061
513 90001 25.9995 -0.00114422
514 90001 25.9995 -0.00083712
515 90001 27.8065 -0.000260481
516 90001 27.8065 0.000192753
517 90001 29.6145 0.000111062
518 90001 29.6145 -0.00042584
519 90001 31.4215 0.0054199
520 90001 31.4215 -0.00718798
521 90001 25.9995 -0.000742305
522 90001 25.9995 -0.000494314
523 90001 27.8065 -0.000515696
524 90001 27.8065 -0.000402026
525 90001 29.6145 -0.000296763
526 90001 29.6145 -0.00128218
527 90001 31.4215 0.00904653
528 90001 31.4215 0.00292928
529 90001 25.9995 -0.000995608
530 90001 25.9995 -0.00108175
531 90001 27.8065 -0.000179218
532 90001 27.8065 -0.000435785
533 90001 29.6145 0.000476596
534 90001 29.6145 0.00189376
535 90001 31.4215 0.0222901
536 90001 31.4215 0.0623285
537 90001 25.9995 -0.000977261
538 90001 25.9995 -0.000484753
539 90001 27.8065 -5.44372e-05
540 90001 27.8065 -0.000710862
541 90001 29.6145 0.000463094
542 90001 29.6145 -0.00178855
543 90001 31.4215 0.024906
544 90001 31.4215 -0.00490812
545 90001 25.9995 -0.00153548
546 90001 25.9995 -0.00126815
547 90001 27.8065 -0.000219299
548 90001 27.8065 -0.000111019
549 90001 29.6145 -0.00041662
550 90001 29.6145 -0.000365953
551 90001 31.4215 0.0425494
552 90001 31.4215 -0.0153111
553 90001 25.9995 -0.000535145
554 90001 25.9995 -0.00105449
555 90001 27.8065 0.000250063
556 90001 27.8065 0.000354787
557 90001 29.6145 0.00345817
558 90001 29.6145 0.00499781
559 90001 31.4215 -0.00173106
560 90001 31.4215 0.0349831
561 90001 25.9995 -0.000588456
562 90001 25.9995 -0.000780214
563 90001 27.8065 -0.000476171
564 90001 27.8065 -1.52853e-05
565 90001 29.6145 0.00126505
566 90001 29.6145 -0.000190071
567 90001 31.4215 0.00153065
568 90001 31.4215 0.0105929
569 90001 25.9995 -0.000530859
570 90001 25.9995 -0.000811549
571 90001 27.8065 3.52352e-06
572 90001 27.8065 -0.000206261
573 90001 29.6145 0.000871319
574 90001 29.6145 -0.000359291
575 90001 31.4215 0.00372152
576 90001 31.4215 -0.000817343
577 90001 25.9995 -0.000581283
578 90001 25.9995 -0.000948181
579 90001 27.8065 0.000125254
580 90001 27.8065 0.000310541
581 90001 29.6145 0.000241879
582 90001 29.6145 -0.000231847
583 90001 31.4215 -0.00916325
584 90001 31.4215 -0.0184671
585 90001 25.9995 -0.00148254
586 90001 25.9995 -0.000888231
587 90001 27.8065 -0.000540013
588 90001 27.8065 -0.00033191
589 90001 29.6145 0.000758484
590 90001 29.6145 0.000142765
591 90001 31.4215 -0.00637597
592 90001 31.4215 -0.00259098
593 90001 25.9995 -0.000639934
594 90001 25.9995 -0.000968474
595 90001 27.8065 0.000217813
596 90001 27.8065 -0.000621731
597 90001 29.6145 -0.001138
598 90001 29.6145 -0.000341637
599 90001 31.4215 -0.0158408
600 90001 31.4215 0.024591
601 90001 25.9995 -0.000608035
602 90001 25.9995 -0.00112592
603 90001 27.8065 -0.000207205
604 90001 27.8065 0.000342994
605 90001 29.6145 -0.0001709
606 90001 29.6145 0.0048638
607 90001 31.4215 0.0389325
608 90001 31.4215 0.00480854
609 90001 25.9995 -0.000975305
610 90001 25.9995 -0.00112361
611 90001 27.8065 -5.88139e-05
612 90001 27.8065 -0.000329222
613 90001 29.6145 0.00123441
614 90001 29.6145 -0.000613146
615 90001 31.4215 0.0138421
616 90001 31.4215 0.031407
617 90001 25.9995 -0.00059916
618 90001 25.9995 -0.000984415
619 90001 27.8065 0.000151376
620 90001 27.8065 -0.000231545
621 90001 29.6145 -0.00126687
622 90001 29.6145 -0.00016475
623 90001 31.4215 -0.0179218
624 90001 31.4215 -0.0196251
625 90001 25.9995 -0.000641511
626 90001 25.9995 -0.000960554
627 90001 27.8065 5.11856e-05
628 90001 27.8065 -0.000850041
629 90001 29.6145 -0.00254839
630 90001 29.6145 -0.00274633
631 90001 31.4215 -0.0366196
632 90001 31.4215 0.00123492
633 90001 25.9995 -0.00131649
634 90001 25.9995 -0.000754051
635 90001 27.8065 7.97261e-05
636 90001 27.8065 -1.35573e-05
637 90001 29.6145 0.000533619
638 90001 29.6145 -0.000472795
639 90001 31.4215 0.0625835
640 90001 31.4215 0.00100989
641 90001 25.9995 -0.00091323
642 90001 25.9995 -0.000892682
643 90001 27.8065 0.000128772
644 90001 27.8065 0.000135407
645 90001 29.6145 -0.00117698
646 90001 29.6145 -0.00273421
647 90001 31.4215 -0.00542812
648 90001 31.4215 0.00110661
649 90001 25.9995 -0.000495233
650 90001 25.9995 -0.00103662
651 90001 27.8065 0.000557798
652 90001 27.8065 0.000298152
653 90001 29.6145 0.000656068
654 90001 29.6145 -0.00157327
655 90001 31.4215 -0.0287196
656 90001 31.4215 -0.0051858
657 90001 25.9995 -0.00110375
658 90001 25.9995 -0.000779808
659 90001 27.8065 -6.04888e-05
660 90001 27.8065 0.000732242
661 90001 29.6145 -0.00242937
662 90001 29.6145 0.00111531
663 90001 31.4215 0.00594322
664 90001 31.4215 -0.00782923
665 90001 25.9995 -0.000955517
666 90001 25.9995 -0.000705144
667 90001 27.8065 -0.000539632
668 90001 27.8065 -0.000179996
669 90001 29.6145 0.000927963
670 90001 29.6145 8.59107e-07
671 90001 31.4215 0.0328715
672 90001 31.4215 0.0345184
673 90001 25.9995 -0.0011172
674 90001 25.9995 -0.00132554
675 90001 27.8065 0.000334696
676 90001 27.8065 -0.000137572
677 90001 29.6145 0.00418884
678 90001 29.6145 -0.0016379
679 90001 31.4215 0.0542049
680 90001 31.4215 0.0350107
681 90001 25.9995 -0.000974419
682 90001 25.9995 -0.000433235
683 90001 27.8065 -0.000531246
684 90001 27.8065 -0.000574383
685 90001 29.6145 -0.00143742
686 90001 29.6145 -0.000595132
687 90001 31.4215 0.0481597
688 90001 31.4215 -0.00855624
689 90001 25.9995 -0.000821154
690 90001 25.9995 -0.000809763
691 90001 27.8065 -8.86945e-05
692 90001 27.8065 -5.58858e-05
693 90001 29.6145 0.00156225
694 90001 29.6145 -0.00072898
695 90001 31.4215 -0.0131955
696 90001 31.4215 -0.0036477
697 90001 25.9995 -0.000993424
698 90001 25.9995 -0.0011016
699 90001 27.8065 0.000528446
700 90001 27.8065 0.000596069
701 90001 29.6145 -0.00335517
702 90001 29.6145 -0.00207313
703 90001 31.4215 -0.0488226
704 90001 31.4215 -0.0152835
705 90001 25.9995 -0.000651156
706 90001 25.9995 -0.00053537
707 90001 27.8065 -0.000104287
708 90001 27.8065 -0.000265635
709 90001 29.6145 -0.00151298
710 90001 29.6145 0.000709742
711 90001 31.4215 0.00334427
712 90001 31.4215 -0.00482774
713 90001 25.9995 -0.000836592
714 90001 25.9995 -0.000779055
715 90001 27.8065 -8.98532e-05
716 90001 27.8065 -0.000451264
717 90001 29.6145 0.000126244
718 90001 29.6145 -8.36296e-05
719 90001 31.4215 0.012583
720 90001 31.4215 0.0163035
721 90001 25.9995 -0.000845581
722 90001 25.9995 -0.000611436
723 90001 27.8065 0.000411178
724 90001 27.8065 -0.000459651
725 90001 29.6145 0.00176014
726 90001 29.6145 0.000366852
727 90001 31.4215 -0.00400942
728 90001 31.4215 0.0146101
729 90001 25.9995 -0.000841002
730 90001 25.9995 -0.000772153
731 90001 27.8065 0.00027619
732 90001 27.8065 0.000293365
733 90001 29.6145 -0.00124871
734 90001 29.6145 9.32257e-05
735 90001 31.4215 -0.0127582
736 90001 31.4215 0.00314768
737 90001 25.9995 -0.000643021
738 90001 25.9995 -0.000709063
739 90001 27.8065 -0.000416915
740 90001 27.8065 0.000474042
741 90001 29.6145 2.40079e-06
742 90001 29.6145 -5.6956e-05
743 90001 31.4215 0.0100286
744 90001 31.4215 -0.000707796
745 90001 25.9995 -0.000806517
746 90001 25.9995 -0.00106264
747 90001 27.8065 0.000183824
748 90001 27.8065 2.61131e-05
749 90001 29.6145 -0.000423679
750 90001 29.6145 -0.000493808
751 90001 31.4215 0.00738491
752 90001 31.4215 -0.00395023
753 90001 25.9995 -0.000982844
754 90001 25.9995 -0.000942706
755 90001 27.8065 -7.65325e-05
756 90001 27.8065 0.000316822
757 90001 29.6145 -0.000215516
758 90001 29.6145 0.000387719
759 90001 31.4215 0.0127693
760 90001 31.4215 0.00466756
761 90001 25.9995 -0.000662081
762 90001 25.9995 -0.000732278
763 90001 27.8065 -9.67223e-05
764 90001 27.8065 -0.000167574
765 90001 29.6145 -0.000559518
766 90001 29.6145 0.00032914
767 90001 31.4215 -0.00813169
768 90001 31.4215 -0.00126498
769 90001 25.9995 -0.000981818
770 90001 25.9995 -0.000498562
771 90001 27.8065 -0.000153395
772 90001 27.8065 -0.000135616
773 90001 29.6145 -0.000567801
774 90001 29.6145 0.00107666
775 90001 31.4215 0.019073
776 90001 31.4215 -0.00914592
777 90001 25.9995 -0.00138754
778 90001 25.9995 -0.00121212
779 90001 27.8065 6.69128e-05
780 90001 27.8065 -0.000609411
781 90001 29.6145 0.00148768
782 90001 29.6145 0.00213594
783 90001 31.4215 -0.00355449
784 90001 31.4215 0.0177847
785 90001 25.9995 -0.00089365
786 90001 25.9995 -0.000973182
787 90001 27.8065 -7.7236e-05
788 90001 27.8065 0.000173688
789 90001 29.6145 -0.00118785
790 90001 29.6145 9.04838e-06
791 90001 31.4215 0.00679589
792 90001 31.4215 0.0104876
793 90001 25.9995 -0.00113091
794 90001 25.9995 -0.000945622
795 90001 27.8065 -0.000501805
796 90001 27.8065 -0.000124302
797 90001 29.6145 -0.00017171
798 90001 29.6145 0.000850313
799 90001 31.4215 0.0463292
800 90001 31.4215 0.0232981
801 90002 132.343 0.000733907
802 90002 132.343 0.000895323
803 90002 130.536 -6.3651e-05
804 90002 130.536 -0.00043316
805 90002 128.728 -0.000161316
806 90002 128.728 -0.000539713
807 90002 126.921 -0.0047085
808 90002 126.921 0.000113512
809 90002 132.343 0.00129199
810 90002 132.343 0.00073647
811 90002 130.536 -0.000124199
812 90002 130.536 -0.000473993
813 90002 128.728 -0.00428411
814 90002 128.728 -0.000830928
815 90002 126.921 -0.0311474
816 90002 126.921 -0.0229114
817 90002 132.343 0.0006652
818 90002 132.343 0.000999503
819 90002 130.536 0.000107068
820 90002 130.536 -6.03771e-05
821 90002 128.728 -0.00295312
822 90002 128.728 -0.000863783
823 90002 126.921 -0.0170384
824 90002 126.921 -0.0308639
825 90002 132.343 0.00090854
826 90002 132.343 0.00106079
827 90002 130.536 4.36527e-05
828 90002 130.536 0.000234751
829 90002 128.728 -0.00217987
830 90002 128.728 3.72668e-05
831 90002 126.921 -0.0360648
832 90002 126.921 -0.0160968
833 90002 132.343 0.00092812
834 90002 132.343 0.00105112
835 90002 130.536 0.000243639
836 90002 130.536 -0.000284503
837 90002 128.728 0.000136246
838 90002 128.728 0.000161242
839 90002 126.921 -0.00130372
840 90002 126.921 -0.0103462
841 90002 132.343 0.000990665
842 90002 132.343 0.000499706
843 90002 130.536 6.71441e-05
844 90002 130.536 -0.000624826
845 90002 128.728 -0.00105291
846 90002 128.728 0.00299261
847 90002 126.921 0.0234198
848 90002 126.921 0.0317278
849 90002 132.343 0.00104753
850 90002 132.343 0.0009246
851 90002 130.536 0.00030826
852 90002 130.536 0.000255886
853 90002 128.728 -0.00115815
854 90002 128.728 -0.00183923
855 90002 126.921 -0.00196826
856 90002 126.921 0.00894423
857 90002 132.343 0.000591999
858 90002 132.343 0.000325664
859 90002 130.536 0.000405717
860 90002 130.536 0.000326334
861 90002 128.728 -0.000161999
862 90002 128.728 -0.00282185
863 90002 126.921 -0.00838358
864 90002 126.921 -0.0197417
865 90002 132.343 0.000778553
866 90002 132.343 0.000890894
867 90002 130.536 0.000337331
868 90002 130.536 0.000260399
869 90002 128.728 -0.00119763
870 90002 128.728 -0.000768002
871 90002 126.921 -0.0109081
872 90002 126.921 -0.0233629
873 90002 132.343 0.000917676
874 90002 132.343 0.00105154
875 90002 130.536 -0.000109583
876 90002 130.536 -0.000297507
877 90002 128.728 -0.00453155
878 90002 128.728 7.41074e-05
879 90002 126.921 -0.0109176
880 90002 126.921 0.0156294
881 90002 132.343 0.00105612
882 90002 132.343 0.00104558
883 90002 130.536 -0.000241829
884 90002 130.536 -0.00046783
885 90002 128.728 0.000402403
886 90002 128.728 7.52159e-06
887 90002 126.921 -0.00256464
888 90002 126.921 0.00665579
889 90002 132.343 0.000983072
890 90002 132.343 0.000486822
891 90002 130.536 5.47362e-05
892 90002 130.536 -0.000612707
893 90002 128.728 0.000113928
894 90002 128.728 -0.000147635
895 90002 126.921 -0.0148028
896 90002 126.921 0.00361834
897 90002 132.343 0.00063768
898 90002 132.343 0.00100998
899 90002 130.536 9.73882e-06
900 90002 130.536 5.08181e-05
901 90002 128.728 -0.00125161
902 90002 128.728 0.000758802
903 90002 126.921 -0.0132466
904 90002 126.921 -0.000239027
905 90002 132.343 0.00110859
906 90002 132.343 0.000951574
907 90002 130.536 0.000276444
908 90002 130.536 -6.31744e-05
909 90002 128.728 -0.000312355
910 90002 128.728 -0.00338986
911 90002 126.921 -0.0204708
912 90002 126.921 -0.032034
913 90002 132.343 0.00120962
914 90002 132.343 0.00111753
915 90002 130.536 -0.000408392
916 90002 130.536 5.69369e-05
917 90002 128.728 -0.00106921
918 90002 128.728 0.001139
919 90002 126.921 0.00421714
920 90002 126.921 -0.0244577
921 90002 132.343 0.00109101
922 90002 132.343 0.00076079
923 90002 130.536 -0.000194582
924 90002 130.536 -0.000583381
925 90002 128.728 0.0021959
926 90002 128.728 0.000607347
927 90002 126.921 0.0170824
928 90002 126.921 0.0115446
929 90002 132.343 0.000627839
930 90002 132.343 0.000807143
931 90002 130.536 0.00026199
932 90002 130.536 0.000180402
933 90002 128.728 0.000629325
934 90002 128.728 -0.00164409
935 90002 126.921 -0.0378624
936 90002 126.921 -0.0195483
937 90002 132.343 0.000844924
938 90002 132.343 0.00121217
939 90002 130.536 -0.000182684
940 90002 130.536 0.000386229
941 90002 128.728 -0.00207418
942 90002 128.728 0.000688754
943 90002 126.921 -0.0168097
944 90002 126.921 -0.0185675
945 90002 132.343 0.00106327
946 90002 132.343 0.00112441
947 90002 130.536 9.58447e-06
948 90002 130.536 -0.00049616
949 90002 128.728 -0.00300314
950 90002 128.728 -0.000342849
951 90002 126.921 0.00077646
952 90002 126.921 0.0228733
953 90002 132.343 0.000667357
954 90002 132.343 0.000856235
955 90002 130.536 -0.000376414
956 90002 130.536 -0.000708227
957 90002 128.728 -0.000610513
958 90002 128.728 0.000692394
959 90002 126.921 0.0104793
960 90002 126.921 -0.000294577
961 90002 132.343 0.000576669
962 90002 132.343 0.0011676
963 90002 130.536 -0.00041533
964 90002 130.536 -0.000356685
965 90002 128.728 -0.000664488
966 90002 128.728 -0.00122434
967 90002 126.921 -0.00808641
968 90002 126.921 -0.00414782
969 90002 132.343 0.00126529
970 90002 132.343 0.000924298
971 90002 130.536 -0.000192715
972 90002 130.536 -0.000132058
973 90002 128.728 0.00408679
974 90002 128.728 0.00243481
975 90002 126.921 0.0318011
976 90002 126.921 0.0564104
977 90002 132.343 0.000440526
978 90002 132.343 0.00130951
979 90002 130.536 0.000425344
980 90002 130.536 -0.000471329
981 90002 128.728 0.0017601
982 90002 128.728 -0.00134721
983 90002 126.921 0.0325184
984 90002 126.921 0.0223147
985 90002 132.343 0.00105855
986 90002 132.343 0.000957136
987 90002 130.536 -0.000222169
988 90002 130.536 0.000163569
989 90002 128.728 -0.00631218
990 90002 128.728 -0.000625522
991 90002 126.921 -0.0459079
992 90002 126.921 -0.00405032
993 90002 132.343 0.000853419
994 90002 132.343 0.000451806
995 90002 130.536 0.0001418
996 90002 130.536 0.000536111
997 90002 128.728 -0.0013645
998 90002 128.728 -0.00215257
999 90002 126.921 -0.00707499
1000 90002 126.921 -0.0387387
1001 90002 132.343 0.000896746
1002 90002 132.343 0.000892075
1003 90002 130.536 -8.0795e-05
1004 90002 130.536 1.72369e-05
1005 90002 128.728 0.00168444
1006 90002 128.728 -0.00010264
1007 90002 126.921 -0.0129135
1008 90002 126.921 -0.013807
1009 90002 132.343 0.00110458
1010 90002 132.343 0.00103008
1011 90002 130.536 0.000271869
1012 90002 130.536 0.000597995
1013 90002 128.728 -0.00269687
1014 90002 128.728 -0.00442054
1015 90002 126.921 -0.0625325
1016 90002 126.921 -0.0354461
1017 90002 132.343 0.00105163
1018 90002 132.343 0.0009312
1019 90002 130.536 -0.000187037
1020 90002 130.536 0.000538242
1021 90002 128.728 -0.000550162
1022 90002 128.728 -0.0009334
1023 90002 126.921 -0.00144617
1024 90002 126.921 -0.036204
1025 90002 132.343 0.000964254
1026 90002 132.343 0.000379992
1027 90002 130.536 -0.000280152
1028 90002 130.536 0.000497225
1029 90002 128.728 0.000652768
1030 90002 128.728 -0.000347056
1031 90002 126.921 0.0240695
1032 90002 126.921 -0.0263964
1033 90002 132.343 0.00102775
1034 90002 132.343 0.00102547
1035 90002 130.536 -0.000121255
1036 90002 130.536 0.000274863
1037 90002 128.728 0.0022109
1038 90002 128.728 -0.000814251
1039 90002 126.921 0.00170258
1040 90002 126.921 0.0101486
1041 90002 132.343 0.000903994
1042 90002 132.343 0.00107922
1043 90002 130.536 8.54569e-05
1044 90002 130.536 0.000407015
1045 90002 128.728 -0.000169839
1046 90002 128.728 -0.00288917
1047 90002 126.921 -0.0035026
1048 90002 126.921 -0.0176166
1049 90002 132.343 0.000948621
1050 90002 132.343 0.000222145
1051 90002 130.536 3.5645e-05
1052 90002 130.536 7.49367e-05
1053 90002 128.728 0.000261756
1054 90002 128.728 -0.000472953
1055 90002 126.921 0.0174517
1056 90002 126.921 -0.0224182
1057 90002 132.343 0.000448431
1058 90002 132.343 0.000399586
1059 90002 130.536 -2.99189e-05
1060 90002 130.536 0.000434679
1061 90002 128.728 9.15593e-05
1062 90002 128.728 0.00070378
1063 90002 126.921 0.0393031
1064 90002 126.921 0.00976556
1065 90002 132.343 0.00089847
1066 90002 132.343 0.000710363
1067 90002 130.536 0.000572467
1068 90002 130.536 -0.000198349
1069 90002 128.728 0.00115256
1070 90002 128.728 -9.33713e-05
1071 90002 126.921 -0.0115143
1072 90002 126.921 0.00993528
1073 90002 132.343 0.000941358
1074 90002 132.343 0.00132959
1075 90002 130.536 0.000223463
1076 90002 130.536 -0.000120063
1077 90002 128.728 -0.00096898
1078 90002 128.728 -0.000465448
1079 90002 126.921 -0.0159321
1080 90002 126.921 -0.0111393
1081 90002 132.343 0.00107307
1082 90002 132.343 0.000730267
1083 90002 130.536 0.000276885
1084 90002 130.536 0.000358027
1085 90002 128.728 -0.000519141
1086 90002 128.728 0.000267288
1087 90002 126.921 -0.00444937
1088 90002 126.921 0.0226911
1089 90002 132.343 0.00106864
1090 90002 132.343 0.0011707
1091 90002 130.536 0.000640839
1092 90002 130.536 9.67171e-06
1093 90002 128.728 0.00119047
1094 90002 128.728 -0.00103511
1095 90002 126.921 -0.0343356
1096 90002 126.921 -0.0153699
1097 90002 132.343 0.000726677
1098 90002 132.343 0.000716339
1099 90002 130.536 0.000698659
1100 90002 130.536 0.000182496
1101 90002 128.728 0.000231814
1102 90002 128.728 -0.00146114
1103 90002 126.921 -0.0415954
1104 90002 126.921 -0.0421347
1105 90002 132.343 0.000621638
1106 90002 132.343 0.000895518
1107 90002 130.536 5.55944e-05
1108 90002 130.536 0.000649185
1109 90002 128.728 -0.00605725
1110 90002 128.728 -0.00160991
1111 90002 126.921 -0.0313115
1112 90002 126.921 -0.0461931
1113 90002 132.343 0.00129529
1114 90002 132.343 0.000960034
1115 90002 130.536 1.14769e-06
1116 90002 130.536 0.000132823
1117 90002 128.728 -0.00124765
1118 90002 128.728 -0.000247031
1119 90002 126.921 -0.0170498
1120 90002 126.921 -0.0157168
1121 90002 132.343 0.000671688
1122 90002 132.343 0.000664149
1123 90002 130.536 0.000596258
1124 90002 130.536 -0.000165407
1125 90002 128.728 -0.00135372
1126 90002 128.728 -0.000542005
1127 90002 126.921 -0.0240479
1128 90002 126.921 0.00884629
1129 90002 132.343 0.00105831
1130 90002 132.343 0.00115404
1131 90002 130.536 0.00030567
1132 90002 130.536 0.000123954
1133 90002 128.728 -0.00190107
1134 90002 128.728 -0.000509179
1135 90002 126.921 0.0287463
1136 90002 126.921 -0.0145127
1137 90002 132.343 0.000509277
1138 90002 132.343 0.00139943
1139 90002 130.536 0.000250604
1140 90002 130.536 -0.000153015
1141 90002 128.728 0.000642783
1142 90002 128.728 -0.000565391
1143 90002 126.921 0.0160084
1144 90002 126.921 0.0338099
1145 90002 132.343 0.000926631
1146 90002 132.343 0.00100219
1147 90002 130.536 -0.000191841
1148 90002 130.536 -5.74412e-05
1149 90002 128.728 0.000128229
1150 90002 128.728 0.00131305
1151 90002 126.921 0.00583745
1152 90002 126.921 0.0143673
1153 90002 132.343 0.00103346
1154 90002 132.343 0.000919714
1155 90002 130.536 -0.00021544
1156 90002 130.536 -0.000295398
1157 90002 128.728 -0.000248391
1158 90002 128.728 9.88461e-05
1159 90002 126.921 -0.00057206
1160 90002 126.921 0.00655713
1161 90002 132.343 0.000863053
1162 90002 132.343 0.000748802
1163 90002 130.536 0.000106558
1164 90002 130.536 5.43943e-05
1165 90002 128.728 0.00209499
1166 90002 128.728 0.00107163
1167 90002 126.921 0.00998522
1168 90002 126.921 0.0138671
1169 90002 132.343 0.00091701
1170 90002 132.343 0.00082783
1171 90002 130.536 0.000531584
1172 90002 130.536 -0.000314684
1173 90002 128.728 -0.00322115
1174 90002 128.728 -0.0010725
1175 90002 126.921 0.00170704
1176 90002 126.921 0.0228008
1177 90002 132.343 0.000677369
1178 90002 132.343 0.000993412
1179 90002 130.536 0.000397072
1180 90002 130.536 0.000261311
1181 90002 128.728 -0.00135751
1182 90002 128.728 0.000329029
1183 90002 126.921 -0.0197296
1184 90002 126.921 -0.00907124
1185 90002 132.343 0.00109431
1186 90002 132.343 0.00120956
1187 90002 130.536 0.000710829
1188 90002 130.536 4.45002e-05
1189 90002 128.728 -0.000856237
1190 90002 128.728 -0.00153838
1191 90002 126.921 -0.0149706
1192 90002 126.921 -0.0194188
1193 90002 132.343 0.00112435
1194 90002 132.343 0.000495477
1195 90002 130.536 -0.000181868
1196 90002 130.536 6.43409e-05
1197 90002 128.728 0.0006276
1198 90002 128.728 0.00205298
1199 90002 126.921 -0.00612879
1200 90002 126.921 0.0186099
1201 90002 132.343 5.69392e-05
1202 90002 132.343 0.000972542
1203 90002 130.536 -0.000104445
1204 90002 130.536 0.00011819
1205 90002 128.728 0.00149363
1206 90002 128.728 0.00071137
1207 90002 126.921 0.0103843
1208 90002 126.921 -0.00646917
1209 90002 132.343 0.00070471
1210 90002 132.343 0.000849528
1211 90002 130.536 0.000528463
1212 90002 130.536 8.6983e-05
1213 90002 128.728 -0.000984518
1214 90002 128.728 0.000168394
1215 90002 126.921 0.00388981
1216 90002 126.921 0.0417131
1217 90002 132.343 0.000917109
1218 90002 132.343 0.000897886
1219 90002 130.536 -7.09672e-05
1220 90002 130.536 0.000161444
1221 90002 128.728 -4.27794e-05
1222 90002 128.728 0.00193612
1223 90002 126.921 0.0354229
1224 90002 126.921 0.00967701
1225 90002 132.343 0.000772649
1226 90002 132.343 0.000919212
1227 90002 130.536 -0.000390757
1228 90002 130.536 0.000159996
1229 90002 128.728 -0.000465041
1230 90002 128.728 -0.00135698
1231 90002 126.921 0.0252916
1232 90002 126.921 0.0386984
1233 90002 132.343 0.00058247
1234 90002 132.343 0.00100387
1235 90002 130.536 0.000260264
1236 90002 130.536 0.000386224
1237 90002 128.728 -0.000412414
1238 90002 128.728 -0.000177841
1239 90002 126.921 0.0106139
1240 90002 126.921 -0.000186242
1241 90002 132.343 0.00117629
1242 90002 132.343 0.00110817
1243 90002 130.536 1.52203e-06
1244 90002 130.536 0.000195192
1245 90002 128.728 -0.000222782
1246 90002 128.728 9.11448e-05
1247 90002 126.921 0.0240434
1248 90002 126.921 0.00854159
1249 90002 132.343 0.000656849
1250 90002 132.343 0.00123226
1251 90002 130.536 5.2273e-06
1252 90002 130.536 -0.000343581
1253 90002 128.728 0.00120537
1254 90002 128.728 -0.000491648
1255 90002 126.921 -0.00783493
1256 90002 126.921 0.0168012
1257 90002 132.343 0.00138224
1258 90002 132.343 0.0015338
1259 90002 130.536 -0.000371322
1260 90002 130.536 -0.000152984
1261 90002 128.728 -0.000707229
1262 90002 128.728 0.000600811
1263 90002 126.921 -0.000320276
1264 90002 126.921 0.000650105
1265 90002 132.343 0.00116974
1266 90002 132.343 0.000951676
1267 90002 130.536 -0.000119855
1268 90002 130.536 -2.63692e-05
1269 90002 128.728 -0.0025057
1270 90002 128.728 -7.62216e-05
1271 90002 126.921 -0.0310427
1272 90002 126.921 0.014044
1273 90002 132.343 0.000961539
1274 90002 132.343 0.000920736
1275 90002 130.536 -1.58028e-05
1276 90002 130.536 -0.000299511
1277 90002 128.728 5.50708e-05
1278 90002 128.728 -0.000304643
1279 90002 126.921 0.00898748
1280 90002 126.921 0.000212145
1281 90002 132.343 0.00120527
1282 90002 132.343 0.00110313
1283 90002 130.536 0.000514344
1284 90002 130.536 -0.000322163
1285 90002 128.728 -0.00378609
1286 90002 128.728 3.324e-05
1287 90002 126.921 0.0159769
1288 90002 126.921 -0.0293976
1289 90002 132.343 0.000632517
1290 90002 132.343 5.82345e-05
1291 90002 130.536 -0.000280774
1292 90002 130.536 0.000496982
1293 90002 128.728 0.00142185
1294 90002 128.728 -0.00251836
1295 90002 126.921 -0.00664553
1296 90002 126.921 0.00545151
1297 90002 132.343 0.000524713
1298 90002 132.343 0.000787305
1299 90002 130.536 -8.08395e-05
1300 90002 130.536 -0.000302473
1301 90002 128.728 -0.00067625
1302 90002 128.728 7.61589e-05
1303 90002 126.921 0.0223795
1304 90002 126.921 -0.00506067
1305 90002 132.343 0.000765115
1306 90002 132.343 0.00133504
1307 90002 130.536 8.04472e-05
1308 90002 130.536 0.000116052
1309 90002 128.728 -0.000429794
1310 90002 128.728 0.000663263
1311 90002 126.921 0.0231448
1312 90002 126.921 0.0406374
1313 90002 132.343 0.00107795
1314 90002 132.343 0.000446563
1315 90002 130.536 0.000322693
1316 90002 130.536 -8.24258e-05
1317 90002 128.728 -0.000341016
1318 90002 128.728 0.000182735
1319 90002 126.921 -0.00308611
1320 90002 126.921 0.0157746
1321 90002 132.343 0.000802326
1322 90002 132.343 0.00108545
1323 90002 130.536 -0.000186404
1324 90002 130.536 0.000197427
1325 90002 128.728 -0.000707533
1326 90002 128.728 0.000295209
1327 90002 126.921 0.0177275
1328 90002 126.921 0.0123522
1329 90002 132.343 0.000879537
1330 90002 132.343 0.000654566
1331 90002 130.536 3.58656e-05
1332 90002 130.536 0.000546383
1333 90002 128.728 0.000169481
1334 90002 128.728 3.67343e-05
1335 90002 126.921 0.0209763
1336 90002 126.921 0.0111817
1337 90002 132.343 0.00110708
1338 90002 132.343 0.00067248
1339 90002 130.536 -0.000446651
1340 90002 130.536 9.44465e-05
1341 90002 128.728 0.000166194
1342 90002 128.728 0.000128765
1343 90002 126.921 0.0107963
1344 90002 126.921 0.0138521
1345 90002 132.343 0.000675248
1346 90002 132.343 0.000918989
1347 90002 130.536 -5.80307e-05
1348 90002 130.536 4.79885e-05
1349 90002 128.728 0.000874251
1350 90002 128.728 0.000388706
1351 90002 126.921 0.00879898
1352 90002 126.921 0.00740375
1353 90002 132.343 0.00125949
1354 90002 132.343 0.0010336
1355 90002 130.536 -0.000358573
1356 90002 130.536 -7.61216e-05
1357 90002 128.728 0.000226748
1358 90002 128.728 -0.00244592
1359 90002 126.921 -0.0167653
1360 90002 126.921 0.00881832
1361 90002 132.343 0.000725307
1362 90002 132.343 0.00108124
1363 90002 130.536 -9.67294e-05
1364 90002 130.536 -0.000522266
1365 90002 128.728 -0.000791415
1366 90002 128.728 -0.000259781
1367 90002 126.921 0.0141979
1368 90002 126.921 0.0162454
1369 90002 132.343 0.000845869
1370 90002 132.343 0.00107945
1371 90002 130.536 -3.36345e-05
1372 90002 130.536 -1.23913e-05
1373 90002 128.728 -0.000633363
1374 90002 128.728 -0.00145757
1375 90002 126.921 -0.0188992
1376 90002 126.921 0.00781383
1377 90002 132.343 0.00143931
1378 90002 132.343 0.000298762
1379 90002 130.536 -0.000144182
1380 90002 130.536 -0.000381044
1381 90002 128.728 -0.00143143
1382 90002 128.728 0.0019117
1383 90002 126.921 0.0131074
1384 90002 126.921 0.021819
1385 90002 132.343 0.000539058
1386 90002 132.343 0.000964716
1387 90002 130.536 -0.000413839
1388 90002 130.536 1.77241e-05
1389 90002 128.728 0.00119017
1390 90002 128.728 0.000378812
1391 90002 126.921 0.0227563
1392 90002 126.921 0.013252
1393 90002 132.343 0.00111073
1394 90002 132.343 0.00119254
1395 90002 130.536 -0.000186841
1396 90002 130.536 -0.000182369
1397 90002 128.728 -0.0011621
1398 90002 128.728 -0.00254922
1399 90002 126.921 0.00504155
1400 90002 126.921 0.0446813
1401 90002 132.343 0.00112762
1402 90002 132.343 0.000735342
1403 90002 130.536 0.000123406
1404 90002 130.536 -0.000255756
1405 90002 128.728 0.000105517
1406 90002 128.728 -0.000730334
1407 90002 126.921 0.0140469
1408 90002 126.921 0.00830698
1409 90002 132.343 0.000625489
1410 90002 132.343 0.000777835
1411 90002 130.536 0.000494891
1412 90002 130.536 -9.48365e-05
1413 90002 128.728 -0.00115726
1414 90002 128.728 -0.00066194
1415 90002 126.921 -0.0182525
1416 90002 126.921 -0.00382991
1417 90002 132.343 0.000759439
1418 90002 132.343 0.00120892
1419 90002 130.536 5.49255e-06
1420 90002 130.536 5.74219e-05
1421 90002 128.728 -0.00121566
1422 90002 128.728 0.00116826
1423 90002 126.921 0.012039
1424 90002 126.921 -0.00102441
1425 90002 132.343 0.0012132
1426 90002 132.343 0.0011869
1427 90002 130.536 -0.000710281
1428 90002 130.536 -0.000350978
1429 90002 128.728 0.000284319
1430 90002 128.728 0.00103309
1431 90002 126.921 0.0191955
1432 90002 126.921 0.0160838
1433 90002 132.343 0.000558204
1434 90002 132.343 0.000525568
1435 90002 130.536 1.43373e-05
1436 90002 130.536 -0.000474027
1437 90002 128.728 0.000930318
1438 90002 128.728 -0.00085408
1439 90002 126.921 0.00167076
1440 90002 126.921 0.0273038
1441 90002 132.343 0.00102059
1442 90002 132.343 0.000771469
1443 90002 130.536 -0.000743314
1444 90002 130.536 0.000335811
1445 90002 128.728 2.21887e-05
1446 90002 128.728 -0.00049156
1447 90002 126.921 0.00741796
1448 90002 126.921 0.00476611
1449 90002 132.343 0.000955831
1450 90002 132.343 0.000942971
1451 90002 130.536 -0.000386746
1452 90002 130.536 -0.000287744
1453 90002 128.728 -0.000530358
1454 90002 128.728 -0.000969361
1455 90002 126.921 0.0395344
1456 90002 126.921 0.0122011
1457 90002 132.343 0.000819825
1458 90002 132.343 0.00027632
1459 90002 130.536 0.000265415
1460 90002 130.536 0.000229206
1461 90002 128.728 0.000342518
1462 90002 128.728 -0.000535717
1463 90002 126.921 0.0246304
1464 90002 126.921 0.0108392
1465 90002 132.343 0.00021569
1466 90002 132.343 0.000409864
1467 90002 130.536 0.000226219
1468 90002 130.536 0.000435635
1469 90002 128.728 -0.000221251
1470 90002 128.728 -0.00153403
1471 90002 126.921 0.0061128
1472 90002 126.921 0.00298184
1473 90002 132.343 0.00109255
1474 90002 132.343 0.000615242
1475 90002 130.536 0.000385652
1476 90002 130.536 3.94422e-05
1477 90002 128.728 0.00464437
1478 90002 128.728 0.000101223
1479 90002 126.921 0.0279358
1480 90002 126.921 -0.00750849
1481 90002 132.343 0.00101253
1482 90002 132.343 0.000888979
1483 90002 130.536 -3.22267e-05
1484 90002 130.536 7.55315e-05
1485 90002 128.728 -0.00217718
1486 90002 128.728 0.000303734
1487 90002 126.921 0.0116818
1488 90002 126.921 0.0049604
1489 90002 132.343 0.000894062
1490 90002 132.343 0.00134044
1491 90002 130.536 0.000400741
1492 90002 130.536 -7.60421e-05
1493 90002 128.728 0.000275459
1494 90002 128.728 -0.00411787
1495 90002 126.921 -0.0271836
1496 90002 126.921 -0.0350619
1497 90002 132.343 0.000937976
1498 90002 132.343 0.000827598
1499 90002 130.536 -0.000271332
1500 90002 130.536 0.000451406
1501 90002 128.728 -0.000486047
1502 90002 128.728 6.11473e-05
1503 90002 126.921 0.00219881
1504 90002 126.921 -0.0437967
1505 90002 132.343 0.00115686
1506 90002 132.343 0.000866814
1507 90002 130.536 -0.000136393
1508 90002 130.536 -0.000244382
1509 90002 128.728 -0.00126345
1510 90002 128.728 0.000126837
1511 90002 126.921 0.0159085
1512 90002 126.921 -0.00792536
1513 90002 132.343 0.000785153
1514 90002 132.343 0.000662643
1515 90002 130.536 -5.94101e-05
1516 90002 130.536 -0.000541629
1517 90002 128.728 0.000436212
1518 90002 128.728 9.89096e-05
1519 90002 126.921 0.0165349
1520 90002 126.921 0.00425604
1521 90002 132.343 0.000604373
1522 90002 132.343 0.000519017
1523 90002 130.536 -0.00026588
1524 90002 130.536 -0.000258004
1525 90002 128.728 -0.00023459
1526 90002 128.728 -0.000866721
1527 90002 126.921 0.00852956
1528 90002 126.921 0.00588125
1529 90002 132.343 0.000766408
1530 90002 132.343 0.000538389
1531 90002 130.536 -0.000163504
1532 90002 130.536 0.000104894
1533 90002 128.728 -0.000317475
1534 90002 128.728 -0.00129333
1535 90002 126.921 0.0107133
1536 90002 126.921 -0.0152451
1537 90002 132.343 0.000688924
1538 90002 132.343 0.000400571
1539 90002 130.536 0.000445868
1540 90002 130.536 0.000310565
1541 90002 128.728 0.00142001
1542 90002 128.728 0.000153157
1543 90002 126.921 0.0123408
1544 90002 126.921 0.00728241
1545 90002 132.343 0.000524472
1546 90002 132.343 0.000839943
1547 90002 130.536 -0.000189863
1548 90002 130.536 0.000342
1549 90002 128.728 -0.000138443
1550 90002 128.728 -0.00295959
1551 90002 126.921 -0.00413004
1552 90002 126.921 -0.0257247
1553 90002 132.343 0.000551382
1554 90002 132.343 0.00102991
1555 90002 130.536 0.000628985
1556 90002 130.536 0.00048315
1557 90002 128.728 -0.000371424
1558 90002 128.728 -0.000563729
1559 90002 126.921 0.00201499
1560 90002 126.921 0.00169899
1561 90002 132.343 0.000593054
1562 90002 132.343 0.000763645
1563 90002 130.536 0.000348626
1564 90002 130.536 -5.78907e-08
1565 90002 128.728 -0.000555924
1566 90002 128.728 -0.0036317
1567 90002 126.921 -0.00967802
1568 90002 126.921 -0.0137887
1569 90002 132.343 0.00076071
1570 90002 132.343 0.00111575
1571 90002 130.536 -7.97622e-05
1572 90002 130.536 -6.64401e-06
1573 90002 128.728 -0.00126741
1574 90002 128.728 0.00131787
1575 90002 126.921 -0.0236892
1576 90002 126.921 0.00582201
1577 90002 132.343 0.00112565
1578 90002 132.343 0.000449015
1579 90002 130.536 -0.000253925
1580 90002 130.536 0.000324236
1581 90002 128.728 -0.00253513
1582 90002 128.728 -0.00269045
1583 90002 126.921 -0.0471371
1584 90002 126.921 -0.0190348
1585 90002 132.343 0.000824556
1586 90002 132.343 0.000728509
1587 90002 130.536 0.000280877
1588 90002 130.536 0.000397243
1589 90002 128.728 -0.000147451
1590 90002 128.728 -0.00271379
1591 90002 126.921 -0.0239749
1592 90002 126.921 -0.0164366
1593 90002 132.343 0.000545039
1594 90002 132.343 0.000921966
1595 90002 130.536 -0.000440726
1596 90002 130.536 0.000257118
1597 90002 128.728 -0.00125591
1598 90002 128.728 -0.00106037
1599 90002 126.921 -0.000553274
1600 90002 126.921 -0.0340324
