ITEM: TIMESTEP
0
ITEM: NUMBER OF ATOMS
240
ITEM: BOX BOUNDS pp pp ff
0.0000000000000000e+00 1.7650658050000001e+01
0.0000000000000000e+00 2.0381224350000000e+01
0.0000000000000000e+00 6.0000000000000000e+01
ITEM: ATOMS id type q
1 1 -0.0220229418316
2 1 -0.0220229365997
3 1 -0.0220229308296
4 1 -0.02202293503
5 1 -0.0220229418456
6 1 -0.0220229366055
7 1 -0.022022930824
8 1 -0.022022935016
9 1 -0.0220229418355
10 1 -0.0220229366057
11 1 -0.0220229308336
12 1 -0.022022935036
13 1 -0.0220229418496
14 1 -0.0220229366116
15 1 -0.022022930828
16 1 -0.0220229350221
17 1 -0.0220229418423
18 1 -0.0220229366111
19 1 -0.0220229308403
20 1 -0.0220229350414
21 1 -0.0220229418563
22 1 -0.0220229366169
23 1 -0.0220229308347
24 1 -0.0220229350275
25 1 -0.0220229418443
26 1 -0.022022936609
27 1 -0.0220229308424
28 1 -0.0220229350393
29 1 -0.0220229418584
30 1 -0.0220229366149
31 1 -0.0220229308368
32 1 -0.0220229350254
33 1 -0.022022941839
34 1 -0.0220229366023
35 1 -0.022022930837
36 1 -0.0220229350326
37 1 -0.022022941853
38 1 -0.0220229366081
39 1 -0.0220229308314
40 1 -0.0220229350187
41 1 -0.0220229418329
42 1 -0.0220229365983
43 1 -0.0220229308309
44 1 -0.0220229350286
45 1 -0.022022941847
46 1 -0.0220229366042
47 1 -0.0220229308254
48 1 -0.0220229350147
49 1 -0.00350625667346
50 1 -0.0035062479372
51 1 -0.00350624682106
52 1 -0.00350625541846
53 1 -0.00350625668171
54 1 -0.00350624793825
55 1 -0.00350624681432
56 1 -0.00350625540778
57 1 -0.00350625667741
58 1 -0.00350624794171
59 1 -0.00350624682501
60 1 -0.00350625542297
61 1 -0.00350625668566
62 1 -0.00350624794276
63 1 -0.00350624681827
64 1 -0.00350625541229
65 1 -0.00350625668106
66 1 -0.00350624794312
67 1 -0.00350624682866
68 1 -0.00350625542439
69 1 -0.00350625668932
70 1 -0.00350624794417
71 1 -0.00350624682192
72 1 -0.0035062554137
73 1 -0.00350625667964
74 1 -0.00350624793947
75 1 -0.00350624682725
76 1 -0.00350625542073
77 1 -0.0035062566879
78 1 -0.00350624794052
79 1 -0.0035062468205
80 1 -0.00350625541005
81 1 -0.00350625667513
82 1 -0.00350624793552
83 1 -0.00350624682273
84 1 -0.00350625541678
85 1 -0.00350625668339
86 1 -0.00350624793657
87 1 -0.00350624681599
88 1 -0.0035062554061
89 1 -0.00350625667266
90 1 -0.00350624793472
91 1 -0.00350624682026
92 1 -0.00350625541599
93 1 -0.00350625668092
94 1 -0.00350624793577
95 1 -0.00350624681352
96 1 -0.0035062554053
97 1 2.42038774963e-06
98 1 2.42185580009e-06
99 1 2.42037981526e-06
100 1 2.4189105297e-06
101 1 2.42038674907e-06
102 1 2.42185804178e-06
103 1 2.42038395968e-06
104 1 2.41891403902e-06
105 1 2.42038775204e-06
106 1 2.42185580187e-06
107 1 2.42037981765e-06
108 1 2.41891053145e-06
109 1 2.42038675146e-06
110 1 2.42185804354e-06
111 1 2.42038396209e-06
112 1 2.41891404077e-06
113 1 2.42038775272e-06
114 1 2.42185580118e-06
115 1 2.42037981834e-06
116 1 2.41891053076e-06
117 1 2.42038675215e-06
118 1 2.42185804286e-06
119 1 2.42038396277e-06
120 1 2.41891404009e-06
121 1 2.42038775097e-06
122 1 2.42185579878e-06
123 1 2.42037981659e-06
124 1 2.41891052836e-06
125 1 2.4203867504e-06
126 1 2.42185804046e-06
127 1 2.42038396103e-06
128 1 2.41891403767e-06
129 1 2.4203877484e-06
130 1 2.42185579681e-06
131 1 2.42037981403e-06
132 1 2.41891052636e-06
133 1 2.42038674784e-06
134 1 2.42185803848e-06
135 1 2.42038395845e-06
136 1 2.4189140357e-06
137 1 2.42038774766e-06
138 1 2.42185579753e-06
139 1 2.42037981326e-06
140 1 2.41891052711e-06
141 1 2.42038674708e-06
142 1 2.42185803921e-06
143 1 2.42038395771e-06
144 1 2.41891403644e-06
145 1 0.00353209030187
146 1 0.00353208902963
147 1 0.0035320804883
148 1 0.0035320816234
149 1 0.00353209030583
150 1 0.00353208903286
151 1 0.00353208048849
152 1 0.00353208162058
153 1 0.0035320903055
154 1 0.00353208903103
155 1 0.00353208049193
156 1 0.0035320816248
157 1 0.00353209030946
158 1 0.00353208903426
159 1 0.00353208049212
160 1 0.00353208162198
161 1 0.0035320903041
162 1 0.0035320890274
163 1 0.00353208049053
164 1 0.00353208162117
165 1 0.00353209030806
166 1 0.00353208903063
167 1 0.00353208049071
168 1 0.00353208161835
169 1 0.00353209029961
170 1 0.00353208902346
171 1 0.00353208048603
172 1 0.00353208161723
173 1 0.00353209030357
174 1 0.00353208902669
175 1 0.00353208048622
176 1 0.00353208161441
177 1 0.00353209029713
178 1 0.00353208902266
179 1 0.00353208048356
180 1 0.00353208161643
181 1 0.00353209030109
182 1 0.00353208902589
183 1 0.00353208048374
184 1 0.00353208161361
185 1 0.00353209029793
186 1 0.00353208902514
187 1 0.00353208048436
188 1 0.0035320816189
189 1 0.00353209030189
190 1 0.00353208902836
191 1 0.00353208048454
192 1 0.00353208161608
193 1 0.0219946878203
194 1 0.0219946810008
195 1 0.0219946768082
196 1 0.0219946825859
197 1 0.021994687826
198 1 0.0219946810031
199 1 0.0219946768052
200 1 0.0219946825798
201 1 0.0219946878223
202 1 0.0219946809987
203 1 0.0219946768103
204 1 0.0219946825838
205 1 0.0219946878281
206 1 0.021994681001
207 1 0.0219946768073
208 1 0.0219946825777
209 1 0.0219946878169
210 1 0.0219946809919
211 1 0.0219946768048
212 1 0.021994682577
213 1 0.0219946878227
214 1 0.0219946809942
215 1 0.0219946768019
216 1 0.0219946825709
217 1 0.0219946878109
218 1 0.021994680988
219 1 0.0219946767988
220 1 0.021994682573
221 1 0.0219946878166
222 1 0.0219946809902
223 1 0.0219946767958
224 1 0.0219946825669
225 1 0.0219946878095
226 1 0.0219946809893
227 1 0.0219946767974
228 1 0.0219946825744
229 1 0.0219946878153
230 1 0.0219946809916
231 1 0.0219946767945
232 1 0.0219946825683
233 1 0.0219946878135
234 1 0.0219946809954
235 1 0.0219946768014
236 1 0.0219946825804
237 1 0.0219946878193
238 1 0.0219946809976
239 1 0.0219946767984
240 1 0.0219946825743
