LAMMPS (4 Jul 2026 - Development - patch_4Jul2026-542-g4e5eb25ab6-modified)
  using 1 OpenMP thread(s) per MPI task
# TIP4P-FQ liquid, FAITHFUL-RICK structure: lr_ewald=1 (INTRA-Slater + BARE-inter, his exact
# electrostatics per mdtpn.f) — the mu-gap root cause was lr_ewald=2's all-pair shielding.
# PREDICTION: mu -> ~2.63 (Rick 2.637). Stability rides XL (Rick's own stability = EL adiabaticity).
# Base: TRUE SLATER-OVERLAP kernel deck (`shield slater`): Rick's raw zetas,
# NO refit. Target: close the gauss-kernel port's -4% mu (2.53 vs Rick 2.637) — the deviation was
# the intermolecular J at intermediate r, exactly what the exact kernel fixes.
# Derived from in.tip4pfq_xl (KERNEL-REFIT gauss port); 256-molecule box built from Rick's own equilibrated
# mdtpn.dat config (build_box.py), vol=7660.31 A^3, rho=1.0 g/cc, fixed (NVT).
# Kernel: gaussian/pqeq erf(a_ij r)/r, fit EXACTLY to Rick's jrab() J_HH(1.5139)
# and J_OH(r_MH=0.8735) (see fit_j.py) -- the physically-operative rigid-body
# distances. Single `run` command (multi-run is a known samQEq calibration
# artifact); tail-window ave/time blocks report thermalized averages.
units           metal
atom_style      full
boundary        p p p
read_data       tip4pfq_liquid.data
Reading data file ...
  orthogonal box = (0 0 0) to (19.712825 19.712825 19.712825)
  2 by 2 by 4 MPI processor grid
  reading atoms ...
  1024 atoms
  scanning bonds ...
  2 = max bonds/atom
  scanning angles ...
  1 = max angles/atom
  orthogonal box = (0 0 0) to (19.712825 19.712825 19.712825)
  2 by 2 by 4 MPI processor grid
  reading bonds ...
  512 bonds
  reading angles ...
  256 angles
Finding 1-2 1-3 1-4 neighbors ...
  special bond factors lj:    0        0        0       
  special bond factors coul:  0        0        0       
     2 = max # of 1-2 neighbors
     1 = max # of 1-3 neighbors
     1 = max # of 1-4 neighbors
     2 = max # of special neighbors
  special bonds CPU = 0.001 seconds
  read_data CPU = 0.011 seconds

group           watO  type 1
256 atoms in group watO
group           watH  type 2
512 atoms in group watH
group           watM  type 3
256 atoms in group watM
group           fq    type 2 3
768 atoms in group fq

# LJ on O-O only (Table I): eps=0.2862 kcal/mol=0.012412 eV, sigma=3.159 A
pair_style      hybrid/overlay lj/cut 10.0 coul/long 10.0 coul/shield/intra 5.0 slater 2s 1 3
pair_coeff      1 1 lj/cut 0.012412 3.159
pair_coeff      1 2 lj/cut 0.0 1.0
pair_coeff      1 3 lj/cut 0.0 1.0
pair_coeff      2 2 lj/cut 0.0 1.0
pair_coeff      2 3 lj/cut 0.0 1.0
pair_coeff      3 3 lj/cut 0.0 1.0
pair_coeff      * * coul/long
pair_coeff      1 1 coul/shield/intra 3.0803    # zeta_O (2s), 1/Angstrom
pair_coeff      2 2 coul/shield/intra 1.7007    # zeta_H (1s)
pair_coeff      3 3 coul/shield/intra 3.0803    # zeta_M (borrows O's 2s form factor)
pair_coeff      1 2 coul/shield/intra 2.288813
pair_coeff      1 3 coul/shield/intra 3.080300
pair_coeff      2 3 coul/shield/intra 2.288813
# ^ FIX: hybrid/overlay contributes ZERO for unset sub-style cross pairs (no auto init_one
#   mixing, no warning) — the unset M-H pair hid a +3.2 eV/mol pe error (U_bind -82 naive / -13.6
#   'corrected' -> -9.90 = Rick EXACT once fixed). Cross values: sqrt-mixed (used by cbrt mode;
#   pqeq/slater kernels read type diagonals only). See ubind/DIAGNOSIS_UBIND.md.

special_bonds   lj/coul 1.0e-8 1.0e-8 1.0
Finding 1-2 1-3 1-4 neighbors ...
  special bond factors lj:    1e-08    1e-08    1       
  special bond factors coul:  1e-08    1e-08    1       
     2 = max # of 1-2 neighbors
     1 = max # of 1-3 neighbors
     2 = max # of special neighbors
  special bonds CPU = 0.000 seconds
kspace_style    pppm/samqeq 1.0e-5

neighbor        2.0 bin
neigh_modify    every 1 delay 0 check yes

fix             chg fq qeq/sam 1 0.0 10.0 1.0e-5 water4_liquid_slater_lr1.param
fix_modify      chg shield slater 2s 1 3
samqeq: lr-solve shielding = Slater J(r) (Rick JCP101,6141) (param 4th col = zeta (Slater exponent, 1/Angstrom)); routed through compute_H + add_fixed_charge_field + the legacy gas path (calc_Hval)
fix_modify      chg energy yes
fix_modify      chg xl 2.6e-6 1.0
samqeq: extended-Lagrangian charge dynamics ON (q_mass=2.6e-06 eV ps^2/e^2, q_tdamp=1 ps); pure friction (T_q=0); charges propagate by velocity-Verlet (no per-step solve)
# ROOT CAUSE (found via a dt-scan diagnostic, in.diag_dt.tmp/in.diag_dt2.tmp, logs
# log.diag_dt/log.diag_dt2): dt=0.5 fs (the task's suggested value) is NOT a stable
# integration step for this system -- the intramolecular M-H charge oscillator is very
# stiff (r_MH=0.87 A, eta_M/H~16/15 eV) and the rigid-body torque response amplifies any
# discretization error into a genuine near-critical SCF catastrophe within a few hundred
# steps (confirmed: NEITHER an offset-quartic wall NOR the rnd charge-freeze safeguard
# cured it at dt=0.5fs -- both only delayed/relocated the same blow-up, proof this is an
# INTEGRATION-timestep problem, not a kernel-fit or Hessian-singularity problem). At
# dt=0.1 and dt=0.2 fs the SAME deck (no stabilizers needed at all) is fully stable over
# the tested window with mu/qM/qH/T all physically sane and drifting toward the targets.
# Using dt=0.2 fs (4x smaller than the task's suggested 0.5 fs) here.

compute         qMpa watM property/atom q
compute         qMc  watM reduce ave c_qMpa
compute         qHpa watH property/atom q
compute         qHc  watH reduce ave c_qHpa
compute         dip all dipole/samqeq
variable        mu   equal c_dip
variable        qM   equal c_qMc
variable        qH   equal c_qHc
variable        pemol equal pe/256.0
variable        T equal temp
variable        P equal press

timestep        0.00025
velocity        all create 298.0 20260928 mom yes rot yes dist gaussian
fix             rig all rigid/nvt/small molecule temp 298.0 298.0 0.02
Fix rigid/nvt/small setup ...
  create bodies CPU = 0.000 seconds
  256 rigid bodies with 1024 atoms
  0.87348128 = max distance from body owner to body atom
thermo_style    custom step temp v_mu
thermo          400
run             80000

CITE-CITE-CITE-CITE-CITE-CITE-CITE-CITE-CITE-CITE-CITE-CITE-CITE

Your simulation uses code contributions which should be cited:

- fix acks2/reaxff command: https://doi.org/10.1137/18M1224684

@Article{O'Hearn2020,
 author = {K. A. {O'Hearn} and A. Alperen and H. M. Aktulga},
 title = {Fast Solvers for Charge Distribution Models on Shared Memory Platforms},
 journal = {SIAM J.\ Sci.\ Comput.},
 year =    2020,
 volume =  42,
 number =  1,
 pages =   {1--22}
}

CITE-CITE-CITE-CITE-CITE-CITE-CITE-CITE-CITE-CITE-CITE-CITE-CITE

PPPM initialization ...
  using 12-bit tables for long-range coulomb
  G vector (1/distance) = 0.31499941
  grid = 20 20 20
  stencil order = 5
  estimated absolute RMS force accuracy = 0.0001309434
  estimated relative force accuracy = 9.0935157e-06
  using double precision FFTW3
  3d grid and FFT values/proc = 3468 500
samqeq: pair coul/shield/intra Slater-overlap J(r) tables built (6 unique type pairs, 2000 pts each, r in [0.02,5])
Generated 0 of 3 mixed pair_coeff terms from geometric mixing rule
WARNING: Bonds are defined but no bond style is set (src/force.cpp:198)
WARNING: Likewise 1-2 special neighbor interactions != 1.0 (src/force.cpp:200)
WARNING: Angles are defined but no angle style is set (src/force.cpp:203)
WARNING: Likewise 1-3 special neighbor interactions != 1.0 (src/force.cpp:205)
samqeq: E_self = sum(chi q + 1/2 eta qs^2) INCLUDED in pe/etotal (fix_modify chg energy yes; eselfref qs = q - q0 - redox_dp) -- pe + E_self is the energy the forces integrate
samqeq: Slater-overlap J(r) tables built (6 unique type pairs, 2000 pts each, r in [0.02,10])
Neighbor list info ...
  update: every = 1 steps, delay = 0 steps, check = yes
  max neighbors/atom: 2000, page size: 100000
  master list distance cutoff = 12
  ghost atom cutoff = 12
  binsize = 6, bins = 4 4 4
  5 neighbor lists, perpetual/occasional/extra = 5 0 0
  (1) pair lj/cut, perpetual, copy from (2)
      attributes: half, newton on, cut 12
      pair build: copy
      stencil: none
      bin: none
  (2) pair coul/long, perpetual, half/full from (5)
      attributes: half, newton on, cut 12
      pair build: halffull/newton
      stencil: none
      bin: none
  (3) pair coul/shield/intra, perpetual, copy from (1)
      attributes: half, newton on
      pair build: copy
      stencil: none
      bin: none
  (4) fix qeq/sam, perpetual, half/full from (5)
      attributes: half, newton off
      pair build: halffull/newtoff
      stencil: none
      bin: none
  (5) fix qeq/sam, perpetual
      attributes: full, newton on
      pair build: full/bin
      stencil: full/bin/3d
      bin: standard
Per MPI rank memory allocation (min/avg/max) = 20.69 | 20.97 | 21.15 Mbytes
   Step          Temp           v_mu     
WARNING: compute dipole/samqeq: molecule 22 has net charge -0.000001; its dipole is origin-dependent (src/SAMQEQ/compute_dipole_samqeq.cpp:165)
         0   304.38164      2.652567     
samqeq: calibrated grid reciprocal self-term recip_self=0.35523 +/- 0.00000 (raw, K=16 deterministic probes) = 5.1152 eV/e (subtracted so the QEq diagonal stays = eta)
       400   306.8694       2.6487388    
       800   302.02358      2.6351759    
      1200   301.55905      2.6215875    
      1600   298.6787       2.6261853    
      2000   291.30551      2.6448284    
      2400   308.64185      2.6397994    
      2800   322.08186      2.629329     
      3200   290.86499      2.6415195    
      3600   300.88001      2.6360049    
      4000   304.63224      2.6303179    
      4400   309.91199      2.6350301    
      4800   292.61585      2.6312237    
      5200   295.50381      2.6334474    
      5600   301.43698      2.6373038    
      6000   301.55698      2.6411785    
      6400   297.43047      2.6395754    
      6800   285.14013      2.6196913    
      7200   297.52818      2.61378      
      7600   304.22394      2.6171331    
      8000   317.21246      2.6307178    
      8400   310.60188      2.6313065    
      8800   288.58997      2.6202136    
      9200   300.92994      2.6169193    
      9600   305.717        2.5781007    
     10000   294.88799      2.5964944    
     10400   297.21433      2.6081933    
     10800   301.77716      2.6215014    
     11200   304.05472      2.6056694    
     11600   287.20674      2.6105163    
     12000   302.8529       2.6435545    
     12400   314.64311      2.6317027    
     12800   285.05328      2.6182285    
     13200   301.08498      2.6330081    
     13600   293.80245      2.6676125    
     14000   296.64228      2.665536     
     14400   296.80525      2.6391428    
     14800   303.43067      2.6290389    
     15200   297.62815      2.6529939    
     15600   296.00957      2.6536122    
     16000   305.31041      2.6447361    
     16400   293.25034      2.6446298    
     16800   274.17991      2.6415524    
     17200   296.17655      2.6280973    
     17600   308.76596      2.6141781    
     18000   302.55774      2.602019     
     18400   283.08414      2.6216929    
     18800   289.4863       2.6029083    
     19200   294.98474      2.6206218    
     19600   308.76629      2.6331433    
     20000   299.19867      2.6284837    
     20400   297.16876      2.6249285    
     20800   303.40999      2.6189858    
     21200   297.29806      2.6359399    
     21600   289.08488      2.6399071    
     22000   300.032        2.6332065    
     22400   305.47182      2.640942     
     22800   311.70055      2.6390381    
     23200   310.49002      2.6338284    
     23600   300.79915      2.6472425    
     24000   303.33973      2.6373564    
     24400   305.46791      2.6634449    
     24800   323.61029      2.6620803    
     25200   324.03682      2.6390072    
     25600   301.98429      2.6530326    
     26000   309.64783      2.6336865    
     26400   281.89264      2.618512     
     26800   270.48076      2.6249583    
     27200   298.32434      2.6157412    
     27600   291.07276      2.6249997    
     28000   284.37622      2.6423812    
     28400   319.52221      2.6187622    
     28800   291.28948      2.6103634    
     29200   297.60473      2.62271      
     29600   295.60738      2.6194269    
     30000   302.70576      2.6267327    
     30400   303.31304      2.630329     
     30800   315.50758      2.6426675    
     31200   313.51013      2.6632287    
     31600   301.96667      2.6607279    
     32000   293.27738      2.6379866    
     32400   307.69583      2.6296049    
     32800   284.4999       2.6256456    
     33200   293.3184       2.644838     
     33600   301.18062      2.6505867    
     34000   303.18773      2.6637333    
     34400   312.01916      2.6633251    
     34800   293.79684      2.6756418    
     35200   305.99509      2.6688936    
     35600   323.71692      2.6777127    
     36000   300.6883       2.6935855    
     36400   301.75588      2.7062459    
     36800   307.91469      2.6860618    
     37200   307.17436      2.6711031    
     37600   284.50685      2.6598529    
     38000   295.6636       2.6414506    
     38400   316.9524       2.6508649    
     38800   301.57627      2.6798967    
     39200   291.32031      2.6751556    
     39600   307.35756      2.6653551    
     40000   302.15896      2.6746946    
     40400   305.7825       2.6629276    
     40800   295.76591      2.6503874    
     41200   297.12122      2.6398894    
     41600   309.04781      2.6270968    
     42000   310.92826      2.6368251    
     42400   288.10646      2.6278935    
     42800   310.02447      2.6423181    
     43200   302.43136      2.6526319    
     43600   314.7867       2.6470395    
     44000   298.13064      2.6419166    
     44400   305.57668      2.6409159    
     44800   287.87454      2.657647     
     45200   293.70923      2.6328318    
     45600   296.16942      2.6194941    
     46000   281.40187      2.6333578    
     46400   294.95336      2.6280982    
     46800   288.64422      2.6179259    
     47200   296.47279      2.6057145    
     47600   310.4569       2.6248553    
     48000   313.40049      2.6308198    
     48400   307.78848      2.6094654    
     48800   301.54753      2.6146735    
     49200   319.65623      2.604597     
     49600   303.17993      2.6094376    
     50000   302.17109      2.5863823    
     50400   294.35813      2.6172389    
     50800   291.13981      2.5983383    
     51200   286.12951      2.6030992    
     51600   307.48859      2.6326592    
     52000   295.3156       2.6290937    
     52400   295.61519      2.6233198    
     52800   296.92653      2.6112152    
     53200   293.56924      2.5975117    
     53600   272.21903      2.6048904    
     54000   292.04901      2.6234874    
     54400   295.53982      2.6114425    
     54800   291.19009      2.5795224    
     55200   287.96206      2.5966249    
     55600   288.20298      2.5753054    
     56000   292.70433      2.6039049    
     56400   302.19726      2.6194212    
     56800   307.34912      2.6304824    
     57200   299.69332      2.6241477    
     57600   293.29007      2.6081299    
     58000   294.95261      2.6140618    
     58400   300.51987      2.6099596    
     58800   277.17824      2.6157827    
     59200   287.69086      2.623126     
     59600   286.7355       2.6212687    
     60000   312.49479      2.630778     
     60400   283.54819      2.6212591    
     60800   300.4097       2.6392949    
     61200   263.84043      2.6238716    
     61600   301.93901      2.6144419    
     62000   298.66765      2.6035879    
     62400   310.23289      2.6060635    
     62800   302.44848      2.6214091    
     63200   300.38328      2.6348929    
     63600   276.51731      2.6472258    
     64000   300.23417      2.6659095    
     64400   304.81387      2.6538166    
     64800   294.72576      2.6351459    
     65200   298.22454      2.6172187    
     65600   284.39972      2.6439667    
     66000   302.32341      2.6519953    
     66400   305.84902      2.6447694    
     66800   294.23878      2.644682     
     67200   297.73968      2.6428023    
     67600   301.97605      2.635999     
     68000   297.74491      2.6360731    
     68400   282.62488      2.635076     
     68800   308.90181      2.6336388    
     69200   300.20614      2.6398638    
     69600   308.23063      2.652441     
     70000   307.68473      2.6432861    
     70400   282.06389      2.6319473    
     70800   304.84163      2.6026989    
     71200   293.55807      2.6025695    
     71600   288.18196      2.5941151    
     72000   290.43139      2.6079463    
     72400   292.51572      2.5846763    
     72800   303.6492       2.6102295    
     73200   302.1872       2.6078108    
     73600   295.53533      2.6274355    
     74000   277.08479      2.6156042    
     74400   276.02934      2.6169167    
     74800   295.42009      2.6468937    
     75200   298.72313      2.6207163    
     75600   316.33788      2.6292149    
     76000   297.31879      2.6420444    
     76400   308.19654      2.638702     
     76800   312.36753      2.6246516    
     77200   315.75414      2.6258628    
     77600   310.73371      2.6231149    
     78000   288.51936      2.6014823    
     78400   321.24881      2.6049895    
     78800   301.06542      2.6020369    
     79200   297.38942      2.6102173    
     79600   318.16755      2.6160878    
     80000   298.65867      2.6246036    
Loop time of 310.47 on 16 procs for 80000 steps with 1024 atoms

Performance: 5.566 ns/day, 4.312 hours/ns, 257.674 timesteps/s, 263.858 katom-step/s
84.6% CPU use with 16 MPI tasks x 1 OpenMP threads

MPI task timing breakdown:
Section |  min time  |  avg time  |  max time  |%varavg| %total
---------------------------------------------------------------
Pair    | 54.945     | 59.664     | 65.174     |  27.4 | 19.22
Bond    | 0.0039483  | 0.004568   | 0.0055344  |   0.6 |  0.00
Kspace  | 52.885     | 58.293     | 62.97      |  27.2 | 18.78
Neigh   | 1.1963     | 1.2688     | 1.325      |   3.1 |  0.41
Comm    | 19.607     | 19.836     | 20.077     |   3.1 |  6.39
Output  | 0.031533   | 0.031927   | 0.033069   |   0.2 |  0.01
Modify  | 169.01     | 169.12     | 169.25     |   0.5 | 54.47
Other   |            | 2.247      |            |       |  0.72

Nlocal:             64 ave          72 max          49 min
Histogram: 2 0 0 0 2 1 2 4 2 3
Nghost:         4370.5 ave        4440 max        4297 min
Histogram: 1 1 2 2 1 3 1 3 0 2
Neighs:        30939.9 ave       34776 max       23532 min
Histogram: 2 0 0 0 2 1 1 4 3 3
FullNghs:      61879.8 ave       69012 max       47158 min
Histogram: 2 0 0 0 1 2 1 3 3 4

Total # of neighbors = 990076
Ave neighs/atom = 966.87109
Ave special neighs/atom = 1.5
Neighbor list builds = 764
Dangerous builds = 0
unfix           rig
fix             rig all rigid/nvt/small molecule temp 298.0 298.0 0.02
Fix rigid/nvt/small setup ...
  create bodies CPU = 0.000 seconds
  256 rigid bodies with 1024 atoms
  0.87348128 = max distance from body owner to body atom
reset_timestep  0
run             400000
PPPM initialization ...
  using 12-bit tables for long-range coulomb
  G vector (1/distance) = 0.31490131
  grid = 20 20 20
  stencil order = 5
  estimated absolute RMS force accuracy = 0.00012867963
  estimated relative force accuracy = 8.9363055e-06
  using double precision FFTW3
  3d grid and FFT values/proc = 3468 500
samqeq: pair coul/shield/intra Slater-overlap J(r) tables built (6 unique type pairs, 2000 pts each, r in [0.02,5])
Generated 0 of 3 mixed pair_coeff terms from geometric mixing rule
WARNING: Bonds are defined but no bond style is set (src/force.cpp:198)
WARNING: Likewise 1-2 special neighbor interactions != 1.0 (src/force.cpp:200)
WARNING: Angles are defined but no angle style is set (src/force.cpp:203)
WARNING: Likewise 1-3 special neighbor interactions != 1.0 (src/force.cpp:205)
samqeq: E_self = sum(chi q + 1/2 eta qs^2) INCLUDED in pe/etotal (fix_modify chg energy yes; eselfref qs = q - q0 - redox_dp) -- pe + E_self is the energy the forces integrate
samqeq: Slater-overlap J(r) tables built (6 unique type pairs, 2000 pts each, r in [0.02,10])
Per MPI rank memory allocation (min/avg/max) = 20.6 | 20.97 | 21.15 Mbytes
   Step          Temp           v_mu     
         0   298.65867      2.6246036    
       400   288.71349      2.6110481    
       800   300.89144      2.6114407    
      1200   318.22285      2.6144618    
      1600   298.08821      2.6162709    
      2000   300.19049      2.6054741    
      2400   301.48868      2.6127816    
      2800   297.28138      2.6209839    
      3200   303.47823      2.6209567    
      3600   301.97741      2.6047399    
      4000   291.72405      2.6183165    
      4400   299.76355      2.6195027    
      4800   302.86284      2.6149529    
      5200   310.01687      2.6100943    
      5600   291.41049      2.6051889    
      6000   296.95443      2.6213208    
      6400   300.00015      2.6437286    
      6800   312.69724      2.6503687    
      7200   302.48648      2.6024566    
      7600   301.26307      2.6379154    
      8000   302.49079      2.6219615    
      8400   284.81176      2.6035887    
      8800   279.65706      2.609122     
      9200   308.48064      2.6366816    
      9600   297.309        2.6095091    
     10000   283.30751      2.6353163    
     10400   280.87498      2.6087303    
     10800   298.73363      2.6203601    
     11200   285.40483      2.632942     
     11600   302.68571      2.6383288    
     12000   318.19265      2.634297     
     12400   295.07718      2.6117371    
     12800   288.47944      2.6072165    
     13200   316.17612      2.5963916    
     13600   308.00545      2.6027356    
     14000   290.55953      2.6216109    
     14400   293.96942      2.6000437    
     14800   300.26366      2.6180588    
     15200   287.65824      2.6618691    
     15600   311.81014      2.6442579    
     16000   273.13812      2.648685     
     16400   281.94245      2.6467589    
     16800   315.49732      2.6349616    
     17200   306.15798      2.6552748    
     17600   318.5849       2.6414634    
     18000   312.55944      2.6586398    
     18400   287.33342      2.6620217    
     18800   311.29071      2.6648583    
     19200   297.17424      2.657135     
     19600   295.93513      2.671294     
     20000   294.39706      2.6538135    
     20400   289.11545      2.6651688    
     20800   294.89928      2.6888813    
     21200   297.78711      2.6899622    
     21600   295.89514      2.6628671    
     22000   289.95037      2.6588272    
     22400   292.37964      2.6704633    
     22800   292.32173      2.6613092    
     23200   286.14583      2.6491186    
     23600   289.40593      2.6512182    
     24000   297.62979      2.6631413    
     24400   311.25704      2.6515997    
     24800   315.77241      2.6498782    
     25200   296.65097      2.6611464    
     25600   300.15059      2.6475253    
     26000   310.80871      2.6359196    
     26400   309.43315      2.6369203    
     26800   298.5128       2.6430376    
     27200   296.75807      2.6403566    
     27600   316.06382      2.6446633    
     28000   292.64007      2.6596503    
     28400   295.03195      2.6645488    
     28800   282.9769       2.6532444    
     29200   293.71783      2.6524488    
     29600   311.02112      2.6373262    
     30000   314.76489      2.6251463    
     30400   280.77589      2.6146398    
     30800   288.03947      2.6244503    
     31200   307.28865      2.6288686    
     31600   295.86894      2.6241885    
     32000   304.4449       2.6361313    
     32400   301.56879      2.6399611    
     32800   279.74678      2.6391026    
     33200   302.01523      2.6333156    
     33600   273.94986      2.6541193    
     34000   280.33246      2.647276     
     34400   308.58895      2.6691584    
     34800   291.89403      2.6588267    
     35200   298.1686       2.6510521    
     35600   290.95821      2.6572881    
     36000   303.22515      2.658597     
     36400   313.41619      2.6641809    
     36800   296.72151      2.6728492    
     37200   286.20242      2.6522137    
     37600   287.72666      2.6407587    
     38000   313.71123      2.6464377    
     38400   306.1622       2.6575347    
     38800   289.18052      2.6722159    
     39200   306.57294      2.6510218    
     39600   310.92785      2.6684721    
     40000   296.40296      2.6550321    
     40400   294.96989      2.6604154    
     40800   308.97007      2.6634852    
     41200   312.58553      2.6563874    
     41600   295.57746      2.6519358    
     42000   300.26793      2.6486584    
     42400   292.10098      2.6453663    
     42800   293.26604      2.6466303    
     43200   302.38538      2.6522481    
     43600   312.26137      2.6475824    
     44000   294.48338      2.6331564    
     44400   285.93653      2.6395194    
     44800   287.43164      2.6361298    
     45200   308.08438      2.6352491    
     45600   285.33366      2.6568611    
     46000   307.61668      2.6787855    
     46400   296.07215      2.6762784    
     46800   299.7068       2.6511841    
     47200   308.59017      2.6569749    
     47600   296.65044      2.6639161    
     48000   287.25025      2.6651268    
     48400   286.56461      2.6736986    
     48800   302.07972      2.6527488    
     49200   299.41658      2.6559917    
     49600   295.49683      2.6641568    
     50000   295.82683      2.6738099    
     50400   311.03593      2.678287     
     50800   298.56773      2.6584576    
     51200   303.37126      2.6595016    
     51600   292.09937      2.6569584    
     52000   307.08376      2.6770017    
     52400   291.71253      2.6578473    
     52800   289.70669      2.6622439    
     53200   298.78256      2.6676714    
     53600   303.06101      2.6768946    
     54000   291.7227       2.6621789    
     54400   291.50604      2.6649015    
     54800   314.03051      2.6733675    
     55200   306.58643      2.6711002    
     55600   310.12116      2.6738848    
     56000   316.40583      2.6764539    
     56400   288.71733      2.6733429    
     56800   290.25511      2.6684986    
     57200   301.09769      2.654779     
     57600   301.90839      2.6744973    
     58000   294.08541      2.6488618    
     58400   312.70748      2.6447705    
     58800   299.36585      2.6461387    
     59200   288.34277      2.6715879    
     59600   304.83507      2.6641247    
     60000   313.3561       2.6449557    
     60400   299.53291      2.6309029    
     60800   309.3234       2.6273516    
     61200   306.86287      2.626502     
     61600   296.60852      2.6113118    
     62000   321.28839      2.6203137    
     62400   268.98269      2.6154161    
     62800   295.20925      2.6317511    
     63200   307.84985      2.6208895    
     63600   308.84237      2.624092     
     64000   306.30926      2.6243047    
     64400   295.22248      2.6381825    
     64800   292.3328       2.6327631    
     65200   290.27266      2.6269588    
     65600   293.15033      2.6251822    
     66000   320.58008      2.6515721    
     66400   310.31794      2.6677664    
     66800   306.0691       2.6341183    
     67200   306.44878      2.6267763    
     67600   303.33108      2.6350638    
     68000   297.14891      2.6338203    
     68400   299.25162      2.6397959    
     68800   305.91682      2.6144805    
     69200   285.46438      2.617435     
     69600   325.11972      2.6595138    
     70000   301.04118      2.6347038    
     70400   294.50389      2.6258994    
     70800   308.80584      2.6493831    
     71200   288.20481      2.6631116    
     71600   291.50496      2.6463115    
     72000   281.31526      2.6334368    
     72400   306.24018      2.6426852    
     72800   298.42307      2.643185     
     73200   302.81389      2.6469988    
     73600   303.86661      2.6345456    
     74000   297.44693      2.6224183    
     74400   310.08005      2.6115289    
     74800   312.95588      2.6145265    
     75200   284.07619      2.625609     
     75600   299.72502      2.6363331    
     76000   299.79645      2.6360756    
     76400   305.12142      2.6442538    
     76800   269.82019      2.6232074    
     77200   300.44178      2.6247628    
     77600   282.9831       2.6142389    
     78000   287.47596      2.624613     
     78400   303.49546      2.6334135    
     78800   320.58249      2.65294      
     79200   295.74397      2.6503154    
     79600   297.40053      2.6527485    
     80000   306.43621      2.6332486    
     80400   309.99462      2.626255     
     80800   310.17491      2.6332392    
     81200   306.711        2.6408994    
     81600   293.82803      2.6322415    
     82000   288.45984      2.6225877    
     82400   302.20151      2.6409458    
     82800   295.38772      2.6278775    
     83200   292.521        2.6109964    
     83600   313.88001      2.6166688    
     84000   301.62086      2.6221821    
     84400   304.18968      2.6577887    
     84800   316.08204      2.6489631    
     85200   290.03898      2.6375203    
     85600   298.93779      2.6280557    
     86000   312.15264      2.6364362    
     86400   307.99356      2.6327509    
     86800   310.37053      2.6374663    
     87200   306.99256      2.6414868    
     87600   288.8322       2.6465671    
     88000   300.73813      2.630016     
     88400   298.43538      2.6540153    
     88800   323.65995      2.6311795    
     89200   293.29902      2.6291825    
     89600   286.93806      2.6188556    
     90000   300.21534      2.6311383    
     90400   301.39952      2.6488742    
     90800   290.39893      2.6541657    
     91200   281.72668      2.6496868    
     91600   288.9276       2.640152     
     92000   286.47875      2.6336435    
     92400   320.19603      2.6391845    
     92800   312.77317      2.6340376    
     93200   294.73607      2.6311868    
     93600   325.61662      2.6275624    
     94000   287.87285      2.6225036    
     94400   298.93386      2.6244025    
     94800   294.28678      2.6322587    
     95200   282.46478      2.6316458    
     95600   290.9939       2.647724     
     96000   299.53298      2.6364833    
     96400   318.73345      2.6273234    
     96800   298.24728      2.6391676    
     97200   291.28022      2.6479916    
     97600   299.28678      2.6467517    
     98000   297.07674      2.6483561    
     98400   300.488        2.6483413    
     98800   294.91393      2.6624691    
     99200   299.51723      2.631464     
     99600   289.44291      2.6480503    
    100000   279.95715      2.6155432    
    100400   302.3974       2.6452028    
    100800   277.20845      2.6594491    
    101200   294.61891      2.6334946    
    101600   321.41424      2.6600882    
    102000   309.77407      2.6329789    
    102400   296.77925      2.621305     
    102800   275.49204      2.6329468    
    103200   285.71557      2.6146536    
    103600   284.44479      2.6254423    
    104000   309.78428      2.6273375    
    104400   290.29547      2.6296693    
    104800   299.95219      2.6394634    
    105200   305.92764      2.6286649    
    105600   295.20606      2.6336675    
    106000   269.73882      2.6272669    
    106400   277.10678      2.6461108    
    106800   299.81547      2.6530105    
    107200   296.76606      2.6559789    
    107600   305.09314      2.6433213    
    108000   286.08511      2.6471238    
    108400   308.50002      2.6342861    
    108800   319.29954      2.6379205    
    109200   279.6273       2.6454798    
    109600   305.80702      2.6230543    
    110000   301.60141      2.6188779    
    110400   300.44705      2.6252359    
    110800   294.34752      2.6283298    
    111200   300.04737      2.6292458    
    111600   293.09196      2.6398024    
    112000   294.71151      2.6423601    
    112400   270.05009      2.6510652    
    112800   285.41822      2.6188213    
    113200   303.60777      2.6135963    
    113600   292.55894      2.611706     
    114000   298.48409      2.617703     
    114400   286.42943      2.6191599    
    114800   300.11059      2.6245213    
    115200   315.76167      2.6156472    
    115600   299.4955       2.6364164    
    116000   301.74288      2.6384058    
    116400   296.92108      2.6094929    
    116800   292.75151      2.6022464    
    117200   301.09265      2.5849115    
    117600   306.87966      2.6254296    
    118000   300.55476      2.6201596    
    118400   291.06659      2.6184472    
    118800   282.89309      2.6175331    
    119200   284.80529      2.641265     
    119600   308.0767       2.6344445    
    120000   306.49572      2.6261589    
    120400   303.346        2.644323     
    120800   288.65072      2.6378043    
    121200   285.03289      2.6525759    
    121600   300.1665       2.6528666    
    122000   286.98084      2.6133647    
    122400   282.78719      2.6150602    
    122800   297.19228      2.6407819    
    123200   315.18003      2.6674331    
    123600   295.56858      2.6366651    
    124000   296.58373      2.6335397    
    124400   306.04992      2.636404     
    124800   285.61739      2.6412872    
    125200   298.37773      2.6581182    
    125600   297.47979      2.6507811    
    126000   308.57491      2.6706064    
    126400   307.40086      2.6480555    
    126800   299.95607      2.6604899    
    127200   296.34118      2.6510241    
    127600   302.02779      2.6551618    
    128000   293.39752      2.6667031    
    128400   301.72479      2.6718429    
    128800   307.39746      2.6492242    
    129200   304.32759      2.6566923    
    129600   285.57426      2.6738739    
    130000   287.12527      2.6766473    
    130400   286.50946      2.6586821    
    130800   301.34618      2.6530982    
    131200   299.97891      2.6612994    
    131600   302.82355      2.6442369    
    132000   288.62008      2.6402301    
    132400   298.68712      2.6394901    
    132800   300.98338      2.6543339    
    133200   305.66751      2.6782285    
    133600   303.46182      2.6766913    
    134000   286.37691      2.6645071    
    134400   301.96         2.653162     
    134800   300.63332      2.6423099    
    135200   309.00717      2.6522916    
    135600   312.94036      2.6629861    
    136000   296.6556       2.6589154    
    136400   294.47075      2.6333746    
    136800   305.1114       2.6429287    
    137200   285.86289      2.6571163    
    137600   296.72404      2.6060841    
    138000   306.06883      2.6214474    
    138400   313.02257      2.6109537    
    138800   278.71748      2.6129059    
    139200   298.44426      2.6151537    
    139600   310.98578      2.6266694    
    140000   308.76582      2.6298158    
    140400   322.89785      2.6348521    
    140800   297.86736      2.6130963    
    141200   298.35635      2.6211274    
    141600   311.55346      2.6346751    
    142000   283.80072      2.6500585    
    142400   311.55562      2.6402839    
    142800   292.47383      2.6367034    
    143200   284.22086      2.6577357    
    143600   296.90896      2.648184     
    144000   315.59781      2.6512124    
    144400   282.11076      2.635541     
    144800   294.45263      2.6176483    
    145200   312.98449      2.6184207    
    145600   302.46945      2.6164591    
    146000   323.21477      2.6310623    
    146400   322.57845      2.6125147    
    146800   303.76184      2.6048024    
    147200   289.72081      2.6134303    
    147600   290.82349      2.6053759    
    148000   292.0112       2.6061032    
    148400   315.73644      2.6301582    
    148800   302.27377      2.6640186    
    149200   290.32341      2.6525132    
    149600   300.00237      2.6230268    
    150000   289.22041      2.63705      
    150400   310.91493      2.6336501    
    150800   304.93238      2.6180343    
    151200   301.55057      2.6193335    
    151600   290.72439      2.5955648    
    152000   294.46464      2.5950719    
    152400   295.68063      2.5930789    
    152800   288.71253      2.5928778    
    153200   287.31224      2.6158388    
    153600   305.89454      2.6174977    
    154000   308.78282      2.6354664    
    154400   296.3468       2.6351016    
    154800   289.30442      2.6521017    
    155200   307.53611      2.6334455    
    155600   286.30141      2.6380872    
    156000   296.67624      2.6480311    
    156400   301.54128      2.6664575    
    156800   300.87241      2.657465     
    157200   292.81514      2.6529064    
    157600   290.51412      2.6270308    
    158000   302.19259      2.6243857    
    158400   291.21169      2.6304065    
    158800   299.46697      2.6398189    
    159200   287.05112      2.6099908    
    159600   294.83112      2.6174424    
    160000   293.21495      2.6280166    
    160400   305.29076      2.64699      
    160800   324.46953      2.6475077    
    161200   288.36262      2.6412399    
    161600   310.52612      2.6297516    
    162000   296.67082      2.6291779    
    162400   295.21134      2.6272906    
    162800   293.091        2.6408259    
    163200   290.00351      2.6304485    
    163600   299.66026      2.6275939    
    164000   293.58578      2.6250965    
    164400   290.72268      2.6108092    
    164800   303.1916       2.6179066    
    165200   294.41995      2.6349435    
    165600   309.22018      2.6505539    
    166000   297.36036      2.6506367    
    166400   297.99082      2.6554766    
    166800   299.84367      2.6553764    
    167200   289.42567      2.6355726    
    167600   298.12257      2.610617     
    168000   299.43006      2.6221624    
    168400   288.29142      2.6403882    
    168800   292.97688      2.6384921    
    169200   286.51999      2.6316739    
    169600   287.73509      2.6325774    
    170000   299.03992      2.6065256    
    170400   291.76098      2.6125622    
    170800   290.4076       2.6132691    
    171200   294.26846      2.622626     
    171600   291.03661      2.6161917    
    172000   300.54642      2.6207242    
    172400   298.45259      2.649246     
    172800   302.89982      2.6299487    
    173200   306.61378      2.621448     
    173600   313.29508      2.6426868    
    174000   314.53766      2.6185639    
    174400   303.69874      2.607441     
    174800   288.61111      2.6344143    
    175200   296.78748      2.6448121    
    175600   280.86475      2.6369912    
    176000   284.78923      2.6246455    
    176400   302.50472      2.6137563    
    176800   274.10672      2.6350387    
    177200   310.05349      2.6460506    
    177600   307.62455      2.6373842    
    178000   296.28254      2.6329322    
    178400   307.14554      2.6389966    
    178800   289.03881      2.6295099    
    179200   287.29759      2.649063     
    179600   286.51222      2.6480563    
    180000   290.53338      2.6485524    
    180400   311.01558      2.6310448    
    180800   283.12681      2.6202112    
    181200   291.89474      2.6367602    
    181600   302.35557      2.6186247    
    182000   283.17623      2.6023907    
    182400   291.90597      2.6255302    
    182800   286.72327      2.6175512    
    183200   304.29842      2.6413249    
    183600   301.34855      2.6232251    
    184000   303.85847      2.6094153    
    184400   292.06807      2.606057     
    184800   309.83088      2.6216971    
    185200   305.6296       2.6475187    
    185600   294.64547      2.6157258    
    186000   294.69802      2.6136429    
    186400   303.55142      2.6259619    
    186800   300.60978      2.6311268    
    187200   277.71676      2.6148631    
    187600   291.83463      2.59523      
    188000   309.29702      2.5904413    
    188400   307.18371      2.5804165    
    188800   294.5138       2.6393615    
    189200   294.18003      2.6251144    
    189600   307.87293      2.6457168    
    190000   305.1044       2.630541     
    190400   301.61497      2.6149538    
    190800   281.50313      2.6149035    
    191200   313.07616      2.6296199    
    191600   288.73593      2.636201     
    192000   276.23552      2.6420047    
    192400   298.47626      2.6148999    
    192800   290.85528      2.6494198    
    193200   304.81953      2.6466784    
    193600   317.61988      2.6353138    
    194000   308.39721      2.6361611    
    194400   299.72328      2.6527641    
    194800   292.92755      2.6550074    
    195200   309.46923      2.662304     
    195600   292.3614       2.6409648    
    196000   298.30367      2.6541405    
    196400   304.17555      2.6358063    
    196800   286.3983       2.6446359    
    197200   303.38391      2.6404564    
    197600   297.19145      2.6308572    
    198000   319.29143      2.6294016    
    198400   305.14248      2.6698761    
    198800   297.13929      2.6441624    
    199200   316.26986      2.6408029    
    199600   286.58872      2.6413001    
    200000   282.68325      2.6350461    
    200400   296.59322      2.6171521    
    200800   312.33922      2.6346538    
    201200   298.28516      2.6215413    
    201600   309.54681      2.648289     
    202000   307.73093      2.6426326    
    202400   287.70705      2.6107284    
    202800   303.20504      2.5949391    
    203200   306.47791      2.60237      
    203600   300.29869      2.6038273    
    204000   312.63421      2.5911715    
    204400   320.61735      2.6079925    
    204800   301.74596      2.5990797    
    205200   320.87747      2.5981669    
    205600   306.31697      2.6165494    
    206000   290.97218      2.5784327    
    206400   311.04733      2.5895402    
    206800   319.67106      2.5941087    
    207200   292.63844      2.5748838    
    207600   285.21944      2.5761865    
    208000   294.91268      2.5847349    
    208400   280.30698      2.5857135    
    208800   300.37952      2.6086866    
    209200   301.40431      2.6006144    
    209600   294.90268      2.6139643    
    210000   313.14422      2.6154815    
    210400   301.13374      2.6270811    
    210800   305.44876      2.6107947    
    211200   297.10212      2.5946969    
    211600   297.64319      2.5997699    
    212000   315.27705      2.6123527    
    212400   306.63028      2.6243897    
    212800   298.67304      2.625031     
    213200   304.87186      2.6169426    
    213600   283.4036       2.6273454    
    214000   305.29029      2.5760778    
    214400   288.07509      2.5921218    
    214800   318.60424      2.6314835    
    215200   320.69639      2.6242434    
    215600   284.43901      2.6324583    
    216000   296.92707      2.6342984    
    216400   313.32868      2.6477478    
    216800   311.2955       2.609035     
    217200   302.94204      2.6097599    
    217600   298.08528      2.6079471    
    218000   296.12976      2.612886     
    218400   299.90951      2.6312733    
    218800   301.34192      2.6040541    
    219200   311.02677      2.6260331    
    219600   325.74831      2.6207542    
    220000   310.59092      2.6238202    
    220400   290.1234       2.6139049    
    220800   297.10622      2.625748     
    221200   301.69091      2.6130625    
    221600   308.42537      2.6186839    
    222000   315.47591      2.6326003    
    222400   311.26155      2.5975799    
    222800   303.10932      2.5916117    
    223200   306.71553      2.5845326    
    223600   317.16161      2.6035888    
    224000   305.54026      2.6208008    
    224400   291.01545      2.6235745    
    224800   307.75695      2.6121243    
    225200   323.21271      2.6062697    
    225600   299.01316      2.6073177    
    226000   299.87644      2.6273603    
    226400   301.58859      2.6055764    
    226800   290.50834      2.610593     
    227200   302.92343      2.6118549    
    227600   305.98968      2.5871       
    228000   297.8794       2.5978168    
    228400   306.178        2.6062986    
    228800   281.78815      2.6065845    
    229200   306.27586      2.6129272    
    229600   304.30225      2.617595     
    230000   297.88398      2.6328604    
    230400   282.62451      2.6393762    
    230800   301.55059      2.6243519    
    231200   294.46505      2.6089046    
    231600   315.06381      2.6339357    
    232000   319.81051      2.6233039    
    232400   265.26075      2.6268833    
    232800   306.79582      2.6271068    
    233200   302.10382      2.5982974    
    233600   299.73211      2.6175399    
    234000   295.46758      2.6180724    
    234400   296.82825      2.6380371    
    234800   302.93375      2.6425497    
    235200   299.5811       2.6420779    
    235600   290.11367      2.645278     
    236000   292.93083      2.6662123    
    236400   275.59075      2.6473464    
    236800   305.70139      2.6550451    
    237200   317.35794      2.6524983    
    237600   300.10555      2.6516094    
    238000   317.59929      2.6561189    
    238400   281.34471      2.6564341    
    238800   287.59398      2.6500092    
    239200   279.81975      2.6478046    
    239600   274.25196      2.6526041    
    240000   294.95702      2.6522169    
    240400   303.42961      2.6574293    
    240800   292.12882      2.6381022    
    241200   306.67233      2.6479546    
    241600   287.48575      2.6562318    
    242000   290.37525      2.6264219    
    242400   295.86671      2.6196991    
    242800   294.54728      2.6268671    
    243200   300.29938      2.6242869    
    243600   308.33039      2.6350536    
    244000   286.75625      2.6361338    
    244400   301.66384      2.6372363    
    244800   297.18071      2.642443     
    245200   298.53986      2.6455415    
    245600   283.5051       2.6636454    
    246000   292.87163      2.6573757    
    246400   320.27801      2.6547814    
    246800   311.08218      2.6515428    
    247200   302.3384       2.6356376    
    247600   318.783        2.6381236    
    248000   304.07605      2.616169     
    248400   293.50284      2.6025991    
    248800   290.92405      2.5967764    
    249200   305.93906      2.6168529    
    249600   313.83889      2.6338653    
    250000   311.90919      2.6301674    
    250400   293.54849      2.6427942    
    250800   305.13678      2.6478249    
    251200   312.09548      2.6481962    
    251600   293.53111      2.6174921    
    252000   308.51246      2.6273584    
    252400   290.50033      2.635549     
    252800   288.11819      2.6542346    
    253200   297.09236      2.6631918    
    253600   301.27719      2.6744568    
    254000   305.56269      2.6522423    
    254400   293.25196      2.6399016    
    254800   307.80575      2.6496987    
    255200   298.60522      2.6572702    
    255600   318.38372      2.6696009    
    256000   296.49541      2.656107     
    256400   304.77651      2.6401757    
    256800   302.65438      2.6492362    
    257200   288.32472      2.6845725    
    257600   307.73087      2.6722085    
    258000   312.51858      2.6679409    
    258400   312.62327      2.6686943    
    258800   291.5505       2.6282786    
    259200   305.59711      2.6490003    
    259600   296.32468      2.659718     
    260000   291.50506      2.6543974    
    260400   299.09711      2.6272769    
    260800   290.00446      2.6401769    
    261200   286.62343      2.6420964    
    261600   309.14069      2.6210333    
    262000   317.78293      2.6302028    
    262400   316.11983      2.6425063    
    262800   305.5487       2.6464125    
    263200   315.77376      2.6423372    
    263600   305.25628      2.6478872    
    264000   306.07741      2.6534574    
    264400   295.08529      2.6579657    
    264800   288.75639      2.6439053    
    265200   304.03863      2.6505565    
    265600   276.34062      2.6492919    
    266000   300.23198      2.6674552    
    266400   306.67594      2.6661081    
    266800   293.95999      2.639384     
    267200   284.99803      2.656971     
    267600   303.45399      2.6593254    
    268000   302.59149      2.6552964    
    268400   302.48719      2.6532354    
    268800   315.44972      2.6207339    
    269200   312.42289      2.6200492    
    269600   304.3883       2.6350792    
    270000   290.94516      2.6378215    
    270400   296.12785      2.642957     
    270800   300.75799      2.6712986    
    271200   301.55255      2.6569323    
    271600   304.58318      2.6462875    
    272000   312.02433      2.6368931    
    272400   281.70061      2.6258053    
    272800   298.38661      2.6247689    
    273200   312.67458      2.6434483    
    273600   301.7082       2.6182963    
    274000   311.394        2.6333844    
    274400   307.91017      2.6166397    
    274800   320.63965      2.6123152    
    275200   308.28056      2.6098955    
    275600   291.53496      2.620842     
    276000   294.76898      2.6273216    
    276400   289.34452      2.6549803    
    276800   298.31407      2.6192558    
    277200   310.33162      2.6247532    
    277600   305.40677      2.637388     
    278000   305.78094      2.6210581    
    278400   270.85386      2.6047592    
    278800   288.40187      2.6272834    
    279200   290.95919      2.6226747    
    279600   294.89545      2.62355      
    280000   301.25189      2.6033977    
    280400   303.5896       2.6435813    
    280800   306.85048      2.6353866    
    281200   287.82191      2.6483748    
    281600   322.9356       2.6261011    
    282000   291.36139      2.6161084    
    282400   306.24121      2.6392059    
    282800   301.64065      2.6117183    
    283200   288.00134      2.6152889    
    283600   298.13912      2.623765     
    284000   305.63952      2.6270004    
    284400   287.12361      2.621087     
    284800   306.35597      2.6326354    
    285200   296.85723      2.617664     
    285600   302.52334      2.6377478    
    286000   290.25717      2.6143036    
    286400   328.04964      2.6081736    
    286800   273.2133       2.6147538    
    287200   295.02568      2.6409715    
    287600   290.29941      2.6258994    
    288000   296.54205      2.6259476    
    288400   314.01564      2.6568943    
    288800   292.91788      2.6333634    
    289200   290.6276       2.6350521    
    289600   298.46478      2.634294     
    290000   306.17221      2.6236145    
    290400   320.40061      2.6138352    
    290800   298.76388      2.62518      
    291200   286.53291      2.6280574    
    291600   273.64438      2.6270821    
    292000   300.64424      2.6294496    
    292400   315.09169      2.6165246    
    292800   314.18608      2.5950072    
    293200   305.20195      2.6206381    
    293600   306.22676      2.6334456    
    294000   295.70891      2.6123457    
    294400   295.68624      2.6227392    
    294800   281.94834      2.6365037    
    295200   291.76919      2.6383058    
    295600   317.94032      2.6429769    
    296000   313.61605      2.6347027    
    296400   299.31495      2.6259479    
    296800   290.37438      2.6386501    
    297200   309.77285      2.6380639    
    297600   302.16805      2.6707679    
    298000   319.64101      2.6434357    
    298400   311.59884      2.6590169    
    298800   297.16839      2.6571017    
    299200   298.45168      2.6471709    
    299600   296.17153      2.6484876    
    300000   297.87738      2.6501759    
    300400   307.16288      2.6363178    
    300800   292.3732       2.6366024    
    301200   309.34472      2.6587087    
    301600   299.16689      2.6636412    
    302000   281.03325      2.6513159    
    302400   279.58132      2.6328249    
    302800   283.37687      2.6442276    
    303200   290.95827      2.6324657    
    303600   292.81462      2.6441622    
    304000   314.89842      2.6247271    
    304400   302.3179       2.6349296    
    304800   279.68323      2.637752     
    305200   311.54606      2.6535771    
    305600   310.78495      2.650463     
    306000   304.0189       2.6257052    
    306400   285.08631      2.6241906    
    306800   303.98851      2.6112772    
    307200   302.23009      2.6096366    
    307600   312.40215      2.6032144    
    308000   279.66997      2.63388      
    308400   300.52935      2.6354529    
    308800   283.71759      2.6372567    
    309200   285.94492      2.6197027    
    309600   304.11157      2.6055865    
    310000   304.06399      2.6055909    
    310400   306.59228      2.5958023    
    310800   290.32527      2.6041483    
    311200   279.67857      2.6216051    
    311600   299.49606      2.6170919    
    312000   301.32621      2.6175917    
    312400   309.98691      2.6187513    
    312800   303.25924      2.616028     
    313200   294.2232       2.6340798    
    313600   314.15386      2.6268401    
    314000   287.85364      2.6402812    
    314400   285.50447      2.6209876    
    314800   301.18563      2.6493571    
    315200   286.4711       2.5990736    
    315600   293.92774      2.6174141    
    316000   296.64413      2.6038684    
    316400   305.31974      2.5921       
    316800   310.47802      2.6001116    
    317200   304.7865       2.6048413    
    317600   291.91376      2.6071553    
    318000   290.08378      2.6221693    
    318400   288.46144      2.640755     
    318800   300.20705      2.634066     
    319200   300.85758      2.6260402    
    319600   293.166        2.6390294    
    320000   312.87384      2.6228884    
    320400   314.34524      2.616892     
    320800   296.82062      2.6077594    
    321200   299.42079      2.6007928    
    321600   300.1092       2.6151396    
    322000   290.36154      2.6178132    
    322400   289.86989      2.6399449    
    322800   309.65573      2.6260984    
    323200   273.3179       2.6307758    
    323600   306.76487      2.6295309    
    324000   332.09378      2.6474835    
    324400   314.92284      2.6295488    
    324800   308.65169      2.6341277    
    325200   308.08001      2.6183712    
    325600   297.74654      2.617892     
    326000   281.5095       2.6231046    
    326400   297.22967      2.6471681    
    326800   294.47366      2.6369225    
    327200   298.32464      2.6245015    
    327600   314.44658      2.6406697    
    328000   293.16146      2.6351541    
    328400   291.24247      2.6290215    
    328800   321.50744      2.6463298    
    329200   305.4167       2.6315444    
    329600   293.4112       2.6321884    
    330000   299.63063      2.6407053    
    330400   314.86925      2.6514502    
    330800   300.75131      2.6474238    
    331200   291.00437      2.637415     
    331600   306.77671      2.6296323    
    332000   288.21069      2.6497055    
    332400   297.80115      2.6574652    
    332800   311.45323      2.6322158    
    333200   285.25336      2.621625     
    333600   303.28813      2.6406512    
    334000   295.237        2.6271715    
    334400   294.05227      2.6098931    
    334800   292.57777      2.6373894    
    335200   286.8427       2.647456     
    335600   310.96682      2.6544714    
    336000   313.45107      2.6504125    
    336400   309.35315      2.648529     
    336800   291.98793      2.6268301    
    337200   299.21017      2.6277365    
    337600   276.16909      2.6157577    
    338000   280.42082      2.6088332    
    338400   310.70126      2.6334744    
    338800   305.20476      2.6233335    
    339200   295.33813      2.6456987    
    339600   292.27392      2.6114389    
    340000   299.41933      2.622024     
    340400   279.71064      2.6222636    
    340800   306.80182      2.6008885    
    341200   288.59137      2.610012     
    341600   284.20609      2.6330232    
    342000   277.25387      2.6111369    
    342400   287.56965      2.6088249    
    342800   297.29117      2.6207129    
    343200   289.93402      2.6153232    
    343600   296.06026      2.622452     
    344000   304.29542      2.6206784    
    344400   304.72915      2.6328043    
    344800   272.61998      2.6340954    
    345200   283.20386      2.6208516    
    345600   300.14271      2.6213305    
    346000   299.64364      2.6171784    
    346400   285.83004      2.6195788    
    346800   298.18933      2.642028     
    347200   300.25335      2.6500812    
    347600   292.50419      2.6396961    
    348000   315.30699      2.6173675    
    348400   283.55416      2.6118596    
    348800   302.81331      2.6320183    
    349200   318.67097      2.628714     
    349600   325.77239      2.6557338    
    350000   292.42154      2.6709997    
    350400   293.46485      2.6515994    
    350800   295.86876      2.6459444    
    351200   285.59581      2.6546903    
    351600   304.3092       2.6378205    
    352000   306.99014      2.6181777    
    352400   291.49136      2.6089308    
    352800   287.74019      2.602353     
    353200   279.73216      2.609162     
    353600   292.00709      2.6127019    
    354000   297.30959      2.6195521    
    354400   313.64782      2.6163917    
    354800   293.33199      2.6242343    
    355200   310.26772      2.6222509    
    355600   311.60136      2.621175     
    356000   306.69111      2.6134628    
    356400   299.11072      2.6148566    
    356800   295.78857      2.6306908    
    357200   293.37151      2.6157231    
    357600   288.06153      2.6330029    
    358000   310.63074      2.6333041    
    358400   302.70368      2.6185307    
    358800   304.22904      2.6299192    
    359200   293.66726      2.6338138    
    359600   316.88838      2.6050516    
    360000   304.93771      2.6137176    
    360400   301.66607      2.6165911    
    360800   316.49135      2.6173859    
    361200   293.85658      2.6211193    
    361600   286.05397      2.614232     
    362000   307.26845      2.626606     
    362400   293.24868      2.6275525    
    362800   296.5179       2.6114016    
    363200   283.89137      2.6176014    
    363600   279.16259      2.6216211    
    364000   293.15011      2.608612     
    364400   286.38898      2.6108732    
    364800   310.76426      2.6141544    
    365200   279.25905      2.6275247    
    365600   294.1233       2.6337261    
    366000   316.69111      2.6185322    
    366400   290.86812      2.6191677    
    366800   315.07085      2.6034746    
    367200   288.32887      2.6225387    
    367600   298.14671      2.6215042    
    368000   286.45441      2.6391076    
WARNING: System is not charge neutral, net charge = -1.000003e-05
For more information see https://docs.lammps.org/err0029 (src/kspace.cpp:329)
    368400   289.21253      2.6480356    
    368800   297.57621      2.6514119    
    369200   312.37209      2.6473573    
    369600   305.81137      2.6620085    
    370000   318.32078      2.6336557    
    370400   313.4634       2.6203969    
    370800   302.57239      2.6387722    
    371200   302.61702      2.6625188    
    371600   298.30529      2.6427402    
    372000   299.59308      2.6558439    
    372400   314.265        2.6596008    
    372800   293.87593      2.6509809    
    373200   305.02239      2.6535107    
    373600   314.29489      2.6568942    
    374000   317.59952      2.6560843    
    374400   289.69585      2.6559445    
    374800   298.47121      2.6529845    
    375200   308.27044      2.6498607    
    375600   291.86901      2.6545167    
    376000   279.85771      2.6558642    
    376400   309.87668      2.6393577    
    376800   286.82018      2.6401389    
    377200   302.67981      2.6274158    
    377600   301.57809      2.6186314    
    378000   288.72905      2.6432478    
    378400   290.5353       2.6494216    
    378800   303.11858      2.6497526    
    379200   281.3539       2.6401964    
    379600   304.81758      2.6316488    
    380000   297.18782      2.6197016    
    380400   293.07441      2.6236807    
    380800   286.12702      2.6234064    
    381200   291.4859       2.6335183    
    381600   307.83529      2.6325203    
    382000   296.10193      2.6327608    
    382400   291.6843       2.6399713    
    382800   297.24842      2.6433906    
    383200   299.86905      2.6589752    
    383600   314.64588      2.6563893    
    384000   306.09481      2.6638591    
    384400   281.85451      2.6254502    
    384800   290.31298      2.6525956    
    385200   296.58372      2.6465091    
    385600   285.4019       2.6662409    
    386000   317.8821       2.6576212    
    386400   299.60157      2.6582111    
    386800   285.6412       2.6403602    
    387200   278.29827      2.6546189    
    387600   294.70842      2.6709218    
    388000   287.89353      2.6524455    
    388400   306.8067       2.6385723    
    388800   305.15144      2.6538721    
    389200   306.11067      2.6570594    
    389600   297.03474      2.6542529    
    390000   278.102        2.647308     
    390400   315.72581      2.6441144    
    390800   287.19227      2.6394757    
    391200   289.09871      2.6582774    
    391600   320.85714      2.6565828    
    392000   302.32859      2.6449365    
    392400   309.31176      2.6485386    
    392800   302.34551      2.646467     
    393200   309.46625      2.6584364    
    393600   326.08354      2.6690603    
    394000   314.24703      2.6686442    
    394400   286.70042      2.6731237    
    394800   309.42895      2.6398108    
    395200   300.68856      2.620844     
    395600   294.93931      2.6216681    
    396000   276.03583      2.6226062    
    396400   275.58456      2.64175      
    396800   286.19794      2.6221559    
    397200   289.7313       2.6486195    
    397600   290.97502      2.6403288    
    398000   291.67527      2.6340956    
    398400   301.83502      2.6427762    
    398800   313.77422      2.6459132    
    399200   310.96254      2.6381833    
    399600   292.01977      2.6538089    
    400000   296.80091      2.6379074    
Loop time of 1550.63 on 16 procs for 400000 steps with 1024 atoms

Performance: 5.572 ns/day, 4.307 hours/ns, 257.960 timesteps/s, 264.151 katom-step/s
84.6% CPU use with 16 MPI tasks x 1 OpenMP threads

MPI task timing breakdown:
Section |  min time  |  avg time  |  max time  |%varavg| %total
---------------------------------------------------------------
Pair    | 289.5      | 303.01     | 314.59     |  35.3 | 19.54
Bond    | 0.019804   | 0.023116   | 0.028138   |   1.4 |  0.00
Kspace  | 277.15     | 288.95     | 302.35     |  35.7 | 18.63
Neigh   | 6.1386     | 6.3613     | 6.5714     |   5.0 |  0.41
Comm    | 98.244     | 99.058     | 99.799     |   4.5 |  6.39
Output  | 0.15033    | 0.15218    | 0.15792    |   0.5 |  0.01
Modify  | 841.82     | 842.41     | 843.07     |   1.2 | 54.33
Other   |            | 10.66      |            |       |  0.69

Nlocal:             64 ave          78 max          49 min
Histogram: 1 0 1 2 3 5 2 1 0 1
Nghost:        4370.44 ave        4416 max        4305 min
Histogram: 1 0 2 3 0 2 3 0 1 4
Neighs:        30950.4 ave       37938 max       23723 min
Histogram: 1 0 1 2 3 5 3 0 0 1
FullNghs:      61900.9 ave       75118 max       47412 min
Histogram: 1 0 1 1 4 5 2 1 0 1

Total # of neighbors = 990414
Ave neighs/atom = 967.20117
Ave special neighs/atom = 1.5
Neighbor list builds = 3799
Dangerous builds = 0
print           "PORT_DONE" file done.txt screen no
Total wall time: 0:31:04
