LAMMPS (4 Jul 2026 - Development - patch_4Jul2026-542-g4e5eb25ab6-modified)
  using 1 OpenMP thread(s) per MPI task
# 13,216-atom Cu/ZnCl2(aq) cell in the conductor mode with MOBILE copper electrodes. As in.cucell_conductor (each electrode
# one fragment with the Gaussian self-energy, width 0.5 A; no ridge), but Cu-Cu is the Mendelev Cu2 (2012) EAM/FS potential
# (real-units conversion of ~/ff/EAM/Mendelev_Cu2_2012.eam.fs), the copper is integrated and thermostatted with the
# electrolyte instead of held fixed, and the Zn2+ ions leave the metal potential: Zn2+-Cu short range is an
# illustrative Lennard-Jones term taken equal to the Li+-Cu one (similar ionic radii), not a fitted potential.
# Benchmark deck for proc-grid optimization: reads data.cell_L0, steady 300 K, short run.
# Same physics/cost as the production relax/equil (FQ solve + rexpon + EAM + SHAKE), with the load
# balance the inhomogeneous slab+vacuum cell needs.  Reports Loop time / Performance (timesteps/s).
#   run: srun ... lmp_cpu -in in.cucell_bench -var NB 500 [-var GRID "* * 1"]
variable        NB     index 500
variable        RIDGE  index 69.1815
units           real
atom_style      full
boundary        p p p
comm_style      tiled                     # slab+vacuum -> RCB load balance
if "${GRID} != none" then "processors ${GRID}"
special_bonds   lj/coul 1.0e-8 1.0e-8 1.0
read_data       data.cell_L0_conductor.data extra/special/per/atom 2
Reading data file ...
  orthogonal box = (0 0 0) to (36.15 36.15 158.344)
  2 by 2 by 16 MPI processor grid
  reading atoms ...
  13216 atoms
  scanning bonds ...
  2 = max bonds/atom
  scanning angles ...
  1 = max angles/atom
  orthogonal box = (0 0 0) to (36.15 36.15 158.344)
  2 by 2 by 16 MPI processor grid
  reading bonds ...
  7600 bonds
  reading angles ...
  3800 angles
Finding 1-2 1-3 1-4 neighbors ...
  special bond factors lj:    1e-08    1e-08    1       
  special bond factors coul:  1e-08    1e-08    1       
     2 = max # of 1-2 neighbors
     1 = max # of 1-3 neighbors
     4 = max # of special neighbors
  special bonds CPU = 0.004 seconds
  read_data CPU = 0.089 seconds

group           water  type 1 2
11400 atoms in group water
group           watO   type 1
3800 atoms in group watO
group           zn     type 3
72 atoms in group zn
group           cl     type 4
144 atoms in group cl
group           li     type 6
0 atoms in group li
group           metal  type 7
1600 atoms in group metal
group           ions   type 3 4 6
216 atoms in group ions
group           mobile type 1 2 3 4 6 7
13216 atoms in group mobile
group           FQ     type 1 2 3 5 7
13072 atoms in group FQ
set             type 1 charge -0.9
Setting atom values ...
  3800 settings made for charge
set             type 2 charge 0.45
Setting atom values ...
  7600 settings made for charge
set             group zn charge 2.0
Setting atom values ...
  72 settings made for charge
set             group cl charge -1.0
Setting atom values ...
  144 settings made for charge
set             group metal charge 0.0
Setting atom values ...
  1600 settings made for charge

pair_style      hybrid/overlay rexpon NULL lgvdw yes coulomb_off yes checkqeq no safezone 3.0 mincap 200 lj/cut 10.0 coul/long 10.0 coul/shield/intra 5.0 all gaussian eam/fs
pair_coeff      * * rexpon ffield.RexPoN Ow Hw NULL NULL NULL NULL NULL
pair_coeff      * * coul/long
pair_coeff      * * coul/shield/intra 0.5
pair_coeff      * * lj/cut 0.0 1.0
pair_coeff      * * eam/fs Mendelev_Cu2_2012.eam.fs.real NULL NULL NULL NULL NULL NULL Cu
pair_coeff      3 7 lj/cut 0.10    1.80
pair_coeff      1 3 lj/cut 2.30605 2.01
pair_coeff      1 4 lj/cut 1.15    3.20
pair_coeff      1 6 lj/cut 0.30    2.05
pair_coeff      1 5 lj/cut 0.9224  1.853
pair_coeff      2 5 lj/cut 0.4612  2.0
pair_coeff      3 4 lj/cut 15.0    2.04
pair_coeff      4 4 lj/cut 0.0128  4.478
pair_coeff      4 6 lj/cut 0.0655  2.944
pair_coeff      6 6 lj/cut 0.335   1.409
pair_coeff      3 6 lj/cut 0.10    2.00
pair_coeff      4 5 lj/cut 0.10    2.60
pair_coeff      5 6 lj/cut 0.10    1.80
pair_coeff      1 7 lj/cut 1.153   1.83
pair_coeff      2 7 lj/cut 0.4612  2.0
pair_coeff      4 7 lj/cut 0.10    2.60
pair_coeff      6 7 lj/cut 0.10    1.80

bond_style      harmonic
angle_style     harmonic
bond_coeff      1 0.0 0.9572
angle_coeff     1 0.0 104.52
kspace_style    pppm/samqeq 1.0e-5
kspace_modify   gewald 0.30
Updated KSpace settings:
  KSpace computation is turned:    ON
  Use MPI collective operations:   OFF
  Use MPI non-blocking operations: OFF
  Gewald manually set to:          0.3
neighbor        2.0 bin
neigh_modify    every 2 delay 4 check yes one 10000
fix             shk all shake 1.0e-4 50 0 b 1 a 1
Finding SHAKE clusters ...
       0 = # of size 2 clusters
       0 = # of size 3 clusters
       0 = # of size 4 clusters
    3800 = # of frozen angles
  find clusters CPU = 0.002 seconds

fix             chg FQ qeq/sam 1 0.0 8.0 1.0e-5 cucell.param
fix_modify      chg shield gaussian
samqeq: lr-solve shielding = PQEq Gaussian erf(a_ij r)/r (param 4th col = Rc (Gaussian radius)); routed through compute_H + add_fixed_charge_field + the legacy gas path (calc_Hval)
fix_modify      chg quartic watO 115.30 0.0 8 0.5
samqeq: QUARTIC near-crit cure ON (group watO c4=115.3 c=0 niter=8 mix=0.50 fld0=0 qref=0); c4 term centered on q; damped-Picard SCF, q-only (no force term)
fix_modify      chg gself on width 0.5 types 7
samqeq: gself RESTRICTED to type(s) 7 -- the self-energy is a lattice regulariser (metal sites, where eta is a bulk TF quantity with no width in it) and a DOUBLE COUNT on molecular sites, whose eta was fit to the IP/EA of a finite-width atom
samqeq: gself ON -- finite-width charge self-energy K_e*sqrt(2a/pi) ADDED to the on-site diagonal (width 0.500 A for the listed type(s) only); folded into eta from eta0 at init()
fix_modify      chg energy yes
fix_modify      chg aspc 2 3
samqeq: ASPC q-direct predictor-corrector ON (order k=3, n_corr=2, omega=0.5556, rtol=0.01); fixed-iteration corrector off a time-reversible predictor, accept only if rel-resid<rtol else BO (BO<->XL middle ground, #16)

compute         Tw water temp
thermo          100
balance         1.0 rcb
Balancing ...
PPPM initialization ...
  using 12-bit tables for long-range coulomb
  G vector (1/distance) = 0.3
  grid = 36 36 100
  stencil order = 5
  estimated absolute RMS force accuracy = 0.0032614861
  estimated relative force accuracy = 9.8218686e-06
  using double precision FFTW3
  3d grid and FFT values/proc = 8125 2268
samqeq: E_self = sum(chi q + 1/2 eta qs^2) INCLUDED in pe/etotal (fix_modify chg energy yes; eselfref qs = q - q0 - redox_dp) -- pe + E_self is the energy the forces integrate
samqeq: gself on-site self-energy per type (eV/e^2, added to eta; 0.000 = excluded): 1:0.000 2:0.000 3:0.000 4:0.000 5:0.000 6:0.000 7:16.248
WARNING: Fix qeq/sam group is not charge neutral, net charge = 144
For more information see https://docs.lammps.org/err0029 (src/SAMQEQ/fix_qeq_base_sam.cpp:473)
WARNING: samqeq: 144 fixed charged atom(s) lie outside the charge-solve group; their shielded field is coupled into the QEq right-hand side (ionfield ON by default). This supplies the ions' electrostatic field only -- necessary but NOT sufficient (~56% of the QM dipole response at contact; zncl2 RESULTS_R6_P0 s13-14). `fix_modify chg ionfield off` restores the ion-blind solve. (src/SAMQEQ/fix_qeq_sam.cpp:1179)
Neighbor list info ...
  update: every = 2 steps, delay = 4 steps, check = yes
  max neighbors/atom: 10000, page size: 100000
  master list distance cutoff = 14
  ghost atom cutoff = 14
  binsize = 7, bins = 6 6 23
  8 neighbor lists, perpetual/occasional/extra = 8 0 0
  (1) pair rexpon, perpetual, skip from (8)
      attributes: half, newton off, ghost
      pair build: skip/ghost
      stencil: none
      bin: none
  (2) pair lj/cut, perpetual, trim from (3)
      attributes: half, newton on, cut 12
      pair build: trim
      stencil: none
      bin: none
  (3) pair coul/long, perpetual, half/full trim from (7)
      attributes: half, newton on, cut 12
      pair build: halffull/trim/newton
      stencil: none
      bin: none
  (4) pair coul/shield/intra, perpetual, half/full from (7)
      attributes: half, newton on
      pair build: halffull/newton
      stencil: none
      bin: none
  (5) pair eam/fs, perpetual, skip from (4)
      attributes: half, newton on
      pair build: skip
      stencil: none
      bin: none
  (6) fix qeq/sam, perpetual, half/full from (7)
      attributes: half, newton off
      pair build: halffull/newtoff
      stencil: none
      bin: none
  (7) fix qeq/sam, perpetual
      attributes: full, newton on
      pair build: full/bin
      stencil: full/bin/3d
      bin: standard
  (8) neighbor class addition, perpetual
      attributes: half, newton off, ghost
      pair build: half/bin/ghost/newtoff
      stencil: full/ghost/bin/3d
      bin: standard
 rebalancing time: 0.020 seconds
  iteration count = 0
  initial/final maximal load/proc = 339 208
  initial/final imbalance factor  = 1.6416465 1.0072639
fix             bal all balance 1000 1.05 rcb

velocity        mobile create 300.0 12345 mom yes rot yes dist gaussian loop geom
fix             intg mobile nve/limit 0.1
fix             lgv  mobile langevin 300.0 300.0 100.0 12345
fix             zmom mobile momentum 100 linear 0 0 1
timestep        0.25
group           elA  molecule 90001
800 atoms in group elA
group           elB  molecule 90002
800 atoms in group elB
compute         qA elA property/atom q
compute         qB elB property/atom q
compute         sA elA reduce sum c_qA
compute         sB elB reduce sum c_qB
variable        aqM atom abs(q)
compute         mxM metal reduce max v_aqM
compute         TM metal temp
compute         msdM metal msd
thermo_style    custom step pe c_Tw c_TM c_msdM[4] c_sA c_sB c_mxM
run             ${NB}
run             500

CITE-CITE-CITE-CITE-CITE-CITE-CITE-CITE-CITE-CITE-CITE-CITE-CITE

Your simulation uses code contributions which should be cited:

- pair rexpon command:

@Article{Naserifar,
 author = {S. Naserifar, W. A. Goddard III},
 title = {},
 journal = {},
 year =    2018,
 volume =  ,
 pages =   {--}
}

- fix acks2/reaxff command: https://doi.org/10.1137/18M1224684

@Article{O'Hearn2020,
 author = {K. A. {O'Hearn} and A. Alperen and H. M. Aktulga},
 title = {Fast Solvers for Charge Distribution Models on Shared Memory Platforms},
 journal = {SIAM J.\ Sci.\ Comput.},
 year =    2020,
 volume =  42,
 number =  1,
 pages =   {1--22}
}

CITE-CITE-CITE-CITE-CITE-CITE-CITE-CITE-CITE-CITE-CITE-CITE-CITE

PPPM initialization ...
  using 12-bit tables for long-range coulomb
  G vector (1/distance) = 0.3
  grid = 36 36 100
  stencil order = 5
  estimated absolute RMS force accuracy = 0.0032614861
  estimated relative force accuracy = 9.8218686e-06
  using double precision FFTW3
  3d grid and FFT values/proc = 12800 4050
samqeq: E_self = sum(chi q + 1/2 eta qs^2) INCLUDED in pe/etotal (fix_modify chg energy yes; eselfref qs = q - q0 - redox_dp) -- pe + E_self is the energy the forces integrate
samqeq: gself on-site self-energy per type (eV/e^2, added to eta; 0.000 = excluded): 1:0.000 2:0.000 3:0.000 4:0.000 5:0.000 6:0.000 7:16.248
WARNING: Fix qeq/sam group is not charge neutral, net charge = 144
For more information see https://docs.lammps.org/err0029 (src/SAMQEQ/fix_qeq_base_sam.cpp:473)
WARNING: samqeq: 144 fixed charged atom(s) lie outside the charge-solve group; their shielded field is coupled into the QEq right-hand side (ionfield ON by default). This supplies the ions' electrostatic field only -- necessary but NOT sufficient (~56% of the QM dipole response at contact; zncl2 RESULTS_R6_P0 s13-14). `fix_modify chg ionfield off` restores the ion-blind solve. (src/SAMQEQ/fix_qeq_sam.cpp:1179)
WARNING: Should not use fix nve/limit with fix shake or fix rattle (src/fix_nve_limit.cpp:76)
samqeq: recip_self ACTIVE at run start (step 0): not yet calibrated -- measured at the first solve by the K=16 deterministic-probe route
samqeq: recip_self: probe tag 1 has no partner within the G2 window [0.1, 2.510] A -- the default K=16 probe calibration falls back to the legacy single pair for this group (set `fix_modify chg recip_probes 16` explicitly to make this an error)
samqeq: recip_self legacy pair = tags 1 (lowest in group) / 2 (nearest, min-image)
samqeq: calibrated grid reciprocal self-term recip_self=0.33819 (raw) = 4.8699 eV/e (subtracted so the QEq diagonal stays = eta)
samqeq SOLVER-DIAG step 0: CG 24 iters (=24 matvecs), resid/b=9.72e-07
samqeq SOLVER-DIAG step 0: CG 23 iters (=23 matvecs), resid/b=2.07e-06
samqeq SOLVER-DIAG step 0: CG 23 iters (=23 matvecs), resid/b=2.05e-06
samqeq SOLVER-DIAG step 0: CG 23 iters (=23 matvecs), resid/b=2.04e-06
samqeq SOLVER-DIAG step 0: CG 23 iters (=23 matvecs), resid/b=2.03e-06
samqeq SOLVER-DIAG step 0: CG 23 iters (=23 matvecs), resid/b=2.03e-06
samqeq SOLVER-DIAG step 0: CG 23 iters (=23 matvecs), resid/b=2.03e-06
samqeq SOLVER-DIAG step 0: CG 23 iters (=23 matvecs), resid/b=2.03e-06
WARNING: samqeq: quartic Picard SCF did not converge in 8 iterations (dq=8.993e-04) at step 0 [1 so far] (src/SAMQEQ/fix_qeq_sam_lr.cpp:416)
samqeq QUARTIC-SCF step 0: 8 Picard iters, 185 matvecs (c4=115.3 c=0) [full]
Per MPI rank memory allocation (min/avg/max) = 221 | 306.2 | 346.3 Mbytes
   Step         PotEng          c_Tw           c_TM        c_msdM[4]         c_sA           c_sB          c_mxM     
         0  -1278596.8      320.42666      217.38567      0             -4.4408921e-15 -1.1324275e-14  0.11336564   
WARNING: samqeq: quartic Picard SCF did not converge in 8 iterations (dq=2.716e-04) at step 1 [2 so far] (src/SAMQEQ/fix_qeq_sam_lr.cpp:416)
WARNING: samqeq: quartic Picard SCF did not converge in 8 iterations (dq=1.920e-05) at step 2 [3 so far] (src/SAMQEQ/fix_qeq_sam_lr.cpp:416)
WARNING: samqeq: quartic Picard SCF did not converge in 8 iterations (dq=2.737e-05) at step 3 [4 so far] (src/SAMQEQ/fix_qeq_sam_lr.cpp:416)
WARNING: samqeq: quartic Picard SCF did not converge in 8 iterations (dq=3.258e-05) at step 4 [5 so far] (src/SAMQEQ/fix_qeq_sam_lr.cpp:416)
       100  -1306914.1      287.4062       183.0612       0.0045934944   4.4408921e-16  2.220446e-16   0.10341231   
WARNING: samqeq ASPC: the capped corrector (n_corr=2) has been above `tolerance` on 100 consecutive accepted steps (last resid/b 5.98e-04): the committed charge keeps (1-omega)=0.44 of the predictor error whatever n_corr is, so this is a property of the predictor (how smoothly q(t) moves -- e.g. `etaloc diagonal on`), not of the corrector. If Born-Oppenheimer accuracy is required use `aspc off` (~3.5x the matvecs). Warned once. (src/SAMQEQ/fix_qeq_sam_lr.cpp:2845)
samqeq SOLVER-DIAG step 200: CG 2 iters (=2 matvecs), resid/b=1.00e-04, ASPC acc/rej=190/1
samqeq ASPC-DIAG step 200: resid/b corrector=1.00e-04 committed=6.81e-05 (omega=0.5556); accepted steps above tolerance 190/190
       200  -1306779.9      304.57095      149.83486      0.012117006    1.110223e-16  -1.110223e-16   0.098326876  
       300  -1306989.4      317.17377      202.96198      0.016111217    0             -7.2164497e-16  0.098643707  
samqeq SOLVER-DIAG step 400: CG 2 iters (=2 matvecs), resid/b=1.35e-04, ASPC acc/rej=390/1
samqeq ASPC-DIAG step 400: resid/b corrector=1.35e-04 committed=1.08e-04 (omega=0.5556); accepted steps above tolerance 390/390
       400  -1307174.3      319.52756      230.33021      0.01841027    -2.7755576e-16  2.7755576e-16  0.085615687  
       500  -1307317.6      319.69177      243.57159      0.020623126   -1.110223e-16   4.4408921e-16  0.09203725   
Loop time of 30.5287 on 64 procs for 500 steps with 13216 atoms

Performance: 0.354 ns/day, 67.841 hours/ns, 16.378 timesteps/s, 216.452 katom-step/s
95.0% CPU use with 64 MPI tasks x 1 OpenMP threads

MPI task timing breakdown:
Section |  min time  |  avg time  |  max time  |%varavg| %total
---------------------------------------------------------------
Pair    | 19.749     | 19.795     | 19.888     |   1.1 | 64.84
Bond    | 0.00030944 | 0.00043907 | 0.00067685 |   0.0 |  0.00
Kspace  | 0.99126    | 1.0628     | 1.1121     |   2.7 |  3.48
Neigh   | 1.2379     | 1.2405     | 1.2439     |   0.1 |  4.06
Comm    | 0.27658    | 0.35716    | 0.40938    |   5.8 |  1.17
Output  | 0.00070322 | 0.00071863 | 0.00073853 |   0.0 |  0.00
Modify  | 8.0241     | 8.0409     | 8.0668     |   0.3 | 26.34
Other   |            | 0.03092    |            |       |  0.10

Nlocal:          206.5 ave         219 max         194 min
Histogram: 2 0 10 5 17 12 8 3 3 4
Nghost:        5950.77 ave        6721 max        4229 min
Histogram: 16 0 0 0 0 0 0 3 14 31
Neighs:        67815.6 ave       76709 max       41710 min
Histogram: 8 0 0 0 0 0 2 12 29 13
FullNghs:       202467 ave      238393 max      130335 min
Histogram: 14 2 0 0 0 0 0 5 26 17

Total # of neighbors = 12957878
Ave neighs/atom = 980.46898
Ave special neighs/atom = 1.7251816
Neighbor list builds = 20
Dangerous builds = 0
write_dump      metal custom metal_q.dump id mol z q modify sort id
Total wall time: 0:00:31
