ITEM: TIMESTEP
500
ITEM: NUMBER OF ATOMS
1600
ITEM: BOX BOUNDS pp pp pp
0.0000000000000000e+00 3.6149999999999999e+01
0.0000000000000000e+00 3.6149999999999999e+01
0.0000000000000000e+00 1.5834399999999999e+02
ITEM: ATOMS id mol z q
1 90001 25.9531 -0.000883801
2 90001 26.089 -0.000879364
3 90001 27.7988 0.000125498
4 90001 27.7803 -8.8512e-05
5 90001 29.7242 -0.00109551
6 90001 29.6013 0.00209798
7 90001 31.6157 -0.0155352
8 90001 31.4349 0.00110068
9 90001 26.1167 -0.000898453
10 90001 26.1106 -0.00104711
11 90001 27.9532 0.000528386
12 90001 27.7118 -5.01049e-05
13 90001 29.7529 -0.00200246
14 90001 29.7138 -0.00120695
15 90001 31.4007 -0.0174193
16 90001 31.5439 0.00419655
17 90001 26.2115 -0.000627793
18 90001 26.0403 -0.00092249
19 90001 27.8089 -0.000501739
20 90001 27.7902 -0.000208252
21 90001 29.7512 -0.000804829
22 90001 29.6758 0.0025877
23 90001 31.4885 0.0362679
24 90001 31.4955 -0.00437993
25 90001 26.1109 -0.00125532
26 90001 26.0673 -0.000861022
27 90001 27.7521 -0.000132774
28 90001 27.8476 -1.85437e-05
29 90001 29.5251 0.00263983
30 90001 29.5258 -0.00102914
31 90001 31.3159 0.0095535
32 90001 31.3992 0.0350033
33 90001 25.8748 -0.000760766
34 90001 25.9134 -0.00103514
35 90001 27.8988 -0.000442206
36 90001 27.9274 -7.10691e-05
37 90001 29.6466 -0.000671088
38 90001 29.7939 0.000504637
39 90001 31.4832 0.0119821
40 90001 31.5026 0.000113746
41 90001 26.0765 -0.000472709
42 90001 26.06 -0.000823949
43 90001 27.8223 0.000332822
44 90001 27.7774 0.000221317
45 90001 29.6686 -0.00146958
46 90001 29.7494 -0.000460954
47 90001 31.4605 -0.00756104
48 90001 31.6268 0.00260219
49 90001 25.9841 -0.000437525
50 90001 25.7381 -0.000780551
51 90001 27.8217 6.75239e-05
52 90001 27.7643 -0.000113911
53 90001 29.6692 -0.000193298
54 90001 29.5919 -0.00106011
55 90001 31.3193 -0.0111714
56 90001 31.5944 -0.00543398
57 90001 25.9978 -0.000771821
58 90001 25.9026 -0.000881331
59 90001 27.8074 -4.35303e-06
60 90001 27.6085 -7.06662e-05
61 90001 29.5222 -2.93299e-05
62 90001 29.6526 0.00210012
63 90001 31.282 0.0151793
64 90001 31.5036 0.00508897
65 90001 26.1389 -0.000658375
66 90001 26.1296 -0.000676395
67 90001 27.8405 8.02226e-05
68 90001 27.8902 -7.8384e-05
69 90001 29.6761 0.000178067
70 90001 29.5626 -0.00139686
71 90001 31.3483 -0.00730473
72 90001 31.4649 0.0192341
73 90001 25.8672 -0.00048217
74 90001 25.9067 -0.00108997
75 90001 27.7191 0.000206417
76 90001 27.7319 0.000262065
77 90001 29.5898 -1.12482e-05
78 90001 29.6566 -0.000996551
79 90001 31.7049 -0.0155161
80 90001 31.4684 0.00788836
81 90001 25.9565 -0.000812599
82 90001 25.9311 -0.000553401
83 90001 27.8091 -0.000332771
84 90001 27.7641 -0.000185455
85 90001 29.6147 -9.26095e-05
86 90001 29.6127 -0.000439055
87 90001 31.3871 0.0215592
88 90001 31.479 -0.0297602
89 90001 26.0216 -0.000845283
90 90001 26.0114 -0.00080549
91 90001 27.7878 0.000156453
92 90001 27.8055 -0.000481813
93 90001 29.5452 0.000853255
94 90001 29.5836 -1.57572e-05
95 90001 31.4235 0.00592789
96 90001 31.4139 -0.00648943
97 90001 26.2257 -0.000432079
98 90001 26.185 -0.00106292
99 90001 27.8362 8.63521e-05
100 90001 27.8116 0.000149518
101 90001 29.5775 -0.00223765
102 90001 29.57 0.000713222
103 90001 31.395 0.0466077
104 90001 31.3826 -0.00203306
105 90001 25.8653 -0.00109237
106 90001 25.9293 -0.000665676
107 90001 27.8107 0.000151016
108 90001 27.859 -0.000320026
109 90001 29.6943 0.00944126
110 90001 29.7492 0.00282058
111 90001 31.5926 0.0340703
112 90001 31.3352 0.024737
113 90001 25.9837 -0.000522074
114 90001 25.9568 -0.000770057
115 90001 27.8191 -0.000294204
116 90001 27.7505 -0.000362897
117 90001 29.7436 -0.000103701
118 90001 29.595 -0.00043527
119 90001 31.4791 -0.00826082
120 90001 31.4742 0.0112872
121 90001 26.0274 -0.000917746
122 90001 26.0436 -0.000563135
123 90001 27.775 -0.000211035
124 90001 27.8078 -0.000409047
125 90001 29.7098 -0.00198691
126 90001 29.8021 -0.000397607
127 90001 31.545 -0.00596723
128 90001 31.3776 0.0113473
129 90001 25.9948 -0.000846148
130 90001 26.0021 -0.000665542
131 90001 27.7211 0.000143755
132 90001 27.9683 -0.000272928
133 90001 29.5848 7.85947e-05
134 90001 29.5538 0.0014642
135 90001 31.4894 0.0134089
136 90001 31.2184 0.0114435
137 90001 25.8831 -0.000920327
138 90001 26.0234 -0.000584718
139 90001 27.7968 -0.000178166
140 90001 27.7586 -3.06531e-05
141 90001 29.5798 0.000670846
142 90001 29.5473 -0.000166747
143 90001 31.4001 0.0124975
144 90001 31.4158 0.0119765
145 90001 26.0684 -0.000232963
146 90001 25.8734 -0.000772242
147 90001 27.8816 0.000168025
148 90001 27.8019 -0.000350868
149 90001 29.5244 -0.00116692
150 90001 29.4918 0.00123349
151 90001 31.4681 0.0400392
152 90001 31.3467 0.00903259
153 90001 26.0752 -0.000481912
154 90001 25.8991 -0.000728674
155 90001 27.8056 0.000422464
156 90001 27.7669 4.40812e-05
157 90001 29.5715 -0.000607513
158 90001 29.6762 -0.00874337
159 90001 31.455 -0.0187199
160 90001 31.349 -0.0148532
161 90001 25.9537 -0.000880143
162 90001 25.9373 -0.000491984
163 90001 27.7285 3.60138e-05
164 90001 27.8544 -1.61209e-06
165 90001 29.5653 -0.00022378
166 90001 29.4777 0.000478446
167 90001 31.5285 -0.0174836
168 90001 31.2251 0.00274777
169 90001 26.0224 -0.000274491
170 90001 26.0774 -0.000645311
171 90001 27.757 9.28323e-05
172 90001 27.7528 0.000495881
173 90001 29.7255 -0.00325569
174 90001 29.5181 -0.000615611
175 90001 31.5236 -0.0136113
176 90001 31.3746 -0.0259696
177 90001 26.0467 -0.0010101
178 90001 26.1543 -0.000833924
179 90001 27.8328 0.000326321
180 90001 27.8415 0.000377343
181 90001 29.5248 7.43884e-05
182 90001 29.6207 -0.000965544
183 90001 31.4729 -0.00815467
184 90001 31.3319 -0.0308247
185 90001 26.0199 -0.000953865
186 90001 26.0209 -0.000892512
187 90001 27.8153 0.000181258
188 90001 27.8529 0.000183911
189 90001 29.5375 9.06153e-06
190 90001 29.6775 8.88114e-05
191 90001 31.3501 0.00274986
192 90001 31.4403 -0.0160566
193 90001 26.1574 -0.000747113
194 90001 26.1167 -0.000292584
195 90001 27.7972 -0.00013978
196 90001 27.8417 1.50907e-05
197 90001 29.6939 -2.14048e-05
198 90001 29.6056 -0.000703165
199 90001 31.4856 0.00803224
200 90001 31.6176 -0.0176535
201 90001 26.1655 -0.000431047
202 90001 25.9547 -0.000554744
203 90001 27.8642 -0.000601788
204 90001 27.8314 -0.000554906
205 90001 29.5499 0.000552755
206 90001 29.7935 0.00176575
207 90001 31.4195 0.00674922
208 90001 31.4778 0.0209399
209 90001 26.0089 -0.000309931
210 90001 26.0615 -0.000279941
211 90001 27.7977 -0.00021192
212 90001 27.8124 -0.000887703
213 90001 29.6065 0.000248764
214 90001 29.5383 -0.000108722
215 90001 31.1753 0.00560752
216 90001 31.4655 0.00481122
217 90001 26.1112 -0.000493249
218 90001 25.9518 -0.000830142
219 90001 27.6776 -8.25848e-05
220 90001 27.8358 3.54242e-05
221 90001 29.6857 4.70729e-06
222 90001 29.6848 -8.65545e-06
223 90001 31.2693 0.00580523
224 90001 31.5482 -0.00428325
225 90001 25.9606 -0.000621466
226 90001 26.0133 -0.000645476
227 90001 27.7557 -0.000295194
228 90001 27.7602 0.000321505
229 90001 29.5803 0.0025767
230 90001 29.5348 0.00144415
231 90001 31.4675 0.0194896
232 90001 31.4601 0.0229699
233 90001 25.838 -0.000814726
234 90001 26.1451 -0.000374897
235 90001 27.6786 0.000469871
236 90001 27.8991 0.000308175
237 90001 29.5872 -0.00182708
238 90001 29.5287 7.15774e-05
239 90001 31.4445 -0.0151308
240 90001 31.5021 0.00412038
241 90001 25.9893 -0.000779642
242 90001 26.0633 -0.000545043
243 90001 27.8619 8.06314e-05
244 90001 27.7299 -0.000442013
245 90001 29.4592 0.000443539
246 90001 29.5372 -0.000161921
247 90001 31.4845 -0.00669506
248 90001 31.4156 -0.00450047
249 90001 25.8995 -0.000792418
250 90001 25.9869 -0.00066658
251 90001 27.8068 8.415e-05
252 90001 27.8612 0.000134539
253 90001 29.6289 0.000295742
254 90001 29.6757 -0.000319882
255 90001 31.4282 -0.0434775
256 90001 31.4258 -0.0163991
257 90001 26.0548 -0.000606263
258 90001 25.8583 -0.000846906
259 90001 27.8571 0.000773323
260 90001 27.847 0.000673915
261 90001 29.4167 -0.0010393
262 90001 29.6358 -0.000823483
263 90001 31.2342 -0.0264039
264 90001 31.3519 -0.0432934
265 90001 25.9539 -0.000923486
266 90001 26.1217 -0.00036422
267 90001 27.8478 -0.000163861
268 90001 27.7587 3.67293e-05
269 90001 29.6889 -0.00077362
270 90001 29.5545 -7.46739e-05
271 90001 31.4342 -0.0128886
272 90001 31.3358 -0.0230306
273 90001 26.0909 -0.000562416
274 90001 25.8088 -0.00122597
275 90001 27.869 0.000232254
276 90001 27.7552 -8.41757e-05
277 90001 29.6475 -0.00102349
278 90001 29.7292 -0.00122167
279 90001 31.4132 -0.00719975
280 90001 31.354 -0.0110716
281 90001 26.0352 -0.000700141
282 90001 26.0548 -0.000701812
283 90001 27.8678 -0.000370837
284 90001 27.8176 0.00030671
285 90001 29.6801 0.00137247
286 90001 29.7577 -0.00122561
287 90001 31.4069 0.0147735
288 90001 31.5959 -0.00744851
289 90001 25.9495 -0.000400988
290 90001 25.953 -0.000805005
291 90001 27.7815 -0.000155434
292 90001 27.7569 -7.94642e-05
293 90001 29.6164 0.00052919
294 90001 29.6363 0.000293262
295 90001 31.2924 -0.00131344
296 90001 31.5099 0.00312316
297 90001 26.0516 -0.000303839
298 90001 25.9313 -0.000942305
299 90001 27.8194 0.000257162
300 90001 27.727 -0.000265651
301 90001 29.5952 -0.000250463
302 90001 29.4744 -0.000312881
303 90001 31.3709 -0.0158737
304 90001 31.4059 0.0128738
305 90001 25.9802 -0.00102785
306 90001 25.9925 -0.000688562
307 90001 27.7748 0.000558224
308 90001 27.7332 0.000285202
309 90001 29.6227 -0.00542345
310 90001 29.6183 -0.00391591
311 90001 31.2438 -0.0230149
312 90001 31.4897 -0.0269392
313 90001 26.1099 -0.000569905
314 90001 25.933 -0.000825984
315 90001 27.8444 -0.000300173
316 90001 27.8394 0.00025426
317 90001 29.5181 -0.000263304
318 90001 29.6879 0.000266654
319 90001 31.3685 -0.00169576
320 90001 31.4285 -0.00338895
321 90001 26.0776 -0.000485445
322 90001 25.9639 -0.000572469
323 90001 27.8564 -0.000286558
324 90001 27.8005 -0.000420967
325 90001 29.6983 -0.00737933
326 90001 29.608 -0.00184685
327 90001 31.5124 -0.0236766
328 90001 31.4237 -0.025383
329 90001 25.8862 -0.00083797
330 90001 26.025 -0.000397105
331 90001 27.7522 2.64167e-05
332 90001 27.8877 7.40834e-05
333 90001 29.7034 -0.00180742
334 90001 29.8003 -0.00670926
335 90001 31.5012 -0.0591266
336 90001 31.3763 -0.0483021
337 90001 26.0092 -0.000120004
338 90001 25.8865 -0.000854959
339 90001 27.6745 0.000559527
340 90001 27.8541 0.000228711
341 90001 29.7193 -0.00372501
342 90001 29.6386 -0.000592548
343 90001 31.5202 -0.0504489
344 90001 31.5603 -0.0632845
345 90001 25.8548 -0.000789511
346 90001 25.9678 -0.000560177
347 90001 27.6618 -0.000140402
348 90001 27.7349 0.000371967
349 90001 29.5532 0.000491222
350 90001 29.5134 -0.000599322
351 90001 31.245 -0.0137669
352 90001 31.4126 -0.0490223
353 90001 25.8783 -0.000611673
354 90001 25.948 -0.0012105
355 90001 27.7782 0.000703543
356 90001 27.6693 -0.000424703
357 90001 29.5825 0.000289564
358 90001 29.669 6.86706e-05
359 90001 31.5755 0.00141777
360 90001 31.4341 -0.00467166
361 90001 26.1737 -0.000781997
362 90001 26.028 -0.000290169
363 90001 27.934 0.000348147
364 90001 27.7322 -4.23225e-05
365 90001 29.7243 -0.0105297
366 90001 29.6365 -0.00280839
367 90001 31.4154 -0.0399381
368 90001 31.4358 -0.0232715
369 90001 26.1179 -0.000342203
370 90001 26.1478 -0.000877426
371 90001 27.7988 -0.000232664
372 90001 27.9172 -0.000313041
373 90001 29.6632 -9.42367e-05
374 90001 29.5831 0.000894845
375 90001 31.3892 0.0497224
376 90001 31.4172 -0.000138489
377 90001 26.1478 -0.00105361
378 90001 26.1244 -0.000232527
379 90001 27.799 -0.000355238
380 90001 27.9537 -0.000121019
381 90001 29.4622 0.000686052
382 90001 29.5553 -0.000542238
383 90001 31.2984 0.01357
384 90001 31.4012 0.0249177
385 90001 25.9014 -0.000574418
386 90001 25.9284 -0.000931274
387 90001 27.7588 -2.53351e-05
388 90001 27.7881 -0.000511707
389 90001 29.6783 -0.000120177
390 90001 29.7223 0.000149218
391 90001 31.3908 -0.00259121
392 90001 31.4985 0.0136268
393 90001 26.0555 -0.000402422
394 90001 25.9422 -0.000497784
395 90001 27.8329 -0.000152852
396 90001 27.85 0.000188976
397 90001 29.4781 -3.9383e-06
398 90001 29.5151 -0.000621956
399 90001 31.4003 -0.00670138
400 90001 31.2389 0.00768372
401 90001 25.8755 -0.000546894
402 90001 25.9364 -0.000848496
403 90001 27.7798 -7.38316e-05
404 90001 27.7243 -0.000394483
405 90001 29.5544 0.00040188
406 90001 29.6344 0.00054287
407 90001 31.4671 -0.00708741
408 90001 31.2064 0.00562567
409 90001 26.0802 -0.000667427
410 90001 26.0583 -0.000602921
411 90001 27.8991 7.74686e-05
412 90001 27.815 0.000142154
413 90001 29.6469 -0.000407491
414 90001 29.6378 -0.00181583
415 90001 31.529 -0.0335005
416 90001 31.3628 -0.0118223
417 90001 26.0501 -0.000560298
418 90001 26.0739 -0.000727487
419 90001 27.8602 0.000641575
420 90001 27.7402 0.000739255
421 90001 29.698 -0.00382526
422 90001 29.6349 -0.00301927
423 90001 31.4093 -0.0456224
424 90001 31.503 -0.0702807
425 90001 25.9664 -0.00102706
426 90001 26.0347 -0.000906572
427 90001 27.742 2.11095e-05
428 90001 27.7398 9.38409e-05
429 90001 29.5662 -0.00260748
430 90001 29.5419 -4.08843e-05
431 90001 31.2936 -0.017984
432 90001 31.2717 0.00587032
433 90001 26.0733 -0.000707426
434 90001 26.0152 -0.000567718
435 90001 27.8473 0.000139634
436 90001 27.8199 -6.94305e-05
437 90001 29.4934 -1.35359e-05
438 90001 29.6154 1.71214e-05
439 90001 31.3585 0.00473501
440 90001 31.4076 -0.00548177
441 90001 25.9734 -0.00127734
442 90001 26.1539 -0.000517077
443 90001 27.7958 -0.000165462
444 90001 27.8748 0.000103411
445 90001 29.5308 0.000777313
446 90001 29.6798 -0.0003591
447 90001 31.4715 0.00619038
448 90001 31.3666 0.00341031
449 90001 25.9076 -0.000405856
450 90001 26.0232 -0.000843812
451 90001 27.7287 -0.000125464
452 90001 27.825 -4.51276e-05
453 90001 29.7971 -0.000215729
454 90001 29.5424 -0.000165984
455 90001 31.3892 0.00495392
456 90001 31.587 -0.0112872
457 90001 26.131 -0.000493381
458 90001 25.9633 -0.000973919
459 90001 27.8718 -9.17231e-05
460 90001 27.8069 -0.000621705
461 90001 29.6326 1.04069e-05
462 90001 29.7102 0.00166338
463 90001 31.5107 0.0142322
464 90001 31.4553 0.0112716
465 90001 26.088 -0.000907397
466 90001 26.1113 -0.000967972
467 90001 27.7357 0.000762882
468 90001 27.8952 0.000137969
469 90001 29.6282 -5.33151e-05
470 90001 29.6436 0.000734044
471 90001 31.5243 0.0191242
472 90001 31.3889 0.0277566
473 90001 25.937 -0.00116294
474 90001 25.9178 -0.000538246
475 90001 27.7194 0.000114069
476 90001 27.6868 0.000113747
477 90001 29.5231 -0.000294367
478 90001 29.5093 -0.00100888
479 90001 31.3552 0.00238917
480 90001 31.667 0.00812641
481 90001 26.0464 -0.00074297
482 90001 25.9119 -0.00119404
483 90001 27.8574 -0.000129808
484 90001 27.8594 5.52479e-05
485 90001 29.5493 0.000250616
486 90001 29.551 -0.000142825
487 90001 31.3986 0.0101102
488 90001 31.3804 -0.00873411
489 90001 25.9405 -0.000703002
490 90001 25.9918 -0.000673299
491 90001 27.8127 0.000521333
492 90001 27.8252 0.000326402
493 90001 29.6488 -7.46987e-05
494 90001 29.5647 7.39978e-05
495 90001 31.306 -0.0324023
496 90001 31.3872 -0.00168656
497 90001 26.0795 -0.00114183
498 90001 25.8705 -0.000795964
499 90001 27.8261 0.000381321
500 90001 27.7755 -1.12203e-06
501 90001 29.5557 -0.00169502
502 90001 29.4589 -0.000479543
503 90001 31.3244 -0.0248665
504 90001 31.1856 -0.0163279
505 90001 26.0362 -0.000868499
506 90001 26.0703 -0.00107783
507 90001 27.8351 0.000257406
508 90001 27.7636 0.000269075
509 90001 29.5407 -0.00237152
510 90001 29.6227 -2.19246e-05
511 90001 31.3378 -0.0132958
512 90001 31.47 -0.0114603
513 90001 26.0402 -0.000898835
514 90001 25.9889 -0.000633109
515 90001 27.8945 7.57643e-05
516 90001 27.7014 -0.000254619
517 90001 29.5352 -1.08967e-05
518 90001 29.7039 -0.00104028
519 90001 31.317 0.000269039
520 90001 31.5569 0.0109491
521 90001 26.1375 -0.00085117
522 90001 26.0726 -0.000534639
523 90001 27.9557 -5.6261e-06
524 90001 27.7679 -0.000117752
525 90001 29.6816 0.000418152
526 90001 29.6274 0.00196423
527 90001 31.4199 0.00465882
528 90001 31.5993 -0.0121565
529 90001 26.0688 -0.000512077
530 90001 26.0977 -0.000525133
531 90001 27.6903 -0.000204542
532 90001 27.8153 -0.000281581
533 90001 29.6789 -0.000853828
534 90001 29.6292 0.00336864
535 90001 31.4593 0.0116098
536 90001 31.2979 0.0721788
537 90001 25.886 -0.000644067
538 90001 25.8984 -0.000721903
539 90001 27.7395 -0.000510616
540 90001 27.8867 -0.000219822
541 90001 29.6026 -0.000160694
542 90001 29.5264 -0.00159133
543 90001 31.4929 0.0309178
544 90001 31.4404 0.0256075
545 90001 26.0552 -0.00051872
546 90001 26.0326 -0.000506301
547 90001 27.7553 3.83921e-05
548 90001 27.7789 -4.10531e-05
549 90001 29.6763 0.000194386
550 90001 29.5221 -0.00130101
551 90001 31.5315 0.0388701
552 90001 31.2537 -0.00644784
553 90001 25.953 -0.00103466
554 90001 25.9373 -0.000704835
555 90001 27.7022 4.68617e-05
556 90001 27.7495 -0.000137123
557 90001 29.6573 -0.00210478
558 90001 29.5803 -0.000337017
559 90001 31.4571 -0.00902962
560 90001 31.4296 0.0134951
561 90001 26.1018 -0.0010366
562 90001 26.0302 -0.00107866
563 90001 27.7608 0.000143494
564 90001 27.7733 0.000438854
565 90001 29.6249 -0.000922289
566 90001 29.681 -0.000548969
567 90001 31.4573 -0.0069466
568 90001 31.3137 -0.00524943
569 90001 25.8942 -0.000687834
570 90001 26.1111 -0.000428024
571 90001 27.7821 -8.24125e-05
572 90001 27.8508 2.25685e-05
573 90001 29.6468 -0.000439386
574 90001 29.6601 -0.000289159
575 90001 31.3462 -0.0137958
576 90001 31.481 -0.0118286
577 90001 26.0759 -0.000362628
578 90001 25.9785 -0.000809178
579 90001 27.84 -0.000472206
580 90001 27.7861 -0.000566581
581 90001 29.5431 -0.000113853
582 90001 29.6563 0.000463604
583 90001 31.3151 -0.00233612
584 90001 31.336 0.00593924
585 90001 26.0509 -0.000489739
586 90001 26.0536 -0.000588498
587 90001 27.767 1.98496e-05
588 90001 27.7362 -4.89342e-05
589 90001 29.5071 0.000183397
590 90001 29.645 7.34161e-05
591 90001 31.4007 0.0038662
592 90001 31.45 0.0116428
593 90001 25.9596 -0.000823791
594 90001 25.9555 -0.000779012
595 90001 27.9251 -0.000336702
596 90001 27.8615 -0.000661666
597 90001 29.6114 -0.000946973
598 90001 29.7447 0.000265391
599 90001 31.5774 -0.0131294
600 90001 31.5132 0.0548199
601 90001 26.1162 -0.000676123
602 90001 26.0373 -0.00100839
603 90001 27.7605 -0.000663859
604 90001 27.7839 -0.000445833
605 90001 29.7139 -0.00633703
606 90001 29.5494 0.00255968
607 90001 31.4284 0.0366981
608 90001 31.4492 0.0228118
609 90001 25.983 -0.000813658
610 90001 26.0272 -0.000629462
611 90001 27.7123 -0.00032071
612 90001 27.8689 -0.0002822
613 90001 29.651 0.00807177
614 90001 29.616 -6.04002e-05
615 90001 31.2865 0.0523233
616 90001 31.3877 0.0473301
617 90001 25.9436 -0.00109466
618 90001 25.8697 -0.000695514
619 90001 27.6556 -8.50056e-05
620 90001 27.5914 -2.92248e-05
621 90001 29.593 0.000791021
622 90001 29.6606 -0.000446762
623 90001 31.4091 -7.31475e-05
624 90001 31.3842 0.0187746
625 90001 26.0002 -0.000571101
626 90001 25.9526 -0.000732937
627 90001 27.8081 -0.000288982
628 90001 27.8312 0.000128912
629 90001 29.5357 -0.00419713
630 90001 29.6621 0.000874274
631 90001 31.4011 -0.00602824
632 90001 31.3089 0.0316505
633 90001 25.9886 -0.000434418
634 90001 25.9895 -0.000735509
635 90001 27.8478 -0.000245269
636 90001 27.8268 -0.00015382
637 90001 29.5828 0.00247957
638 90001 29.5362 0.000509456
639 90001 31.4158 0.0531883
640 90001 31.178 0.012303
641 90001 26.1322 -0.00071569
642 90001 25.9919 -0.000904186
643 90001 27.8557 0.00070506
644 90001 27.8528 0.000295946
645 90001 29.6142 -0.00102161
646 90001 29.6262 -0.00325321
647 90001 31.3334 -0.0355522
648 90001 31.3671 0.00608423
649 90001 26.1423 -0.000517351
650 90001 26.0819 -0.000829747
651 90001 27.9728 -0.000137447
652 90001 27.8589 8.74826e-06
653 90001 29.4929 -0.00183179
654 90001 29.5558 -0.00054174
655 90001 31.3175 0.0180582
656 90001 31.2789 -0.00690696
657 90001 26.0264 -0.000833319
658 90001 26.0776 -0.000548064
659 90001 27.7206 -0.000784328
660 90001 27.8357 -0.000426616
661 90001 29.6932 0.00159971
662 90001 29.5813 0.00070383
663 90001 31.5495 0.0327071
664 90001 31.4689 0.0136157
665 90001 26.0244 -0.00039189
666 90001 26.1033 -0.00086286
667 90001 27.8521 -0.00080395
668 90001 27.7511 -0.000636139
669 90001 29.6744 0.000157517
670 90001 29.5504 -2.60237e-05
671 90001 31.488 0.0524362
672 90001 31.4755 0.0456053
673 90001 26.0821 -0.00075183
674 90001 26.0619 -0.000921987
675 90001 27.8105 -0.000395042
676 90001 27.7588 -0.000779744
677 90001 29.645 0.00598842
678 90001 29.5366 9.86691e-06
679 90001 31.464 0.0920373
680 90001 31.3289 0.0410923
681 90001 26.1035 -0.000318418
682 90001 25.9906 -0.000725413
683 90001 27.7739 -0.00029197
684 90001 27.8749 -0.00043053
685 90001 29.5439 -4.23236e-05
686 90001 29.5087 -0.00098883
687 90001 31.4224 0.0706842
688 90001 31.2994 0.0182777
689 90001 26.0874 -0.000380798
690 90001 26.0207 -0.000737368
691 90001 27.7583 -0.00014198
692 90001 27.7059 9.27665e-06
693 90001 29.4613 0.000732487
694 90001 29.3898 0.000367142
695 90001 31.2195 0.00791611
696 90001 31.1819 0.00587658
697 90001 25.8305 -0.00106028
698 90001 26.1146 -0.000690279
699 90001 27.7575 6.41698e-05
700 90001 27.6802 0.000170862
701 90001 29.5046 -0.00105148
702 90001 29.6014 -0.00369009
703 90001 31.4121 -0.0338015
704 90001 31.267 -0.0106455
705 90001 26.0881 -0.000425518
706 90001 26.0817 -0.000374447
707 90001 27.9142 0.000332324
708 90001 27.7465 0.000269896
709 90001 29.5875 -0.00186746
710 90001 29.5863 -0.000288069
711 90001 31.3602 -0.00406222
712 90001 31.4737 -0.025757
713 90001 25.9783 -0.000691735
714 90001 26.045 -0.00066224
715 90001 27.8351 -9.72417e-05
716 90001 27.8479 3.19547e-05
717 90001 29.5329 0.000141782
718 90001 29.5837 0.000507546
719 90001 31.1001 -0.000220903
720 90001 31.2604 -0.00507778
721 90001 26.0339 -0.000960339
722 90001 25.9963 -0.000715278
723 90001 27.804 0.000213308
724 90001 27.9466 -7.41734e-05
725 90001 29.6236 -0.000751519
726 90001 29.7136 -0.00125368
727 90001 31.5067 -0.00934988
728 90001 31.4504 0.0006716
729 90001 26.0282 -0.000884799
730 90001 26.1547 -0.000727622
731 90001 27.8035 -0.000267805
732 90001 27.851 0.000345735
733 90001 29.7264 0.000335923
734 90001 29.6418 4.24338e-05
735 90001 31.411 0.0179399
736 90001 31.6025 0.00935666
737 90001 26.0078 -0.000606553
738 90001 26.2594 -0.000592374
739 90001 27.7981 -0.000271897
740 90001 28.0026 0.000143053
741 90001 29.5796 -0.000476496
742 90001 29.5999 0.00223552
743 90001 31.4602 0.00978366
744 90001 31.3966 -0.00093792
745 90001 25.9553 -0.000945426
746 90001 25.8894 -0.000720653
747 90001 27.6802 -0.000362208
748 90001 27.7463 -0.000232162
749 90001 29.5912 -0.000308687
750 90001 29.5333 -0.00101119
751 90001 31.3589 0.00368289
752 90001 31.3535 0.0316044
753 90001 26.0612 -0.00117353
754 90001 26.0887 -0.000305576
755 90001 27.8222 -0.000431995
756 90001 27.6877 0.00021197
757 90001 29.6046 -0.000557488
758 90001 29.708 -0.000295933
759 90001 31.4384 0.0272295
760 90001 31.4316 0.0072589
761 90001 25.9543 -0.00109064
762 90001 26.12 -0.000464079
763 90001 27.867 0.000298849
764 90001 27.8266 8.03903e-05
765 90001 29.6647 -0.000460178
766 90001 29.6759 -0.000831946
767 90001 31.2546 -0.00499721
768 90001 31.3644 -0.00529504
769 90001 25.9556 -0.000904545
770 90001 25.9626 -0.00059656
771 90001 27.7578 0.000119589
772 90001 27.8171 3.94423e-05
773 90001 29.5645 -0.000897853
774 90001 29.4852 -0.00143771
775 90001 31.2932 -0.00809015
776 90001 31.3841 -0.0164913
777 90001 26.0676 -0.000841492
778 90001 26.0202 -0.000596894
779 90001 27.8608 7.00707e-06
780 90001 27.8162 0.000351368
781 90001 29.4914 0.000333004
782 90001 29.651 -0.000384763
783 90001 31.3741 -0.016128
784 90001 31.2881 -0.0109839
785 90001 26.1689 -0.000345904
786 90001 26.0181 -0.000569111
787 90001 27.9439 0.000262416
788 90001 27.908 -0.000128406
789 90001 29.6097 -0.000120551
790 90001 29.5858 -0.000496089
791 90001 31.2074 -0.00375106
792 90001 31.5443 -0.0147768
793 90001 26.1909 -0.000709488
794 90001 25.9197 -0.000683977
795 90001 27.819 7.97874e-05
796 90001 27.845 0.000402711
797 90001 29.5695 -6.15634e-05
798 90001 29.6645 -0.000423648
799 90001 31.4807 0.00316952
800 90001 31.2587 -0.00761625
801 90002 132.271 0.000674999
802 90002 132.37 0.000496996
803 90002 130.475 0.000407755
804 90002 130.566 -0.000217481
805 90002 128.841 -0.000713918
806 90002 128.761 -0.000360123
807 90002 126.983 -0.0138247
808 90002 126.992 -0.0135491
809 90002 132.144 -4.55641e-05
810 90002 132.356 0.000834307
811 90002 130.563 4.14777e-05
812 90002 130.606 0.00012666
813 90002 128.629 5.63786e-05
814 90002 128.676 -0.00013655
815 90002 126.883 -0.00538939
816 90002 127.02 0.0034004
817 90002 132.355 0.000751865
818 90002 132.502 0.000941615
819 90002 130.639 2.20564e-05
820 90002 130.616 -0.000205504
821 90002 128.651 -0.000847893
822 90002 128.672 -0.00152367
823 90002 126.902 -0.0328219
824 90002 126.794 -0.0196766
825 90002 132.315 0.000965635
826 90002 132.326 0.000759689
827 90002 130.474 4.49036e-05
828 90002 130.572 0.00019876
829 90002 128.74 -0.00323382
830 90002 128.745 -0.000244444
831 90002 126.956 -0.0238344
832 90002 126.992 -0.0354388
833 90002 132.247 0.00078553
834 90002 132.324 0.000583768
835 90002 130.402 -9.93435e-05
836 90002 130.558 -1.9846e-05
837 90002 128.739 0.00051224
838 90002 128.692 4.6066e-05
839 90002 126.977 0.0107761
840 90002 126.916 0.0052592
841 90002 132.34 0.000606452
842 90002 132.309 0.000956122
843 90002 130.517 -0.000270503
844 90002 130.575 -0.000109452
845 90002 128.604 -0.001465
846 90002 128.684 0.00046886
847 90002 126.743 -0.00235223
848 90002 126.705 0.0160379
849 90002 132.245 0.000989321
850 90002 132.374 0.000789189
851 90002 130.602 0.000169664
852 90002 130.601 -5.67401e-05
853 90002 128.598 0.000463275
854 90002 128.67 -0.00230503
855 90002 126.908 -0.00621521
856 90002 126.885 -0.0161943
857 90002 132.193 0.000651825
858 90002 132.427 0.00118434
859 90002 130.505 0.000182034
860 90002 130.524 -0.000293435
861 90002 128.684 0.000180775
862 90002 128.666 0.00114544
863 90002 126.954 0.00913442
864 90002 126.889 -0.00799212
865 90002 132.3 0.00062005
866 90002 132.421 0.000392587
867 90002 130.606 0.000529051
868 90002 130.537 0.00044813
869 90002 128.691 -3.74858e-05
870 90002 128.679 -0.000804967
871 90002 126.799 -0.022107
872 90002 126.794 -0.0124693
873 90002 132.194 0.00108659
874 90002 132.392 0.000841396
875 90002 130.515 6.36161e-05
876 90002 130.627 -5.7683e-05
877 90002 128.728 -0.00438897
878 90002 128.684 -0.001982
879 90002 126.93 -0.0391843
880 90002 126.896 -0.0226052
881 90002 132.438 0.000553202
882 90002 132.381 0.000972621
883 90002 130.635 -0.00022318
884 90002 130.6 -0.000343849
885 90002 128.828 -9.25634e-05
886 90002 128.724 -0.000147158
887 90002 126.873 0.000360448
888 90002 126.973 0.00808522
889 90002 132.352 0.000931781
890 90002 132.227 0.000444488
891 90002 130.553 5.03001e-05
892 90002 130.418 4.28379e-05
893 90002 128.638 -2.66372e-06
894 90002 128.741 -0.000889837
895 90002 126.93 -0.00936045
896 90002 126.993 0.00858382
897 90002 132.229 0.000864636
898 90002 132.183 0.000586317
899 90002 130.516 0.000381921
900 90002 130.444 -3.40212e-05
901 90002 128.793 -0.000928767
902 90002 128.792 0.000438111
903 90002 126.912 -0.010201
904 90002 126.983 -0.0150711
905 90002 132.455 0.000726951
906 90002 132.413 0.00112424
907 90002 130.609 0.000538826
908 90002 130.716 -0.000197103
909 90002 128.808 -0.000508299
910 90002 128.872 -0.00208619
911 90002 127.118 -0.013637
912 90002 126.975 -0.0267107
913 90002 132.536 0.000410522
914 90002 132.51 0.000923925
915 90002 130.643 -0.000355758
916 90002 130.571 0.000457838
917 90002 128.856 -0.000402037
918 90002 128.883 -0.000757319
919 90002 126.783 0.00126638
920 90002 127.259 -0.0134746
921 90002 132.408 0.000813117
922 90002 132.256 0.000774179
923 90002 130.546 -0.00035727
924 90002 130.543 0.00026401
925 90002 128.763 0.00136325
926 90002 128.744 0.000637038
927 90002 127.01 0.0030351
928 90002 126.988 -0.000695099
929 90002 132.529 0.00103116
930 90002 132.428 0.00126447
931 90002 130.588 -0.000285868
932 90002 130.484 -0.000122008
933 90002 128.758 -0.00101521
934 90002 128.752 0.000556007
935 90002 126.895 -0.0120326
936 90002 126.937 -0.0114677
937 90002 132.352 0.000773773
938 90002 132.309 0.0011915
939 90002 130.404 -0.000344161
940 90002 130.661 -0.000318177
941 90002 128.649 0.000423924
942 90002 128.761 -0.000488984
943 90002 126.934 -0.00397541
944 90002 126.836 0.00721209
945 90002 132.16 0.00060731
946 90002 132.207 0.000667668
947 90002 130.429 0.00055233
948 90002 130.391 0.000175683
949 90002 128.69 -0.00107882
950 90002 128.675 -0.00234921
951 90002 126.931 -0.00894907
952 90002 126.914 0.00265164
953 90002 132.408 0.00102259
954 90002 132.543 0.00124466
955 90002 130.486 -0.000589482
956 90002 130.472 -0.000232471
957 90002 128.683 -0.00104609
958 90002 128.788 0.00122441
959 90002 127.036 -0.00474592
960 90002 126.944 -1.3841e-05
961 90002 132.278 0.0003326
962 90002 132.408 0.000747162
963 90002 130.5 7.95904e-05
964 90002 130.496 0.00050117
965 90002 128.766 -9.52237e-06
966 90002 128.661 0.00154787
967 90002 126.983 0.0200105
968 90002 126.902 -0.00508248
969 90002 132.276 0.000521036
970 90002 132.393 0.000904452
971 90002 130.463 -0.000247808
972 90002 130.518 -0.000772617
973 90002 128.748 0.00307815
974 90002 128.705 -0.00198989
975 90002 127.047 0.00665498
976 90002 126.872 0.048564
977 90002 132.288 0.000567724
978 90002 132.402 0.000768606
979 90002 130.499 -0.000364585
980 90002 130.411 3.88757e-05
981 90002 128.818 -0.000411902
982 90002 128.695 0.00101997
983 90002 126.978 0.0197025
984 90002 127.02 -0.000761711
985 90002 132.297 0.000770508
986 90002 132.281 0.000670631
987 90002 130.654 -0.000105331
988 90002 130.635 0.000111918
989 90002 128.78 -0.00386433
990 90002 128.709 -0.00187732
991 90002 127.056 -0.0298602
992 90002 126.865 -0.00978872
993 90002 132.376 0.000605483
994 90002 132.477 0.000850011
995 90002 130.613 0.000753388
996 90002 130.44 0.000169447
997 90002 128.816 -0.000882128
998 90002 128.782 -0.000455856
999 90002 127.035 -0.00367792
1000 90002 126.979 -0.00278064
1001 90002 132.402 0.000465842
1002 90002 132.456 0.000653733
1003 90002 130.543 0.000233949
1004 90002 130.676 0.00020939
1005 90002 128.778 0.000739816
1006 90002 128.705 0.00048522
1007 90002 126.918 -0.0057527
1008 90002 127.035 -0.00157806
1009 90002 132.325 0.000929757
1010 90002 132.413 0.000760065
1011 90002 130.551 0.000563085
1012 90002 130.667 0.000706484
1013 90002 128.668 -0.0025796
1014 90002 128.697 -0.00300677
1015 90002 126.978 -0.0541866
1016 90002 126.857 -0.0570468
1017 90002 132.108 0.00127042
1018 90002 132.337 0.000527032
1019 90002 130.518 0.000368471
1020 90002 130.591 0.000433099
1021 90002 128.748 -0.00181812
1022 90002 128.734 0.0011932
1023 90002 126.996 -0.00954283
1024 90002 126.945 -0.0472839
1025 90002 132.241 0.000244007
1026 90002 132.364 0.000546411
1027 90002 130.6 2.08317e-05
1028 90002 130.551 0.000574975
1029 90002 128.712 -0.000369661
1030 90002 128.575 -0.00230616
1031 90002 126.88 -0.00434343
1032 90002 127 -0.0114278
1033 90002 132.16 0.000531173
1034 90002 132.35 0.000607906
1035 90002 130.613 -0.000285093
1036 90002 130.479 0.00018406
1037 90002 128.805 0.0010482
1038 90002 128.854 -0.000920115
1039 90002 126.941 0.0157341
1040 90002 126.982 -0.0154293
1041 90002 132.368 0.00106584
1042 90002 132.386 0.000400906
1043 90002 130.556 -7.59637e-05
1044 90002 130.485 0.00023338
1045 90002 128.626 -0.00139792
1046 90002 128.796 -4.45313e-05
1047 90002 126.931 -0.00138661
1048 90002 126.891 -0.0173157
1049 90002 132.266 0.000653455
1050 90002 132.392 0.000709246
1051 90002 130.618 -0.00018373
1052 90002 130.521 6.27944e-05
1053 90002 128.74 0.000297912
1054 90002 128.738 -0.000375969
1055 90002 126.851 -0.00676978
1056 90002 127.048 0.0159754
1057 90002 132.294 0.000209975
1058 90002 132.378 0.000556436
1059 90002 130.392 -6.42235e-05
1060 90002 130.485 0.000121083
1061 90002 128.808 -0.000923387
1062 90002 128.71 0.00035641
1063 90002 127.123 0.0149123
1064 90002 126.872 0.00644444
1065 90002 132.207 0.000528599
1066 90002 132.39 0.000881907
1067 90002 130.518 -0.000163174
1068 90002 130.536 -0.000460129
1069 90002 128.709 0.000563617
1070 90002 128.77 8.29585e-05
1071 90002 126.787 0.00160991
1072 90002 126.903 0.00960148
1073 90002 132.31 0.000924236
1074 90002 132.391 0.00100333
1075 90002 130.599 0.000133194
1076 90002 130.459 -0.000531928
1077 90002 128.716 0.000705815
1078 90002 128.899 0.000112485
1079 90002 127.115 0.0052619
1080 90002 127.053 0.00865323
1081 90002 132.514 0.000969024
1082 90002 132.377 0.000626116
1083 90002 130.629 0.000713896
1084 90002 130.614 0.000121779
1085 90002 128.844 -0.000203645
1086 90002 128.8 -5.22305e-05
1087 90002 126.917 -0.0263147
1088 90002 126.85 0.0178763
1089 90002 132.445 0.000867032
1090 90002 132.311 0.000626536
1091 90002 130.631 0.000434287
1092 90002 130.549 0.000807524
1093 90002 128.833 0.000329997
1094 90002 128.855 -0.00358379
1095 90002 126.84 -0.0706558
1096 90002 127.008 -0.0596793
1097 90002 132.34 0.00050458
1098 90002 132.435 0.000929416
1099 90002 130.497 0.000579023
1100 90002 130.605 0.000946742
1101 90002 128.797 0.00105788
1102 90002 128.723 -0.00142884
1103 90002 126.806 -0.012428
1104 90002 126.969 -0.0406494
1105 90002 132.385 0.000845743
1106 90002 132.458 0.000561855
1107 90002 130.422 0.000556743
1108 90002 130.568 7.75119e-05
1109 90002 128.659 -0.00702447
1110 90002 128.713 -0.00123531
1111 90002 126.967 -0.0248603
1112 90002 126.794 -0.0453214
1113 90002 132.201 0.00026004
1114 90002 132.446 0.000855222
1115 90002 130.491 0.000114999
1116 90002 130.56 0.000248255
1117 90002 128.691 0.000295627
1118 90002 128.806 -0.000644337
1119 90002 126.955 -0.0194513
1120 90002 126.852 5.59764e-05
1121 90002 132.319 0.000403907
1122 90002 132.308 0.000788128
1123 90002 130.571 0.000101341
1124 90002 130.455 -0.000310883
1125 90002 128.766 -0.00159979
1126 90002 128.676 0.00110353
1127 90002 126.941 0.00529034
1128 90002 126.997 0.00144636
1129 90002 132.526 0.00122081
1130 90002 132.248 0.000312162
1131 90002 130.528 -0.00032453
1132 90002 130.509 -0.000749107
1133 90002 128.718 0.000216922
1134 90002 128.608 -0.00173313
1135 90002 126.77 -0.00929461
1136 90002 126.856 0.0192738
1137 90002 132.327 0.000736693
1138 90002 132.312 0.000716797
1139 90002 130.641 3.90561e-05
1140 90002 130.478 0.00011935
1141 90002 128.63 -0.00111568
1142 90002 128.708 0.000588639
1143 90002 126.799 0.0134909
1144 90002 126.888 0.0218691
1145 90002 132.309 0.000989197
1146 90002 132.5 0.000538735
1147 90002 130.58 0.000277425
1148 90002 130.6 0.000238701
1149 90002 128.69 -0.000259013
1150 90002 128.654 -0.00151479
1151 90002 126.951 0.00429057
1152 90002 126.768 0.00359623
1153 90002 132.294 0.00068921
1154 90002 132.266 0.00123929
1155 90002 130.573 -1.25358e-06
1156 90002 130.561 1.35273e-06
1157 90002 128.726 0.000135058
1158 90002 128.752 -0.000112407
1159 90002 126.922 0.0175626
1160 90002 126.708 0.0212361
1161 90002 132.277 0.000715612
1162 90002 132.134 0.000586553
1163 90002 130.541 0.000515409
1164 90002 130.427 -0.000393547
1165 90002 128.711 0.00105906
1166 90002 128.602 -0.00117177
1167 90002 126.892 -0.0289881
1168 90002 126.937 -0.0148996
1169 90002 132.244 0.000630211
1170 90002 132.276 0.000482939
1171 90002 130.584 0.00116147
1172 90002 130.44 0.000567307
1173 90002 128.774 -0.00354196
1174 90002 128.622 -0.00154949
1175 90002 126.956 -0.0196941
1176 90002 126.816 -0.00313055
1177 90002 132.342 0.000652834
1178 90002 132.385 0.00102029
1179 90002 130.488 0.000243196
1180 90002 130.527 0.000386174
1181 90002 128.688 -0.000971303
1182 90002 128.662 -0.000422056
1183 90002 126.777 -0.0265369
1184 90002 126.9 -0.0188105
1185 90002 132.151 0.000807094
1186 90002 132.197 0.00108611
1187 90002 130.398 0.000910577
1188 90002 130.543 0.00032494
1189 90002 128.75 -0.000723327
1190 90002 128.692 -0.00181568
1191 90002 126.863 -0.0100424
1192 90002 126.961 0.0200226
1193 90002 132.351 0.000931525
1194 90002 132.186 0.000859518
1195 90002 130.611 0.000216088
1196 90002 130.376 0.000225191
1197 90002 128.649 -0.000656143
1198 90002 128.872 -0.000163514
1199 90002 126.909 0.000454048
1200 90002 126.911 0.0114945
1201 90002 132.359 0.000895918
1202 90002 132.312 0.000775419
1203 90002 130.584 -0.0002831
1204 90002 130.545 0.000325753
1205 90002 128.688 -0.000245807
1206 90002 128.657 0.00126582
1207 90002 126.909 0.0206574
1208 90002 126.905 -0.00238487
1209 90002 132.268 0.00112692
1210 90002 132.1 0.00105801
1211 90002 130.401 -0.000786785
1212 90002 130.388 -0.000487763
1213 90002 128.588 0.00023519
1214 90002 128.701 -0.000190187
1215 90002 126.831 0.0156694
1216 90002 126.906 0.0572808
1217 90002 132.345 0.000899256
1218 90002 132.314 0.000788083
1219 90002 130.558 2.8219e-05
1220 90002 130.506 -0.000642272
1221 90002 128.703 0.000800276
1222 90002 128.708 0.00121138
1223 90002 126.907 0.0304454
1224 90002 126.951 0.0180801
1225 90002 132.425 0.000722093
1226 90002 132.309 0.000792461
1227 90002 130.602 -8.94041e-05
1228 90002 130.483 -0.000435393
1229 90002 128.623 0.000594048
1230 90002 128.783 0.000276731
1231 90002 126.848 0.0365262
1232 90002 127.095 0.0261064
1233 90002 132.503 0.000598441
1234 90002 132.414 0.000493831
1235 90002 130.628 0.000284034
1236 90002 130.662 -1.76894e-05
1237 90002 128.709 -4.86624e-05
1238 90002 128.793 -0.000344979
1239 90002 126.922 -0.00537035
1240 90002 126.936 0.00792938
1241 90002 132.251 0.000698575
1242 90002 132.239 0.000808881
1243 90002 130.396 -0.000206673
1244 90002 130.612 0.000286404
1245 90002 128.721 -0.000883597
1246 90002 128.733 -0.000361819
1247 90002 126.903 0.0401021
1248 90002 126.891 -0.00433203
1249 90002 132.179 0.000804964
1250 90002 132.223 0.00066228
1251 90002 130.418 0.000219252
1252 90002 130.364 -5.4698e-08
1253 90002 128.668 0.00209609
1254 90002 128.7 0.000887395
1255 90002 126.89 -0.0201167
1256 90002 127.055 0.0136654
1257 90002 132.432 0.000672498
1258 90002 132.352 0.000743969
1259 90002 130.59 -0.000139424
1260 90002 130.549 3.26722e-05
1261 90002 128.617 -0.00106395
1262 90002 128.808 0.000620963
1263 90002 126.963 0.00244968
1264 90002 126.804 0.00384206
1265 90002 132.353 0.000763373
1266 90002 132.285 0.000853267
1267 90002 130.57 0.000297716
1268 90002 130.553 -0.000105864
1269 90002 128.79 0.00111134
1270 90002 128.825 -9.29062e-05
1271 90002 127.004 0.00211202
1272 90002 126.922 0.0243861
1273 90002 132.245 0.000829208
1274 90002 132.137 0.000339413
1275 90002 130.427 -0.000181929
1276 90002 130.634 -5.5418e-05
1277 90002 128.736 -0.000833666
1278 90002 128.811 2.42497e-06
1279 90002 127.101 0.00150441
1280 90002 126.983 0.00764148
1281 90002 132.196 0.000331986
1282 90002 132.371 0.000454883
1283 90002 130.601 0.000122423
1284 90002 130.634 0.00041131
1285 90002 128.77 -0.0024712
1286 90002 128.708 0.000723299
1287 90002 126.862 0.0294341
1288 90002 126.867 -0.0167341
1289 90002 132.226 0.000593042
1290 90002 132.351 0.000648399
1291 90002 130.505 -0.000362173
1292 90002 130.579 -0.000178638
1293 90002 128.721 0.00232666
1294 90002 128.703 -0.00211219
1295 90002 126.779 0.0080048
1296 90002 126.839 0.0152363
1297 90002 132.346 0.00103462
1298 90002 132.367 0.000803481
1299 90002 130.531 -0.000638449
1300 90002 130.536 0.0001213
1301 90002 128.763 -0.000587769
1302 90002 128.825 -0.00096126
1303 90002 127.074 0.0112683
1304 90002 126.997 0.00112946
1305 90002 132.286 0.00117682
1306 90002 132.425 0.00102768
1307 90002 130.62 -0.000233876
1308 90002 130.613 -0.000620545
1309 90002 128.736 -0.000327602
1310 90002 128.713 0.000714991
1311 90002 126.877 0.0165991
1312 90002 126.793 0.0426447
1313 90002 132.39 0.000670504
1314 90002 132.452 0.000955634
1315 90002 130.58 0.000238094
1316 90002 130.623 3.5851e-05
1317 90002 128.654 3.02718e-05
1318 90002 128.685 -0.000160567
1319 90002 126.841 0.0136931
1320 90002 126.873 0.00164156
1321 90002 132.523 0.000779747
1322 90002 132.234 0.000746375
1323 90002 130.49 4.20256e-05
1324 90002 130.462 -4.91009e-05
1325 90002 128.705 -0.000530026
1326 90002 128.724 0.000814026
1327 90002 126.948 0.00855223
1328 90002 126.949 0.012159
1329 90002 132.228 0.000687536
1330 90002 132.308 0.000739705
1331 90002 130.394 -0.000228019
1332 90002 130.405 0.000136482
1333 90002 128.657 0.000506335
1334 90002 128.764 0.000598733
1335 90002 127.02 0.0273926
1336 90002 126.98 0.0207701
1337 90002 132.317 0.000726895
1338 90002 132.226 0.000570697
1339 90002 130.334 -0.000354557
1340 90002 130.499 6.02149e-05
1341 90002 128.753 0.000523248
1342 90002 128.822 -0.000146224
1343 90002 127.034 0.0128777
1344 90002 126.994 0.0124423
1345 90002 132.328 0.00068463
1346 90002 132.318 0.000643528
1347 90002 130.616 0.000332315
1348 90002 130.488 -4.27511e-05
1349 90002 128.695 0.00107294
1350 90002 128.699 0.000223544
1351 90002 127.061 0.0062346
1352 90002 126.918 0.00705296
1353 90002 132.466 0.00071085
1354 90002 132.381 0.000545053
1355 90002 130.528 0.000274966
1356 90002 130.507 1.83062e-05
1357 90002 128.842 -0.000203315
1358 90002 128.78 -0.00254551
1359 90002 126.865 -0.0302221
1360 90002 126.927 -0.00437234
1361 90002 132.389 0.00113578
1362 90002 132.466 0.000272534
1363 90002 130.592 3.42323e-05
1364 90002 130.652 -0.000135079
1365 90002 128.758 -0.00104254
1366 90002 128.719 -0.000274435
1367 90002 126.941 0.00569516
1368 90002 126.846 0.00429283
1369 90002 132.356 0.000437425
1370 90002 132.343 0.000589569
1371 90002 130.623 2.0308e-05
1372 90002 130.555 0.000401939
1373 90002 128.75 -0.000329393
1374 90002 128.832 -0.000485763
1375 90002 126.996 0.00787504
1376 90002 126.926 0.0180448
1377 90002 132.317 0.000576362
1378 90002 132.427 0.000825035
1379 90002 130.677 0.000109602
1380 90002 130.631 -0.000657047
1381 90002 128.79 -0.000607352
1382 90002 128.815 0.00124537
1383 90002 126.853 0.0357683
1384 90002 126.922 0.0167272
1385 90002 132.406 0.000673396
1386 90002 132.284 0.000368586
1387 90002 130.648 -0.00050086
1388 90002 130.642 -0.000411012
1389 90002 128.783 0.000414556
1390 90002 128.768 -0.00116782
1391 90002 127.031 0.0142458
1392 90002 126.971 0.0277929
1393 90002 132.357 4.57044e-05
1394 90002 132.409 0.000638419
1395 90002 130.647 0.000455176
1396 90002 130.618 9.36694e-05
1397 90002 128.658 -0.00269226
1398 90002 128.913 -0.000658381
1399 90002 127.015 -0.0160999
1400 90002 127.201 0.0249523
1401 90002 132.333 0.000571452
1402 90002 132.277 0.000936721
1403 90002 130.518 -0.000242605
1404 90002 130.596 0.00029104
1405 90002 128.841 -0.000914919
1406 90002 128.821 -0.00053355
1407 90002 127.131 0.0140649
1408 90002 127.088 -0.00070724
1409 90002 132.148 0.000528389
1410 90002 132.293 0.00126726
1411 90002 130.529 1.16202e-05
1412 90002 130.596 -0.000506679
1413 90002 128.791 0.000282939
1414 90002 128.748 0.000109017
1415 90002 126.834 0.0128518
1416 90002 127.001 0.0142104
1417 90002 132.369 0.000831024
1418 90002 132.223 0.000626908
1419 90002 130.53 0.000274665
1420 90002 130.528 -0.000411763
1421 90002 128.739 -0.00135609
1422 90002 128.744 -0.00383204
1423 90002 126.859 -0.0270622
1424 90002 126.871 -0.0125359
1425 90002 132.293 0.000777874
1426 90002 132.393 0.00112236
1427 90002 130.561 7.96899e-06
1428 90002 130.47 -0.000149894
1429 90002 128.72 -0.000827983
1430 90002 128.651 0.00148239
1431 90002 126.904 0.0113809
1432 90002 126.747 0.000400449
1433 90002 132.302 0.000445006
1434 90002 132.257 0.000612949
1435 90002 130.565 -5.41771e-05
1436 90002 130.4 -0.000295325
1437 90002 128.682 0.000353186
1438 90002 128.696 -0.00108624
1439 90002 126.978 -0.0145361
1440 90002 126.743 -0.0055639
1441 90002 132.327 0.000670129
1442 90002 132.318 0.00061441
1443 90002 130.524 -6.79325e-05
1444 90002 130.458 -0.000195111
1445 90002 128.555 0.000853449
1446 90002 128.726 -0.000870639
1447 90002 126.962 0.00705165
1448 90002 126.934 0.00829606
1449 90002 132.402 0.000319209
1450 90002 132.331 0.000837188
1451 90002 130.498 -0.000236911
1452 90002 130.559 -0.0001091
1453 90002 128.8 -0.00047627
1454 90002 128.669 -0.000660795
1455 90002 126.944 0.0207758
1456 90002 126.96 -0.00291363
1457 90002 132.171 0.000578398
1458 90002 132.321 0.000704072
1459 90002 130.613 -0.000387635
1460 90002 130.409 -0.000160253
1461 90002 128.755 -0.000516655
1462 90002 128.697 -4.56393e-05
1463 90002 126.931 0.0253073
1464 90002 126.868 0.0134381
1465 90002 132.559 0.000737301
1466 90002 132.513 0.000907557
1467 90002 130.643 -4.00456e-05
1468 90002 130.617 -0.00021666
1469 90002 128.665 -0.000241538
1470 90002 128.719 0.00216832
1471 90002 126.88 0.0259916
1472 90002 127.009 0.0108528
1473 90002 132.352 0.000806912
1474 90002 132.5 0.000589738
1475 90002 130.708 -0.000163765
1476 90002 130.542 -0.000335953
1477 90002 128.823 0.00319313
1478 90002 128.772 -0.00165251
1479 90002 126.936 0.0168331
1480 90002 126.973 0.0190276
1481 90002 132.391 0.00088702
1482 90002 132.522 0.000598367
1483 90002 130.476 -0.000277157
1484 90002 130.699 0.000470858
1485 90002 128.857 -0.00141257
1486 90002 128.649 -0.00111869
1487 90002 126.981 0.0151231
1488 90002 126.931 -0.0159995
1489 90002 132.376 0.000946256
1490 90002 132.325 0.000743617
1491 90002 130.607 -0.000513744
1492 90002 130.447 -0.000426393
1493 90002 128.678 -8.24195e-05
1494 90002 128.861 0.0020898
1495 90002 126.726 -0.0032138
1496 90002 126.834 0.0418014
1497 90002 132.398 0.000991346
1498 90002 132.323 0.000929264
1499 90002 130.341 0.000260801
1500 90002 130.551 0.000165124
1501 90002 128.68 -0.000269274
1502 90002 128.561 -0.00233534
1503 90002 126.948 -0.0175578
1504 90002 127.023 -0.0262774
1505 90002 132.273 0.000497743
1506 90002 132.514 0.00100302
1507 90002 130.495 -8.37647e-07
1508 90002 130.635 -1.55269e-05
1509 90002 128.526 0.000498144
1510 90002 128.527 -0.000403546
1511 90002 126.782 0.0103704
1512 90002 126.83 -0.0175148
1513 90002 132.179 0.000875483
1514 90002 132.272 0.000966245
1515 90002 130.441 -0.00026649
1516 90002 130.563 -1.22184e-05
1517 90002 128.618 -0.000348239
1518 90002 128.692 -0.000107913
1519 90002 126.808 0.00158922
1520 90002 126.964 -0.00401401
1521 90002 132.156 0.000593552
1522 90002 132.26 0.000823736
1523 90002 130.481 -0.000341437
1524 90002 130.538 -0.000185786
1525 90002 128.819 -0.000260797
1526 90002 128.739 -0.000734387
1527 90002 126.986 0.016093
1528 90002 127.143 -0.00557363
1529 90002 132.354 0.000521175
1530 90002 132.238 0.000114371
1531 90002 130.448 -9.44572e-05
1532 90002 130.504 0.000464297
1533 90002 128.821 -0.000364335
1534 90002 128.624 0.000263136
1535 90002 126.926 -0.00204541
1536 90002 126.911 0.00462783
1537 90002 132.143 0.00038346
1538 90002 132.286 0.000412365
1539 90002 130.591 4.47274e-05
1540 90002 130.424 -0.000227386
1541 90002 128.747 0.000951154
1542 90002 128.764 -0.00156686
1543 90002 126.925 -0.00808646
1544 90002 126.912 -0.0109491
1545 90002 132.469 0.000578033
1546 90002 132.249 0.000807606
1547 90002 130.518 -0.000136594
1548 90002 130.656 0.0002503
1549 90002 128.736 -0.000729308
1550 90002 128.85 -0.00295649
1551 90002 126.881 0.0231264
1552 90002 127.094 -0.0495684
1553 90002 132.356 0.000401563
1554 90002 132.314 0.000409507
1555 90002 130.531 9.32485e-05
1556 90002 130.504 -0.000605173
1557 90002 128.732 0.0005023
1558 90002 128.788 0.00137157
1559 90002 126.892 0.00526942
1560 90002 126.876 0.0295601
1561 90002 132.317 0.000397411
1562 90002 132.333 0.00065891
1563 90002 130.609 0.000254763
1564 90002 130.629 0.000374082
1565 90002 128.818 -0.000739825
1566 90002 128.657 -0.000970474
1567 90002 126.873 0.00865589
1568 90002 126.907 0.00519082
1569 90002 132.294 0.000801373
1570 90002 132.344 0.000692489
1571 90002 130.488 0.000127909
1572 90002 130.525 -0.000184363
1573 90002 128.631 0.00230089
1574 90002 128.797 0.000456813
1575 90002 127.191 0.0149726
1576 90002 126.956 0.0401605
1577 90002 132.25 0.00070543
1578 90002 132.381 0.000450673
1579 90002 130.647 0.000395456
1580 90002 130.537 0.00041066
1581 90002 128.853 -0.00262405
1582 90002 128.827 -0.00175963
1583 90002 126.949 -0.0515508
1584 90002 127.052 -0.028118
1585 90002 132.285 0.000848772
1586 90002 132.207 0.000197964
1587 90002 130.619 0.000540446
1588 90002 130.589 0.00023857
1589 90002 128.753 0.000164245
1590 90002 128.883 -0.000604788
1591 90002 126.808 -0.0279313
1592 90002 126.959 -0.0154743
1593 90002 132.46 0.000341796
1594 90002 132.295 6.75153e-05
1595 90002 130.52 0.000421505
1596 90002 130.489 0.000483577
1597 90002 128.782 -0.000832873
1598 90002 128.757 -0.00046669
1599 90002 127.054 -0.00547208
1600 90002 127.038 -0.0316082
