ISMEAR = -4 ! tetrahedron smearing for gamma centererd k-mesh
IBRION = 0 ! Run Ionic relaxation
ISIF = 4
IALGO = 38
IVDW = 12
IWAVPR=11 
ENMAX = 400 ! Energy cutoff
PREC = Accurate
MDALGO = 2 ! Nose 
SMASS = 1 !Nose
ISYM = 0
LWAVE = .FALSE.
LCHARG = .FALSE.
TEBEG = 300
TEEND = 300
NPAR=8
SIGMA = 0.1
NSW = 30000 ! number of timesteps
POTIM = 0.5 ! timestep 0.5 fs
