ITEM: TIMESTEP
20000
ITEM: NUMBER OF ATOMS
1600
ITEM: BOX BOUNDS pp pp pp
0.0000000000000000e+00 3.6149999999999999e+01
0.0000000000000000e+00 3.6149999999999999e+01
0.0000000000000000e+00 1.5834399999999999e+02
ITEM: ATOMS id mol z q
1 90001 26.2263 -0.00119594
2 90001 26.2093 0.000118596
3 90001 28.0463 -0.00163537
4 90001 28.1233 -0.00094465
5 90001 29.9886 -0.00114959
6 90001 29.9603 0.0119088
7 90001 31.8295 0.00746134
8 90001 31.7215 0.0206768
9 90001 26.1537 0.000236114
10 90001 26.2713 0.000882884
11 90001 28.0179 -0.000334636
12 90001 27.9663 -0.00106506
13 90001 29.8863 -0.00167583
14 90001 29.8064 -0.00635643
15 90001 31.743 -0.00879889
16 90001 31.6789 -0.00698396
17 90001 26.2235 -0.000975466
18 90001 26.5403 -8.66458e-05
19 90001 28.2334 0.001034
20 90001 28.2275 0.00115405
21 90001 30.0411 -0.00385993
22 90001 30.0521 -0.0019258
23 90001 31.8059 -0.03141
24 90001 31.7229 -0.0153234
25 90001 26.3129 -0.00177449
26 90001 26.4395 -0.00061708
27 90001 28.2833 -0.000650925
28 90001 28.2163 0.000385709
29 90001 30.0687 0.000910519
30 90001 30.0896 -0.00382465
31 90001 31.8846 0.0621223
32 90001 31.796 -0.0152182
33 90001 26.5112 0.000631355
34 90001 26.3793 -0.00166241
35 90001 28.3071 -0.00071324
36 90001 28.3207 0.00228808
37 90001 30.1331 0.000157977
38 90001 30.0595 -0.00172176
39 90001 31.854 0.033072
40 90001 31.8363 -0.0152858
41 90001 26.3089 -0.000564636
42 90001 26.5271 -0.000969135
43 90001 28.2727 5.21277e-05
44 90001 28.197 1.65563e-05
45 90001 30.1487 -0.000878468
46 90001 30.077 0.009515
47 90001 31.9406 -0.00326829
48 90001 32.0328 0.0415405
49 90001 26.4886 -0.000364954
50 90001 26.4363 -0.000101543
51 90001 28.314 0.00057117
52 90001 28.4027 2.88829e-05
53 90001 30.0176 0.00107642
54 90001 30.0922 -0.00847286
55 90001 31.9154 -0.00394381
56 90001 31.6168 0.0192138
57 90001 26.2664 -0.000905968
58 90001 26.4577 0.000156691
59 90001 28.0957 0.00101834
60 90001 28.1603 -1.29895e-05
61 90001 30.0484 -0.0020714
62 90001 29.9563 0.000549714
63 90001 31.7939 0.00356221
64 90001 31.851 -0.031186
65 90001 26.3361 -0.000952271
66 90001 26.5792 0.000140014
67 90001 28.2461 0.000603119
68 90001 28.336 0.00144093
69 90001 30.1416 -0.00578005
70 90001 30.0557 -0.00401138
71 90001 31.7351 0.0236141
72 90001 31.7856 -0.0151981
73 90001 26.3813 -4.38835e-05
74 90001 26.4133 -0.00115665
75 90001 28.1878 9.60956e-05
76 90001 28.1388 -0.000522658
77 90001 30.0462 0.00279097
78 90001 29.9331 0.00742651
79 90001 31.8884 0.0384354
80 90001 31.8431 0.0143125
81 90001 26.182 0.000815618
82 90001 26.1764 -0.000209395
83 90001 27.9519 0.000463775
84 90001 28.0377 -0.000370312
85 90001 29.9368 0.00537318
86 90001 29.8131 -0.000772852
87 90001 31.7356 0.0265572
88 90001 31.7011 0.0217623
89 90001 26.1999 0.000926564
90 90001 26.0803 -0.000908015
91 90001 27.9702 -0.00043378
92 90001 28.0605 0.00144927
93 90001 29.9662 0.0025262
94 90001 29.9469 -0.00046626
95 90001 31.7989 0.0150106
96 90001 31.6749 -0.0202232
97 90001 26.3321 -0.00112192
98 90001 26.1681 0.000182086
99 90001 28.1985 0.000612808
100 90001 28.04 0.000278723
101 90001 29.9677 0.00487403
102 90001 29.975 -0.00313453
103 90001 31.7215 -0.0113927
104 90001 31.5623 -0.000865343
105 90001 26.2459 -0.000989805
106 90001 26.3169 0.000177092
107 90001 28.089 0.00111543
108 90001 28.0188 0.000375738
109 90001 29.8393 -0.00544067
110 90001 30.1443 -0.00105325
111 90001 31.6476 -0.0192722
112 90001 31.7272 -0.0169091
113 90001 26.2781 0.00129989
114 90001 26.5943 -0.000123129
115 90001 28.2185 0.000595452
116 90001 28.2873 -0.000277203
117 90001 30.055 -0.00811247
118 90001 30.0224 -0.00241651
119 90001 31.8513 -0.0241079
120 90001 32.026 -0.0185529
121 90001 26.5211 0.000426452
122 90001 26.5778 0.000396306
123 90001 28.402 -0.000617253
124 90001 28.235 0.000181581
125 90001 30.0074 0.00155648
126 90001 30.0286 -0.0052855
127 90001 31.9431 0.0393092
128 90001 31.8185 -0.0119572
129 90001 26.4734 -0.000932379
130 90001 26.2804 -0.000220823
131 90001 28.1285 0.00170106
132 90001 28.253 0.000888517
133 90001 30.0726 -0.00194087
134 90001 30.0918 -0.00344758
135 90001 31.9263 -0.0505334
136 90001 31.8516 0.0206426
137 90001 26.384 0.000418759
138 90001 26.4307 -0.000715118
139 90001 28.248 -0.000861351
140 90001 28.1844 0.00213834
141 90001 30.0633 -0.00426686
142 90001 30.11 -0.00227981
143 90001 31.8673 -0.0278059
144 90001 31.8015 -0.000262867
145 90001 26.6732 -0.000855611
146 90001 26.5616 0.000135097
147 90001 28.2151 0.000237956
148 90001 28.2159 0.000766198
149 90001 30.0228 -0.00102442
150 90001 30.0116 0.0275291
151 90001 31.7679 0.0124549
152 90001 31.7007 0.0126268
153 90001 26.233 -0.000781592
154 90001 26.3003 0.000510218
155 90001 28.0329 0.000247638
156 90001 28.0733 -0.000961195
157 90001 29.9964 0.00414804
158 90001 29.7568 0.00595591
159 90001 31.7241 0.0409454
160 90001 31.7032 0.0180147
161 90001 26.2662 -0.00134454
162 90001 25.942 0.000909397
163 90001 27.8106 -0.000794076
164 90001 27.9129 0.000672265
165 90001 29.7406 -0.00141012
166 90001 29.6673 0.000102133
167 90001 31.5116 -0.0188903
168 90001 31.455 -0.0104159
169 90001 26.3143 -0.000857343
170 90001 25.9928 -0.000286057
171 90001 27.9524 0.000140716
172 90001 27.7792 0.000581595
173 90001 29.7856 -0.0103563
174 90001 29.6545 -0.0032067
175 90001 31.5605 -0.0516778
176 90001 31.4563 -0.0189833
177 90001 26.0906 -0.000375425
178 90001 26.2802 0.00054488
179 90001 27.9718 0.000726574
180 90001 27.9055 0.000692346
181 90001 29.8443 0.00308753
182 90001 29.7654 -0.001461
183 90001 31.5803 0.000416113
184 90001 31.4049 0.0175994
185 90001 26.1043 0.000235327
186 90001 26.4591 -8.32952e-05
187 90001 28.2299 -0.000757373
188 90001 27.896 0.00028927
189 90001 29.8942 -0.00172374
190 90001 29.9402 0.000648376
191 90001 31.6756 0.0130446
192 90001 31.6068 -0.0282053
193 90001 26.3313 -0.00039627
194 90001 26.5087 -0.000225691
195 90001 28.2639 -0.000712911
196 90001 28.1478 0.000908358
197 90001 30.1357 0.00248254
198 90001 29.9343 0.00978685
199 90001 31.8744 0.0116955
200 90001 31.8645 0.0260888
201 90001 26.6091 0.00070945
202 90001 26.4883 0.00015088
203 90001 28.2973 -0.000683358
204 90001 28.2434 -0.000381767
205 90001 30.0951 -0.00258262
206 90001 30.0413 0.00136556
207 90001 31.8997 0.00126492
208 90001 31.795 0.0256718
209 90001 26.3508 0.000612582
210 90001 26.3343 0.000145872
211 90001 28.1423 -0.000206988
212 90001 28.2391 -0.00172007
213 90001 30.1189 -7.26423e-05
214 90001 30.021 0.000494852
215 90001 31.8335 0.0314374
216 90001 31.8055 0.0241709
217 90001 26.2764 -0.000424654
218 90001 26.393 -7.44753e-05
219 90001 28.029 0.000178136
220 90001 28.2431 -0.000270067
221 90001 30.0481 0.005409
222 90001 29.9128 0.000396908
223 90001 31.8112 0.0155485
224 90001 31.8089 0.0341412
225 90001 26.307 -0.000332904
226 90001 26.2948 0.000903554
227 90001 28.2837 -0.00188129
228 90001 28.0959 -0.00062145
229 90001 29.9825 0.00190967
230 90001 29.9502 0.00409111
231 90001 31.6621 0.0303468
232 90001 31.7667 0.0126763
233 90001 26.6016 0.00116326
234 90001 26.1305 0.00118285
235 90001 28.1281 -0.0011683
236 90001 28.2281 -0.000703633
237 90001 29.9619 0.000127937
238 90001 29.8428 -0.00436928
239 90001 31.6036 0.00383228
240 90001 31.6429 -0.00615872
241 90001 25.9702 -0.00114863
242 90001 26.0629 -0.000693473
243 90001 27.7255 -0.000545595
244 90001 27.7992 -0.000777345
245 90001 29.6097 -0.00152037
246 90001 29.5911 -0.0061207
247 90001 31.3743 -0.0263395
248 90001 31.4093 -0.00648258
249 90001 25.8596 0.000603892
250 90001 26.0465 -0.000212117
251 90001 27.658 -0.000973725
252 90001 27.6608 0.000483388
253 90001 29.6586 -0.00109674
254 90001 29.4917 0.000651337
255 90001 31.4186 0.0065931
256 90001 31.4952 -0.0228184
257 90001 26.194 -0.000347246
258 90001 26.1504 0.00117212
259 90001 27.8666 2.7554e-05
260 90001 27.8559 -0.000256431
261 90001 29.5638 -0.000345197
262 90001 29.775 -0.00664376
263 90001 31.3533 -0.0408933
264 90001 31.2204 -0.0203409
265 90001 26.2416 -0.000350683
266 90001 26.2707 -0.000423661
267 90001 28.1175 0.00119695
268 90001 27.9444 0.00184031
269 90001 29.8033 5.15869e-05
270 90001 29.7771 0.00220391
271 90001 31.6969 -0.0119287
272 90001 31.5216 -0.166409
273 90001 26.2312 -0.000968594
274 90001 26.5264 0.000181758
275 90001 28.2433 0.00112141
276 90001 28.1568 -0.000277705
277 90001 29.9535 -0.000703208
278 90001 29.8576 -0.00744575
279 90001 31.7456 0.0308588
280 90001 31.6058 -0.0156486
281 90001 26.4571 -0.000793096
282 90001 26.3607 -0.000668347
283 90001 28.2355 -0.000383052
284 90001 28.1441 0.00119801
285 90001 30.0348 0.000220856
286 90001 30.0901 -0.000289679
287 90001 31.6797 0.0233776
288 90001 31.8433 -0.0316567
289 90001 26.4545 0.000734212
290 90001 26.2608 -8.90385e-05
291 90001 28.2088 -0.000737798
292 90001 28.27 8.01855e-05
293 90001 30.051 0.00331153
294 90001 30.0109 0.00538236
295 90001 31.7679 -0.021268
296 90001 31.7072 -0.00441711
297 90001 26.4686 0.000829234
298 90001 26.6657 -0.00107131
299 90001 28.187 -0.000516751
300 90001 28.1669 0.000307271
301 90001 30.0073 -0.00226874
302 90001 29.8403 -0.0115867
303 90001 31.7156 -0.0210163
304 90001 31.8578 -0.0216778
305 90001 26.3343 0.000771124
306 90001 26.2471 0.000787412
307 90001 28.1114 -0.00172756
308 90001 28.2087 -0.000990422
309 90001 30.0095 0.000277909
310 90001 29.9461 0.0058441
311 90001 31.6672 0.0424101
312 90001 31.625 -0.0265854
313 90001 26.3327 0.000775214
314 90001 26.1819 0.000172612
315 90001 27.8243 -0.000714894
316 90001 28.0003 -0.00130921
317 90001 29.8882 -0.000188172
318 90001 29.833 0.00536231
319 90001 31.5646 0.0177409
320 90001 31.5098 0.0447642
321 90001 26.0517 0.000323549
322 90001 25.8772 -0.000144883
323 90001 27.7635 0.000123624
324 90001 27.8529 -0.000233657
325 90001 29.7819 0.00721399
326 90001 29.6647 -0.00109618
327 90001 31.31 -0.0105031
328 90001 31.6078 0.00157111
329 90001 25.9364 -0.000223025
330 90001 26.0181 0.000404118
331 90001 27.7667 0.000378484
332 90001 27.644 0.000245668
333 90001 29.5542 -0.00232376
334 90001 29.4885 -0.00137019
335 90001 31.2921 -0.000204739
336 90001 31.5291 0.00263058
337 90001 26.1839 0.000470293
338 90001 25.9646 0.000200091
339 90001 27.8513 0.00111107
340 90001 27.7844 -0.000688743
341 90001 29.4715 -0.000689622
342 90001 29.8341 -0.00134298
343 90001 31.5353 -0.0495796
344 90001 31.4903 -0.019465
345 90001 26.0698 -0.000423912
346 90001 26.2765 -0.0003558
347 90001 27.9659 0.000257782
348 90001 27.9923 -3.35758e-05
349 90001 29.8451 -0.000414985
350 90001 29.8746 0.00225513
351 90001 31.6702 0.0142988
352 90001 31.6856 0.00328981
353 90001 26.1563 -0.000799848
354 90001 26.3959 0.000363592
355 90001 28.277 0.00080541
356 90001 28.0198 0.000164754
357 90001 29.7935 -0.000616698
358 90001 29.8505 0.00125476
359 90001 31.5722 0.0185075
360 90001 31.6628 0.0115884
361 90001 26.2338 -0.000219478
362 90001 26.2591 0.000435289
363 90001 28.0953 -0.00104831
364 90001 28.099 -0.00159147
365 90001 30.0264 0.000181122
366 90001 30.0784 -0.00255555
367 90001 31.8786 0.00568969
368 90001 31.8457 0.0116109
369 90001 26.2709 0.000202288
370 90001 26.3945 -0.000350965
371 90001 28.1663 -0.000130326
372 90001 28.1211 -0.000290159
373 90001 30.1028 -0.0014051
374 90001 30.0296 -0.000369123
375 90001 31.6927 0.0143701
376 90001 31.7601 -0.0370496
377 90001 26.3343 -0.000124075
378 90001 26.4093 0.000592245
379 90001 28.3035 -0.000849474
380 90001 28.0752 0.000796209
381 90001 30.0498 -0.00232801
382 90001 29.8925 -0.000689644
383 90001 31.6591 -0.0270866
384 90001 31.7438 -0.00634835
385 90001 26.3462 -0.00123409
386 90001 26.1634 0.000898164
387 90001 28.0901 0.000229981
388 90001 27.9682 0.000119068
389 90001 29.8221 -0.00181004
390 90001 29.7977 -0.00191366
391 90001 31.594 0.0342898
392 90001 31.638 0.0133407
393 90001 26.1999 0.000741972
394 90001 26.0417 -0.000237843
395 90001 27.9579 -0.000348059
396 90001 27.9317 -3.63798e-05
397 90001 29.7276 0.00259523
398 90001 29.8153 -0.000470147
399 90001 31.5498 -0.0044766
400 90001 31.4129 0.00216548
401 90001 26.0797 0.00127512
402 90001 26.1223 -0.0012502
403 90001 27.6323 0.000987114
404 90001 27.7917 0.000150582
405 90001 29.648 -0.00685678
406 90001 29.5645 -0.00461489
407 90001 31.3896 -0.0313715
408 90001 31.6378 -0.0407464
409 90001 25.8573 -0.000747445
410 90001 26.1509 0.000434682
411 90001 27.7563 -1.18277e-05
412 90001 27.7197 -0.000448602
413 90001 29.5457 0.00453682
414 90001 29.3821 -0.000106703
415 90001 31.3485 0.0246345
416 90001 31.2963 -0.000951917
417 90001 25.9914 0.000598225
418 90001 26.0896 -0.000822436
419 90001 27.7168 -0.000890222
420 90001 27.748 -0.000626487
421 90001 29.4652 -0.00164971
422 90001 29.6306 0.00457799
423 90001 31.5592 0.0106661
424 90001 31.2166 0.0186798
425 90001 26.234 0.000893256
426 90001 26.1932 -0.000637516
427 90001 28.0436 -0.000256592
428 90001 27.982 -0.00190866
429 90001 29.7716 -0.00252424
430 90001 29.9541 0.00220607
431 90001 31.8356 0.0221298
432 90001 31.5089 0.0169899
433 90001 26.4342 -0.00038899
434 90001 26.2607 0.000562001
435 90001 27.9778 -0.00031083
436 90001 28.1222 0.000225756
437 90001 29.8953 0.00173356
438 90001 29.8429 0.00250723
439 90001 31.664 0.0270973
440 90001 31.6997 0.0412766
441 90001 26.2584 -0.000185751
442 90001 26.222 -0.000232113
443 90001 28.1387 -0.000888099
444 90001 27.935 -0.00110441
445 90001 29.9557 0.00336333
446 90001 29.8413 0.00731645
447 90001 31.7077 0.0233409
448 90001 31.4952 0.0723777
449 90001 26.2242 -0.000117684
450 90001 26.3907 -0.000256728
451 90001 28.1118 0.00100384
452 90001 27.9704 0.000872996
453 90001 30.0737 -0.00646213
454 90001 29.8505 -0.00133827
455 90001 31.7436 0.00662197
456 90001 31.7059 0.0346321
457 90001 26.0866 -0.000380249
458 90001 26.0253 0.000243965
459 90001 27.9428 0.000603896
460 90001 28.0506 -0.000762105
461 90001 29.9511 -0.00421308
462 90001 29.8513 0.00221132
463 90001 31.6416 0.00353021
464 90001 31.5681 -0.0109702
465 90001 26.2476 -0.00128545
466 90001 26.1074 -0.000702222
467 90001 27.8497 -0.000682772
468 90001 27.8583 -1.71803e-05
469 90001 29.6499 -0.000908405
470 90001 29.7325 0.00398057
471 90001 31.4786 0.0155303
472 90001 31.3549 -0.0123942
473 90001 26.1519 -0.000302683
474 90001 26.1199 -4.85425e-05
475 90001 27.9103 -0.000191421
476 90001 27.8761 0.0013589
477 90001 29.6865 0.000686693
478 90001 29.6229 -0.000538137
479 90001 31.58 -0.0322396
480 90001 31.4578 0.0135522
481 90001 26.0911 -0.000410412
482 90001 26.051 -0.00107723
483 90001 27.6627 0.000558133
484 90001 27.7756 0.00129718
485 90001 29.7141 -0.00323224
486 90001 29.6757 -0.00210996
487 90001 31.59 -0.0522763
488 90001 31.3806 -0.00427609
489 90001 25.9245 -0.00132239
490 90001 26.0933 0.00129577
491 90001 27.7159 -0.000567202
492 90001 27.8077 0.000462434
493 90001 29.5496 -0.00685772
494 90001 29.6601 -0.00102362
495 90001 31.3737 -0.000593061
496 90001 31.531 -0.0367191
497 90001 25.9776 -0.000366242
498 90001 26.0218 -0.000413406
499 90001 27.8848 0.000407405
500 90001 27.8337 -0.000118458
501 90001 29.6765 0.000191111
502 90001 29.6446 -0.000704409
503 90001 31.5545 0.0264135
504 90001 31.3243 0.0279098
505 90001 26.0567 5.64452e-05
506 90001 26.3089 -0.000589347
507 90001 28.0257 -0.00119628
508 90001 28.0327 0.00105159
509 90001 29.7346 0.00307451
510 90001 29.795 0.00282834
511 90001 31.6046 0.0290515
512 90001 31.5894 0.0340858
513 90001 26.2498 0.000417314
514 90001 26.3045 0.000508384
515 90001 27.9154 -1.5255e-05
516 90001 28.1663 0.000445631
517 90001 29.8525 -0.00235814
518 90001 29.6945 -0.00559307
519 90001 31.6818 0.00178698
520 90001 31.4298 0.0120454
521 90001 26.1651 -1.34512e-05
522 90001 26.0174 8.66229e-05
523 90001 27.9752 -0.000492197
524 90001 27.8296 0.000651419
525 90001 29.7233 0.00536504
526 90001 29.6889 -0.000633324
527 90001 31.3734 0.0428403
528 90001 31.5092 0.0110991
529 90001 26.2091 -0.000743768
530 90001 26.3174 0.000140575
531 90001 27.9787 3.96417e-05
532 90001 27.9374 -5.27464e-05
533 90001 29.8072 0.0140808
534 90001 29.8195 0.00913475
535 90001 31.5451 0.0407256
536 90001 31.5695 0.0285191
537 90001 26.0337 -0.000661471
538 90001 26.3176 -0.000431289
539 90001 27.8886 -0.00079092
540 90001 28.0494 2.57805e-05
541 90001 29.7621 0.00300231
542 90001 29.8089 0.00172332
543 90001 31.3841 0.0348473
544 90001 31.6761 0.0479569
545 90001 26.0699 0.000376224
546 90001 26.2674 0.000183326
547 90001 27.9355 0.000881159
548 90001 27.7113 -0.000756849
549 90001 29.7347 0.000160642
550 90001 29.8157 -0.00336019
551 90001 31.5156 0.00246214
552 90001 31.6614 0.00993341
553 90001 26.2141 -0.000241871
554 90001 26.0661 0.000511833
555 90001 27.8281 -0.000650947
556 90001 27.9389 0.00028033
557 90001 29.7387 0.00101749
558 90001 29.7305 -0.00416339
559 90001 31.5481 0.0291241
560 90001 31.4805 -0.00833088
561 90001 26.0484 0.00100879
562 90001 26.255 0.000175784
563 90001 27.7377 -0.00100771
564 90001 28.0315 -0.00012869
565 90001 29.588 0.00331692
566 90001 29.6205 -0.00441554
567 90001 31.4065 -0.0354898
568 90001 31.4085 0.00533489
569 90001 25.987 0.000228471
570 90001 26.0556 0.00125941
571 90001 27.9122 0.000381359
572 90001 27.814 0.000182206
573 90001 29.6566 -0.003953
574 90001 29.594 0.000772641
575 90001 31.4862 0.00958047
576 90001 31.3866 -0.0252019
577 90001 26.1732 -0.00112401
578 90001 26.2466 -0.000162675
579 90001 27.8612 0.000640517
580 90001 27.9681 -0.00137967
581 90001 29.7483 0.000670966
582 90001 29.6621 0.000133516
583 90001 31.7694 0.00607803
584 90001 31.6862 0.00299721
585 90001 26.2469 -0.00112196
586 90001 26.2328 0.000162591
587 90001 28.043 -0.000753481
588 90001 28.1338 0.000419423
589 90001 29.7901 -0.00147001
590 90001 29.9328 0.00324379
591 90001 31.6134 0.0228358
592 90001 31.5724 0.0195478
593 90001 26.3082 0.000425433
594 90001 26.3269 0.000611145
595 90001 28.1034 -0.000609414
596 90001 28.1192 -0.000479286
597 90001 29.8229 0.00266559
598 90001 29.8618 -0.005179
599 90001 31.4353 -0.0144328
600 90001 31.7549 0.00980397
601 90001 26.2707 -0.000456246
602 90001 26.2574 -0.000169732
603 90001 27.7974 0.000232329
604 90001 28.0594 -0.000153221
605 90001 29.8139 0.00303083
606 90001 29.8354 -0.00193748
607 90001 31.5872 -0.00809972
608 90001 31.5859 0.0166003
609 90001 26.1353 0.000171681
610 90001 26.0792 0.000495289
611 90001 28.0209 -0.000579434
612 90001 28.0302 -0.00034273
613 90001 29.7562 0.00371173
614 90001 29.828 -0.00984262
615 90001 31.7111 0.0184405
616 90001 31.423 -0.0224742
617 90001 26.2349 0.000831637
618 90001 26.1779 0.000647143
619 90001 28.0551 -0.000241046
620 90001 28.1047 -0.00167213
621 90001 29.9124 -0.0017984
622 90001 29.8181 -0.00351966
623 90001 31.6261 0.000144551
624 90001 31.7449 -0.0212483
625 90001 26.1494 0.000821249
626 90001 26.2784 -0.000375326
627 90001 27.7914 0.00081446
628 90001 27.8853 0.000219737
629 90001 29.7 -0.00169382
630 90001 29.7019 -0.00327444
631 90001 31.5565 -0.0140189
632 90001 31.6368 -0.0113454
633 90001 26.1568 -0.00121041
634 90001 26.2808 0.00023599
635 90001 27.8813 -3.9219e-05
636 90001 28.1227 -2.30682e-05
637 90001 29.8292 -0.00781126
638 90001 29.7453 0.00116447
639 90001 31.3374 0.00253187
640 90001 31.5195 -0.0305842
641 90001 26.2416 0.000846734
642 90001 26.1541 -0.000724355
643 90001 27.9317 0.000181635
644 90001 28.0582 -0.00147999
645 90001 29.6392 -0.00277759
646 90001 29.8112 -0.00245155
647 90001 31.5046 -0.0238251
648 90001 31.7303 -0.0384757
649 90001 26.2054 8.5381e-05
650 90001 26.161 -0.00104146
651 90001 27.7801 0.000691398
652 90001 28.1611 0.000710366
653 90001 29.5689 -0.000841811
654 90001 29.8011 -0.00194607
655 90001 31.3765 -0.0417314
656 90001 31.4756 -0.00848473
657 90001 26.0236 7.98849e-05
658 90001 26.3225 0.00209589
659 90001 28.0406 -0.000340743
660 90001 27.9505 -0.000962664
661 90001 29.7378 -0.001754
662 90001 29.9307 -0.00222797
663 90001 31.5875 -0.0309247
664 90001 31.6791 -0.00169976
665 90001 26.4393 -0.000556043
666 90001 26.362 -2.30139e-05
667 90001 28.0532 -0.00215241
668 90001 28.0802 0.000157053
669 90001 29.8392 -0.00240406
670 90001 29.9321 -0.000188758
671 90001 31.7527 0.00780637
672 90001 31.6445 -0.00757475
673 90001 26.2805 0.000797235
674 90001 26.2135 -0.0012205
675 90001 28.1083 -0.000998423
676 90001 28.1517 -0.000300585
677 90001 30.0226 0.00413637
678 90001 29.9038 0.00616823
679 90001 31.8289 0.0194848
680 90001 31.6108 0.0491087
681 90001 26.1846 0.000663037
682 90001 26.372 0.00043416
683 90001 28.0633 -0.000586346
684 90001 28.0155 -0.000983217
685 90001 29.9732 -0.00305781
686 90001 29.8616 -0.00178325
687 90001 31.7438 -0.0150426
688 90001 31.6784 0.0392551
689 90001 26.4127 0.000228988
690 90001 26.3177 7.86957e-05
691 90001 28.0398 -0.000608659
692 90001 28.1061 -0.000514116
693 90001 29.8865 -0.00233029
694 90001 29.783 0.000593061
695 90001 31.5525 -0.0163563
696 90001 31.6983 0.0157275
697 90001 26.188 0.00063012
698 90001 26.1672 0.00033793
699 90001 28.1164 -0.000119312
700 90001 27.9465 6.37771e-05
701 90001 29.8401 -0.00363648
702 90001 29.8133 -0.00118106
703 90001 31.7467 0.0106983
704 90001 31.7591 -0.0111268
705 90001 26.2418 -0.000264232
706 90001 26.4188 -0.00065403
707 90001 27.9837 -0.000614371
708 90001 28.1358 -0.000561068
709 90001 29.8291 -0.000510309
710 90001 29.8392 0.00253651
711 90001 31.5764 -0.0222537
712 90001 31.6069 -0.00418861
713 90001 26.2325 -0.00011004
714 90001 26.37 0.000667897
715 90001 28.0325 0.000395222
716 90001 28.136 0.000216218
717 90001 29.8407 -0.00171476
718 90001 29.8795 -0.00286198
719 90001 31.5072 -0.0273778
720 90001 31.5188 -0.0379592
721 90001 26.3403 0.00157061
722 90001 26.2821 -0.000306858
723 90001 28.2674 -6.41262e-05
724 90001 28.1483 0.000237858
725 90001 30.1006 -0.0167284
726 90001 29.9174 -0.00372626
727 90001 31.7058 -0.0663979
728 90001 31.8255 -0.0285377
729 90001 26.2011 1.93892e-05
730 90001 26.1893 -0.000310998
731 90001 28.0084 0.000818535
732 90001 27.9998 0.000307558
733 90001 29.8558 -0.00629817
734 90001 29.9251 -0.00222693
735 90001 31.6606 -0.020545
736 90001 31.6408 -0.0118605
737 90001 26.0844 0.000177726
738 90001 26.2242 0.000924422
739 90001 27.9909 0.00134972
740 90001 27.9471 -0.000733176
741 90001 29.983 -0.00234728
742 90001 30.0549 -0.00219064
743 90001 31.8407 -0.0249302
744 90001 31.8033 -0.0311811
745 90001 26.0768 -0.000309894
746 90001 26.3049 -0.00100442
747 90001 28.2718 -3.01506e-05
748 90001 28.1886 0.000265151
749 90001 30.0042 0.011175
750 90001 29.9661 0.00330637
751 90001 31.6952 0.0285426
752 90001 31.7947 0.0467575
753 90001 26.5113 0.000878195
754 90001 26.3873 0.000609589
755 90001 28.2646 9.86676e-05
756 90001 28.2263 -0.00092159
757 90001 29.8912 -0.000948503
758 90001 30.0564 -0.00172214
759 90001 31.7223 0.0346002
760 90001 31.9189 0.0270423
761 90001 26.2439 0.000740913
762 90001 26.2841 0.000694252
763 90001 28.0875 -0.000469696
764 90001 28.0883 0.000224223
765 90001 29.9778 0.00438803
766 90001 30.0823 -0.00222245
767 90001 31.8017 -0.0107695
768 90001 31.8186 -0.0283899
769 90001 26.3488 -0.00116062
770 90001 26.3701 -0.000299687
771 90001 28.1002 0.00166122
772 90001 28.2812 0.000198201
773 90001 29.9943 -0.00310219
774 90001 29.9751 -0.00196774
775 90001 31.8134 0.0278453
776 90001 31.8132 -0.0410238
777 90001 26.3737 -2.4857e-05
778 90001 26.1876 0.000143242
779 90001 28.2124 -0.000580963
780 90001 28.2387 -0.000230689
781 90001 29.9711 -0.00188469
782 90001 30.0187 -0.00488146
783 90001 31.6652 -0.0157026
784 90001 31.8674 -0.0304145
785 90001 26.4082 0.000766342
786 90001 26.5425 0.00068071
787 90001 28.2469 -0.000472541
788 90001 28.1909 -0.000260671
789 90001 29.9686 -0.00115756
790 90001 29.9857 0.0161996
791 90001 31.6723 0.0299102
792 90001 31.7963 0.0267551
793 90001 26.546 0.000720978
794 90001 26.4478 0.00128078
795 90001 28.1353 -0.00162704
796 90001 28.2295 0.00106648
797 90001 29.8374 -0.000970413
798 90001 29.9295 -0.00666772
799 90001 31.6961 -0.0545284
800 90001 31.5727 0.0160856
801 90002 131.905 -0.00073801
802 90002 132.121 0.00126629
803 90002 130.072 -0.000189853
804 90002 130.162 -0.000245028
805 90002 128.485 -0.00476422
806 90002 128.208 -0.000393616
807 90002 126.516 0.0350848
808 90002 126.632 -0.0107709
809 90002 131.908 -0.00057465
810 90002 132.052 -0.000112204
811 90002 130.125 -4.29997e-05
812 90002 130.051 0.000330083
813 90002 128.181 0.0074744
814 90002 128.148 0.00554375
815 90002 126.343 0.011715
816 90002 126.486 0.0315504
817 90002 132.029 8.7922e-05
818 90002 131.936 0.000222942
819 90002 130.435 -5.83027e-05
820 90002 130.062 0.00103302
821 90002 128.262 -0.00381266
822 90002 128.547 -0.00486431
823 90002 126.62 -0.0423277
824 90002 126.535 -0.0122052
825 90002 132.28 -0.000986502
826 90002 131.999 -0.00139505
827 90002 130.342 0.000952816
828 90002 130.275 0.00164061
829 90002 128.476 -0.0084159
830 90002 128.627 -0.00345474
831 90002 126.876 -0.0468737
832 90002 126.726 -0.0595238
833 90002 132.162 0.00132326
834 90002 132.207 -0.00106825
835 90002 130.454 -0.000371992
836 90002 130.276 0.000392322
837 90002 128.556 0.000656048
838 90002 128.51 0.00671837
839 90002 126.711 -0.0175502
840 90002 126.721 -0.0126982
841 90002 132.185 0.000766786
842 90002 132.136 0.000697355
843 90002 130.46 0.000309053
844 90002 130.25 0.000672987
845 90002 128.494 -0.00294508
846 90002 128.44 -0.0104628
847 90002 126.603 -0.0101339
848 90002 126.715 0.000804717
849 90002 132.226 -0.000701463
850 90002 132.081 0.00172723
851 90002 130.341 -0.0017899
852 90002 130.268 -0.000122549
853 90002 128.658 0.00162153
854 90002 128.435 -2.02414e-05
855 90002 126.777 0.0181076
856 90002 126.844 -0.00637001
857 90002 132.183 0.000786477
858 90002 132.157 -0.000191159
859 90002 130.213 -6.83392e-05
860 90002 130.462 -0.00049849
861 90002 128.463 -0.000693129
862 90002 128.327 -0.0019389
863 90002 126.66 -0.0364655
864 90002 126.505 -0.0220282
865 90002 132.112 0.000464708
866 90002 132.15 0.0018172
867 90002 130.363 0.000595937
868 90002 130.331 -0.000233957
869 90002 128.343 0.00288667
870 90002 128.353 0.00314191
871 90002 126.498 0.0402014
872 90002 126.601 0.033251
873 90002 132.067 -3.38588e-05
874 90002 132.152 -0.000274586
875 90002 130.093 0.000663994
876 90002 130.34 0.000340472
877 90002 128.357 -0.00244214
878 90002 128.264 -0.00224921
879 90002 126.565 -0.0146126
880 90002 126.481 -0.017703
881 90002 131.865 -0.000874851
882 90002 131.998 -0.00139157
883 90002 130.049 0.000851994
884 90002 130.198 0.00189031
885 90002 128.294 -0.000424991
886 90002 128.23 0.00136905
887 90002 126.425 -0.0108245
888 90002 126.476 -0.0257557
889 90002 131.987 0.000993189
890 90002 131.879 -0.000130661
891 90002 130.228 0.000848414
892 90002 130.189 -0.00183941
893 90002 128.353 -0.00218581
894 90002 128.305 0.000845955
895 90002 126.288 -0.00940241
896 90002 126.43 0.00288748
897 90002 132.063 0.00149292
898 90002 132.156 -0.00114086
899 90002 130.305 0.000361822
900 90002 130.207 -0.000643921
901 90002 128.336 -0.00295317
902 90002 128.583 0.00154311
903 90002 126.687 0.00314418
904 90002 126.617 0.00847382
905 90002 131.88 -0.00056823
906 90002 132.079 0.000924952
907 90002 130.246 -0.000725486
908 90002 130.248 0.000732626
909 90002 128.625 0.000255494
910 90002 128.673 -0.00030883
911 90002 126.868 0.00500095
912 90002 126.66 0.00810638
913 90002 132.08 0.000755826
914 90002 132.284 -0.000442956
915 90002 130.412 0.000227762
916 90002 130.439 -0.000947447
917 90002 128.563 -0.0011966
918 90002 128.525 0.000839801
919 90002 126.756 0.00570491
920 90002 126.693 0.0203801
921 90002 132.162 -0.000149822
922 90002 132.013 7.2953e-05
923 90002 130.296 0.000628544
924 90002 130.341 0.00032564
925 90002 128.465 0.000776741
926 90002 128.553 -0.00387772
927 90002 126.706 -0.0236275
928 90002 126.726 -0.00346147
929 90002 131.968 0.00132281
930 90002 132.086 0.000217024
931 90002 130.306 0.000121837
932 90002 130.177 -2.8374e-05
933 90002 128.492 -0.00605606
934 90002 128.397 -0.00520719
935 90002 126.797 -0.0067874
936 90002 126.772 -0.0141407
937 90002 132.071 0.00015158
938 90002 131.761 0.000405561
939 90002 130.186 -0.000684713
940 90002 130.221 -0.000454185
941 90002 128.44 0.00164463
942 90002 128.539 0.0006096
943 90002 126.731 0.0194517
944 90002 126.753 -0.00992787
945 90002 132.14 -0.00131717
946 90002 132.006 -0.000473917
947 90002 130.27 0.000670131
948 90002 130.263 -0.000386656
949 90002 128.435 -0.000482045
950 90002 128.324 -0.000677805
951 90002 126.416 0.0141297
952 90002 126.564 -0.0270431
953 90002 131.906 -2.71797e-05
954 90002 131.85 -0.000547705
955 90002 130.034 0.0015828
956 90002 130.1 9.90603e-06
957 90002 128.218 -0.000943871
958 90002 128.254 -0.00143886
959 90002 126.563 -0.0291549
960 90002 126.432 -0.0344907
961 90002 131.923 -0.000181941
962 90002 131.847 -0.000582039
963 90002 130.041 0.000209672
964 90002 130.116 -7.41129e-05
965 90002 128.249 -0.000989081
966 90002 128.226 -0.00331759
967 90002 126.574 0.0134945
968 90002 126.518 0.00705467
969 90002 131.821 0.000612875
970 90002 131.96 -0.000243979
971 90002 130.182 0.000150577
972 90002 129.954 0.000911584
973 90002 128.353 0.000768152
974 90002 128.247 -0.000102507
975 90002 126.362 0.00964879
976 90002 126.612 -0.0291589
977 90002 131.976 -0.00117084
978 90002 131.845 -0.00108418
979 90002 130.168 0.00063579
980 90002 129.963 0.00123854
981 90002 128.354 0.00224491
982 90002 128.408 -0.00231995
983 90002 126.742 0.0430091
984 90002 126.594 0.0198303
985 90002 131.816 -0.00111494
986 90002 132.132 0.000693534
987 90002 130.361 -0.00101469
988 90002 130.105 -0.00154314
989 90002 128.525 0.000686976
990 90002 128.537 -0.0014914
991 90002 126.624 0.022664
992 90002 126.735 0.0285114
993 90002 132.261 0.000953401
994 90002 132.298 -0.000210645
995 90002 130.433 0.000863155
996 90002 130.466 0.000143521
997 90002 128.631 0.00169151
998 90002 128.526 -0.00529862
999 90002 126.632 0.000573724
1000 90002 126.633 -0.00271624
1001 90002 132.095 -0.000812138
1002 90002 132.057 0.00049622
1003 90002 130.149 -0.00013886
1004 90002 130.419 -0.000414217
1005 90002 128.569 -0.00375266
1006 90002 128.446 0.0036629
1007 90002 126.812 0.00413592
1008 90002 126.816 -0.00160524
1009 90002 132.08 0.000616049
1010 90002 131.991 -0.000885786
1011 90002 130.259 0.00146892
1012 90002 130.195 0.00112225
1013 90002 128.549 -0.000746383
1014 90002 128.517 -0.00042336
1015 90002 126.827 -0.0237433
1016 90002 126.921 -0.0267758
1017 90002 132.12 -0.000862133
1018 90002 131.976 -0.000393954
1019 90002 130.184 0.0011263
1020 90002 130.436 0.00192806
1021 90002 128.45 -0.00398664
1022 90002 128.329 -0.00231955
1023 90002 126.782 -0.0505639
1024 90002 126.527 -0.014153
1025 90002 131.987 0.0006074
1026 90002 131.91 -0.000757693
1027 90002 130.192 -2.43054e-05
1028 90002 130.203 0.000564984
1029 90002 128.493 -0.0109557
1030 90002 128.339 -0.00374549
1031 90002 126.599 -0.0363144
1032 90002 126.521 -0.054857
1033 90002 131.836 0.000129082
1034 90002 132.04 0.000707914
1035 90002 129.967 -0.000604546
1036 90002 130.073 0.000457995
1037 90002 128.232 -0.00514378
1038 90002 128.213 4.78842e-06
1039 90002 126.524 -0.0271972
1040 90002 126.426 0.0016217
1041 90002 131.913 0.000925761
1042 90002 131.818 -6.6177e-06
1043 90002 130.01 0.00112195
1044 90002 130.031 -0.000234153
1045 90002 128.32 -0.0017656
1046 90002 128.32 -0.0077186
1047 90002 126.498 -0.0236002
1048 90002 126.615 -0.0372375
1049 90002 131.831 -0.000425321
1050 90002 131.917 -7.51729e-06
1051 90002 130.087 -0.000238191
1052 90002 130.014 0.00115546
1053 90002 128.213 -0.0016256
1054 90002 128.175 -0.00257674
1055 90002 126.449 0.0188199
1056 90002 126.52 0.00556419
1057 90002 131.873 -0.00116531
1058 90002 131.864 0.00131903
1059 90002 129.909 0.000109948
1060 90002 130.099 -0.00177839
1061 90002 128.146 0.0207203
1062 90002 128.296 -0.00147549
1063 90002 126.631 0.0129302
1064 90002 126.444 0.0247727
1065 90002 131.85 0.00023069
1066 90002 132.106 -0.000182275
1067 90002 130.417 0.0017152
1068 90002 130.211 0.000350326
1069 90002 128.399 -0.00200315
1070 90002 128.444 -0.00283291
1071 90002 126.787 -0.0159455
1072 90002 126.744 -0.0060038
1073 90002 132.228 -8.44634e-05
1074 90002 132.252 -3.1418e-05
1075 90002 130.461 -0.00058132
1076 90002 130.422 -0.000652453
1077 90002 128.536 0.000901003
1078 90002 128.539 -0.00227116
1079 90002 126.754 0.0199938
1080 90002 126.735 -0.0106596
1081 90002 132.399 -0.000141087
1082 90002 132.065 0.00217411
1083 90002 130.364 -0.00110367
1084 90002 130.405 -0.000588155
1085 90002 128.596 0.00349543
1086 90002 128.575 0.00495534
1087 90002 126.589 0.0199747
1088 90002 126.835 0.016043
1089 90002 131.851 -0.000205072
1090 90002 132.091 0.000337947
1091 90002 130.229 0.000631937
1092 90002 130.244 -7.07054e-05
1093 90002 128.616 -0.000324975
1094 90002 128.441 0.00115313
1095 90002 126.631 -0.20303
1096 90002 126.854 -0.0192636
1097 90002 132.118 -0.000792074
1098 90002 132.067 0.00109707
1099 90002 130.261 -0.000820373
1100 90002 130.163 -0.000305255
1101 90002 128.399 0.00945165
1102 90002 128.428 0.0149291
1103 90002 126.524 0.00977402
1104 90002 126.678 0.0402835
1105 90002 132.133 0.0011417
1106 90002 131.963 -0.000562706
1107 90002 130.097 -0.000213518
1108 90002 130.283 -0.00121326
1109 90002 128.302 -0.00234788
1110 90002 128.395 0.00425188
1111 90002 126.4 0.0214187
1112 90002 126.498 0.0362213
1113 90002 132.154 -0.000768326
1114 90002 131.903 -7.29796e-07
1115 90002 130.173 0.000789278
1116 90002 130.069 0.000179603
1117 90002 128.267 -0.00217647
1118 90002 128.237 0.000190266
1119 90002 126.389 -0.00849852
1120 90002 126.54 0.0491583
1121 90002 131.78 -0.00119353
1122 90002 131.801 -0.00124539
1123 90002 129.982 0.000255125
1124 90002 130.04 -0.000254435
1125 90002 128.311 -0.0100217
1126 90002 128.179 0.000549903
1127 90002 126.527 -0.037061
1128 90002 126.518 -0.0103581
1129 90002 131.776 -0.000252684
1130 90002 131.822 0.000120088
1131 90002 130 0.00121437
1132 90002 129.995 0.000697688
1133 90002 128.209 -0.00263916
1134 90002 128.194 0.0169975
1135 90002 126.482 0.0159754
1136 90002 126.34 0.0308762
1137 90002 131.969 0.00119919
1138 90002 131.86 0.000734908
1139 90002 130.18 -0.000543099
1140 90002 130.128 0.000479938
1141 90002 128.293 -0.00645393
1142 90002 128.296 -0.00483973
1143 90002 126.459 -0.040195
1144 90002 126.52 -0.00056529
1145 90002 132.028 -0.000258272
1146 90002 132.193 -0.000451421
1147 90002 130.445 -0.0014824
1148 90002 130.283 0.000636535
1149 90002 128.463 0.00132579
1150 90002 128.588 0.00201925
1151 90002 126.689 -0.00428818
1152 90002 126.602 0.0211651
1153 90002 132.116 0.00154005
1154 90002 132.072 0.000870856
1155 90002 130.31 -0.000542107
1156 90002 130.353 -0.000645872
1157 90002 128.434 -0.0176774
1158 90002 128.299 -0.00137865
1159 90002 126.746 -0.0376996
1160 90002 126.669 -0.00254518
1161 90002 131.938 0.000165982
1162 90002 132.206 -0.00207223
1163 90002 130.338 -0.00054628
1164 90002 130.24 -0.000441345
1165 90002 128.646 -0.00156505
1166 90002 128.408 0.00283361
1167 90002 126.809 0.0645646
1168 90002 126.733 0.0539037
1169 90002 132.185 0.00102511
1170 90002 132.024 4.20418e-05
1171 90002 130.312 -0.000810367
1172 90002 130.326 0.00117372
1173 90002 128.612 0.00108926
1174 90002 128.469 -0.00226368
1175 90002 126.676 -0.00654974
1176 90002 126.78 0.0332992
1177 90002 132.173 8.18111e-05
1178 90002 132.088 5.80096e-05
1179 90002 130.238 0.000522091
1180 90002 130.315 -0.000585964
1181 90002 128.401 0.00603205
1182 90002 128.469 -0.00278633
1183 90002 126.617 0.0370343
1184 90002 126.637 -0.00957369
1185 90002 131.939 5.60781e-05
1186 90002 131.938 0.000761284
1187 90002 130.193 0.000763362
1188 90002 130.049 -0.000435593
1189 90002 128.429 0.00109594
1190 90002 128.33 0.000401799
1191 90002 126.514 0.00779555
1192 90002 126.657 0.0207325
1193 90002 132.034 -0.00043379
1194 90002 131.751 0.00114757
1195 90002 129.994 -6.50298e-05
1196 90002 130.116 -0.000776427
1197 90002 128.326 0.00468201
1198 90002 128.173 -0.000615915
1199 90002 126.412 -0.00266167
1200 90002 126.497 0.0152872
1201 90002 131.817 0.000241375
1202 90002 131.613 -9.36819e-05
1203 90002 129.947 0.00131219
1204 90002 129.883 0.000345927
1205 90002 128.202 0.00359608
1206 90002 128.228 -0.000467689
1207 90002 126.321 0.00703902
1208 90002 126.492 0.00546771
1209 90002 131.729 -0.000114269
1210 90002 131.915 -0.000542599
1211 90002 130.061 -0.000728739
1212 90002 129.978 -0.000617862
1213 90002 128.236 0.00447798
1214 90002 128.219 0.016977
1215 90002 126.556 0.0704733
1216 90002 126.369 -0.00514735
1217 90002 131.886 -0.000206656
1218 90002 132.106 -0.000622119
1219 90002 130.226 -0.000172912
1220 90002 130.147 -0.000446666
1221 90002 128.392 0.00593025
1222 90002 128.585 0.000394672
1223 90002 126.684 0.0127136
1224 90002 126.788 0.0378896
1225 90002 132.11 0.000568174
1226 90002 132.123 0.00176125
1227 90002 130.444 0.000197245
1228 90002 130.291 -0.00105551
1229 90002 128.535 -0.00379953
1230 90002 128.474 -0.00126716
1231 90002 126.505 0.0244551
1232 90002 126.809 -0.0109669
1233 90002 132.092 0.000539137
1234 90002 132.058 -0.000559483
1235 90002 130.268 0.000633356
1236 90002 130.28 -0.000951327
1237 90002 128.543 0.0153526
1238 90002 128.46 0.000557652
1239 90002 126.62 0.0497106
1240 90002 126.76 -0.00366985
1241 90002 132.081 0.000150922
1242 90002 132.029 -0.000350351
1243 90002 130.347 0.000517449
1244 90002 130.242 -0.000719638
1245 90002 128.535 0.0111872
1246 90002 128.563 -0.00507468
1247 90002 126.73 0.0191592
1248 90002 126.747 -0.00390879
1249 90002 132.003 0.00127202
1250 90002 132.127 -0.000132313
1251 90002 130.334 3.12838e-05
1252 90002 130.231 -8.97965e-05
1253 90002 128.444 -0.00247388
1254 90002 128.431 0.00119296
1255 90002 126.575 -0.0413159
1256 90002 126.792 -0.00407274
1257 90002 132.113 -6.13657e-05
1258 90002 131.888 -0.000586088
1259 90002 130.266 5.30048e-05
1260 90002 130.201 0.000585038
1261 90002 128.549 -0.00156913
1262 90002 128.475 -0.00148937
1263 90002 126.666 0.00733117
1264 90002 126.514 0.0119529
1265 90002 132.052 -0.000874705
1266 90002 131.958 -5.32303e-05
1267 90002 130.039 -0.000551592
1268 90002 130.164 -0.000501179
1269 90002 128.271 0.00468191
1270 90002 128.343 -0.000932351
1271 90002 126.5 0.00561584
1272 90002 126.582 -0.000920435
1273 90002 131.979 0.00126205
1274 90002 131.848 -0.00024008
1275 90002 130.099 -0.000523015
1276 90002 130.242 0.00109583
1277 90002 128.188 -0.000943023
1278 90002 128.235 -0.00150132
1279 90002 126.34 0.0420537
1280 90002 126.399 0.0358935
1281 90002 131.698 0.000207443
1282 90002 131.775 -0.0010153
1283 90002 129.886 -0.00079222
1284 90002 129.825 -0.000464093
1285 90002 128.215 -0.00307263
1286 90002 128.081 0.00419543
1287 90002 126.507 -0.00879885
1288 90002 126.678 0.0400845
1289 90002 131.809 0.000842155
1290 90002 132.026 0.000349279
1291 90002 130.219 -0.000285905
1292 90002 129.89 0.00151997
1293 90002 128.222 -0.00105067
1294 90002 128.3 0.00332818
1295 90002 126.389 0.0516705
1296 90002 126.41 0.00173872
1297 90002 131.911 -0.000490413
1298 90002 132.109 0.000609447
1299 90002 130.274 -0.000213173
1300 90002 130.28 -0.000657352
1301 90002 128.346 0.00492838
1302 90002 128.468 8.87898e-05
1303 90002 126.624 0.0339419
1304 90002 126.522 0.000869279
1305 90002 131.925 0.00132357
1306 90002 132.213 0.000992385
1307 90002 130.319 -0.00128883
1308 90002 130.387 -0.000269017
1309 90002 128.526 0.000151604
1310 90002 128.658 -0.00269155
1311 90002 126.875 0.00801876
1312 90002 126.807 0.00437125
1313 90002 132.067 -0.000598298
1314 90002 132.04 -0.00040036
1315 90002 130.182 -9.4951e-05
1316 90002 130.434 0.000554517
1317 90002 128.422 0.00537272
1318 90002 128.452 0.00314938
1319 90002 126.781 0.0145466
1320 90002 126.876 0.0175085
1321 90002 132.002 -0.00113453
1322 90002 131.882 0.00172546
1323 90002 130.214 -0.000529228
1324 90002 130.314 -0.000192366
1325 90002 128.45 -0.00513563
1326 90002 128.515 -0.0027279
1327 90002 126.754 -0.0277524
1328 90002 126.772 -0.0225119
1329 90002 132.13 -0.000222225
1330 90002 132.059 -0.00133992
1331 90002 130.278 0.00118664
1332 90002 130.254 0.00134786
1333 90002 128.517 -0.00115053
1334 90002 128.425 -0.00125875
1335 90002 126.668 -0.0199437
1336 90002 126.627 0.0344408
1337 90002 132.27 0.000505463
1338 90002 131.985 4.78242e-05
1339 90002 130.178 0.000187617
1340 90002 130.11 0.000413614
1341 90002 128.384 -0.00201101
1342 90002 128.364 -0.00120317
1343 90002 126.605 -0.0258942
1344 90002 126.707 0.00164804
1345 90002 131.886 4.93966e-05
1346 90002 131.968 -8.7513e-05
1347 90002 130.034 0.000146364
1348 90002 130.074 0.00110434
1349 90002 128.29 -0.00396368
1350 90002 128.228 -0.00746034
1351 90002 126.546 0.0299173
1352 90002 126.463 -0.0283041
1353 90002 131.811 -0.000155385
1354 90002 131.653 9.98516e-05
1355 90002 129.997 -0.000458421
1356 90002 130.116 -0.000364325
1357 90002 128.277 -0.00122688
1358 90002 128.274 0.00801107
1359 90002 126.311 0.00541876
1360 90002 126.446 0.00978943
1361 90002 131.798 -0.00118193
1362 90002 132.021 -0.000602013
1363 90002 130.095 -0.000453949
1364 90002 130.061 -0.00107311
1365 90002 128.206 0.00802187
1366 90002 128.145 0.000390196
1367 90002 126.339 0.0341754
1368 90002 126.498 0.0181733
1369 90002 131.763 -0.00100439
1370 90002 131.969 0.000307355
1371 90002 130.205 0.00119609
1372 90002 130.179 0.00011656
1373 90002 128.36 -0.00182622
1374 90002 128.381 -0.000455339
1375 90002 126.488 -0.00857007
1376 90002 126.499 -0.0372736
1377 90002 131.974 -0.000291229
1378 90002 132.317 -0.00118023
1379 90002 130.329 -0.00111992
1380 90002 130.367 0.00109087
1381 90002 128.446 -0.000676551
1382 90002 128.619 0.0120958
1383 90002 126.76 0.00994063
1384 90002 126.771 0.0258645
1385 90002 132.218 -0.000895139
1386 90002 132.217 0.000155787
1387 90002 130.456 -0.000499165
1388 90002 130.48 -0.000782801
1389 90002 128.652 0.00671841
1390 90002 128.599 0.0027105
1391 90002 126.912 -0.0144586
1392 90002 126.823 0.0380806
1393 90002 132.114 -0.000453317
1394 90002 132.35 -0.000992052
1395 90002 130.305 0.000432439
1396 90002 130.518 0.000737296
1397 90002 128.606 -0.000423532
1398 90002 128.55 -0.00145956
1399 90002 126.735 -0.0138771
1400 90002 126.706 -0.00517535
1401 90002 132.025 0.000800136
1402 90002 131.776 -0.000687798
1403 90002 130.287 -0.000452128
1404 90002 130.288 -0.00026157
1405 90002 128.578 0.000243419
1406 90002 128.562 0.00411521
1407 90002 126.767 0.0207103
1408 90002 126.774 0.0155713
1409 90002 132.147 0.000778332
1410 90002 132.02 -0.00024407
1411 90002 130.333 -0.000928313
1412 90002 130.317 0.000755896
1413 90002 128.425 -0.00198166
1414 90002 128.36 -0.000464953
1415 90002 126.583 -0.0118101
1416 90002 126.614 -0.0133548
1417 90002 131.987 -0.00142582
1418 90002 132.076 -0.000155091
1419 90002 130.208 -0.000192491
1420 90002 130.19 0.000475249
1421 90002 128.379 -0.00161412
1422 90002 128.422 -0.00241266
1423 90002 126.473 -0.0246749
1424 90002 126.697 0.000152891
1425 90002 131.877 -0.000131566
1426 90002 131.769 2.18725e-05
1427 90002 130.069 0.00203546
1428 90002 130.094 0.00108448
1429 90002 128.269 -0.00195224
1430 90002 128.284 -0.00238377
1431 90002 126.458 0.00534536
1432 90002 126.594 -0.021587
1433 90002 131.959 0.000877324
1434 90002 131.788 0.000697681
1435 90002 130.049 -0.000510268
1436 90002 130.02 -0.000462335
1437 90002 128.367 -0.000398806
1438 90002 128.296 0.00654169
1439 90002 126.549 0.0164701
1440 90002 126.664 0.0209482
1441 90002 132.046 0.00129425
1442 90002 132.008 -0.000470668
1443 90002 130.055 0.00122829
1444 90002 130.135 -0.00129352
1445 90002 128.231 0.0139923
1446 90002 128.388 -0.00282616
1447 90002 126.612 0.00756105
1448 90002 126.474 0.0194157
1449 90002 132.095 -1.46812e-05
1450 90002 132.073 -0.00160538
1451 90002 130.326 -0.000286015
1452 90002 130.162 0.00156214
1453 90002 128.493 -0.00373671
1454 90002 128.36 -0.00239435
1455 90002 126.799 -0.0158112
1456 90002 126.492 -0.0300239
1457 90002 132.228 0.000720179
1458 90002 132.307 7.33542e-06
1459 90002 130.412 0.000314924
1460 90002 130.231 0.000494272
1461 90002 128.593 0.000532042
1462 90002 128.585 0.000319293
1463 90002 126.87 0.0272853
1464 90002 126.55 0.0108874
1465 90002 132.303 -0.000224877
1466 90002 132.261 0.00112437
1467 90002 130.506 0.000161575
1468 90002 130.506 0.000616296
1469 90002 128.683 0.000449215
1470 90002 128.705 -0.0038218
1471 90002 126.844 0.0253793
1472 90002 126.875 -0.0246544
1473 90002 132.345 0.000426465
1474 90002 132.144 -0.000796852
1475 90002 130.548 0.000637911
1476 90002 130.556 0.000530614
1477 90002 128.61 -0.0039214
1478 90002 128.648 0.0017064
1479 90002 126.832 -0.0265616
1480 90002 126.783 0.00494647
1481 90002 132.313 -0.000371061
1482 90002 132.062 -0.00110455
1483 90002 130.255 0.000580834
1484 90002 130.406 0.000192744
1485 90002 128.566 -0.00568827
1486 90002 128.751 -3.54552e-05
1487 90002 126.827 0.0108465
1488 90002 126.997 -0.00892257
1489 90002 132.084 0.00166496
1490 90002 132.083 0.0005813
1491 90002 130.153 -0.000713239
1492 90002 130.258 0.000486156
1493 90002 128.481 -0.000447956
1494 90002 128.408 0.000749533
1495 90002 126.661 0.0140923
1496 90002 126.811 -0.0277966
1497 90002 131.798 -0.000749187
1498 90002 131.731 -0.000381929
1499 90002 129.946 0.00046601
1500 90002 130.143 -0.00122017
1501 90002 128.436 0.00845062
1502 90002 128.313 -0.00206998
1503 90002 126.634 -0.0218344
1504 90002 126.664 -0.00385056
1505 90002 131.764 -0.000965201
1506 90002 131.89 0.000951172
1507 90002 129.989 -0.000113989
1508 90002 130.104 -0.000605996
1509 90002 128.296 -0.0049977
1510 90002 128.301 0.00237481
1511 90002 126.439 -0.0157953
1512 90002 126.576 -0.0300117
1513 90002 131.892 -0.000365256
1514 90002 131.912 -0.000338579
1515 90002 130.157 -0.000952902
1516 90002 129.942 0.000449233
1517 90002 128.279 0.00158239
1518 90002 128.317 0.00269685
1519 90002 126.649 0.0215117
1520 90002 126.39 0.00329569
1521 90002 131.89 0.000106393
1522 90002 131.767 0.000532308
1523 90002 130.075 -3.07916e-05
1524 90002 130.08 0.000672362
1525 90002 128.208 0.00525597
1526 90002 128.378 -0.00167565
1527 90002 126.538 -0.0238923
1528 90002 126.706 -0.0065102
1529 90002 131.88 -0.000218095
1530 90002 132.006 0.000632251
1531 90002 130.123 0.00145631
1532 90002 130.035 0.00123814
1533 90002 128.327 -0.0018139
1534 90002 128.284 -0.000495821
1535 90002 126.701 -0.0269363
1536 90002 126.622 -0.00161689
1537 90002 132.087 0.000141927
1538 90002 132.238 0.00105294
1539 90002 130.47 0.00112682
1540 90002 130.234 -0.00228309
1541 90002 128.428 0.00414644
1542 90002 128.448 -0.000636315
1543 90002 126.657 -0.0053903
1544 90002 126.546 -0.0106505
1545 90002 132.27 -0.000175129
1546 90002 132.286 0.00144086
1547 90002 130.438 -0.000431568
1548 90002 130.486 -0.00146668
1549 90002 128.578 0.000196851
1550 90002 128.685 -0.000111512
1551 90002 126.802 -0.0101586
1552 90002 126.664 -0.040563
1553 90002 132.184 -0.0011437
1554 90002 132.285 0.00076566
1555 90002 130.456 0.000963841
1556 90002 130.516 0.00118539
1557 90002 128.558 0.00100753
1558 90002 128.626 -0.0039493
1559 90002 126.843 0.00485819
1560 90002 126.702 -0.0119952
1561 90002 132.251 -0.000100126
1562 90002 132.517 0.000372062
1563 90002 130.42 5.26258e-05
1564 90002 130.473 0.000128891
1565 90002 128.633 0.00271308
1566 90002 128.483 0.00151386
1567 90002 126.753 0.0291337
1568 90002 126.813 -0.009919
1569 90002 132.234 0.000293382
1570 90002 132.233 0.000690461
1571 90002 130.329 -0.000595853
1572 90002 130.454 -0.00172541
1573 90002 128.503 -0.00227606
1574 90002 128.505 0.000318288
1575 90002 126.726 -0.0234564
1576 90002 126.739 0.0198565
1577 90002 131.937 0.00178373
1578 90002 131.897 -0.000800519
1579 90002 130.167 0.000451412
1580 90002 130.367 0.000599485
1581 90002 128.384 -0.00240544
1582 90002 128.487 -0.00735996
1583 90002 126.675 -0.0395671
1584 90002 126.69 -0.0284932
1585 90002 132.01 0.00060739
1586 90002 131.841 -0.00071365
1587 90002 130.157 0.000590932
1588 90002 130.32 0.000218918
1589 90002 128.273 5.1448e-05
1590 90002 128.561 -0.000529876
1591 90002 126.55 0.0350756
1592 90002 126.614 -0.0198951
1593 90002 131.873 0.000390554
1594 90002 131.879 -0.00035981
1595 90002 130.049 -0.000230643
1596 90002 130.178 -0.000617289
1597 90002 128.224 0.00432366
1598 90002 128.289 -0.00796001
1599 90002 126.492 0.0431358
1600 90002 126.658 -0.0119617
