ITEM: TIMESTEP
5
ITEM: NUMBER OF ATOMS
1600
ITEM: BOX BOUNDS pp pp pp
0.0000000000000000e+00 3.6149999999999999e+01
0.0000000000000000e+00 3.6149999999999999e+01
0.0000000000000000e+00 1.5834399999999999e+02
ITEM: ATOMS id mol z q
1 90001 25.9995 -0.00466542
2 90001 25.9995 -0.00464206
3 90001 27.8065 2.22947e-05
4 90001 27.8065 0.000200368
5 90001 29.6145 -0.000657317
6 90001 29.6145 -0.00254637
7 90001 31.4215 0.000201666
8 90001 31.4215 -0.0306758
9 90001 25.9995 -0.00469956
10 90001 25.9995 -0.00471808
11 90001 27.8065 -0.000389973
12 90001 27.8065 -8.57287e-05
13 90001 29.6145 0.00118109
14 90001 29.6145 -0.000151072
15 90001 31.4215 0.0214194
16 90001 31.4215 -0.0030981
17 90001 25.9995 -0.0047536
18 90001 25.9995 -0.00478176
19 90001 27.8065 -0.000811511
20 90001 27.8065 -0.000452474
21 90001 29.6145 -0.000797532
22 90001 29.6145 0.00111629
23 90001 31.4215 0.0601324
24 90001 31.4215 0.0160171
25 90001 25.9995 -0.00471162
26 90001 25.9995 -0.00471391
27 90001 27.8065 -0.000514666
28 90001 27.8065 -0.000664888
29 90001 29.6145 0.00181786
30 90001 29.6145 -1.72074e-05
31 90001 31.4215 0.0352216
32 90001 31.4215 0.0554802
33 90001 25.9995 -0.00467293
34 90001 25.9995 -0.00459035
35 90001 27.8065 -4.53875e-05
36 90001 27.8065 4.10867e-05
37 90001 29.6145 -0.000242588
38 90001 29.6145 -0.000218899
39 90001 31.4215 0.0111051
40 90001 31.4215 0.00499563
41 90001 25.9995 -0.00464003
42 90001 25.9995 -0.00458748
43 90001 27.8065 -5.26741e-05
44 90001 27.8065 0.000156286
45 90001 29.6145 0.000233029
46 90001 29.6145 0.000122965
47 90001 31.4215 0.00793599
48 90001 31.4215 0.000332178
49 90001 25.9995 -0.0047039
50 90001 25.9995 -0.00461535
51 90001 27.8065 -8.54329e-05
52 90001 27.8065 -0.000129385
53 90001 29.6145 -0.000857466
54 90001 29.6145 0.000362259
55 90001 31.4215 -0.00281653
56 90001 31.4215 0.0170276
57 90001 25.9995 -0.00479677
58 90001 25.9995 -0.00465253
59 90001 27.8065 -0.000580082
60 90001 27.8065 -0.000303266
61 90001 29.6145 -0.000426215
62 90001 29.6145 0.000561059
63 90001 31.4215 0.0603039
64 90001 31.4215 0.025721
65 90001 25.9995 -0.00464519
66 90001 25.9995 -0.00469805
67 90001 27.8065 -0.000283842
68 90001 27.8065 -0.000535149
69 90001 29.6145 0.00337657
70 90001 29.6145 0.000694269
71 90001 31.4215 0.0429274
72 90001 31.4215 0.0609528
73 90001 25.9995 -0.00464541
74 90001 25.9995 -0.00458769
75 90001 27.8065 0.000161391
76 90001 27.8065 -1.22574e-05
77 90001 29.6145 0.00115154
78 90001 29.6145 -0.000354604
79 90001 31.4215 -0.000598867
80 90001 31.4215 0.0079567
81 90001 25.9995 -0.00462926
82 90001 25.9995 -0.00462543
83 90001 27.8065 0.000238489
84 90001 27.8065 0.000109982
85 90001 29.6145 -0.00419692
86 90001 29.6145 0.0011056
87 90001 31.4215 -0.0347591
88 90001 31.4215 -0.0360324
89 90001 25.9995 -0.00470745
90 90001 25.9995 -0.00468678
91 90001 27.8065 -0.000197879
92 90001 27.8065 -0.000280319
93 90001 29.6145 -0.000945263
94 90001 29.6145 -1.71817e-05
95 90001 31.4215 0.00845592
96 90001 31.4215 0.0306123
97 90001 25.9995 -0.00471995
98 90001 25.9995 -0.00470804
99 90001 27.8065 -0.000270326
100 90001 27.8065 -0.000159354
101 90001 29.6145 -0.000384011
102 90001 29.6145 -0.00102189
103 90001 31.4215 0.0256541
104 90001 31.4215 0.00411438
105 90001 25.9995 -0.00466239
106 90001 25.9995 -0.00457371
107 90001 27.8065 -7.52643e-05
108 90001 27.8065 0.000149141
109 90001 29.6145 0.000422184
110 90001 29.6145 -0.00408185
111 90001 31.4215 0.0057875
112 90001 31.4215 -0.0240959
113 90001 25.9995 -0.00458011
114 90001 25.9995 -0.00443298
115 90001 27.8065 0.000388643
116 90001 27.8065 0.000455902
117 90001 29.6145 -0.000309953
118 90001 29.6145 -0.000660042
119 90001 31.4215 -0.026695
120 90001 31.4215 -0.0330005
121 90001 25.9995 -0.00454674
122 90001 25.9995 -0.00451891
123 90001 27.8065 0.000178196
124 90001 27.8065 0.000343673
125 90001 29.6145 -0.00142721
126 90001 29.6145 5.41594e-05
127 90001 31.4215 0.000347221
128 90001 31.4215 -0.0307062
129 90001 25.9995 -0.00455178
130 90001 25.9995 -0.00452533
131 90001 27.8065 -0.000415746
132 90001 27.8065 -0.000261937
133 90001 29.6145 0.00121465
134 90001 29.6145 0.000775813
135 90001 31.4215 0.0379879
136 90001 31.4215 0.0310663
137 90001 25.9995 -0.00459222
138 90001 25.9995 -0.0045268
139 90001 27.8065 -9.68298e-05
140 90001 27.8065 -5.95126e-05
141 90001 29.6145 0.000104991
142 90001 29.6145 -5.20103e-05
143 90001 31.4215 0.00971924
144 90001 31.4215 0.0133228
145 90001 25.9995 -0.00467759
146 90001 25.9995 -0.0045411
147 90001 27.8065 -8.64071e-05
148 90001 27.8065 0.000212668
149 90001 29.6145 -0.000330703
150 90001 29.6145 -0.000967385
151 90001 31.4215 -0.00617535
152 90001 31.4215 0.00385189
153 90001 25.9995 -0.00462117
154 90001 25.9995 -0.00453418
155 90001 27.8065 0.000529373
156 90001 27.8065 0.000384571
157 90001 29.6145 -0.00170151
158 90001 29.6145 -0.00334921
159 90001 31.4215 -0.0329403
160 90001 31.4215 -0.017975
161 90001 25.9995 -0.00465248
162 90001 25.9995 -0.00456458
163 90001 27.8065 -3.968e-05
164 90001 27.8065 -0.000201707
165 90001 29.6145 0.00191653
166 90001 29.6145 -0.00125103
167 90001 31.4215 0.0241764
168 90001 31.4215 0.0073232
169 90001 25.9995 -0.00472005
170 90001 25.9995 -0.00464962
171 90001 27.8065 -0.000142813
172 90001 27.8065 -4.25191e-06
173 90001 29.6145 0.000655908
174 90001 29.6145 0.000815676
175 90001 31.4215 0.0105003
176 90001 31.4215 0.00245044
177 90001 25.9995 -0.00465314
178 90001 25.9995 -0.00467119
179 90001 27.8065 -4.80834e-05
180 90001 27.8065 -9.15683e-05
181 90001 29.6145 -0.000164321
182 90001 29.6145 2.54272e-05
183 90001 31.4215 -0.0016049
184 90001 31.4215 -0.00516009
185 90001 25.9995 -0.00465694
186 90001 25.9995 -0.00466052
187 90001 27.8065 0.000432102
188 90001 27.8065 0.000116995
189 90001 29.6145 -0.000832086
190 90001 29.6145 -2.15863e-05
191 90001 31.4215 -0.0353187
192 90001 31.4215 0.00697053
193 90001 25.9995 -0.00453727
194 90001 25.9995 -0.00449144
195 90001 27.8065 0.000392855
196 90001 27.8065 0.000500129
197 90001 29.6145 -0.000503708
198 90001 29.6145 0.000242764
199 90001 31.4215 -0.0172125
200 90001 31.4215 -0.0184371
201 90001 25.9995 -0.00446394
202 90001 25.9995 -0.00448212
203 90001 27.8065 0.000170735
204 90001 27.8065 0.000399874
205 90001 29.6145 0.000374223
206 90001 29.6145 0.00202038
207 90001 31.4215 0.0237178
208 90001 31.4215 0.00450544
209 90001 25.9995 -0.00448831
210 90001 25.9995 -0.00447836
211 90001 27.8065 9.9231e-05
212 90001 27.8065 -0.000102185
213 90001 29.6145 0.000943627
214 90001 29.6145 0.000526217
215 90001 31.4215 0.0164424
216 90001 31.4215 0.0346431
217 90001 25.9995 -0.00449297
218 90001 25.9995 -0.0045023
219 90001 27.8065 0.00014353
220 90001 27.8065 0.000187563
221 90001 29.6145 -0.000106345
222 90001 29.6145 -0.000123672
223 90001 31.4215 -0.00049507
224 90001 31.4215 0.00456419
225 90001 25.9995 -0.00452976
226 90001 25.9995 -0.00452091
227 90001 27.8065 0.000252316
228 90001 27.8065 0.000353265
229 90001 29.6145 0.000465088
230 90001 29.6145 -0.00221956
231 90001 31.4215 0.00799132
232 90001 31.4215 0.00154211
233 90001 25.9995 -0.00454595
234 90001 25.9995 -0.00449741
235 90001 27.8065 0.000344241
236 90001 27.8065 0.000336054
237 90001 29.6145 -3.98288e-06
238 90001 29.6145 0.000654547
239 90001 31.4215 0.0100394
240 90001 31.4215 0.00104341
241 90001 25.9995 -0.00453686
242 90001 25.9995 -0.00458597
243 90001 27.8065 0.000248743
244 90001 27.8065 0.000236467
245 90001 29.6145 -0.00294599
246 90001 29.6145 -0.000249393
247 90001 31.4215 -0.0231307
248 90001 31.4215 0.00456807
249 90001 25.9995 -0.00464334
250 90001 25.9995 -0.00461206
251 90001 27.8065 1.54891e-05
252 90001 27.8065 0.000427234
253 90001 29.6145 1.67519e-05
254 90001 29.6145 0.000742663
255 90001 31.4215 0.00639675
256 90001 31.4215 -0.0220125
257 90001 25.9995 -0.00466038
258 90001 25.9995 -0.0046919
259 90001 27.8065 0.000307898
260 90001 27.8065 0.000471753
261 90001 29.6145 -0.000599977
262 90001 29.6145 -0.00184889
263 90001 31.4215 -0.0217984
264 90001 31.4215 -0.0385687
265 90001 25.9995 -0.00464016
266 90001 25.9995 -0.00466089
267 90001 27.8065 0.000116194
268 90001 27.8065 0.000383485
269 90001 29.6145 0.000291535
270 90001 29.6145 0.000825344
271 90001 31.4215 -0.0025979
272 90001 31.4215 -0.0494258
273 90001 25.9995 -0.00457287
274 90001 25.9995 -0.00458687
275 90001 27.8065 0.000384176
276 90001 27.8065 0.000333856
277 90001 29.6145 0.000107975
278 90001 29.6145 -0.00115572
279 90001 31.4215 -0.0169657
280 90001 31.4215 -0.00253433
281 90001 25.9995 -0.00450731
282 90001 25.9995 -0.00444734
283 90001 27.8065 0.000318938
284 90001 27.8065 0.00044405
285 90001 29.6145 -0.000150032
286 90001 29.6145 -0.00101284
287 90001 31.4215 0.00794917
288 90001 31.4215 -0.0413817
289 90001 25.9995 -0.00443954
290 90001 25.9995 -0.00450907
291 90001 27.8065 0.000142157
292 90001 27.8065 0.000224598
293 90001 29.6145 0.000635641
294 90001 29.6145 -0.000566252
295 90001 31.4215 0.00883272
296 90001 31.4215 -0.0170578
297 90001 25.9995 -0.00445282
298 90001 25.9995 -0.00456616
299 90001 27.8065 0.000278464
300 90001 27.8065 4.16984e-05
301 90001 29.6145 0.000718863
302 90001 29.6145 0.000240273
303 90001 31.4215 -0.00659922
304 90001 31.4215 0.0127027
305 90001 25.9995 -0.00448604
306 90001 25.9995 -0.00449113
307 90001 27.8065 0.000323302
308 90001 27.8065 0.000171738
309 90001 29.6145 -0.00417606
310 90001 29.6145 -0.00502175
311 90001 31.4215 -0.0348441
312 90001 31.4215 -0.022055
313 90001 25.9995 -0.00452235
314 90001 25.9995 -0.00456293
315 90001 27.8065 0.000110333
316 90001 27.8065 0.000352471
317 90001 29.6145 -0.000495466
318 90001 29.6145 0.000996325
319 90001 31.4215 0.0066996
320 90001 31.4215 -0.00104115
321 90001 25.9995 -0.0045572
322 90001 25.9995 -0.00452195
323 90001 27.8065 0.00030681
324 90001 27.8065 0.000227562
325 90001 29.6145 0.00046811
326 90001 29.6145 -1.38926e-05
327 90001 31.4215 -0.0236706
328 90001 31.4215 -0.0119721
329 90001 25.9995 -0.00458686
330 90001 25.9995 -0.00456797
331 90001 27.8065 0.00070635
332 90001 27.8065 0.000660194
333 90001 29.6145 -0.000739252
334 90001 29.6145 -0.00456604
335 90001 31.4215 -0.0645482
336 90001 31.4215 -0.0475431
337 90001 25.9995 -0.00462079
338 90001 25.9995 -0.00463382
339 90001 27.8065 0.000960787
340 90001 27.8065 0.00114425
341 90001 29.6145 -0.0039113
342 90001 29.6145 -0.00274515
343 90001 31.4215 -0.116646
344 90001 31.4215 -0.10651
345 90001 25.9995 -0.00458565
346 90001 25.9995 -0.00468795
347 90001 27.8065 0.000505424
348 90001 27.8065 0.000783602
349 90001 29.6145 -0.00305839
350 90001 29.6145 -0.00087062
351 90001 31.4215 -0.0439493
352 90001 31.4215 -0.0952359
353 90001 25.9995 -0.00468607
354 90001 25.9995 -0.00468466
355 90001 27.8065 0.000293128
356 90001 27.8065 0.000158223
357 90001 29.6145 0.000578979
358 90001 29.6145 -0.000609848
359 90001 31.4215 -0.0254526
360 90001 31.4215 -0.00785495
361 90001 25.9995 -0.00448204
362 90001 25.9995 -0.004676
363 90001 27.8065 0.000476004
364 90001 27.8065 1.29194e-05
365 90001 29.6145 -0.00607612
366 90001 29.6145 -0.00128536
367 90001 31.4215 -0.0353666
368 90001 31.4215 -0.0144379
369 90001 25.9995 -0.00451812
370 90001 25.9995 -0.00465232
371 90001 27.8065 -0.000120014
372 90001 27.8065 -7.35912e-06
373 90001 29.6145 -0.000297921
374 90001 29.6145 0.000676408
375 90001 31.4215 0.00977441
376 90001 31.4215 0.0104164
377 90001 25.9995 -0.00456914
378 90001 25.9995 -0.00465824
379 90001 27.8065 -3.16643e-05
380 90001 27.8065 -0.000282864
381 90001 29.6145 0.000482973
382 90001 29.6145 0.000809621
383 90001 31.4215 0.0292307
384 90001 31.4215 0.040124
385 90001 25.9995 -0.00462425
386 90001 25.9995 -0.00458454
387 90001 27.8065 0.000185233
388 90001 27.8065 -0.000145613
389 90001 29.6145 0.000190716
390 90001 29.6145 0.00038837
391 90001 31.4215 -0.00300334
392 90001 31.4215 0.0232397
393 90001 25.9995 -0.00460509
394 90001 25.9995 -0.00458039
395 90001 27.8065 0.000240291
396 90001 27.8065 -9.0224e-06
397 90001 29.6145 -0.000964165
398 90001 29.6145 -0.000331754
399 90001 31.4215 -0.00420069
400 90001 31.4215 0.010078
401 90001 25.9995 -0.00460797
402 90001 25.9995 -0.00458192
403 90001 27.8065 0.000188765
404 90001 27.8065 -0.000263254
405 90001 29.6145 3.23287e-05
406 90001 29.6145 0.000978044
407 90001 31.4215 0.0015551
408 90001 31.4215 0.0336296
409 90001 25.9995 -0.00462617
410 90001 25.9995 -0.00456782
411 90001 27.8065 0.0006884
412 90001 27.8065 0.000336942
413 90001 29.6145 0.000234724
414 90001 29.6145 0.000258082
415 90001 31.4215 -0.0719015
416 90001 31.4215 -0.0106665
417 90001 25.9995 -0.00462569
418 90001 25.9995 -0.00461062
419 90001 27.8065 0.000843432
420 90001 27.8065 0.000943094
421 90001 29.6145 -0.00187056
422 90001 29.6145 -0.00269212
423 90001 31.4215 -0.0841586
424 90001 31.4215 -0.0698888
425 90001 25.9995 -0.00466741
426 90001 25.9995 -0.00469712
427 90001 27.8065 8.8224e-05
428 90001 27.8065 0.000433059
429 90001 29.6145 0.00048996
430 90001 29.6145 0.00200004
431 90001 31.4215 -0.00739127
432 90001 31.4215 -0.0113348
433 90001 25.9995 -0.00473138
434 90001 25.9995 -0.0047358
435 90001 27.8065 -0.000155671
436 90001 27.8065 3.03045e-05
437 90001 29.6145 -0.000131632
438 90001 29.6145 -5.93997e-06
439 90001 31.4215 0.0129435
440 90001 31.4215 0.00276018
441 90001 25.9995 -0.00469157
442 90001 25.9995 -0.0047175
443 90001 27.8065 -0.000180591
444 90001 27.8065 -0.000436395
445 90001 29.6145 0.000773204
446 90001 29.6145 -0.000383249
447 90001 31.4215 0.0186574
448 90001 31.4215 0.0208091
449 90001 25.9995 -0.00467876
450 90001 25.9995 -0.00477228
451 90001 27.8065 -0.000260405
452 90001 27.8065 -0.000573108
453 90001 29.6145 -0.000356877
454 90001 29.6145 -0.000489048
455 90001 31.4215 0.0243058
456 90001 31.4215 0.0177287
457 90001 25.9995 -0.00476915
458 90001 25.9995 -0.00481793
459 90001 27.8065 -0.000433836
460 90001 27.8065 -0.000485211
461 90001 29.6145 -0.000386696
462 90001 29.6145 -0.00107936
463 90001 31.4215 0.0274239
464 90001 31.4215 0.0234171
465 90001 25.9995 -0.00471533
466 90001 25.9995 -0.00469546
467 90001 27.8065 -0.000315998
468 90001 27.8065 -0.000585516
469 90001 29.6145 -0.000607433
470 90001 29.6145 -0.000279364
471 90001 31.4215 0.0170194
472 90001 31.4215 0.0320127
473 90001 25.9995 -0.00466124
474 90001 25.9995 -0.00461327
475 90001 27.8065 -0.000113478
476 90001 27.8065 -0.000529455
477 90001 29.6145 -0.000103455
478 90001 29.6145 0.000787707
479 90001 31.4215 0.0183895
480 90001 31.4215 0.0411219
481 90001 25.9995 -0.004671
482 90001 25.9995 -0.00460646
483 90001 27.8065 -0.000110455
484 90001 27.8065 -0.000164517
485 90001 29.6145 0.00159811
486 90001 29.6145 -0.000301166
487 90001 31.4215 0.0106276
488 90001 31.4215 0.0175661
489 90001 25.9995 -0.00456069
490 90001 25.9995 -0.00457302
491 90001 27.8065 0.000688354
492 90001 27.8065 0.00044095
493 90001 29.6145 0.000126383
494 90001 29.6145 -0.000592314
495 90001 31.4215 -0.050129
496 90001 31.4215 -0.036272
497 90001 25.9995 -0.00458847
498 90001 25.9995 -0.00460999
499 90001 27.8065 0.000493436
500 90001 27.8065 0.000563472
501 90001 29.6145 -0.0006487
502 90001 29.6145 -0.000143224
503 90001 31.4215 -0.0509599
504 90001 31.4215 -0.0444557
505 90001 25.9995 -0.00464059
506 90001 25.9995 -0.00468308
507 90001 27.8065 -0.000132474
508 90001 27.8065 0.00023673
509 90001 29.6145 -0.00168945
510 90001 29.6145 0.000282355
511 90001 31.4215 -0.00440131
512 90001 31.4215 -0.00778079
513 90001 25.9995 -0.00474675
514 90001 25.9995 -0.00469691
515 90001 27.8065 -0.000123919
516 90001 27.8065 -0.000235578
517 90001 29.6145 0.00035446
518 90001 29.6145 -0.00034728
519 90001 31.4215 0.0110425
520 90001 31.4215 0.0114368
521 90001 25.9995 -0.00474163
522 90001 25.9995 -0.00471056
523 90001 27.8065 -0.00029342
524 90001 27.8065 -0.000193135
525 90001 29.6145 -0.000746062
526 90001 29.6145 -0.00250889
527 90001 31.4215 0.00970278
528 90001 31.4215 -0.00708038
529 90001 25.9995 -0.00487854
530 90001 25.9995 -0.00487477
531 90001 27.8065 -0.000606353
532 90001 27.8065 -0.000852188
533 90001 29.6145 1.63543e-05
534 90001 29.6145 0.00213356
535 90001 31.4215 0.0475991
536 90001 31.4215 0.0637357
537 90001 25.9995 -0.00489142
538 90001 25.9995 -0.00487818
539 90001 27.8065 -0.000761414
540 90001 27.8065 -0.00102172
541 90001 29.6145 -0.000520552
542 90001 29.6145 -0.00048302
543 90001 31.4215 0.0488768
544 90001 31.4215 0.0662252
545 90001 25.9995 -0.00482725
546 90001 25.9995 -0.00481074
547 90001 27.8065 -0.000772725
548 90001 27.8065 -0.000836833
549 90001 29.6145 -0.000744891
550 90001 29.6145 0.000515003
551 90001 31.4215 0.0631165
552 90001 31.4215 0.046451
553 90001 25.9995 -0.00477751
554 90001 25.9995 -0.0047721
555 90001 27.8065 -0.000610498
556 90001 27.8065 -0.000758728
557 90001 29.6145 0.00448204
558 90001 29.6145 0.000544493
559 90001 31.4215 0.0572611
560 90001 31.4215 0.0700361
561 90001 25.9995 -0.00468436
562 90001 25.9995 -0.00465004
563 90001 27.8065 0.000107973
564 90001 27.8065 -0.000156249
565 90001 29.6145 -0.000831765
566 90001 29.6145 -7.23653e-05
567 90001 31.4215 -0.0210451
568 90001 31.4215 0.00785007
569 90001 25.9995 -0.00459109
570 90001 25.9995 -0.00465921
571 90001 27.8065 0.000671076
572 90001 27.8065 0.000400587
573 90001 29.6145 -0.00034561
574 90001 29.6145 -0.000974221
575 90001 31.4215 -0.0436973
576 90001 31.4215 -0.0334926
577 90001 25.9995 -0.00458837
578 90001 25.9995 -0.00461112
579 90001 27.8065 0.000141999
580 90001 27.8065 0.00036217
581 90001 29.6145 0.000454038
582 90001 29.6145 -0.000102646
583 90001 31.4215 -0.0102249
584 90001 31.4215 -0.0292259
585 90001 25.9995 -0.00466379
586 90001 25.9995 -0.0047067
587 90001 27.8065 -0.000102139
588 90001 27.8065 -0.000188773
589 90001 29.6145 0.00060166
590 90001 29.6145 -0.000721852
591 90001 31.4215 0.00559099
592 90001 31.4215 0.0202308
593 90001 25.9995 -0.00467526
594 90001 25.9995 -0.00469505
595 90001 27.8065 -0.000169825
596 90001 27.8065 -0.000590861
597 90001 29.6145 -0.00123821
598 90001 29.6145 0.000399775
599 90001 31.4215 0.002954
600 90001 31.4215 0.0471601
601 90001 25.9995 -0.00479895
602 90001 25.9995 -0.0047399
603 90001 27.8065 -0.000537237
604 90001 27.8065 -0.000476345
605 90001 29.6145 -0.00230534
606 90001 29.6145 -0.0061339
607 90001 31.4215 0.014769
608 90001 31.4215 0.00571446
609 90001 25.9995 -0.00487826
610 90001 25.9995 -0.00487431
611 90001 27.8065 -0.00115596
612 90001 27.8065 -0.000616326
613 90001 29.6145 -0.000491899
614 90001 29.6145 -0.000401657
615 90001 31.4215 0.0800741
616 90001 31.4215 0.0429132
617 90001 25.9995 -0.0048774
618 90001 25.9995 -0.0048468
619 90001 27.8065 -0.000939623
620 90001 27.8065 -0.000648642
621 90001 29.6145 0.000355117
622 90001 29.6145 -0.00163686
623 90001 31.4215 0.0528209
624 90001 31.4215 0.0279638
625 90001 25.9995 -0.00482337
626 90001 25.9995 -0.00480619
627 90001 27.8065 -0.000620309
628 90001 27.8065 -0.000700626
629 90001 29.6145 0.00218671
630 90001 29.6145 3.40216e-05
631 90001 31.4215 0.0447735
632 90001 31.4215 0.0422252
633 90001 25.9995 -0.00483735
634 90001 25.9995 -0.0047699
635 90001 27.8065 -0.000591074
636 90001 27.8065 -0.000554269
637 90001 29.6145 0.000161533
638 90001 29.6145 0.000126629
639 90001 31.4215 0.0432432
640 90001 31.4215 0.0293494
641 90001 25.9995 -0.0047341
642 90001 25.9995 -0.00471958
643 90001 27.8065 -3.08315e-05
644 90001 27.8065 -0.000327816
645 90001 29.6145 7.88151e-05
646 90001 29.6145 0.000843393
647 90001 31.4215 0.00157641
648 90001 31.4215 0.0233463
649 90001 25.9995 -0.00468209
650 90001 25.9995 -0.00473714
651 90001 27.8065 0.000468907
652 90001 27.8065 0.000239346
653 90001 29.6145 -0.00162716
654 90001 29.6145 -0.00455074
655 90001 31.4215 -0.0614772
656 90001 31.4215 -0.0218014
657 90001 25.9995 -0.00465277
658 90001 25.9995 -0.00469978
659 90001 27.8065 -0.000200713
660 90001 27.8065 1.40775e-05
661 90001 29.6145 -0.00343962
662 90001 29.6145 0.000989822
663 90001 31.4215 0.02279
664 90001 31.4215 -0.015671
665 90001 25.9995 -0.00470764
666 90001 25.9995 -0.00478542
667 90001 27.8065 -0.000800203
668 90001 27.8065 -0.00081047
669 90001 29.6145 0.00141087
670 90001 29.6145 0.000609076
671 90001 31.4215 0.0741166
672 90001 31.4215 0.0935727
673 90001 25.9995 -0.00471132
674 90001 25.9995 -0.00469998
675 90001 27.8065 -0.000846482
676 90001 27.8065 -0.000907567
677 90001 29.6145 0.00606085
678 90001 29.6145 0.00214923
679 90001 31.4215 0.116217
680 90001 31.4215 0.103041
681 90001 25.9995 -0.0047452
682 90001 25.9995 -0.00473334
683 90001 27.8065 -0.000603945
684 90001 27.8065 -0.000399804
685 90001 29.6145 -0.00286787
686 90001 29.6145 -0.000912189
687 90001 31.4215 0.0258166
688 90001 31.4215 0.0283396
689 90001 25.9995 -0.0048017
690 90001 25.9995 -0.00475307
691 90001 27.8065 -0.000479431
692 90001 27.8065 -0.000255938
693 90001 29.6145 0.000415523
694 90001 29.6145 -0.00127698
695 90001 31.4215 0.0280287
696 90001 31.4215 0.0117868
697 90001 25.9995 -0.00485777
698 90001 25.9995 -0.00474908
699 90001 27.8065 -0.000211815
700 90001 27.8065 -0.000334493
701 90001 29.6145 -0.00272593
702 90001 29.6145 -0.00396425
703 90001 31.4215 -0.0383103
704 90001 31.4215 -0.00333888
705 90001 25.9995 -0.00481436
706 90001 25.9995 -0.00465548
707 90001 27.8065 -0.000265058
708 90001 27.8065 -0.000225557
709 90001 29.6145 -0.00451617
710 90001 29.6145 -0.00182735
711 90001 31.4215 0.0140765
712 90001 31.4215 -0.00349689
713 90001 25.9995 -0.00479623
714 90001 25.9995 -0.00471158
715 90001 27.8065 -0.000214672
716 90001 27.8065 -0.00028823
717 90001 29.6145 0.000141576
718 90001 29.6145 2.57637e-05
719 90001 31.4215 0.0165597
720 90001 31.4215 0.00717908
721 90001 25.9995 -0.00463913
722 90001 25.9995 -0.0047265
723 90001 27.8065 -4.39186e-05
724 90001 27.8065 -0.000221382
725 90001 29.6145 -0.00250057
726 90001 29.6145 -5.21921e-05
727 90001 31.4215 0.00348752
728 90001 31.4215 -0.0200412
729 90001 25.9995 -0.00470517
730 90001 25.9995 -0.00475809
731 90001 27.8065 6.79433e-05
732 90001 27.8065 -9.0192e-05
733 90001 29.6145 -0.00237086
734 90001 29.6145 -0.00061017
735 90001 31.4215 -0.0324795
736 90001 31.4215 0.00941648
737 90001 25.9995 -0.0047077
738 90001 25.9995 -0.00470155
739 90001 27.8065 -0.000577105
740 90001 27.8065 -0.000536904
741 90001 29.6145 -0.00087113
742 90001 29.6145 0.00190231
743 90001 31.4215 0.0509409
744 90001 31.4215 0.0234452
745 90001 25.9995 -0.00478598
746 90001 25.9995 -0.00475255
747 90001 27.8065 -0.000710466
748 90001 27.8065 -0.000815535
749 90001 29.6145 0.000606337
750 90001 29.6145 -0.000164605
751 90001 31.4215 0.0554253
752 90001 31.4215 0.0830406
753 90001 25.9995 -0.00473634
754 90001 25.9995 -0.00467559
755 90001 27.8065 -0.000632376
756 90001 27.8065 -0.00046606
757 90001 29.6145 -0.000777229
758 90001 29.6145 0.000292454
759 90001 31.4215 0.0475625
760 90001 31.4215 0.0350851
761 90001 25.9995 -0.00468961
762 90001 25.9995 -0.00466329
763 90001 27.8065 3.77687e-05
764 90001 27.8065 -0.000219322
765 90001 29.6145 -0.000380105
766 90001 29.6145 -0.000155061
767 90001 31.4215 -0.0118745
768 90001 31.4215 0.0125612
769 90001 25.9995 -0.00470468
770 90001 25.9995 -0.00470465
771 90001 27.8065 -7.58324e-05
772 90001 27.8065 2.85476e-05
773 90001 29.6145 -0.00426928
774 90001 29.6145 -0.00308794
775 90001 31.4215 -0.0142068
776 90001 31.4215 -0.02973
777 90001 25.9995 -0.00478645
778 90001 25.9995 -0.00474022
779 90001 27.8065 -0.000208613
780 90001 27.8065 -0.000360372
781 90001 29.6145 0.000509965
782 90001 29.6145 0.000464058
783 90001 31.4215 0.0185078
784 90001 31.4215 0.0311532
785 90001 25.9995 -0.0047233
786 90001 25.9995 -0.0047758
787 90001 27.8065 -0.000242441
788 90001 27.8065 -0.000509447
789 90001 29.6145 -0.00269297
790 90001 29.6145 -0.00152346
791 90001 31.4215 -0.0234057
792 90001 31.4215 0.0338097
793 90001 25.9995 -0.00469133
794 90001 25.9995 -0.00461559
795 90001 27.8065 -0.000125401
796 90001 27.8065 9.69622e-05
797 90001 29.6145 -0.00291442
798 90001 29.6145 -0.00263716
799 90001 31.4215 -0.0161255
800 90001 31.4215 0.00290945
801 90002 132.343 0.00469574
802 90002 132.343 0.00464901
803 90002 130.536 -5.83206e-05
804 90002 130.536 -1.57418e-05
805 90002 128.728 2.88394e-05
806 90002 128.728 -0.00028479
807 90002 126.921 -0.0143626
808 90002 126.921 -0.00050955
809 90002 132.343 0.0046649
810 90002 132.343 0.00466229
811 90002 130.536 0.000116816
812 90002 130.536 -9.00077e-05
813 90002 128.728 -0.000690533
814 90002 128.728 0.000144265
815 90002 126.921 -0.0141264
816 90002 126.921 0.00287374
817 90002 132.343 0.00461775
818 90002 132.343 0.00461362
819 90002 130.536 0.000451666
820 90002 130.536 0.000209836
821 90002 128.728 -0.000502072
822 90002 128.728 -0.00216792
823 90002 126.921 -0.0441891
824 90002 126.921 -0.0235802
825 90002 132.343 0.00466283
826 90002 132.343 0.00467244
827 90002 130.536 0.00056824
828 90002 130.536 0.000579414
829 90002 128.728 -0.00145569
830 90002 128.728 -0.000664205
831 90002 126.921 -0.0478422
832 90002 126.921 -0.06687
833 90002 132.343 0.00461263
834 90002 132.343 0.00458387
835 90002 130.536 0.000110501
836 90002 130.536 0.000437033
837 90002 128.728 -0.000271934
838 90002 128.728 -0.000568029
839 90002 126.921 -0.021119
840 90002 126.921 -0.0406879
841 90002 132.343 0.00459603
842 90002 132.343 0.00446708
843 90002 130.536 -0.000385943
844 90002 130.536 -0.000112836
845 90002 128.728 -0.000324233
846 90002 128.728 0.000797156
847 90002 126.921 0.00951607
848 90002 126.921 -0.00209393
849 90002 132.343 0.00448475
850 90002 132.343 0.00443127
851 90002 130.536 -0.000234354
852 90002 130.536 -0.00011699
853 90002 128.728 0.00107138
854 90002 128.728 -0.00145658
855 90002 126.921 0.00727466
856 90002 126.921 0.00302142
857 90002 132.343 0.00454833
858 90002 132.343 0.004493
859 90002 130.536 0.0002861
860 90002 130.536 -2.511e-05
861 90002 128.728 -0.00140003
862 90002 128.728 -0.0016647
863 90002 126.921 -0.0393553
864 90002 126.921 -0.0306716
865 90002 132.343 0.00462845
866 90002 132.343 0.00456651
867 90002 130.536 0.000106377
868 90002 130.536 0.000104418
869 90002 128.728 -0.000812693
870 90002 128.728 0.00015182
871 90002 126.921 -0.0208252
872 90002 126.921 -0.0324254
873 90002 132.343 0.00459644
874 90002 132.343 0.00460057
875 90002 130.536 3.98885e-05
876 90002 130.536 -0.000135858
877 90002 128.728 -0.00182361
878 90002 128.728 0.000374439
879 90002 126.921 0.0027999
880 90002 126.921 0.00722406
881 90002 132.343 0.00466535
882 90002 132.343 0.00457771
883 90002 130.536 6.06949e-05
884 90002 130.536 4.92902e-05
885 90002 128.728 -0.000579824
886 90002 128.728 -0.00081699
887 90002 126.921 -0.00685074
888 90002 126.921 -0.0145227
889 90002 132.343 0.00465414
890 90002 132.343 0.00459172
891 90002 130.536 -6.36339e-05
892 90002 130.536 -0.000459545
893 90002 128.728 -0.00032343
894 90002 128.728 0.000295759
895 90002 126.921 0.0130075
896 90002 126.921 0.0204279
897 90002 132.343 0.00455593
898 90002 132.343 0.00471453
899 90002 130.536 0.000485299
900 90002 130.536 -0.000154562
901 90002 128.728 -0.000177074
902 90002 128.728 -0.00157932
903 90002 126.921 -0.0397193
904 90002 126.921 0.0176232
905 90002 132.343 0.00464346
906 90002 132.343 0.00462555
907 90002 130.536 0.00070257
908 90002 130.536 0.000382401
909 90002 128.728 -0.00136049
910 90002 128.728 -0.0010706
911 90002 126.921 -0.0578833
912 90002 126.921 -0.0514933
913 90002 132.343 0.00464298
914 90002 132.343 0.00458398
915 90002 130.536 0.00029282
916 90002 130.536 0.000508063
917 90002 128.728 -0.000674974
918 90002 128.728 -0.00241864
919 90002 126.921 -0.0442053
920 90002 126.921 -0.0400424
921 90002 132.343 0.00463082
922 90002 132.343 0.00450574
923 90002 130.536 -4.7692e-05
924 90002 130.536 0.000298911
925 90002 128.728 -0.00282875
926 90002 128.728 -0.0016679
927 90002 126.921 -0.00917852
928 90002 126.921 -0.0540794
929 90002 132.343 0.00447271
930 90002 132.343 0.00440892
931 90002 130.536 3.24427e-06
932 90002 130.536 0.000233356
933 90002 128.728 -0.00112287
934 90002 128.728 -0.0010779
935 90002 126.921 -0.0321386
936 90002 126.921 -0.0388541
937 90002 132.343 0.00448222
938 90002 132.343 0.00449775
939 90002 130.536 -1.48741e-05
940 90002 130.536 0.000109104
941 90002 128.728 -0.00149312
942 90002 128.728 8.98509e-05
943 90002 126.921 -0.0159068
944 90002 126.921 -0.00640808
945 90002 132.343 0.00455055
946 90002 132.343 0.00457841
947 90002 130.536 1.47019e-06
948 90002 130.536 -4.77277e-06
949 90002 128.728 -0.00156082
950 90002 128.728 -0.00128877
951 90002 126.921 -0.00832322
952 90002 126.921 -0.000426424
953 90002 132.343 0.00466149
954 90002 132.343 0.00459354
955 90002 130.536 2.30109e-05
956 90002 130.536 -2.05901e-06
957 90002 128.728 -0.00044538
958 90002 128.728 -0.000591775
959 90002 126.921 -0.00430922
960 90002 126.921 -0.00963486
961 90002 132.343 0.00459533
962 90002 132.343 0.00458882
963 90002 130.536 -0.000155789
964 90002 130.536 4.27513e-05
965 90002 128.728 -0.000899753
966 90002 128.728 0.000996346
967 90002 126.921 0.0128249
968 90002 126.921 0.00166414
969 90002 132.343 0.00459904
970 90002 132.343 0.00457194
971 90002 130.536 -0.000574872
972 90002 130.536 -0.000871346
973 90002 128.728 0.00214685
974 90002 128.728 0.000960414
975 90002 126.921 0.0480346
976 90002 126.921 0.0904865
977 90002 132.343 0.00463886
978 90002 132.343 0.00463347
979 90002 130.536 -0.000227464
980 90002 130.536 -0.000652394
981 90002 128.728 0.00011692
982 90002 128.728 -2.62704e-05
983 90002 126.921 0.0279919
984 90002 126.921 0.0429481
985 90002 132.343 0.00464306
986 90002 132.343 0.00466869
987 90002 130.536 0.000289715
988 90002 130.536 0.000105269
989 90002 128.728 -0.00320908
990 90002 128.728 -0.00125383
991 90002 126.921 -0.0266059
992 90002 126.921 -0.0156283
993 90002 132.343 0.00464846
994 90002 132.343 0.00466947
995 90002 130.536 0.000299572
996 90002 130.536 9.71192e-05
997 90002 128.728 0.000420797
998 90002 128.728 0.00143755
999 90002 126.921 -0.0216935
1000 90002 126.921 0.00068519
1001 90002 132.343 0.00454661
1002 90002 132.343 0.00457712
1003 90002 130.536 0.000188319
1004 90002 130.536 -0.000100355
1005 90002 128.728 -0.000131621
1006 90002 128.728 0.000245627
1007 90002 126.921 -0.0211362
1008 90002 126.921 0.00682272
1009 90002 132.343 0.00453445
1010 90002 132.343 0.00452703
1011 90002 130.536 0.000417804
1012 90002 130.536 0.000321811
1013 90002 128.728 -0.00144769
1014 90002 128.728 -0.00454018
1015 90002 126.921 -0.0777745
1016 90002 126.921 -0.0678755
1017 90002 132.343 0.00450586
1018 90002 132.343 0.00451854
1019 90002 130.536 0.000200616
1020 90002 130.536 0.000553179
1021 90002 128.728 -0.000782364
1022 90002 128.728 -0.00107591
1023 90002 126.921 -0.0210341
1024 90002 126.921 -0.0818662
1025 90002 132.343 0.0045432
1026 90002 132.343 0.00464135
1027 90002 130.536 0.000257743
1028 90002 130.536 0.000545524
1029 90002 128.728 8.28244e-05
1030 90002 128.728 -0.000622008
1031 90002 126.921 -0.0304393
1032 90002 126.921 -0.0488419
1033 90002 132.343 0.00457501
1034 90002 132.343 0.00465015
1035 90002 130.536 0.00021141
1036 90002 130.536 0.00050815
1037 90002 128.728 -0.00112129
1038 90002 128.728 -0.00109062
1039 90002 126.921 -0.017149
1040 90002 126.921 -0.050211
1041 90002 132.343 0.00466343
1042 90002 132.343 0.00466502
1043 90002 130.536 -0.00042147
1044 90002 130.536 0.000347468
1045 90002 128.728 -0.00085109
1046 90002 128.728 -0.000332275
1047 90002 126.921 0.0321754
1048 90002 126.921 -0.027365
1049 90002 132.343 0.00469686
1050 90002 132.343 0.00462942
1051 90002 130.536 -0.000784744
1052 90002 130.536 -0.000518552
1053 90002 128.728 0.00279268
1054 90002 128.728 0.000982
1055 90002 126.921 0.074885
1056 90002 126.921 0.0515501
1057 90002 132.343 0.00457401
1058 90002 132.343 0.00469978
1059 90002 130.536 -0.000473426
1060 90002 130.536 -0.000766787
1061 90002 128.728 0.00110334
1062 90002 128.728 0.000528922
1063 90002 126.921 0.0472796
1064 90002 126.921 0.060667
1065 90002 132.343 0.00472089
1066 90002 132.343 0.00480919
1067 90002 130.536 0.000138382
1068 90002 130.536 -0.000489774
1069 90002 128.728 -7.92269e-05
1070 90002 128.728 -0.000470509
1071 90002 126.921 -0.00999772
1072 90002 126.921 0.0354031
1073 90002 132.343 0.00470375
1074 90002 132.343 0.0047002
1075 90002 130.536 -8.61212e-05
1076 90002 130.536 0.000105168
1077 90002 128.728 -0.00172699
1078 90002 128.728 -0.00421322
1079 90002 126.921 -0.016568
1080 90002 126.921 -0.0117524
1081 90002 132.343 0.00462876
1082 90002 132.343 0.00473638
1083 90002 130.536 0.000106153
1084 90002 130.536 4.68989e-06
1085 90002 128.728 -0.000738675
1086 90002 128.728 0.000463888
1087 90002 126.921 -0.0148235
1088 90002 126.921 -0.00615917
1089 90002 132.343 0.00461424
1090 90002 132.343 0.00466283
1091 90002 130.536 0.000901197
1092 90002 130.536 0.000302009
1093 90002 128.728 -0.00158997
1094 90002 128.728 -8.41085e-05
1095 90002 126.921 -0.118642
1096 90002 126.921 -0.0304677
1097 90002 132.343 0.00471726
1098 90002 132.343 0.00463551
1099 90002 130.536 0.000510109
1100 90002 130.536 0.000406215
1101 90002 128.728 -0.00432559
1102 90002 128.728 -0.00267791
1103 90002 126.921 -0.0711041
1104 90002 126.921 -0.0743305
1105 90002 132.343 0.00458943
1106 90002 132.343 0.00473994
1107 90002 130.536 0.000539848
1108 90002 130.536 0.00052962
1109 90002 128.728 -0.000893063
1110 90002 128.728 -0.000251131
1111 90002 126.921 -0.0487014
1112 90002 126.921 -0.0369926
1113 90002 132.343 0.00470098
1114 90002 132.343 0.00476556
1115 90002 130.536 0.000294738
1116 90002 130.536 0.000417503
1117 90002 128.728 -0.00114945
1118 90002 128.728 -0.000172978
1119 90002 126.921 -0.0313284
1120 90002 126.921 -0.0329113
1121 90002 132.343 0.00476082
1122 90002 132.343 0.0047704
1123 90002 130.536 0.000204268
1124 90002 130.536 0.000203004
1125 90002 128.728 -0.00162598
1126 90002 128.728 -0.00147952
1127 90002 126.921 -0.0174433
1128 90002 126.921 -0.00721108
1129 90002 132.343 0.00468398
1130 90002 132.343 0.00473106
1131 90002 130.536 -0.000545824
1132 90002 130.536 -7.8189e-05
1133 90002 128.728 -0.0026631
1134 90002 128.728 -0.000326807
1135 90002 126.921 0.0535583
1136 90002 126.921 -0.000192689
1137 90002 132.343 0.00471917
1138 90002 132.343 0.00471446
1139 90002 130.536 -0.000485027
1140 90002 130.536 -0.000863535
1141 90002 128.728 0.000850492
1142 90002 128.728 0.00111551
1143 90002 126.921 0.0587334
1144 90002 126.921 0.0849354
1145 90002 132.343 0.00471685
1146 90002 132.343 0.00473485
1147 90002 130.536 -0.000127866
1148 90002 130.536 -0.000399527
1149 90002 128.728 -0.000469621
1150 90002 128.728 7.6054e-05
1151 90002 126.921 0.0202108
1152 90002 126.921 0.0564431
1153 90002 132.343 0.00468344
1154 90002 132.343 0.00478795
1155 90002 130.536 0.000212278
1156 90002 130.536 -4.55414e-05
1157 90002 128.728 0.000984667
1158 90002 128.728 1.22976e-05
1159 90002 126.921 -0.0102543
1160 90002 126.921 0.0230241
1161 90002 132.343 0.00465713
1162 90002 132.343 0.00482359
1163 90002 130.536 0.000115228
1164 90002 130.536 0.000210009
1165 90002 128.728 -0.00179203
1166 90002 128.728 -0.0052207
1167 90002 126.921 -0.0136335
1168 90002 126.921 -0.0190775
1169 90002 132.343 0.00460945
1170 90002 132.343 0.00464941
1171 90002 130.536 0.000322763
1172 90002 130.536 0.000222526
1173 90002 128.728 -0.00117671
1174 90002 128.728 -0.00278094
1175 90002 126.921 -0.0241138
1176 90002 126.921 -0.0339237
1177 90002 132.343 0.00463928
1178 90002 132.343 0.00478764
1179 90002 130.536 0.000458867
1180 90002 130.536 0.000446657
1181 90002 128.728 -0.000848724
1182 90002 128.728 -0.000222961
1183 90002 126.921 -0.0305278
1184 90002 126.921 -0.0312564
1185 90002 132.343 0.00472576
1186 90002 132.343 0.00482033
1187 90002 130.536 0.00024469
1188 90002 130.536 0.000218165
1189 90002 128.728 -0.000186388
1190 90002 128.728 0.00112286
1191 90002 126.921 -0.0153033
1192 90002 126.921 0.00642579
1193 90002 132.343 0.00472378
1194 90002 132.343 0.00477111
1195 90002 130.536 0.000352361
1196 90002 130.536 0.000375801
1197 90002 128.728 -0.000245445
1198 90002 128.728 -0.00382059
1199 90002 126.921 -0.0381306
1200 90002 126.921 -0.0354018
1201 90002 132.343 0.00477889
1202 90002 132.343 0.0047869
1203 90002 130.536 -0.000378609
1204 90002 130.536 0.000154808
1205 90002 128.728 0.00153872
1206 90002 128.728 0.0014322
1207 90002 126.921 0.0367044
1208 90002 126.921 0.0211193
1209 90002 132.343 0.00475392
1210 90002 132.343 0.00477905
1211 90002 130.536 -0.000440846
1212 90002 130.536 -0.000416815
1213 90002 128.728 0.000188607
1214 90002 128.728 2.73002e-05
1215 90002 126.921 0.0573904
1216 90002 126.921 0.0615462
1217 90002 132.343 0.00474797
1218 90002 132.343 0.00476871
1219 90002 130.536 -0.000729419
1220 90002 130.536 -0.000313662
1221 90002 128.728 0.000901883
1222 90002 128.728 0.00136538
1223 90002 126.921 0.0902355
1224 90002 126.921 0.0534306
1225 90002 132.343 0.00473062
1226 90002 132.343 0.00473707
1227 90002 130.536 -0.000332741
1228 90002 130.536 -0.000626491
1229 90002 128.728 0.00160325
1230 90002 128.728 0.000355526
1231 90002 126.921 0.0554908
1232 90002 126.921 0.0775596
1233 90002 132.343 0.00476609
1234 90002 132.343 0.00477342
1235 90002 130.536 0.000117201
1236 90002 130.536 6.9043e-05
1237 90002 128.728 -0.00143518
1238 90002 128.728 -0.000265462
1239 90002 126.921 -0.00665734
1240 90002 126.921 0.0115265
1241 90002 132.343 0.00477774
1242 90002 132.343 0.00471328
1243 90002 130.536 5.50805e-05
1244 90002 130.536 4.12175e-05
1245 90002 128.728 -0.000330586
1246 90002 128.728 0.000413156
1247 90002 126.921 -0.0188161
1248 90002 126.921 0.0221405
1249 90002 132.343 0.00479085
1250 90002 132.343 0.00480331
1251 90002 130.536 0.000349887
1252 90002 130.536 9.32635e-05
1253 90002 128.728 -0.00275838
1254 90002 128.728 -0.000180529
1255 90002 126.921 -0.0205311
1256 90002 126.921 0.0169418
1257 90002 132.343 0.00484174
1258 90002 132.343 0.004796
1259 90002 130.536 0.000460251
1260 90002 130.536 0.000439115
1261 90002 128.728 -0.0017659
1262 90002 128.728 -0.00367286
1263 90002 126.921 -0.0307189
1264 90002 126.921 -0.0259253
1265 90002 132.343 0.00482844
1266 90002 132.343 0.00480286
1267 90002 130.536 0.000157313
1268 90002 130.536 0.00038923
1269 90002 128.728 0.000291485
1270 90002 128.728 -0.0016962
1271 90002 126.921 -0.00123828
1272 90002 126.921 -0.0392909
1273 90002 132.343 0.00480299
1274 90002 132.343 0.00478323
1275 90002 130.536 8.6381e-05
1276 90002 130.536 0.000306001
1277 90002 128.728 -0.00187056
1278 90002 128.728 0.000694035
1279 90002 126.921 -0.00716076
1280 90002 126.921 0.00550049
1281 90002 132.343 0.00480947
1282 90002 132.343 0.00478835
1283 90002 130.536 -5.94587e-05
1284 90002 130.536 0.0002359
1285 90002 128.728 -0.00328427
1286 90002 128.728 0.000780929
1287 90002 126.921 0.0295188
1288 90002 126.921 -0.00934418
1289 90002 132.343 0.00480156
1290 90002 132.343 0.00482584
1291 90002 130.536 -8.83974e-05
1292 90002 130.536 6.44505e-05
1293 90002 128.728 0.000852598
1294 90002 128.728 -0.00145335
1295 90002 126.921 0.00948214
1296 90002 126.921 0.0170164
1297 90002 132.343 0.00483321
1298 90002 132.343 0.00485404
1299 90002 130.536 -0.000248875
1300 90002 130.536 0.000139207
1301 90002 128.728 -0.000810698
1302 90002 128.728 -0.000873329
1303 90002 126.921 0.0443451
1304 90002 126.921 0.00585177
1305 90002 132.343 0.00480591
1306 90002 132.343 0.00485634
1307 90002 130.536 2.24508e-05
1308 90002 130.536 -0.000158823
1309 90002 128.728 0.000298455
1310 90002 128.728 -0.00686369
1311 90002 126.921 0.00985296
1312 90002 126.921 -0.00168255
1313 90002 132.343 0.00476109
1314 90002 132.343 0.00478348
1315 90002 130.536 -1.91407e-05
1316 90002 130.536 4.06756e-05
1317 90002 128.728 -0.00159825
1318 90002 128.728 0.000652324
1319 90002 126.921 0.0241331
1320 90002 126.921 0.00705393
1321 90002 132.343 0.00473848
1322 90002 132.343 0.00476411
1323 90002 130.536 -7.87034e-05
1324 90002 130.536 -2.91364e-05
1325 90002 128.728 0.000763021
1326 90002 128.728 -0.000352115
1327 90002 126.921 0.0310364
1328 90002 126.921 0.0228708
1329 90002 132.343 0.00475357
1330 90002 132.343 0.00461535
1331 90002 130.536 0.000115025
1332 90002 130.536 0.000186342
1333 90002 128.728 0.00141065
1334 90002 128.728 -0.000786793
1335 90002 126.921 0.0153044
1336 90002 126.921 -0.00311022
1337 90002 132.343 0.0048141
1338 90002 132.343 0.00477715
1339 90002 130.536 0.000218461
1340 90002 130.536 0.000222385
1341 90002 128.728 -0.00453966
1342 90002 128.728 -0.00439602
1343 90002 126.921 -0.049153
1344 90002 126.921 -0.0165216
1345 90002 132.343 0.00481848
1346 90002 132.343 0.00479056
1347 90002 130.536 0.000318456
1348 90002 130.536 8.92386e-05
1349 90002 128.728 -0.00429454
1350 90002 128.728 0.000829526
1351 90002 126.921 0.00146732
1352 90002 126.921 0.00782464
1353 90002 132.343 0.00480458
1354 90002 132.343 0.00487727
1355 90002 130.536 8.85176e-05
1356 90002 130.536 0.00012255
1357 90002 128.728 -0.000308848
1358 90002 128.728 -0.00417756
1359 90002 126.921 -0.0234276
1360 90002 126.921 0.00167674
1361 90002 132.343 0.00480954
1362 90002 132.343 0.00481037
1363 90002 130.536 7.52676e-05
1364 90002 130.536 -7.566e-05
1365 90002 128.728 -4.90222e-05
1366 90002 128.728 -0.00044809
1367 90002 126.921 0.0142602
1368 90002 126.921 0.008694
1369 90002 132.343 0.00479095
1370 90002 132.343 0.0048211
1371 90002 130.536 0.00017722
1372 90002 130.536 7.1178e-05
1373 90002 128.728 0.000190114
1374 90002 128.728 0.000842145
1375 90002 126.921 -0.000485461
1376 90002 126.921 0.0100199
1377 90002 132.343 0.00481084
1378 90002 132.343 0.00478745
1379 90002 130.536 0.000206806
1380 90002 130.536 7.87616e-06
1381 90002 128.728 -0.00028376
1382 90002 128.728 0.00119043
1383 90002 126.921 0.00687686
1384 90002 126.921 0.00396695
1385 90002 132.343 0.00484637
1386 90002 132.343 0.00468839
1387 90002 130.536 0.00015425
1388 90002 130.536 0.000161668
1389 90002 128.728 -0.0044383
1390 90002 128.728 0.000377103
1391 90002 126.921 -0.00653725
1392 90002 126.921 0.00958987
1393 90002 132.343 0.00470533
1394 90002 132.343 0.00472677
1395 90002 130.536 -0.000234831
1396 90002 130.536 -0.000274362
1397 90002 128.728 -0.000862552
1398 90002 128.728 -0.000371731
1399 90002 126.921 0.0211218
1400 90002 126.921 0.0362522
1401 90002 132.343 0.00468486
1402 90002 132.343 0.00464773
1403 90002 130.536 0.000255523
1404 90002 130.536 -0.000166472
1405 90002 128.728 -6.49949e-05
1406 90002 128.728 -0.00251456
1407 90002 126.921 -0.0218167
1408 90002 126.921 0.0218638
1409 90002 132.343 0.00471152
1410 90002 132.343 0.00468551
1411 90002 130.536 0.000159582
1412 90002 130.536 0.000362561
1413 90002 128.728 -0.00358965
1414 90002 128.728 -0.000565033
1415 90002 126.921 -0.0185131
1416 90002 126.921 -0.0460332
1417 90002 132.343 0.00473861
1418 90002 132.343 0.00471883
1419 90002 130.536 -0.000279635
1420 90002 130.536 -0.000249992
1421 90002 128.728 0.00254359
1422 90002 128.728 0.00208059
1423 90002 126.921 0.0343462
1424 90002 126.921 0.0378799
1425 90002 132.343 0.00469652
1426 90002 132.343 0.00465186
1427 90002 130.536 -3.79939e-05
1428 90002 130.536 -0.000105775
1429 90002 128.728 -0.0001076
1430 90002 128.728 -0.000186198
1431 90002 126.921 0.0143911
1432 90002 126.921 0.0147633
1433 90002 132.343 0.00476081
1434 90002 132.343 0.00477152
1435 90002 130.536 0.000277286
1436 90002 130.536 -6.50162e-06
1437 90002 128.728 -0.000502586
1438 90002 128.728 -0.000594351
1439 90002 126.921 -0.0128038
1440 90002 126.921 0.00328819
1441 90002 132.343 0.00473743
1442 90002 132.343 0.00471265
1443 90002 130.536 -7.65894e-06
1444 90002 130.536 -0.000112876
1445 90002 128.728 0.000670257
1446 90002 128.728 0.000417569
1447 90002 126.921 0.0115511
1448 90002 126.921 0.0282203
1449 90002 132.343 0.00483034
1450 90002 132.343 0.00467424
1451 90002 130.536 0.000205973
1452 90002 130.536 -2.70096e-05
1453 90002 128.728 -8.44787e-05
1454 90002 128.728 -0.00143934
1455 90002 126.921 -0.00536966
1456 90002 126.921 0.00820434
1457 90002 132.343 0.00480572
1458 90002 132.343 0.00474639
1459 90002 130.536 2.2877e-05
1460 90002 130.536 0.000249076
1461 90002 128.728 -0.00136999
1462 90002 128.728 -0.000110263
1463 90002 126.921 0.0118635
1464 90002 126.921 -0.0177516
1465 90002 132.343 0.0047614
1466 90002 132.343 0.00467216
1467 90002 130.536 -7.94703e-05
1468 90002 130.536 5.93082e-05
1469 90002 128.728 0.000275828
1470 90002 128.728 -0.000604801
1471 90002 126.921 0.0210107
1472 90002 126.921 -0.00773555
1473 90002 132.343 0.00466718
1474 90002 132.343 0.00461082
1475 90002 130.536 -0.000382502
1476 90002 130.536 -0.000114878
1477 90002 128.728 0.00148794
1478 90002 128.728 0.000499609
1479 90002 126.921 0.0601234
1480 90002 126.921 0.0153122
1481 90002 132.343 0.00457755
1482 90002 132.343 0.00458305
1483 90002 130.536 0.000173405
1484 90002 130.536 -0.000298223
1485 90002 128.728 0.000292507
1486 90002 128.728 -0.000398267
1487 90002 126.921 -0.0241082
1488 90002 126.921 0.0230041
1489 90002 132.343 0.00460971
1490 90002 132.343 0.00462657
1491 90002 130.536 0.000464055
1492 90002 130.536 0.000314546
1493 90002 128.728 -0.00291977
1494 90002 128.728 -0.00699216
1495 90002 126.921 -0.0285261
1496 90002 126.921 -0.049986
1497 90002 132.343 0.00459476
1498 90002 132.343 0.0045513
1499 90002 130.536 3.47352e-05
1500 90002 130.536 0.000205989
1501 90002 128.728 -0.000580665
1502 90002 128.728 -0.000468723
1503 90002 126.921 0.00109849
1504 90002 126.921 -0.0468011
1505 90002 132.343 0.00460835
1506 90002 132.343 0.00463815
1507 90002 130.536 -0.000173304
1508 90002 130.536 -7.03253e-05
1509 90002 128.728 -0.000462604
1510 90002 128.728 0.000137715
1511 90002 126.921 0.0298741
1512 90002 126.921 -0.00520073
1513 90002 132.343 0.00469432
1514 90002 132.343 0.00467218
1515 90002 130.536 -0.000112167
1516 90002 130.536 -0.00028718
1517 90002 128.728 0.000676588
1518 90002 128.728 0.00052959
1519 90002 126.921 0.0195189
1520 90002 126.921 0.0219774
1521 90002 132.343 0.00468117
1522 90002 132.343 0.00468148
1523 90002 130.536 -7.93818e-05
1524 90002 130.536 -9.25056e-05
1525 90002 128.728 0.000480698
1526 90002 128.728 -0.000806472
1527 90002 126.921 0.0183084
1528 90002 126.921 0.0109369
1529 90002 132.343 0.00474027
1530 90002 132.343 0.00469582
1531 90002 130.536 9.36441e-05
1532 90002 130.536 0.000114102
1533 90002 128.728 0.000199463
1534 90002 128.728 -0.000155643
1535 90002 126.921 -0.00290372
1536 90002 126.921 -0.0126789
1537 90002 132.343 0.00471642
1538 90002 132.343 0.00464592
1539 90002 130.536 0.000154567
1540 90002 130.536 0.00020538
1541 90002 128.728 0.000912254
1542 90002 128.728 -0.000416754
1543 90002 126.921 -0.0116148
1544 90002 126.921 -0.00879154
1545 90002 132.343 0.00467669
1546 90002 132.343 0.00461957
1547 90002 130.536 0.000134485
1548 90002 130.536 0.000362066
1549 90002 128.728 -0.000794169
1550 90002 128.728 -0.00059354
1551 90002 126.921 -0.00844257
1552 90002 126.921 -0.0382837
1553 90002 132.343 0.00460941
1554 90002 132.343 0.00459576
1555 90002 130.536 -0.000140927
1556 90002 130.536 4.7121e-05
1557 90002 128.728 -0.000483933
1558 90002 128.728 -0.000398465
1559 90002 126.921 0.00252197
1560 90002 126.921 -0.0279582
1561 90002 132.343 0.00461859
1562 90002 132.343 0.00453948
1563 90002 130.536 3.15182e-05
1564 90002 130.536 -0.000127498
1565 90002 128.728 -0.000329868
1566 90002 128.728 -0.00183672
1567 90002 126.921 -0.0109342
1568 90002 126.921 -0.0102193
1569 90002 132.343 0.00451149
1570 90002 132.343 0.00447912
1571 90002 130.536 8.49715e-05
1572 90002 130.536 -0.000183734
1573 90002 128.728 -0.00325718
1574 90002 128.728 0.000758935
1575 90002 126.921 -0.0515588
1576 90002 126.921 0.0242571
1577 90002 132.343 0.00467902
1578 90002 132.343 0.00455607
1579 90002 130.536 0.000193424
1580 90002 130.536 7.29567e-05
1581 90002 128.728 -0.00663742
1582 90002 128.728 -0.00466747
1583 90002 126.921 -0.0527295
1584 90002 126.921 -0.0512617
1585 90002 132.343 0.00461221
1586 90002 132.343 0.00462689
1587 90002 130.536 0.000180345
1588 90002 130.536 0.000218576
1589 90002 128.728 -0.000395002
1590 90002 128.728 -0.000877993
1591 90002 126.921 -0.0083705
1592 90002 126.921 -0.0338275
1593 90002 132.343 0.00466355
1594 90002 132.343 0.00463089
1595 90002 130.536 -5.05359e-05
1596 90002 130.536 9.28031e-05
1597 90002 128.728 -0.000492524
1598 90002 128.728 -0.000513603
1599 90002 126.921 0.0126334
1600 90002 126.921 -0.0202303
