LAMMPS (4 Jul 2026 - Development - patch_4Jul2026-542-g4e5eb25ab6-modified)
  using 1 OpenMP thread(s) per MPI task
# TIP4P-FQ liquid, FAITHFUL-RICK structure: lr_ewald=1 (INTRA-Slater + BARE-inter, his exact
# electrostatics per mdtpn.f) — the mu-gap root cause was lr_ewald=2's all-pair shielding.
# PREDICTION: mu -> ~2.63 (Rick 2.637). Stability rides XL (Rick's own stability = EL adiabaticity).
# Base: TRUE SLATER-OVERLAP kernel deck (`shield slater`): Rick's raw zetas,
# NO refit. Target: close the gauss-kernel port's -4% mu (2.53 vs Rick 2.637) — the deviation was
# the intermolecular J at intermediate r, exactly what the exact kernel fixes.
# Derived from in.tip4pfq_xl (KERNEL-REFIT gauss port); 256-molecule box built from Rick's own equilibrated
# mdtpn.dat config (build_box.py), vol=7660.31 A^3, rho=1.0 g/cc, fixed (NVT).
# Kernel: gaussian/pqeq erf(a_ij r)/r, fit EXACTLY to Rick's jrab() J_HH(1.5139)
# and J_OH(r_MH=0.8735) (see fit_j.py) -- the physically-operative rigid-body
# distances. Single `run` command (multi-run is a known samQEq calibration
# artifact); tail-window ave/time blocks report thermalized averages.
units           metal
atom_style      full
boundary        p p p
read_data       tip4pfq_liquid.data
Reading data file ...
  orthogonal box = (0 0 0) to (19.712825 19.712825 19.712825)
  2 by 2 by 4 MPI processor grid
  reading atoms ...
  1024 atoms
  scanning bonds ...
  2 = max bonds/atom
  scanning angles ...
  1 = max angles/atom
  orthogonal box = (0 0 0) to (19.712825 19.712825 19.712825)
  2 by 2 by 4 MPI processor grid
  reading bonds ...
  512 bonds
  reading angles ...
  256 angles
Finding 1-2 1-3 1-4 neighbors ...
  special bond factors lj:    0        0        0       
  special bond factors coul:  0        0        0       
     2 = max # of 1-2 neighbors
     1 = max # of 1-3 neighbors
     1 = max # of 1-4 neighbors
     2 = max # of special neighbors
  special bonds CPU = 0.002 seconds
  read_data CPU = 0.013 seconds

group           watO  type 1
256 atoms in group watO
group           watH  type 2
512 atoms in group watH
group           watM  type 3
256 atoms in group watM
group           fq    type 2 3
768 atoms in group fq

# LJ on O-O only (Table I): eps=0.2862 kcal/mol=0.012412 eV, sigma=3.159 A
pair_style      hybrid/overlay lj/cut 10.0 coul/long 10.0 coul/shield/intra 5.0 slater 2s 1 3
pair_coeff      1 1 lj/cut 0.012412 3.159
pair_coeff      1 2 lj/cut 0.0 1.0
pair_coeff      1 3 lj/cut 0.0 1.0
pair_coeff      2 2 lj/cut 0.0 1.0
pair_coeff      2 3 lj/cut 0.0 1.0
pair_coeff      3 3 lj/cut 0.0 1.0
pair_coeff      * * coul/long
pair_coeff      1 1 coul/shield/intra 3.0803    # zeta_O (2s), 1/Angstrom
pair_coeff      2 2 coul/shield/intra 1.7007    # zeta_H (1s)
pair_coeff      3 3 coul/shield/intra 3.0803    # zeta_M (borrows O's 2s form factor)
pair_coeff      1 2 coul/shield/intra 2.288813
pair_coeff      1 3 coul/shield/intra 3.080300
pair_coeff      2 3 coul/shield/intra 2.288813
# ^ FIX: hybrid/overlay contributes ZERO for unset sub-style cross pairs (no auto init_one
#   mixing, no warning) — the unset M-H pair hid a +3.2 eV/mol pe error (U_bind -82 naive / -13.6
#   'corrected' -> -9.90 = Rick EXACT once fixed). Cross values: sqrt-mixed (used by cbrt mode;
#   pqeq/slater kernels read type diagonals only). See ubind/DIAGNOSIS_UBIND.md.

special_bonds   lj/coul 1.0e-8 1.0e-8 1.0
Finding 1-2 1-3 1-4 neighbors ...
  special bond factors lj:    1e-08    1e-08    1       
  special bond factors coul:  1e-08    1e-08    1       
     2 = max # of 1-2 neighbors
     1 = max # of 1-3 neighbors
     2 = max # of special neighbors
  special bonds CPU = 0.001 seconds
kspace_style    pppm/samqeq 1.0e-5

neighbor        2.0 bin
neigh_modify    every 1 delay 0 check yes

fix             chg fq qeq/sam 1 0.0 10.0 1.0e-5 water4_liquid_slater_lr1.param
fix_modify      chg shield slater 2s 1 3
samqeq: lr-solve shielding = Slater J(r) (Rick JCP101,6141) (param 4th col = zeta (Slater exponent, 1/Angstrom)); routed through compute_H + add_fixed_charge_field + the legacy gas path (calc_Hval)
fix_modify      chg energy yes
fix_modify      chg xl 2.6e-6 1.0
samqeq: extended-Lagrangian charge dynamics ON (q_mass=2.6e-06 eV ps^2/e^2, q_tdamp=1 ps); pure friction (T_q=0); charges propagate by velocity-Verlet (no per-step solve)
# ROOT CAUSE (found via a dt-scan diagnostic, in.diag_dt.tmp/in.diag_dt2.tmp, logs
# log.diag_dt/log.diag_dt2): dt=0.5 fs (the task's suggested value) is NOT a stable
# integration step for this system -- the intramolecular M-H charge oscillator is very
# stiff (r_MH=0.87 A, eta_M/H~16/15 eV) and the rigid-body torque response amplifies any
# discretization error into a genuine near-critical SCF catastrophe within a few hundred
# steps (confirmed: NEITHER an offset-quartic wall NOR the rnd charge-freeze safeguard
# cured it at dt=0.5fs -- both only delayed/relocated the same blow-up, proof this is an
# INTEGRATION-timestep problem, not a kernel-fit or Hessian-singularity problem). At
# dt=0.1 and dt=0.2 fs the SAME deck (no stabilizers needed at all) is fully stable over
# the tested window with mu/qM/qH/T all physically sane and drifting toward the targets.
# Using dt=0.2 fs (4x smaller than the task's suggested 0.5 fs) here.

compute         qMpa watM property/atom q
compute         qMc  watM reduce ave c_qMpa
compute         qHpa watH property/atom q
compute         qHc  watH reduce ave c_qHpa
compute         dip all dipole/samqeq
variable        mu   equal c_dip
variable        qM   equal c_qMc
variable        qH   equal c_qHc
variable        pemol equal pe/256.0
variable        T equal temp
variable        P equal press

timestep        0.00025
velocity        all create 298.0 777 mom yes rot yes dist gaussian
fix             rig all rigid/nvt/small molecule temp 298.0 298.0 0.02
Fix rigid/nvt/small setup ...
  create bodies CPU = 0.000 seconds
  256 rigid bodies with 1024 atoms
  0.87348128 = max distance from body owner to body atom
thermo_style    custom step temp v_mu
thermo          400
run             80000

CITE-CITE-CITE-CITE-CITE-CITE-CITE-CITE-CITE-CITE-CITE-CITE-CITE

Your simulation uses code contributions which should be cited:

- fix acks2/reaxff command: https://doi.org/10.1137/18M1224684

@Article{O'Hearn2020,
 author = {K. A. {O'Hearn} and A. Alperen and H. M. Aktulga},
 title = {Fast Solvers for Charge Distribution Models on Shared Memory Platforms},
 journal = {SIAM J.\ Sci.\ Comput.},
 year =    2020,
 volume =  42,
 number =  1,
 pages =   {1--22}
}

CITE-CITE-CITE-CITE-CITE-CITE-CITE-CITE-CITE-CITE-CITE-CITE-CITE

PPPM initialization ...
  using 12-bit tables for long-range coulomb
  G vector (1/distance) = 0.31499941
  grid = 20 20 20
  stencil order = 5
  estimated absolute RMS force accuracy = 0.0001309434
  estimated relative force accuracy = 9.0935157e-06
  using double precision FFTW3
  3d grid and FFT values/proc = 3468 500
samqeq: pair coul/shield/intra Slater-overlap J(r) tables built (6 unique type pairs, 2000 pts each, r in [0.02,5])
Generated 0 of 3 mixed pair_coeff terms from geometric mixing rule
WARNING: Bonds are defined but no bond style is set (src/force.cpp:198)
WARNING: Likewise 1-2 special neighbor interactions != 1.0 (src/force.cpp:200)
WARNING: Angles are defined but no angle style is set (src/force.cpp:203)
WARNING: Likewise 1-3 special neighbor interactions != 1.0 (src/force.cpp:205)
samqeq: E_self = sum(chi q + 1/2 eta qs^2) INCLUDED in pe/etotal (fix_modify chg energy yes; eselfref qs = q - q0 - redox_dp) -- pe + E_self is the energy the forces integrate
samqeq: Slater-overlap J(r) tables built (6 unique type pairs, 2000 pts each, r in [0.02,10])
Neighbor list info ...
  update: every = 1 steps, delay = 0 steps, check = yes
  max neighbors/atom: 2000, page size: 100000
  master list distance cutoff = 12
  ghost atom cutoff = 12
  binsize = 6, bins = 4 4 4
  5 neighbor lists, perpetual/occasional/extra = 5 0 0
  (1) pair lj/cut, perpetual, copy from (2)
      attributes: half, newton on, cut 12
      pair build: copy
      stencil: none
      bin: none
  (2) pair coul/long, perpetual, half/full from (5)
      attributes: half, newton on, cut 12
      pair build: halffull/newton
      stencil: none
      bin: none
  (3) pair coul/shield/intra, perpetual, copy from (1)
      attributes: half, newton on
      pair build: copy
      stencil: none
      bin: none
  (4) fix qeq/sam, perpetual, half/full from (5)
      attributes: half, newton off
      pair build: halffull/newtoff
      stencil: none
      bin: none
  (5) fix qeq/sam, perpetual
      attributes: full, newton on
      pair build: full/bin
      stencil: full/bin/3d
      bin: standard
Per MPI rank memory allocation (min/avg/max) = 20.69 | 20.97 | 21.15 Mbytes
   Step          Temp           v_mu     
WARNING: compute dipole/samqeq: molecule 22 has net charge -0.000001; its dipole is origin-dependent (src/SAMQEQ/compute_dipole_samqeq.cpp:165)
         0   295.1413       2.652567     
samqeq: calibrated grid reciprocal self-term recip_self=0.35523 +/- 0.00000 (raw, K=16 deterministic probes) = 5.1152 eV/e (subtracted so the QEq diagonal stays = eta)
       400   302.10555      2.6275975    
       800   299.50799      2.6392298    
      1200   306.2276       2.6299252    
      1600   294.87134      2.6359835    
      2000   295.76837      2.6686196    
      2400   308.966        2.6812629    
      2800   287.49614      2.6505054    
      3200   314.96196      2.6409799    
      3600   297.51026      2.6224944    
      4000   287.48171      2.6369511    
      4400   306.27011      2.6305404    
      4800   297.7168       2.6251872    
      5200   310.44676      2.6190582    
      5600   301.45584      2.6169385    
      6000   298.88613      2.6307801    
      6400   304.12361      2.6477773    
      6800   297.86756      2.6480941    
      7200   298.03133      2.6432761    
      7600   313.70913      2.6202012    
      8000   292.6013       2.6055668    
      8400   315.65014      2.6212309    
      8800   306.05082      2.6057738    
      9200   309.86199      2.6203246    
      9600   299.94501      2.6208165    
     10000   300.18485      2.6023577    
     10400   289.05242      2.6374488    
     10800   276.30763      2.632836     
     11200   296.51805      2.647756     
     11600   291.86535      2.642788     
     12000   304.65084      2.6269566    
     12400   303.73112      2.6045024    
     12800   295.08654      2.6129322    
     13200   291.33574      2.6255901    
     13600   292.09163      2.6127471    
     14000   298.84558      2.6217699    
     14400   307.27033      2.6452796    
     14800   318.98544      2.6237523    
     15200   315.15815      2.6317557    
     15600   285.19767      2.6204547    
     16000   298.77052      2.6358974    
     16400   287.73698      2.6345749    
     16800   291.34537      2.6114889    
     17200   300.95123      2.6133189    
     17600   291.53045      2.6112877    
     18000   300.71753      2.6101638    
     18400   303.08646      2.6224377    
     18800   293.68584      2.6413876    
     19200   283.99414      2.659204     
     19600   300.63767      2.6512352    
     20000   302.13828      2.6530633    
     20400   299.32638      2.629767     
     20800   302.56924      2.6459963    
     21200   283.21376      2.6388772    
     21600   290.30274      2.6517715    
     22000   307.77974      2.6429036    
     22400   297.99008      2.6346214    
     22800   293.03492      2.6405348    
     23200   288.26822      2.6333293    
     23600   294.42572      2.643429     
     24000   302.17839      2.6394264    
     24400   319.97634      2.6338117    
     24800   309.1439       2.6211261    
     25200   302.18906      2.629009     
     25600   294.9156       2.6184075    
     26000   304.0242       2.6156396    
     26400   292.15895      2.6362102    
     26800   304.94566      2.6341944    
     27200   306.14107      2.6354025    
     27600   290.55682      2.6414283    
     28000   310.22649      2.6428415    
     28400   281.03905      2.6196004    
     28800   293.44832      2.6588021    
     29200   295.75445      2.6389464    
     29600   277.6838       2.6376764    
     30000   286.06524      2.6477696    
     30400   298.12856      2.6390761    
     30800   310.46546      2.6225795    
     31200   297.62851      2.6208549    
     31600   288.59004      2.6143975    
     32000   290.11044      2.6324897    
     32400   307.84138      2.6159516    
     32800   310.34367      2.6235477    
     33200   292.40132      2.6139122    
     33600   298.06447      2.6234605    
     34000   301.6044       2.6273855    
     34400   290.76321      2.6148516    
     34800   298.69828      2.6265647    
     35200   313.3662       2.6388396    
     35600   297.54129      2.6393312    
     36000   312.8563       2.6662392    
     36400   297.08412      2.6468981    
     36800   292.4816       2.6335607    
     37200   294.89953      2.6250226    
     37600   293.54266      2.6338125    
     38000   307.93326      2.6392393    
     38400   311.4593       2.6519273    
     38800   287.4749       2.6563064    
     39200   302.69349      2.6500042    
     39600   302.28723      2.6301863    
     40000   306.96548      2.6258849    
     40400   296.16849      2.6338229    
     40800   287.35967      2.6655966    
     41200   279.65706      2.6536561    
     41600   304.93914      2.6254165    
     42000   296.30143      2.6297301    
     42400   298.98191      2.6373668    
     42800   303.66838      2.6289888    
     43200   291.95516      2.626653     
     43600   300.70304      2.6391531    
     44000   278.50055      2.626514     
     44400   307.37538      2.6353775    
     44800   287.5229       2.6385637    
     45200   319.09337      2.6454076    
     45600   302.06514      2.6358707    
     46000   307.12085      2.6470946    
     46400   310.76669      2.623566     
     46800   319.63838      2.6199723    
     47200   302.91074      2.6156451    
     47600   287.47052      2.6297015    
     48000   320.17199      2.6454567    
     48400   307.26183      2.6327397    
     48800   292.76578      2.6184057    
     49200   289.41289      2.6328996    
     49600   287.72857      2.6317114    
     50000   291.63054      2.6208943    
     50400   301.04495      2.6234145    
     50800   282.97185      2.6188352    
     51200   306.79101      2.6218561    
     51600   301.39563      2.6200349    
     52000   274.00392      2.6082551    
     52400   301.62147      2.6058899    
     52800   299.28475      2.6166732    
     53200   290.9027       2.6202335    
     53600   294.33003      2.5849275    
     54000   294.28137      2.5960262    
     54400   301.75409      2.608341     
     54800   292.78837      2.6098547    
     55200   319.94902      2.6225858    
     55600   294.49347      2.6005071    
     56000   306.23857      2.6045006    
     56400   303.85134      2.6161101    
     56800   294.10211      2.5986154    
     57200   302.35444      2.5880011    
     57600   301.48039      2.6020311    
     58000   299.34539      2.5939345    
     58400   315.761        2.6008388    
     58800   286.90847      2.6200628    
     59200   301.19511      2.6170001    
     59600   285.25154      2.6089159    
     60000   297.20782      2.6327797    
     60400   270.35437      2.6483681    
     60800   305.80698      2.6306138    
     61200   285.0074       2.6356017    
     61600   291.18893      2.6354227    
     62000   297.74141      2.6186781    
     62400   300.35694      2.6153059    
     62800   291.90498      2.6298026    
     63200   302.9447       2.6305523    
     63600   293.05466      2.6119124    
     64000   294.45199      2.6193046    
     64400   292.17151      2.6439666    
     64800   269.13807      2.6185846    
     65200   300.79379      2.6263603    
     65600   291.06397      2.6325173    
     66000   307.1066       2.6366427    
     66400   285.74566      2.6309317    
     66800   290.49996      2.6166979    
     67200   301.52611      2.6019585    
     67600   315.70748      2.6476508    
     68000   309.54132      2.6181002    
     68400   306.10531      2.6150214    
     68800   293.19237      2.5996897    
     69200   303.53487      2.6242167    
     69600   304.08778      2.6342512    
     70000   300.82006      2.6345383    
     70400   294.63921      2.6159372    
     70800   292.67026      2.6028119    
     71200   298.3034       2.6315217    
     71600   291.32744      2.6303631    
     72000   292.10825      2.6228867    
     72400   290.40474      2.6248494    
     72800   284.72579      2.6069057    
     73200   317.21807      2.6018409    
     73600   305.18277      2.5978853    
     74000   293.874        2.5896085    
     74400   310.80622      2.5841222    
     74800   286.59776      2.6158912    
     75200   303.28353      2.6165669    
     75600   278.49114      2.6062517    
     76000   299.3629       2.609511     
     76400   290.88316      2.6112016    
     76800   333.3417       2.6091556    
     77200   289.90547      2.612302     
     77600   287.53181      2.6056633    
     78000   290.77598      2.5872621    
     78400   293.94787      2.6031116    
     78800   280.99083      2.5934416    
     79200   286.46888      2.6082227    
     79600   307.63308      2.6081156    
     80000   311.78267      2.6292088    
Loop time of 307.898 on 16 procs for 80000 steps with 1024 atoms

Performance: 5.612 ns/day, 4.276 hours/ns, 259.827 timesteps/s, 266.062 katom-step/s
84.7% CPU use with 16 MPI tasks x 1 OpenMP threads

MPI task timing breakdown:
Section |  min time  |  avg time  |  max time  |%varavg| %total
---------------------------------------------------------------
Pair    | 57.115     | 59.612     | 63.389     |  22.6 | 19.36
Bond    | 0.0041395  | 0.0047488  | 0.0065155  |   0.9 |  0.00
Kspace  | 53.444     | 57.309     | 60.253     |  24.7 | 18.61
Neigh   | 1.2343     | 1.2757     | 1.3315     |   2.1 |  0.41
Comm    | 19.548     | 19.884     | 20.22      |   5.1 |  6.46
Output  | 0.029962   | 0.030536   | 0.032993   |   0.4 |  0.01
Modify  | 167.88     | 167.93     | 168.03     |   0.3 | 54.54
Other   |            | 1.855      |            |       |  0.60

Nlocal:             64 ave          72 max          53 min
Histogram: 3 0 0 0 2 4 0 3 1 3
Nghost:        4384.56 ave        4448 max        4323 min
Histogram: 2 2 2 0 3 2 0 0 1 4
Neighs:        30923.3 ave       34268 max       25754 min
Histogram: 2 1 0 1 1 3 1 0 3 4
FullNghs:      61846.6 ave       69478 max       51295 min
Histogram: 3 0 0 1 1 4 0 1 3 3

Total # of neighbors = 989546
Ave neighs/atom = 966.35352
Ave special neighs/atom = 1.5
Neighbor list builds = 759
Dangerous builds = 0
unfix           rig
fix             rig all rigid/nvt/small molecule temp 298.0 298.0 0.1
Fix rigid/nvt/small setup ...
  create bodies CPU = 0.000 seconds
  256 rigid bodies with 1024 atoms
  0.87348128 = max distance from body owner to body atom
reset_timestep  0
run             400000
PPPM initialization ...
  using 12-bit tables for long-range coulomb
  G vector (1/distance) = 0.31492018
  grid = 20 20 20
  stencil order = 5
  estimated absolute RMS force accuracy = 0.00012910383
  estimated relative force accuracy = 8.9657651e-06
  using double precision FFTW3
  3d grid and FFT values/proc = 3468 500
samqeq: pair coul/shield/intra Slater-overlap J(r) tables built (6 unique type pairs, 2000 pts each, r in [0.02,5])
Generated 0 of 3 mixed pair_coeff terms from geometric mixing rule
WARNING: Bonds are defined but no bond style is set (src/force.cpp:198)
WARNING: Likewise 1-2 special neighbor interactions != 1.0 (src/force.cpp:200)
WARNING: Angles are defined but no angle style is set (src/force.cpp:203)
WARNING: Likewise 1-3 special neighbor interactions != 1.0 (src/force.cpp:205)
samqeq: E_self = sum(chi q + 1/2 eta qs^2) INCLUDED in pe/etotal (fix_modify chg energy yes; eselfref qs = q - q0 - redox_dp) -- pe + E_self is the energy the forces integrate
samqeq: Slater-overlap J(r) tables built (6 unique type pairs, 2000 pts each, r in [0.02,10])
Per MPI rank memory allocation (min/avg/max) = 20.7 | 20.97 | 21.16 Mbytes
   Step          Temp           v_mu     
         0   311.78267      2.6292088    
       400   287.42198      2.6167046    
       800   304.78419      2.61428      
      1200   309.2583       2.6249138    
      1600   294.28238      2.6191038    
      2000   294.2705       2.6263004    
      2400   311.77868      2.622539     
      2800   313.42896      2.6310235    
      3200   311.00924      2.6247037    
      3600   277.40528      2.6278966    
      4000   290.63663      2.6127187    
      4400   302.2545       2.6223942    
      4800   297.22574      2.6070868    
      5200   309.80153      2.6335779    
      5600   281.95904      2.6169514    
      6000   297.50461      2.6432684    
      6400   302.15418      2.6360919    
      6800   298.12379      2.6534325    
      7200   303.71136      2.6653826    
      7600   292.88278      2.6316276    
      8000   298.74817      2.6350207    
      8400   309.43363      2.6531068    
      8800   293.42645      2.6392731    
      9200   310.33721      2.646461     
      9600   291.0579       2.6505748    
     10000   294.11476      2.6570423    
     10400   275.07594      2.6478194    
     10800   293.93418      2.6603234    
     11200   311.74454      2.6544222    
     11600   291.01489      2.6447034    
     12000   317.47004      2.6719006    
     12400   295.68904      2.6700924    
     12800   292.31968      2.6421475    
     13200   308.37891      2.6441941    
     13600   285.40057      2.6406468    
     14000   285.91767      2.6648635    
     14400   293.91992      2.6641966    
     14800   298.87877      2.6787099    
     15200   315.55486      2.6836279    
     15600   288.77062      2.6580994    
     16000   296.70241      2.6643497    
     16400   305.1204       2.6664413    
     16800   317.5543       2.6723551    
     17200   283.23317      2.6405618    
     17600   290.79573      2.6592219    
     18000   296.52042      2.6631733    
     18400   297.99773      2.6695114    
     18800   294.20148      2.6298675    
     19200   300.30748      2.6482151    
     19600   284.69516      2.673988     
     20000   299.51472      2.6690093    
     20400   305.0084       2.6688552    
     20800   290.25033      2.6561123    
     21200   304.09924      2.6666826    
     21600   287.59132      2.6692495    
     22000   294.5436       2.6772482    
     22400   282.35376      2.6811976    
     22800   307.22314      2.6981461    
     23200   278.28554      2.657427     
     23600   308.54037      2.6570529    
     24000   315.99605      2.6438794    
     24400   304.368        2.6322454    
     24800   298.83061      2.6268238    
     25200   294.53192      2.6610879    
     25600   308.3521       2.6622533    
     26000   291.17493      2.6345395    
     26400   292.6429       2.6185209    
     26800   288.62786      2.6156678    
     27200   296.12326      2.625027     
     27600   319.28572      2.6353168    
     28000   301.50135      2.6236431    
     28400   286.00499      2.6375312    
     28800   298.28981      2.6454599    
     29200   287.79321      2.6381307    
     29600   296.21721      2.6400891    
     30000   302.32604      2.6196769    
     30400   321.45155      2.6307231    
     30800   297.78799      2.6367274    
     31200   291.4734       2.6435691    
     31600   281.30286      2.6409088    
     32000   280.13755      2.6647664    
     32400   308.5449       2.6679103    
     32800   295.65149      2.6550093    
     33200   293.42036      2.6459347    
     33600   283.46918      2.648835     
     34000   315.17202      2.6587081    
     34400   295.04142      2.6548806    
     34800   285.80091      2.651756     
     35200   282.31889      2.6616631    
     35600   299.47201      2.6740839    
     36000   291.98807      2.6722466    
     36400   286.74153      2.658334     
     36800   309.9236       2.6406984    
     37200   312.91447      2.6317632    
     37600   304.02033      2.6394153    
     38000   302.99933      2.6580446    
     38400   279.68602      2.6774408    
     38800   284.44023      2.6584678    
     39200   287.81812      2.6635933    
     39600   284.41966      2.6591103    
     40000   303.60704      2.6889026    
     40400   294.69789      2.6543037    
     40800   309.04642      2.6387931    
     41200   302.43633      2.6430991    
     41600   295.57883      2.638893     
     42000   301.93324      2.6669157    
     42400   288.71245      2.6533939    
     42800   288.74942      2.6746521    
     43200   302.66418      2.647605     
     43600   317.9644       2.650742     
     44000   293.87992      2.6531563    
     44400   279.90104      2.6289309    
     44800   302.49888      2.6478307    
     45200   311.52554      2.6408887    
     45600   310.09778      2.6431577    
     46000   298.15118      2.6370004    
     46400   292.03117      2.6427274    
     46800   297.71826      2.6586193    
     47200   297.67483      2.6472768    
     47600   303.6635       2.6487642    
     48000   296.97294      2.6344178    
     48400   296.62901      2.6143515    
     48800   297.78102      2.6288193    
     49200   305.63649      2.6280284    
     49600   302.58027      2.6342452    
     50000   304.50341      2.609755     
     50400   310.37169      2.6297337    
     50800   312.18164      2.620549     
     51200   279.4056       2.6271118    
     51600   311.7216       2.6177805    
     52000   317.38991      2.6056417    
     52400   294.94664      2.6040875    
     52800   307.90197      2.6179461    
     53200   328.90956      2.6486652    
     53600   299.92309      2.6456206    
     54000   282.49719      2.625883     
     54400   308.9091       2.6154574    
     54800   282.39244      2.6083592    
     55200   282.82869      2.6346634    
     55600   291.56971      2.6306893    
     56000   283.35244      2.6132265    
     56400   286.58672      2.6489608    
     56800   310.58459      2.6333702    
     57200   304.08312      2.629963     
     57600   285.18795      2.6256475    
     58000   294.31458      2.645212     
     58400   290.45852      2.6227932    
     58800   300.09436      2.6427022    
     59200   292.71198      2.6388405    
     59600   305.58649      2.6296843    
     60000   304.14857      2.6339127    
     60400   289.24811      2.6257769    
     60800   298.06433      2.6323469    
     61200   316.8228       2.637391     
     61600   308.32429      2.641034     
     62000   308.03809      2.6408578    
     62400   293.85249      2.6396517    
     62800   267.6869       2.6243368    
     63200   310.9207       2.6548613    
     63600   308.34511      2.6343437    
     64000   304.75781      2.6455719    
     64400   294.8733       2.63781      
     64800   307.55803      2.6487716    
     65200   290.71485      2.6315678    
     65600   299.28225      2.6353756    
     66000   306.55897      2.6412705    
     66400   310.93969      2.6199579    
     66800   300.90388      2.6295774    
     67200   309.75192      2.6428829    
     67600   279.96626      2.6279318    
     68000   295.79611      2.6354788    
     68400   314.70318      2.6674851    
     68800   283.84367      2.6466234    
     69200   309.29923      2.6626181    
     69600   288.66507      2.6570666    
     70000   293.73265      2.6450063    
     70400   290.97749      2.6498367    
     70800   292.77665      2.6141008    
     71200   323.14423      2.6171755    
     71600   299.43928      2.6267894    
     72000   298.27049      2.6354681    
     72400   299.53118      2.6270239    
     72800   313.23423      2.6383988    
     73200   301.25696      2.6451269    
     73600   299.90977      2.6528385    
     74000   295.3976       2.6596447    
     74400   289.91378      2.6562304    
     74800   292.40216      2.6462858    
     75200   293.63869      2.6166108    
     75600   298.11888      2.6078843    
     76000   294.33667      2.6224985    
     76400   300.48403      2.6091475    
     76800   290.24492      2.6002066    
     77200   300.66471      2.6073766    
     77600   311.78092      2.6084287    
     78000   270.06789      2.6037651    
     78400   286.84715      2.5775938    
     78800   294.39921      2.5984656    
     79200   323.28213      2.5955257    
     79600   308.97857      2.6150038    
     80000   291.12775      2.5878923    
     80400   284.41171      2.5948939    
     80800   301.68689      2.5976589    
     81200   330.82159      2.6107238    
     81600   306.3726       2.6071759    
     82000   312.72877      2.6227371    
     82400   282.73787      2.6139323    
     82800   301.37635      2.6212486    
     83200   298.34031      2.622017     
     83600   311.1517       2.6067609    
     84000   306.58845      2.606759     
     84400   286.06855      2.5862638    
     84800   313.8541       2.6156058    
     85200   301.08162      2.5899698    
     85600   309.54725      2.5871743    
     86000   300.69896      2.6004106    
     86400   308.18858      2.6018012    
     86800   289.47099      2.5776234    
     87200   327.50311      2.6199021    
     87600   295.75696      2.6192266    
     88000   300.30956      2.6144691    
     88400   291.9333       2.6199767    
     88800   300.0433       2.6120454    
     89200   308.50302      2.6178837    
     89600   309.36276      2.61142      
     90000   292.07981      2.5873478    
     90400   275.86732      2.5904775    
     90800   309.31469      2.6006844    
     91200   304.03533      2.6232184    
     91600   304.55719      2.6076587    
     92000   306.4448       2.6073404    
     92400   273.94217      2.6060968    
     92800   298.55965      2.6282485    
     93200   306.91711      2.6055662    
     93600   302.11348      2.597492     
     94000   302.01074      2.6035432    
     94400   294.95668      2.6157288    
     94800   293.96535      2.6025375    
     95200   295.28516      2.6126515    
     95600   314.34702      2.6255665    
     96000   291.22199      2.6111913    
     96400   290.4828       2.6233503    
     96800   305.36982      2.6145132    
     97200   309.49527      2.6089427    
     97600   299.96408      2.6195831    
     98000   293.10031      2.6167188    
     98400   280.60311      2.6144465    
     98800   294.2156       2.6352877    
     99200   317.63476      2.6154628    
     99600   299.87727      2.6193685    
    100000   307.35077      2.6161475    
    100400   304.35549      2.6378601    
    100800   304.83286      2.62337      
    101200   293.70108      2.6257004    
    101600   283.10564      2.6345852    
    102000   285.85969      2.6448758    
    102400   281.4958       2.6238148    
    102800   306.78554      2.6291781    
    103200   287.53688      2.6194144    
    103600   300.53086      2.6345839    
    104000   291.33181      2.6220089    
    104400   294.28165      2.6239299    
    104800   296.90836      2.6276087    
    105200   300.23156      2.6212802    
    105600   311.32631      2.6484336    
    106000   299.03653      2.6356209    
    106400   295.62795      2.656227     
    106800   300.00142      2.6407815    
    107200   301.48782      2.6484935    
    107600   297.40468      2.6276639    
    108000   294.43269      2.6310308    
    108400   304.27329      2.6462157    
    108800   278.66632      2.632862     
    109200   303.71102      2.6449219    
    109600   276.59736      2.6368265    
    110000   309.00583      2.6455478    
    110400   314.01507      2.6424159    
    110800   324.83867      2.6440561    
    111200   287.05325      2.638202     
    111600   299.28371      2.6634293    
    112000   290.45559      2.6496126    
    112400   284.10592      2.6587128    
    112800   302.02662      2.6553922    
    113200   312.32159      2.666727     
    113600   310.15481      2.6466805    
    114000   304.58324      2.6397217    
    114400   305.12979      2.6636244    
    114800   289.29496      2.6529996    
    115200   302.52602      2.6490869    
    115600   291.46037      2.655406     
    116000   300.34108      2.6497913    
    116400   302.30909      2.640032     
    116800   308.26404      2.6342374    
    117200   297.2532       2.6379721    
    117600   291.71822      2.6457746    
    118000   288.42606      2.6465015    
    118400   305.84127      2.6272093    
    118800   294.84473      2.6281866    
    119200   294.37033      2.6295185    
    119600   325.33562      2.6389033    
    120000   282.57517      2.6216122    
    120400   289.43781      2.6274531    
    120800   287.8533       2.6167446    
    121200   295.89238      2.6123797    
    121600   289.43059      2.6049496    
    122000   299.02255      2.6060022    
    122400   311.98828      2.6307083    
    122800   294.99042      2.6233151    
    123200   301.93258      2.6239441    
    123600   310.42216      2.6233576    
    124000   299.7157       2.6423236    
    124400   298.90913      2.6289302    
    124800   307.64186      2.6313695    
    125200   296.78248      2.608516     
    125600   310.44196      2.6081332    
    126000   307.99821      2.6188111    
    126400   282.24228      2.6240699    
    126800   292.75987      2.645795     
    127200   297.6662       2.6572737    
    127600   282.77524      2.6350123    
    128000   303.88771      2.6469063    
    128400   290.40189      2.6248263    
    128800   288.90337      2.6322676    
    129200   304.77686      2.624018     
    129600   284.68913      2.6081542    
    130000   292.06546      2.588768     
    130400   305.42197      2.6238978    
    130800   293.23522      2.6159748    
    131200   288.34444      2.6116308    
    131600   291.97781      2.6278825    
    132000   298.82968      2.6116514    
    132400   318.26716      2.6171064    
    132800   296.01724      2.5910032    
    133200   290.53674      2.6029003    
    133600   293.09994      2.632777     
    134000   282.43048      2.6368327    
    134400   287.61107      2.6205467    
    134800   303.72861      2.6347498    
    135200   300.42157      2.6238738    
    135600   284.08392      2.6068277    
    136000   307.18021      2.6073075    
    136400   287.23196      2.6246046    
    136800   295.02453      2.6143931    
    137200   285.69637      2.6215793    
    137600   295.30119      2.626424     
    138000   306.41131      2.6263931    
    138400   297.13058      2.6277702    
    138800   302.38816      2.6134364    
    139200   302.85022      2.621009     
    139600   291.19384      2.6456484    
    140000   308.42968      2.6443744    
    140400   304.02548      2.672461     
    140800   294.90924      2.6427869    
    141200   288.72272      2.6592617    
    141600   285.76355      2.6441293    
    142000   291.99308      2.6463335    
    142400   273.48232      2.6394684    
    142800   298.14399      2.6481617    
    143200   317.48955      2.6455568    
    143600   283.89851      2.6111151    
    144000   310.68557      2.614656     
    144400   307.83511      2.6252235    
    144800   300.95318      2.6105276    
    145200   313.34766      2.6187544    
    145600   296.77662      2.6205211    
    146000   303.51104      2.6402928    
    146400   292.77995      2.6436036    
    146800   303.88258      2.6681104    
    147200   292.71658      2.6401269    
    147600   288.86473      2.6458433    
    148000   304.73063      2.6548089    
    148400   291.32154      2.648525     
    148800   302.93163      2.6228264    
    149200   290.53472      2.6220719    
    149600   307.98744      2.639564     
    150000   289.06987      2.6347904    
    150400   300.08569      2.6242994    
    150800   281.18765      2.6229787    
    151200   292.93396      2.6166196    
    151600   305.00923      2.6234257    
    152000   302.47238      2.6467306    
    152400   292.41872      2.6315108    
    152800   275.58132      2.6181911    
    153200   314.29228      2.6505103    
    153600   319.85715      2.6349152    
    154000   299.26538      2.6360423    
    154400   294.50729      2.6365221    
    154800   306.02419      2.6298654    
    155200   297.83819      2.6270785    
    155600   282.54866      2.6479098    
    156000   301.91217      2.6604837    
    156400   290.98286      2.6339971    
    156800   296.35442      2.6366433    
    157200   320.0714       2.6413472    
    157600   307.70577      2.659315     
    158000   309.43481      2.652364     
    158400   279.11067      2.6333681    
    158800   297.86845      2.6451725    
    159200   309.99639      2.6454293    
    159600   276.52286      2.6230957    
    160000   311.40567      2.646367     
    160400   299.82803      2.6605219    
    160800   293.28082      2.6488263    
    161200   303.19227      2.6607039    
    161600   291.84927      2.6339326    
    162000   301.63388      2.6420501    
    162400   303.11505      2.6318483    
    162800   303.93542      2.6288184    
    163200   287.15923      2.6189409    
    163600   283.2482       2.6202559    
    164000   303.13965      2.6431909    
    164400   314.29744      2.6450049    
    164800   309.37359      2.6450281    
    165200   294.64842      2.6499694    
    165600   288.26146      2.6347312    
    166000   302.63065      2.6408152    
    166400   311.79969      2.654562     
    166800   334.82437      2.6439466    
    167200   301.78141      2.6269579    
    167600   288.47922      2.6152653    
    168000   278.9485       2.610924     
    168400   310.29617      2.6276402    
    168800   316.69199      2.6178566    
    169200   305.97606      2.6166021    
    169600   310.60025      2.6504958    
    170000   296.08081      2.6272961    
    170400   287.51156      2.6190316    
    170800   294.27124      2.6278376    
    171200   295.03013      2.6201738    
    171600   310.13447      2.6261733    
    172000   290.30608      2.6052481    
    172400   303.79695      2.6231937    
    172800   287.08097      2.6382457    
    173200   296.12153      2.6234497    
    173600   317.38695      2.6199844    
    174000   312.83889      2.6074104    
    174400   312.128        2.6155425    
    174800   311.25819      2.6451219    
    175200   279.11192      2.6215146    
    175600   297.59117      2.628513     
    176000   310.67363      2.6176493    
    176400   329.57795      2.6380959    
    176800   325.88943      2.633179     
    177200   296.965        2.6303838    
    177600   298.358        2.6372839    
    178000   308.21123      2.6338877    
    178400   304.12517      2.6378959    
    178800   286.56259      2.6627876    
    179200   283.03076      2.6407732    
    179600   302.10208      2.6597174    
    180000   309.72506      2.6384397    
    180400   290.44134      2.629634     
    180800   291.28517      2.6131908    
    181200   315.75673      2.6201205    
    181600   278.28003      2.6288478    
    182000   293.61829      2.6380792    
    182400   290.35418      2.6522792    
    182800   302.03488      2.6463377    
    183200   289.90752      2.6341296    
    183600   293.51973      2.6388326    
    184000   307.68278      2.6514833    
    184400   297.98193      2.6750248    
    184800   293.73823      2.645136     
    185200   323.4538       2.6705756    
    185600   304.95165      2.6478372    
    186000   293.93664      2.6627873    
    186400   298.7092       2.6600997    
    186800   291.83296      2.6651841    
    187200   304.87767      2.648808     
    187600   326.85145      2.6498178    
    188000   306.98605      2.6560024    
    188400   304.86521      2.6633278    
    188800   283.74932      2.658197     
    189200   291.89782      2.6509608    
    189600   279.29835      2.6664315    
    190000   301.71955      2.6672429    
    190400   314.35651      2.6570427    
    190800   323.23453      2.6683258    
    191200   299.2167       2.6580872    
    191600   301.13876      2.6699278    
    192000   286.65085      2.6576379    
    192400   302.872        2.689215     
    192800   301.64446      2.6816686    
    193200   300.78027      2.68697      
    193600   312.6131       2.661141     
    194000   292.87239      2.6594294    
    194400   307.58319      2.6677326    
    194800   314.40152      2.6635394    
    195200   324.90057      2.6461919    
    195600   300.98224      2.6304592    
    196000   285.43553      2.6371018    
    196400   294.52812      2.6620894    
    196800   271.82922      2.6501027    
    197200   289.3769       2.673649     
    197600   293.93555      2.6899942    
    198000   307.02387      2.6742948    
    198400   298.90478      2.663305     
    198800   295.14449      2.6435706    
    199200   279.67868      2.6305758    
    199600   304.3892       2.6324545    
    200000   298.445        2.6325196    
    200400   313.82751      2.6162041    
    200800   304.46599      2.6361676    
    201200   299.64989      2.6372031    
    201600   304.68131      2.6536035    
    202000   317.61763      2.6400783    
    202400   308.24846      2.6348098    
    202800   293.08315      2.6359025    
    203200   305.96237      2.6253892    
    203600   289.98102      2.624145     
    204000   306.5391       2.6236269    
    204400   295.47506      2.6304651    
    204800   276.1918       2.6508136    
    205200   300.27453      2.6426847    
    205600   290.30735      2.6522336    
    206000   317.61604      2.6543797    
    206400   307.44926      2.6325037    
    206800   302.91925      2.6480151    
    207200   310.46925      2.6385828    
    207600   289.50312      2.6400774    
    208000   307.51458      2.6393132    
    208400   316.57918      2.6411231    
    208800   290.53752      2.6450374    
    209200   278.94861      2.6278008    
    209600   285.01753      2.6451389    
    210000   302.76607      2.645375     
    210400   307.52746      2.6501975    
    210800   282.59663      2.6165683    
    211200   276.86518      2.6353389    
    211600   313.82672      2.6353391    
    212000   311.96577      2.6602649    
    212400   284.13275      2.6467978    
    212800   303.4668       2.6488232    
    213200   293.628        2.6255262    
    213600   295.60012      2.6181936    
    214000   322.27428      2.6297422    
    214400   311.76845      2.6182883    
    214800   278.65664      2.6375197    
    215200   292.79041      2.6209895    
    215600   308.83853      2.6526365    
    216000   286.39939      2.6350592    
    216400   281.22643      2.6209954    
    216800   297.75264      2.6170115    
    217200   288.82063      2.6359104    
    217600   296.89264      2.6384308    
    218000   299.0388       2.6359809    
    218400   301.63285      2.6236579    
    218800   315.65489      2.615456     
    219200   300.81212      2.5933315    
    219600   306.83293      2.62302      
    220000   290.03848      2.6090034    
    220400   286.77098      2.6226545    
    220800   310.21164      2.6397485    
    221200   309.76271      2.6463122    
    221600   310.45928      2.6315573    
    222000   310.59235      2.6307977    
    222400   295.71278      2.6210114    
    222800   294.77882      2.6262002    
    223200   297.5245       2.6292623    
    223600   303.78422      2.6492683    
    224000   287.76456      2.6459297    
    224400   291.16389      2.6244846    
    224800   297.47015      2.6298188    
    225200   317.35989      2.6247281    
    225600   331.22367      2.6057418    
    226000   298.74849      2.6136161    
    226400   301.89442      2.6180906    
    226800   281.93494      2.6420176    
    227200   291.54622      2.6205752    
    227600   288.93036      2.5924643    
    228000   323.53572      2.620971     
    228400   304.5846       2.6192375    
    228800   294.71974      2.5951677    
    229200   318.4462       2.6248517    
    229600   296.68245      2.6240195    
    230000   307.58906      2.6299028    
    230400   275.98892      2.6148644    
    230800   301.18691      2.6464614    
    231200   295.75328      2.649492     
    231600   311.10444      2.6441085    
    232000   299.53259      2.6381194    
    232400   291.17724      2.6418316    
    232800   299.02089      2.6492399    
    233200   293.23505      2.6433714    
    233600   285.98189      2.6325302    
    234000   295.17733      2.6413512    
    234400   316.54579      2.6201227    
    234800   307.5243       2.6540758    
    235200   295.87664      2.6355666    
    235600   291.90136      2.6459401    
    236000   304.16773      2.6494279    
    236400   281.15403      2.6325802    
    236800   283.37954      2.629523     
    237200   304.43709      2.6161394    
    237600   303.50168      2.6220251    
    238000   295.97138      2.6272455    
    238400   312.14969      2.6317319    
    238800   299.24608      2.6486747    
    239200   306.07269      2.626965     
    239600   323.67585      2.6292956    
    240000   303.3222       2.6335737    
    240400   290.13763      2.6404243    
    240800   296.0842       2.6435096    
    241200   302.17357      2.6663527    
    241600   303.53143      2.6658169    
    242000   288.04239      2.6697303    
    242400   310.17291      2.6589446    
    242800   294.28489      2.6628957    
    243200   284.63353      2.6663801    
    243600   287.03949      2.6775893    
    244000   283.39287      2.653021     
    244400   265.11854      2.6307353    
    244800   292.39498      2.6474006    
    245200   311.19768      2.651206     
    245600   300.34434      2.6381287    
    246000   291.8795       2.62704      
    246400   283.83771      2.6457264    
    246800   298.16587      2.6466216    
    247200   297.90405      2.6311677    
    247600   288.61172      2.6213783    
    248000   290.95826      2.6307637    
    248400   296.47867      2.6341555    
    248800   301.22373      2.6401759    
    249200   292.63439      2.642143     
    249600   303.57402      2.6234913    
    250000   284.85553      2.6099211    
    250400   315.21176      2.6079541    
    250800   315.21364      2.6233989    
    251200   302.61062      2.6219491    
    251600   290.93011      2.6230781    
    252000   304.11825      2.6345954    
    252400   286.09417      2.6201835    
    252800   324.8544       2.6302543    
    253200   321.25078      2.6310729    
    253600   301.60389      2.6220792    
    254000   303.03944      2.6216052    
    254400   293.55772      2.6363456    
    254800   281.27751      2.6465361    
    255200   293.40221      2.6496496    
    255600   300.46832      2.6437842    
    256000   307.3919       2.6538015    
    256400   285.88702      2.6493415    
    256800   287.68404      2.6526777    
    257200   284.67553      2.6596324    
    257600   303.33891      2.6540756    
    258000   296.84314      2.6604864    
    258400   283.22198      2.6393667    
    258800   275.33862      2.6549079    
    259200   280.48306      2.6486996    
    259600   285.59544      2.6395505    
    260000   302.17502      2.6389484    
    260400   304.81229      2.6383498    
    260800   310.74375      2.6470158    
    261200   299.05913      2.6379644    
    261600   292.84137      2.6328157    
    262000   285.50649      2.6244584    
    262400   295.58362      2.6316436    
    262800   296.50506      2.6277885    
    263200   308.24588      2.641975     
    263600   296.94509      2.6336058    
    264000   309.96291      2.6538932    
    264400   288.75316      2.6166844    
    264800   292.73896      2.6152828    
    265200   305.11347      2.6377078    
    265600   296.18598      2.6377484    
    266000   297.67632      2.6425501    
    266400   298.20522      2.6393183    
    266800   315.19156      2.6459522    
    267200   312.42157      2.6342288    
    267600   311.09937      2.6415243    
    268000   294.1966       2.631678     
    268400   305.39881      2.6330692    
    268800   283.35345      2.6511032    
    269200   290.00676      2.6479938    
    269600   298.68258      2.651099     
    270000   311.89198      2.657431     
    270400   300.67098      2.6365067    
    270800   307.65215      2.6411652    
    271200   282.97126      2.6326699    
    271600   307.85834      2.6391562    
    272000   299.35031      2.6253246    
    272400   314.18793      2.6395918    
    272800   295.69508      2.6214561    
    273200   285.72086      2.6301745    
    273600   289.81819      2.6288029    
    274000   285.81101      2.632305     
    274400   286.04255      2.6455106    
    274800   282.16405      2.6399895    
    275200   294.42738      2.6352512    
    275600   298.78973      2.6230713    
    276000   303.47115      2.6141812    
    276400   296.44906      2.6138645    
    276800   280.14505      2.6252331    
    277200   301.78038      2.6330518    
    277600   299.0265       2.6395261    
    278000   284.17627      2.61864      
    278400   292.90449      2.6166304    
    278800   310.59817      2.6279742    
    279200   291.36008      2.6240273    
    279600   284.7871       2.6433746    
    280000   286.52371      2.6471528    
    280400   296.21699      2.6480785    
    280800   305.46611      2.6387591    
    281200   301.37644      2.6331981    
    281600   281.42761      2.6173861    
    282000   305.05471      2.6346952    
    282400   323.74693      2.6336863    
    282800   300.37516      2.6333493    
    283200   278.80247      2.6514584    
    283600   278.86034      2.6354784    
    284000   301.44204      2.6532589    
    284400   295.14203      2.6359956    
    284800   297.0188       2.6248272    
    285200   287.23929      2.6207665    
    285600   297.42564      2.6253994    
    286000   294.23084      2.6278872    
    286400   298.08336      2.6326746    
    286800   306.42028      2.6235621    
    287200   309.39551      2.6300914    
    287600   306.26044      2.6277667    
    288000   297.31516      2.6134766    
    288400   306.63031      2.6286555    
    288800   302.45584      2.635718     
    289200   295.23674      2.6555007    
    289600   302.14466      2.6353258    
    290000   294.30872      2.6291614    
    290400   295.49525      2.620177     
    290800   297.98111      2.637449     
    291200   289.15172      2.6366157    
    291600   302.35927      2.6388716    
    292000   312.08378      2.6515661    
    292400   318.61376      2.6516205    
    292800   308.25869      2.6407633    
    293200   277.98329      2.6358306    
    293600   287.99559      2.6263766    
    294000   295.835        2.6193826    
    294400   301.97527      2.6217205    
    294800   308.07657      2.6143866    
    295200   303.88396      2.6370255    
    295600   291.11701      2.6237141    
    296000   275.53659      2.6188106    
    296400   294.23966      2.64825      
    296800   309.45701      2.6321973    
    297200   321.69768      2.62778      
    297600   291.70562      2.6189117    
    298000   289.8383       2.6344023    
    298400   278.72033      2.6200751    
    298800   288.77698      2.6364736    
    299200   304.56651      2.6445489    
    299600   298.14173      2.64631      
    300000   296.38813      2.6413348    
    300400   299.75926      2.6261175    
    300800   303.76848      2.6425436    
    301200   296.13163      2.6395313    
    301600   287.73874      2.6466654    
    302000   313.0697       2.649718     
    302400   320.65664      2.6621997    
    302800   286.06978      2.6461887    
    303200   301.60625      2.6342895    
    303600   291.88623      2.6447765    
    304000   306.50541      2.6300599    
    304400   302.87646      2.6164845    
    304800   317.83721      2.6227555    
    305200   292.24229      2.6329647    
    305600   289.46877      2.6409724    
    306000   281.13284      2.6366548    
    306400   273.39501      2.6419461    
    306800   287.26678      2.6632623    
    307200   292.86459      2.6473529    
    307600   302.66266      2.6231954    
    308000   307.60379      2.6139736    
    308400   301.56234      2.6252649    
    308800   303.02977      2.6338822    
    309200   306.64076      2.6429095    
    309600   303.9153       2.6443653    
    310000   286.69243      2.6307988    
    310400   313.60756      2.6608505    
    310800   283.37567      2.6557383    
    311200   286.23722      2.6529323    
    311600   298.26973      2.6344592    
    312000   316.02645      2.6513884    
    312400   309.23686      2.6435877    
    312800   301.3641       2.6529639    
    313200   290.1982       2.6529877    
    313600   294.07456      2.63542      
    314000   295.87912      2.6567994    
    314400   302.90314      2.6541949    
    314800   280.63233      2.6793975    
    315200   302.19492      2.6890092    
    315600   301.36823      2.6680624    
    316000   281.86971      2.6662972    
    316400   280.21864      2.6641862    
    316800   297.80668      2.6722242    
    317200   295.66871      2.6582326    
    317600   307.50754      2.6458805    
    318000   310.81051      2.6333869    
    318400   326.54409      2.637535     
    318800   305.0312       2.6463775    
    319200   281.0456       2.6446235    
    319600   291.4801       2.6222034    
    320000   289.55061      2.6284653    
    320400   295.33647      2.6279693    
    320800   295.14544      2.6265889    
    321200   307.15654      2.6431329    
    321600   282.916        2.6338017    
    322000   294.56499      2.6300054    
    322400   295.68402      2.6284234    
    322800   298.51112      2.6135819    
    323200   300.73134      2.6091728    
    323600   305.99621      2.6044469    
    324000   295.56737      2.6160359    
    324400   302.90359      2.6319293    
    324800   290.02418      2.6408726    
    325200   293.30561      2.6319704    
    325600   309.18917      2.6467151    
    326000   284.35533      2.6465874    
    326400   287.96777      2.6277853    
    326800   300.86557      2.640161     
    327200   298.7979       2.6293225    
    327600   311.66652      2.6258196    
    328000   302.15485      2.6148573    
    328400   293.30362      2.6269395    
    328800   297.05738      2.6490395    
    329200   291.35903      2.6498585    
    329600   293.64319      2.6450181    
    330000   289.35509      2.6289095    
    330400   298.91423      2.6229683    
    330800   296.34807      2.6137723    
    331200   314.21903      2.6314354    
    331600   303.49632      2.6198227    
    332000   315.09097      2.6426748    
    332400   298.33056      2.6289913    
    332800   307.20088      2.6207029    
    333200   285.16323      2.6250519    
    333600   289.26106      2.6343119    
    334000   305.70221      2.6393999    
    334400   291.3117       2.643672     
    334800   278.79715      2.6332274    
    335200   299.42696      2.6481237    
    335600   283.54149      2.6444171    
    336000   300.99291      2.6275431    
    336400   293.77768      2.6120276    
    336800   321.14409      2.6265916    
    337200   303.55712      2.6258007    
    337600   308.52393      2.6198519    
    338000   296.02322      2.6141845    
    338400   309.77662      2.6395557    
    338800   301.58846      2.6235532    
    339200   305.64557      2.6347421    
    339600   292.59479      2.6041566    
    340000   305.64902      2.622871     
    340400   293.53327      2.6220412    
    340800   304.89062      2.6220613    
    341200   289.2312       2.6152584    
    341600   289.89391      2.6256064    
    342000   294.6073       2.6213384    
    342400   300.90528      2.6306221    
    342800   315.86992      2.6258448    
    343200   303.06304      2.6153136    
    343600   295.00738      2.6389449    
    344000   291.06906      2.6387615    
    344400   300.41055      2.6425606    
    344800   287.90736      2.6465633    
    345200   286.36541      2.651843     
    345600   289.56226      2.6436493    
    346000   300.38549      2.6187586    
    346400   286.12038      2.6212996    
    346800   302.77068      2.5971275    
    347200   301.49332      2.6088942    
    347600   282.42445      2.6124696    
    348000   300.92755      2.6170839    
    348400   290.17154      2.5942456    
    348800   292.43709      2.6145174    
    349200   291.27859      2.5857312    
    349600   320.98129      2.6112497    
    350000   292.8858       2.6069358    
    350400   300.71123      2.5992368    
    350800   275.95403      2.5780853    
    351200   295.71542      2.5888388    
    351600   308.8501       2.5908161    
    352000   303.61454      2.6069648    
    352400   304.46444      2.6178039    
    352800   291.49589      2.6234095    
    353200   292.4551       2.6136671    
    353600   291.03179      2.6127067    
    354000   290.67549      2.6272042    
    354400   303.8451       2.6212817    
    354800   304.29532      2.6035815    
    355200   306.57583      2.616297     
    355600   286.58543      2.6029196    
    356000   301.05001      2.6124841    
    356400   306.40799      2.6087217    
    356800   305.02402      2.58825      
    357200   303.92587      2.6160916    
    357600   312.31126      2.6116968    
    358000   291.80691      2.6092304    
    358400   292.99325      2.6087865    
    358800   312.75545      2.6005371    
    359200   300.95099      2.6079155    
    359600   286.98561      2.6094652    
    360000   304.38064      2.6128957    
    360400   289.88043      2.6192406    
    360800   294.27724      2.6258632    
    361200   304.7383       2.6081947    
    361600   293.63797      2.6052226    
    362000   302.27556      2.6039576    
    362400   314.41662      2.617805     
    362800   286.19123      2.6131571    
    363200   286.98873      2.6069027    
    363600   293.4584       2.5996004    
    364000   304.7342       2.6087601    
    364400   314.74061      2.6274734    
    364800   283.84938      2.6230393    
    365200   283.96834      2.6315696    
    365600   320.13945      2.6515651    
    366000   289.32981      2.6658383    
    366400   292.25876      2.6520235    
    366800   288.85641      2.6267568    
    367200   301.92033      2.6538365    
    367600   306.83851      2.6638109    
    368000   279.68563      2.6602355    
WARNING: System is not charge neutral, net charge = -1.0000016e-05
For more information see https://docs.lammps.org/err0029 (src/kspace.cpp:329)
    368400   301.48999      2.6611321    
    368800   299.47449      2.6682447    
    369200   301.57301      2.6526545    
    369600   314.31248      2.6558119    
    370000   308.15108      2.6460042    
    370400   306.98609      2.6431848    
    370800   279.22822      2.6425801    
    371200   294.86736      2.643135     
    371600   294.92646      2.6579974    
    372000   308.05784      2.6451235    
    372400   300.022        2.6261892    
    372800   304.58741      2.6356027    
    373200   286.52664      2.6323874    
    373600   288.40165      2.6448986    
    374000   287.5325       2.6578891    
    374400   316.38732      2.6399425    
    374800   290.58424      2.616228     
    375200   304.05719      2.6100993    
    375600   323.39553      2.6146539    
    376000   298.05616      2.6129121    
    376400   287.70533      2.626618     
    376800   319.0466       2.6588183    
    377200   286.75467      2.6351905    
    377600   290.88826      2.6627635    
    378000   278.34909      2.6780363    
    378400   306.62079      2.6620445    
    378800   296.55962      2.6567583    
    379200   301.40536      2.6543378    
    379600   282.44202      2.6419073    
    380000   288.94964      2.658679     
    380400   300.61573      2.6596005    
    380800   314.95722      2.6602041    
    381200   298.87599      2.6249462    
    381600   300.32245      2.6405624    
    382000   314.18453      2.667233     
    382400   288.08781      2.6294367    
    382800   281.34112      2.6265998    
    383200   282.64645      2.6284399    
    383600   286.58011      2.6237998    
    384000   315.97362      2.6424001    
    384400   310.52936      2.6099333    
    384800   297.7579       2.6054265    
    385200   301.69476      2.6200453    
    385600   299.42624      2.5891734    
    386000   297.38074      2.6069864    
    386400   309.33464      2.6139992    
    386800   280.41038      2.5986486    
    387200   275.65002      2.6005238    
    387600   302.05539      2.6181501    
    388000   313.3          2.5842029    
    388400   306.18937      2.6149634    
    388800   299.76433      2.5974801    
    389200   288.74772      2.6075672    
    389600   303.87854      2.6108006    
    390000   298.10717      2.6138767    
    390400   327.9869       2.6237542    
    390800   297.85732      2.6034921    
    391200   298.29679      2.605346     
    391600   290.66228      2.611771     
    392000   296.97465      2.6220843    
    392400   303.41931      2.6330099    
    392800   301.28079      2.5997055    
    393200   316.81277      2.6256083    
    393600   302.46358      2.6283849    
    394000   289.49661      2.6198172    
    394400   282.83108      2.6274415    
    394800   305.96144      2.6215669    
    395200   311.15029      2.6155726    
    395600   308.68405      2.6101962    
    396000   305.38875      2.6119986    
    396400   294.50506      2.6140087    
    396800   290.39999      2.613595     
    397200   291.82459      2.6208154    
    397600   295.76992      2.601706     
    398000   295.79063      2.5976457    
    398400   303.94059      2.6378784    
    398800   284.35642      2.6016685    
    399200   295.94112      2.5846256    
    399600   308.94236      2.6041243    
    400000   294.08683      2.5978745    
Loop time of 1549.31 on 16 procs for 400000 steps with 1024 atoms

Performance: 5.577 ns/day, 4.304 hours/ns, 258.179 timesteps/s, 264.376 katom-step/s
84.8% CPU use with 16 MPI tasks x 1 OpenMP threads

MPI task timing breakdown:
Section |  min time  |  avg time  |  max time  |%varavg| %total
---------------------------------------------------------------
Pair    | 290.26     | 302.23     | 313.98     |  42.4 | 19.51
Bond    | 0.019999   | 0.023011   | 0.026497   |   1.2 |  0.00
Kspace  | 275.32     | 286.38     | 298.24     |  43.3 | 18.48
Neigh   | 6.2628     | 6.4333     | 6.6844     |   3.8 |  0.42
Comm    | 99.088     | 99.765     | 100.87     |   5.1 |  6.44
Output  | 0.14829    | 0.15049    | 0.15607    |   0.5 |  0.01
Modify  | 844.35     | 844.89     | 845.44     |   1.0 | 54.53
Other   |            | 9.439      |            |       |  0.61

Nlocal:             64 ave          70 max          57 min
Histogram: 2 1 0 1 2 2 3 2 1 2
Nghost:        4402.69 ave        4458 max        4341 min
Histogram: 3 0 1 1 3 2 1 0 2 3
Neighs:        30926.2 ave       33750 max       27457 min
Histogram: 2 1 1 0 1 4 2 2 1 2
FullNghs:      61852.5 ave       67584 max       54912 min
Histogram: 2 1 0 1 2 2 3 2 1 2

Total # of neighbors = 989640
Ave neighs/atom = 966.44531
Ave special neighs/atom = 1.5
Neighbor list builds = 3801
Dangerous builds = 0
print           "PORT_DONE" file done.txt screen no
Total wall time: 0:30:59
