ITEM: TIMESTEP
0
ITEM: NUMBER OF ATOMS
21
ITEM: BOX BOUNDS pp pp pp
3.5000000000000000e+01 4.8000000000000000e+01
3.5000000000000000e+01 4.8000000000000000e+01
3.5000000000000000e+01 4.8000000000000000e+01
ITEM: ATOMS id type q
1 1 0.0374845311420463
2 4 -0.310799293029643
3 1 0.0367038984974791
4 4 -0.309948064828559
5 1 0.0365704712295172
6 4 -0.311065821089968
7 4 0.526375127200578
8 4 0.524951373071522
9 4 0.526000375178289
10 3 -0.311195389985536
11 3 -0.309926489847997
12 3 -0.30954618229833
13 3 -0.309305457002077
14 3 -0.310238813969383
15 3 -0.309841019720201
16 2 0.221585432825804
17 2 0.146223963072605
18 2 0.146084778833744
19 2 0.221451515358192
20 2 0.146373576943472
21 2 0.222061488418443
