ITEM: TIMESTEP
0
ITEM: NUMBER OF ATOMS
192
ITEM: BOX BOUNDS pp pp pp
0.0000000000000000e+00 1.2400000000000000e+01
0.0000000000000000e+00 1.2400000000000000e+01
0.0000000000000000e+00 1.2400000000000000e+01
ITEM: ATOMS id type q x y z
1 1 -0.944656 3.09162 8.98509 4.59609
2 2 0.522377 2.56042 9.74454 4.22051
3 2 0.422279 2.51552 8.16942 4.64908
4 1 -0.901899 12.394 10.5577 9.57505
5 2 0.438002 0.582973 11.2688 9.95894
6 2 0.463897 11.455 10.897 9.51884
7 1 -0.964973 10.9383 6.70696 3.7177
8 2 0.438014 10.235 6.19133 3.22842
9 2 0.526959 11.2206 7.49181 3.16605
10 1 -0.947254 6.3079 11.8395 2.52407
11 2 0.505029 5.49903 11.771 3.10807
12 2 0.442225 6.44979 10.9715 2.04809
13 1 -0.951024 3.71899 7.22687 10.0381
14 2 0.449538 3.84128 6.94944 9.08512
15 2 0.501486 2.75158 7.41331 10.2094
16 1 -0.950879 11.0203 9.8765 0.0975353
17 2 0.501816 10.2614 10.3475 12.0478
18 2 0.449063 10.9694 8.89765 12.2994
19 1 -1.12439 9.07694 5.39987 1.98468
20 2 0.542718 8.92965 6.38187 2.10294
21 2 0.581675 8.2834 4.89966 2.33122
22 1 -0.978761 6.80703 3.95789 2.7589
23 2 0.491889 6.3617 4.1522 3.63293
24 2 0.486872 6.17008 3.47093 2.16125
25 1 -1.13365 2.21022 8.12018 1.50203
26 2 0.62472 2.76087 8.90513 1.78603
27 2 0.508928 1.25599 8.27161 1.75993
28 1 -0.881012 7.58113 6.11707 11.3864
29 2 0.409532 8.01121 6.83935 10.8448
30 2 0.47148 6.82489 6.50239 11.9152
31 1 -1.0137 3.72435 10.4544 1.85954
32 2 0.478441 4.60655 10.3995 1.39186
33 2 0.53526 3.57299 11.3906 2.17694
34 1 -0.936324 4.20583 2.94167 0.766704
35 2 0.497105 3.9597 3.80986 1.19759
36 2 0.439219 3.95791 2.96807 12.1983
37 1 -0.988704 2.77999 11.58 9.28584
38 2 0.486921 2.85198 11.0817 10.1498
39 2 0.501783 2.20618 12.3889 9.41439
40 1 -0.907023 4.03046 3.41715 9.5949
41 2 0.428756 3.16906 2.94074 9.77104
42 2 0.478267 3.84509 4.27442 9.11456
43 1 -1.00156 12.282 1.09017 2.04799
44 2 0.543803 12.3494 2.08622 2.10592
45 2 0.457753 0.765385 0.711828 1.77151
46 1 -0.922641 12.0904 8.61357 5.75556
47 2 0.494806 12.0727 7.93329 5.02282
48 2 0.427835 11.3433 9.26501 5.62371
49 1 -0.856061 1.48306 5.05002 8.96166
50 2 0.364004 0.611923 5.54072 8.9799
51 2 0.492058 2.04678 5.39927 8.21317
52 1 -0.908182 11.0842 1.08616 4.8315
53 2 0.451902 10.0968 1.22783 4.90284
54 2 0.45628 11.3325 0.947046 3.87288
55 1 -1.09753 2.63833 5.40762 1.562
56 2 0.523603 1.90134 4.90413 1.11105
57 2 0.573929 2.4655 6.38972 1.48712
58 1 -0.955952 9.84253 12.278 1.97136
59 2 0.417793 9.44881 12.0735 1.07516
60 2 0.538159 10.7649 0.246095 1.85409
61 1 -1.10744 3.00563 0.867321 2.38946
62 2 0.512071 3.32642 1.32796 1.56187
63 2 0.595373 2.899 1.53752 3.12394
64 1 -1.03624 2.86423 2.44679 4.64837
65 2 0.527105 2.0302 2.37248 5.19507
66 2 0.509131 3.66198 2.32771 5.23949
67 1 -1.0146 4.84846 1.87888 6.60953
68 2 0.472619 4.62576 2.19594 7.53142
69 2 0.541981 5.64545 2.37767 6.26893
70 1 -0.859162 7.68262 3.39534 9.64551
71 2 0.444507 7.75217 3.97782 10.4554
72 2 0.414655 6.80402 3.55417 9.19514
73 1 -0.875298 6.85227 0.0917479 9.41521
74 2 0.386535 5.9295 0.257524 9.06733
75 2 0.488764 7.52254 0.460831 8.77138
76 1 -0.907697 1.78033 11.247 11.8772
77 2 0.482453 2.60803 11.4711 12.3917
78 2 0.425243 0.989537 11.2767 0.088557
79 1 -0.9835 4.74494 9.80308 7.21976
80 2 0.486336 4.23959 9.01215 6.87471
81 2 0.497165 4.19061 10.2817 7.9007
82 1 -0.923375 9.34899 10.3202 4.02136
83 2 0.535962 9.68628 11.0076 3.37816
84 2 0.387412 8.55318 10.6809 4.50776
85 1 -0.89996 11.822 3.98032 2.57554
86 2 0.444842 11.0144 3.88862 1.99299
87 2 0.455118 11.9887 4.94808 2.76444
88 1 -0.789645 4.94351 12.1763 11.6274
89 2 0.437029 5.81404 11.7445 11.3914
90 2 0.352616 4.74435 0.504892 10.972
91 1 -1.07312 12.1236 9.06357 2.66601
92 2 0.544468 0.261189 9.83609 3.00403
93 2 0.528657 11.5644 9.35997 1.89177
94 1 -1.0328 1.35924 1.62575 9.38529
95 2 0.502807 1.41187 2.19404 8.56414
96 2 0.529991 0.482036 1.77826 9.84055
97 1 -0.880309 10.8858 6.65907 0.168598
98 2 0.475678 10.0209 6.26561 0.480271
99 2 0.404631 11.4112 5.96333 12.0788
100 1 -1.03232 1.38905 11.1202 3.7789
101 2 0.483838 0.941373 11.2301 4.66633
102 2 0.548478 1.98793 11.9027 3.60853
103 1 -1.02731 3.78869 5.50353 7.28645
104 2 0.522389 3.32292 5.7901 6.44922
105 2 0.504923 4.73607 5.82304 7.26691
106 1 -0.867898 10.3149 11.0886 7.71869
107 2 0.491241 9.54963 10.8954 7.10472
108 2 0.376658 10.9039 11.7848 7.30833
109 1 -0.859509 10.676 4.41096 9.88528
110 2 0.429307 10.7645 3.75621 9.13462
111 2 0.430202 9.93924 4.12056 10.4959
112 1 -0.916957 4.42911 11.8395 4.83509
113 2 0.462941 4.54787 11.1093 5.50794
114 2 0.454016 4.63905 0.320632 5.25882
115 1 -0.948609 10.9594 8.09255 9.41274
116 2 0.487999 11.4567 7.96422 10.2707
117 2 0.46061 11.4676 8.72069 8.82356
118 1 -0.985516 7.5527 9.86898 6.93613
119 2 0.454146 7.72821 8.95335 6.57445
120 2 0.53137 6.59619 9.9377 7.21964
121 1 -0.960249 8.34948 8.07669 2.29918
122 2 0.435574 7.35823 8.09231 2.16806
123 2 0.524675 8.61515 8.81359 2.92079
124 1 -1.00033 7.17018 3.34779 5.94699
125 2 0.427027 6.80476 4.2517 6.1693
126 2 0.573307 8.14386 3.42535 5.73266
127 1 -0.92577 4.30315 5.15414 4.08045
128 2 0.440053 3.87693 4.36141 4.51624
129 2 0.485717 3.77456 5.41471 3.27255
130 1 -1.06337 9.50984 3.10975 0.399386
131 2 0.532311 8.7434 2.50157 0.192738
132 2 0.531057 9.1869 3.87612 0.95472
133 1 -0.879474 1.43633 6.16287 5.81967
134 2 0.458582 0.954178 6.8506 6.36241
135 2 0.420892 0.873541 5.33928 5.74913
136 1 -0.960783 6.23308 9.73456 0.209215
137 2 0.535112 5.76513 8.85593 0.304273
138 2 0.425671 6.97 9.64893 11.9387
139 1 -0.94316 8.00722 1.42263 3.94465
140 2 0.489556 7.59413 0.705542 3.38327
141 2 0.453603 7.77963 2.31809 3.56208
142 1 -0.949557 11.3665 1.80403 11.2244
143 2 0.522986 10.9679 2.36239 11.952
144 2 0.426572 10.7441 1.05385 11.001
145 1 -0.932155 0.627441 2.5427 6.64279
146 2 0.506517 0.53021 1.56366 6.46381
147 2 0.425639 12.1322 2.98375 6.57897
148 1 -0.905985 0.919223 3.91424 11.9558
149 2 0.460652 0.190937 3.2601 11.7516
150 2 0.445333 1.14559 4.4298 11.1294
151 1 -0.942477 8.10269 8.74297 9.90356
152 2 0.504284 8.99048 8.34543 9.67161
153 2 0.438193 7.89671 9.49015 9.27166
154 1 -0.912604 5.76018 8.13007 4.26141
155 2 0.41738 5.34633 7.25741 4.0022
156 2 0.495224 5.04735 8.82713 4.33873
157 1 -0.930775 7.00521 1.67668 0.327658
158 2 0.463913 6.9728 0.868307 0.915444
159 2 0.466862 6.086 1.88125 12.3912
160 1 -0.936347 9.04851 11.4232 11.4244
161 2 0.439773 8.83329 10.6655 10.8083
162 2 0.496574 8.36339 12.1439 11.3184
163 1 -0.884384 1.04809 11.9675 6.84914
164 2 0.387775 0.321556 11.2999 7.01198
165 2 0.496609 1.69614 11.9472 7.61047
166 1 -0.853827 1.73318 8.48054 8.02694
167 2 0.446894 1.19796 8.80602 8.80643
168 2 0.406933 1.48978 9.00704 7.21234
169 1 -0.903024 6.53901 6.38972 7.59705
170 2 0.401562 6.41736 6.74251 8.52482
171 2 0.501461 7.46561 6.59422 7.28149
172 1 -0.874848 9.98912 1.954 8.33147
173 2 0.447832 9.49108 1.22285 7.86522
174 2 0.427016 9.33996 2.63112 8.67802
175 1 -0.907641 8.4808 7.00071 5.5307
176 2 0.460798 9.18692 6.46067 5.07271
177 2 0.446842 7.94782 7.50024 4.84776
178 1 -0.970485 7.9188 0.354066 6.70139
179 2 0.451613 7.44772 11.9002 6.4802
180 2 0.518872 7.78019 1.01253 5.96165
181 1 -0.969459 1.0771 8.41961 11.175
182 2 0.498675 0.962309 9.41292 11.1622
183 2 0.470784 1.46041 8.13963 12.0551
184 1 -0.910202 11.0241 5.92689 7.37051
185 2 0.451217 10.8539 6.9021 7.22911
186 2 0.458985 11.169 5.75155 8.3443
187 1 -1.05953 5.15623 7.16421 0.14634
188 2 0.587288 4.7031 7.13499 11.6554
189 2 0.47224 4.61578 6.64989 0.812213
190 1 -0.932129 9.98085 3.88845 5.24482
191 2 0.467246 10.7688 3.44936 4.8131
192 2 0.464883 10.2987 4.55414 5.91998
