ITEM: TIMESTEP
0
ITEM: NUMBER OF ATOMS
192
ITEM: BOX BOUNDS pp pp pp
0.0000000000000000e+00 1.2400000000000000e+01
0.0000000000000000e+00 1.2400000000000000e+01
0.0000000000000000e+00 1.2400000000000000e+01
ITEM: ATOMS id type q x y z
1 1 -0.991837 6.69561 6.81929 5.70157
2 2 0.427381 6.84033 7.70466 5.25976
3 2 0.564456 7.5147 6.56569 6.21613
4 1 -0.95118 0.553317 11.0812 8.3413
5 2 0.484349 0.972393 10.9927 9.24493
6 2 0.466831 11.958 11.1014 8.43598
7 1 -0.973116 9.60718 5.60229 2.91955
8 2 0.523922 10.1446 5.72444 2.08514
9 2 0.449194 10.2231 5.4976 3.7004
10 1 -0.929927 4.84121 10.103 0.195841
11 2 0.519692 5.0644 9.18539 12.2669
12 2 0.410234 5.65737 10.5222 0.593499
13 1 -0.938146 5.16851 7.40547 11.3777
14 2 0.443186 4.50818 7.53715 10.6383
15 2 0.49496 5.73982 6.60975 11.1766
16 1 -0.930596 0.442418 11.7701 11.2959
17 2 0.49341 1.3737 11.8618 11.6485
18 2 0.437186 12.3153 0.186978 11.5301
19 1 -0.823535 5.06481 7.12646 1.95276
20 2 0.434943 5.94023 6.88469 1.53419
21 2 0.388591 4.75206 8.00362 1.58837
22 1 -0.914074 5.1087 2.44754 4.84504
23 2 0.468711 4.37136 2.476 5.51997
24 2 0.445363 4.89203 3.06447 4.08843
25 1 -0.822435 0.514982 5.23967 2.91371
26 2 0.388615 12.3213 6.03809 3.01374
27 2 0.43382 1.26683 5.45916 2.29198
28 1 -0.979167 8.24382 4.72899 10.3386
29 2 0.500218 8.49756 4.25437 9.49575
30 2 0.478948 7.85478 4.07364 10.986
31 1 -0.920973 2.8422 8.76936 3.7363
32 2 0.481596 2.47897 8.68607 2.80833
33 2 0.439377 2.20316 9.29426 4.29853
34 1 -0.907968 3.99783 4.28417 2.76478
35 2 0.474038 3.81367 5.26705 2.77231
36 2 0.43393 4.94252 4.12422 2.47846
37 1 -0.824535 2.97825 9.23349 10.0059
38 2 0.402103 3.15791 10.063 10.5348
39 2 0.422433 3.42135 9.30538 9.11231
40 1 -0.863708 5.06547 4.18441 11.7179
41 2 0.403735 4.28052 4.66095 12.1138
42 2 0.459973 5.61765 3.78599 0.0502413
43 1 -0.978817 10.1134 3.40567 0.694586
44 2 0.465998 9.80383 3.32779 1.64228
45 2 0.512819 9.56987 2.79808 0.1154
46 1 -0.840794 3.22998 9.68697 6.99957
47 2 0.379534 2.48038 9.57833 7.65249
48 2 0.46126 3.79608 8.86263 7.0018
49 1 -0.902099 2.90436 4.70274 9.58212
50 2 0.40042 2.53158 4.04199 8.93063
51 2 0.501679 3.90046 4.6187 9.60905
52 1 -0.921309 10.6587 0.728674 7.05165
53 2 0.46934 10.3242 12.3444 6.52918
54 2 0.451969 11.4122 1.16186 6.55702
55 1 -1.01583 0.574351 3.13467 0.0983281
56 2 0.529995 12.0888 3.24676 0.549089
57 2 0.485837 1.20453 2.66209 0.714409
58 1 -0.817566 6.71439 12.1369 2.68654
59 2 0.431781 7.10648 12.0491 3.60228
60 2 0.385785 5.86898 11.6054 2.63359
61 1 -0.975816 2.81299 12.0297 0.442367
62 2 0.449305 2.39112 12.1136 1.34514
63 2 0.526512 3.63667 11.4667 0.510322
64 1 -0.914458 11.893 1.88442 4.36419
65 2 0.452213 0.25471 1.25135 4.50234
66 2 0.462246 12.2279 2.82524 4.41619
67 1 -0.96528 3.49427 2.05515 7.72372
68 2 0.441314 3.07748 2.37508 8.57457
69 2 0.523965 2.82213 1.53257 7.19919
70 1 -0.900705 8.31743 1.61865 11.5319
71 2 0.439516 7.4924 1.21341 11.1381
72 2 0.461188 9.12353 1.24992 11.069
73 1 -0.993164 6.18752 1.6477 8.67716
74 2 0.473661 6.10222 0.958263 9.39648
75 2 0.519503 5.43601 1.54435 8.02558
76 1 -0.875523 2.36052 1.76489 10.5844
77 2 0.397528 2.1666 0.960413 11.1459
78 2 0.477995 2.02732 2.58465 11.0502
79 1 -0.835745 6.04355 11.4814 6.7006
80 2 0.401165 5.30353 10.8688 6.42304
81 2 0.43458 6.67238 10.9922 7.30493
82 1 -0.902711 9.69722 11.1569 4.79364
83 2 0.522295 9.72478 10.4109 4.12829
84 2 0.380416 8.75303 11.3077 5.08652
85 1 -0.991325 9.6711 1.36965 2.75342
86 2 0.508266 10.6003 1.31352 3.11865
87 2 0.483058 9.03422 0.942936 3.39552
88 1 -0.819379 6.48501 10.2399 9.97996
89 2 0.448206 6.33168 9.3532 9.54378
90 2 0.371173 6.39869 10.143 10.9715
91 1 -0.891146 10.1861 11.6842 0.915776
92 2 0.526791 10.0181 0.139173 1.40647
93 2 0.364355 9.32619 11.3433 0.535958
94 1 -0.897452 5.18784 0.970511 11.2127
95 2 0.475971 4.46449 1.50435 10.7748
96 2 0.42148 5.29668 1.27091 12.1603
97 1 -0.799494 11.4325 9.07151 11.5157
98 2 0.521306 11.611 10.0513 11.425
99 2 0.278188 10.8597 8.91004 12.3193
100 1 -0.842189 0.438077 11.1934 2.42349
101 2 0.409189 0.961897 10.4571 1.99512
102 2 0.433001 11.9234 11.2296 2.02091
103 1 -0.940825 4.91948 7.52673 8.02625
104 2 0.429926 5.677 7.78492 7.42666
105 2 0.510899 4.90284 6.53258 8.13308
106 1 -0.894404 0.120544 9.82415 5.42487
107 2 0.453344 11.704 10.2638 5.05081
108 2 0.44106 0.380995 10.2758 6.27822
109 1 -0.832641 11.2554 4.76292 10.1051
110 2 0.471549 11.0216 3.79798 10.2244
111 2 0.361092 10.9793 5.06231 9.19176
112 1 -0.858732 3.64934 11.6358 4.28801
113 2 0.447319 3.75426 10.6432 4.22746
114 2 0.411414 4.35937 12.0103 4.88434
115 1 -0.876429 10.8525 8.70017 8.24539
116 2 0.508728 11.7519 8.26321 8.2361
117 2 0.3677 10.2356 8.18057 8.8365
118 1 -0.864539 7.79159 9.10478 7.52981
119 2 0.374055 8.3075 8.97884 6.68247
120 2 0.490484 8.32907 8.76391 8.30112
121 1 -0.803528 7.7474 8.94989 0.595923
122 2 0.443759 7.87679 7.96929 0.448674
123 2 0.359768 8.23155 9.46042 12.2853
124 1 -0.983348 8.81853 2.94382 8.03406
125 2 0.513039 7.92113 2.50343 8.00675
126 2 0.470308 9.52781 2.2678 7.83423
127 1 -0.910948 5.63185 4.80184 8.83798
128 2 0.406517 5.86625 4.45624 7.92934
129 2 0.504431 6.2157 4.36431 9.52186
130 1 -0.981791 10.8495 6.26029 0.283892
131 2 0.56512 10.8936 5.4487 12.1013
132 2 0.416671 11.0412 7.07465 12.1361
133 1 -0.976647 1.78436 3.83264 5.02221
134 2 0.489477 2.6675 4.30172 5.02669
135 2 0.48717 1.23258 4.16814 4.25867
136 1 -0.883575 7.42979 5.74981 0.606391
137 2 0.451478 7.33823 5.30083 1.49523
138 2 0.432097 8.37795 5.68352 0.295551
139 1 -0.939504 6.11608 2.45262 1.62149
140 2 0.444749 6.47312 3.08006 2.31348
141 2 0.494755 6.35049 1.51299 1.87081
142 1 -0.861417 11.0221 1.71182 10.1316
143 2 0.421152 11.9811 1.95499 10.2769
144 2 0.440265 10.9675 0.917578 9.5265
145 1 -0.799018 0.575204 3.05646 7.56892
146 2 0.310559 0.0538748 2.2051 7.51059
147 2 0.488458 0.82691 3.35689 6.64893
148 1 -0.900368 2.28919 5.73085 0.131591
149 2 0.474097 1.58994 5.02822 12.3998
150 2 0.42627 2.77188 5.8865 11.6697
151 1 -0.923121 8.70478 7.56432 10.0093
152 2 0.370708 9.53569 7.80853 10.5093
153 2 0.552413 8.60891 6.56916 9.98804
154 1 -0.859856 6.36566 9.09054 3.82365
155 2 0.416793 7.08369 9.08326 3.12767
156 2 0.443063 5.77096 8.29658 3.69736
157 1 -0.864323 1.97099 1.86365 2.36259
158 2 0.395664 1.91321 1.02625 2.90612
159 2 0.468658 2.78192 2.38199 2.63409
160 1 -0.805792 9.14948 11.6687 9.59251
161 2 0.447436 8.27426 11.2271 9.78988
162 2 0.358356 9.21544 11.8547 8.61216
163 1 -0.989073 1.77756 0.256061 6.34232
164 2 0.504434 1.55286 12.0892 7.13489
165 2 0.484639 2.10593 12.0739 5.59848
166 1 -0.92803 0.633012 7.10954 9.03954
167 2 0.447874 1.08234 7.56748 9.80662
168 2 0.480156 0.803869 6.12565 9.09228
169 1 -0.989378 9.30989 6.43837 6.42549
170 2 0.556933 9.80869 5.61465 6.15586
171 2 0.432445 9.95097 7.10917 6.79838
172 1 -0.944065 9.91328 3.87642 5.4446
173 2 0.469315 9.65554 3.41106 6.29137
174 2 0.47475 9.8123 3.24687 4.67422
175 1 -0.865709 9.67401 8.87321 3.11477
176 2 0.419483 10.0173 8.81855 2.17712
177 2 0.446226 9.56764 7.95042 3.48512
178 1 -0.910789 7.74772 1.05897 5.20832
179 2 0.529449 6.88161 1.55882 5.20899
180 2 0.38134 7.82309 0.521563 6.04828
181 1 -0.913379 1.78181 8.67831 1.0435
182 2 0.462377 1.40244 7.76531 0.893478
183 2 0.451002 2.31952 8.95108 0.24571
184 1 -0.843882 0.25451 6.97587 5.4593
185 2 0.38198 0.621828 6.64149 6.32721
186 2 0.461901 0.25075 7.97586 5.46208
187 1 -0.863287 3.81076 6.23428 5.33943
188 2 0.440267 3.62254 6.90844 4.62523
189 2 0.42302 4.70728 6.41747 5.7428
190 1 -0.995952 6.81523 4.69162 3.32141
191 2 0.524221 7.67266 5.19843 3.41061
192 2 0.471731 6.30103 4.75326 4.17687
