ITEM: TIMESTEP
0
ITEM: NUMBER OF ATOMS
192
ITEM: BOX BOUNDS pp pp pp
0.0000000000000000e+00 1.2400000000000000e+01
0.0000000000000000e+00 1.2400000000000000e+01
0.0000000000000000e+00 1.2400000000000000e+01
ITEM: ATOMS id type q x y z
1 1 -0.813705 7.29431 7.98255 4.65671
2 2 0.461745 8.01407 7.41699 5.05932
3 2 0.35196 7.60157 8.33319 3.77203
4 1 -0.856385 10.5371 3.51048 9.69323
5 2 0.394205 11.1625 2.80706 10.031
6 2 0.46218 10.4365 3.41925 8.70248
7 1 -1.07539 7.95005 11.6621 4.13897
8 2 0.569703 8.38155 11.2314 4.93164
9 2 0.505684 8.51404 0.0265694 3.82681
10 1 -1.00076 5.90027 11.2889 11.7278
11 2 0.526846 5.8872 10.9239 0.258753
12 2 0.473911 5.05435 11.0355 11.2585
13 1 -0.859384 1.71327 4.66909 9.58318
14 2 0.435649 2.41975 5.36947 9.68501
15 2 0.423735 0.851258 5.00784 9.96025
16 1 -0.865092 12.0584 1.03942 11.4836
17 2 0.472318 11.5477 1.68906 12.0467
18 2 0.392773 11.4597 0.672848 10.7715
19 1 -0.980695 12.291 6.52914 11.106
20 2 0.509959 11.3609 6.72184 11.4189
21 2 0.470736 0.125691 7.14852 10.3568
22 1 -0.934724 5.74467 1.26774 6.59063
23 2 0.494687 4.92564 1.47852 7.12427
24 2 0.440037 5.85684 1.95037 5.86852
25 1 -0.883399 1.45991 6.10462 2.96053
26 2 0.433081 2.28441 5.78689 2.49229
27 2 0.450318 0.652784 5.8276 2.43917
28 1 -1.03481 5.5091 5.88572 11.3097
29 2 0.549337 5.37929 4.90131 11.191
30 2 0.485477 4.973 6.37774 10.6237
31 1 -0.956027 5.2004 11.1341 5.4338
32 2 0.537669 5.77692 11.8631 5.80289
33 2 0.418358 5.67443 10.6856 4.6761
34 1 -0.939497 5.19925 4.26632 4.66685
35 2 0.506276 4.72266 4.82136 5.34861
36 2 0.433221 5.26338 4.77523 3.80842
37 1 -0.890514 3.32761 7.36528 9.90311
38 2 0.461539 2.99749 8.17506 10.3882
39 2 0.428974 3.91033 7.64765 9.14106
40 1 -0.854066 3.72748 4.09822 1.28516
41 2 0.444011 2.78385 4.05702 0.956739
42 2 0.410055 4.30762 3.52651 0.704987
43 1 -0.992337 10.5121 3.02238 0.501495
44 2 0.517186 9.69464 2.87871 12.3437
45 2 0.475151 10.5349 3.96946 0.821696
46 1 -0.978351 6.94305 0.0775016 9.16785
47 2 0.482028 6.33131 0.354136 8.42674
48 2 0.496323 6.42611 11.9637 9.85256
49 1 -0.812989 0.3854 1.52879 8.15877
50 2 0.384309 0.118979 1.15783 9.04839
51 2 0.42868 12.1884 1.15451 7.44921
52 1 -1.04703 9.51875 11.0662 6.43412
53 2 0.468742 10.4553 11.0567 6.08365
54 2 0.578287 9.41273 10.3477 7.12149
55 1 -0.977109 0.174148 3.26531 3.38682
56 2 0.467167 0.642987 2.9569 4.21452
57 2 0.509942 0.478199 2.71721 2.60763
58 1 -0.900151 6.5245 10.2775 2.06172
59 2 0.526307 7.03961 10.8288 2.71806
60 2 0.373844 7.08107 9.49942 1.7706
61 1 -1.02682 3.07336 10.3052 11.6255
62 2 0.520027 2.10097 10.3223 11.3928
63 2 0.506796 3.19687 10.6239 0.165297
64 1 -0.827596 11.7221 0.814433 5.02044
65 2 0.433294 11.3688 1.31396 4.22946
66 2 0.394301 12.331 0.084836 4.70912
67 1 -0.938882 3.47031 2.11546 8.19178
68 2 0.472936 3.29227 2.51645 9.0904
69 2 0.465946 2.65329 1.63466 7.87349
70 1 -1.00076 5.23021 3.04636 11.0149
71 2 0.490911 4.4676 2.40136 10.9658
72 2 0.509853 5.96304 2.74308 10.4058
73 1 -0.960309 7.17592 3.09725 8.86407
74 2 0.444167 7.4559 2.13742 8.84538
75 2 0.516142 7.76264 3.6276 8.25212
76 1 -0.889494 2.80469 1.39096 11.4881
77 2 0.45715 2.0033 1.78076 11.9418
78 2 0.432344 3.2791 0.77693 12.1189
79 1 -0.838285 5.41572 8.40627 7.48382
80 2 0.438542 6.11296 8.84131 6.91407
81 2 0.399742 4.94369 9.10335 8.02351
82 1 -0.889161 10.3441 11.4172 1.54625
83 2 0.48544 9.99743 11.0223 0.695444
84 2 0.403721 9.68261 12.078 1.90094
85 1 -1.00368 9.19408 1.69309 3.19393
86 2 0.47888 9.58541 1.99403 2.32427
87 2 0.5248 8.7735 2.4728 3.65779
88 1 -1.00069 7.6123 7.25992 9.34523
89 2 0.480776 7.54151 6.88091 10.2679
90 2 0.519919 6.73213 7.16945 8.87927
91 1 -1.03355 8.75336 10.4679 11.4485
92 2 0.514946 7.79697 10.7379 11.56
93 2 0.5186 9.2125 11.1122 10.8369
94 1 -0.829246 7.08363 7.48068 0.694207
95 2 0.325574 6.53894 8.04221 1.31711
96 2 0.503672 6.47493 6.92716 0.1258
97 1 -0.833917 0.256118 9.95015 10.735
98 2 0.382439 12.1864 10.5784 11.3552
99 2 0.451478 12.3627 10.1275 9.79563
100 1 -0.822879 0.694728 0.542459 2.1415
101 2 0.397821 1.41339 0.255976 1.50789
102 2 0.425058 12.32 12.3139 2.07304
103 1 -0.911855 2.54725 8.83996 6.57158
104 2 0.491558 3.46296 8.43878 6.54876
105 2 0.420297 2.62052 9.83711 6.58925
106 1 -0.853889 11.6474 10.1128 4.17651
107 2 0.458855 11.2289 10.519 3.36417
108 2 0.395034 11.8362 9.14568 4.00605
109 1 -0.916008 8.61924 4.87139 11.2911
110 2 0.494592 9.28545 4.69354 10.5669
111 2 0.421416 7.88704 4.19188 11.2447
112 1 -0.965158 2.28205 11.8816 6.01085
113 2 0.501461 1.92408 0.240322 5.46658
114 2 0.463696 3.27636 11.8408 5.91242
115 1 -0.883724 4.08239 10.8715 9.14803
116 2 0.383802 3.79628 11.6884 8.6472
117 2 0.499922 3.50334 10.7554 9.95502
118 1 -0.95924 9.54453 9.16848 8.68952
119 2 0.534606 8.89711 8.48051 9.01744
120 2 0.424634 10.4778 8.87003 8.88941
121 1 -0.973115 10.6976 7.77656 2.14689
122 2 0.491643 10.4214 8.01645 1.21618
123 2 0.481472 10.5043 6.80961 2.31315
124 1 -0.867288 8.94808 1.55439 6.80402
125 2 0.418316 8.75651 2.03042 5.94571
126 2 0.448972 9.2583 0.624301 6.60731
127 1 -0.777186 5.34247 5.35877 7.91028
128 2 0.40148 4.75388 4.64968 7.522
129 2 0.375706 6.27971 5.01596 7.97409
130 1 -0.973318 10.4345 5.02762 2.85424
131 2 0.556883 11.101 4.30385 3.03303
132 2 0.416436 10.101 5.39555 3.72225
133 1 -0.878356 2.80785 4.86719 6.2775
134 2 0.449447 2.28829 5.51938 5.72549
135 2 0.428909 2.38018 4.77663 7.17689
136 1 -0.889824 7.14874 4.30923 1.92628
137 2 0.411294 6.34886 4.50338 1.35839
138 2 0.47853 7.95654 4.73838 1.52217
139 1 -0.859748 7.93392 1.78517 11.8819
140 2 0.453169 7.06091 1.71891 12.3651
141 2 0.406579 7.80889 1.51071 10.9285
142 1 -0.969821 9.9271 12.3325 9.36051
143 2 0.521776 8.97167 0.134456 9.14512
144 2 0.448045 10.4053 12.0553 8.52715
145 1 -0.956679 11.5835 4.78978 7.04394
146 2 0.48475 11.7918 5.3112 6.21643
147 2 0.471929 12.3436 4.17338 7.24966
148 1 -0.908341 0.853563 4.18938 0.283847
149 2 0.460683 1.05517 5.04278 12.2032
150 2 0.447659 0.0163 3.78766 12.3129
151 1 -1.00317 9.83716 7.8631 11.7263
152 2 0.423967 9.28033 7.06414 11.4991
153 2 0.579203 9.28384 8.69129 11.6373
154 1 -0.892928 3.65539 7.41959 1.30989
155 2 0.409202 4.00954 6.61352 0.835721
156 2 0.483726 2.72187 7.60389 1.00236
157 1 -0.987083 3.91832 12.2478 1.63163
158 2 0.493007 4.66769 0.472698 1.85055
159 2 0.494076 3.67144 11.7247 2.44735
160 1 -0.882381 0.0771705 10.6376 7.6896
161 2 0.497537 0.855559 10.9587 7.15015
162 2 0.384843 12.205 9.72861 7.37375
163 1 -0.891123 2.65996 2.06613 4.61134
164 2 0.455081 2.78449 2.83999 5.23233
165 2 0.436042 3.23614 2.19084 3.80359
166 1 -0.894215 12.1696 7.57729 8.3173
167 2 0.434852 11.8082 6.64697 8.25439
168 2 0.459363 0.628313 7.63647 7.80834
169 1 -1.02382 8.74159 5.07768 7.50058
170 2 0.507282 8.64111 5.98466 7.9096
171 2 0.516536 9.6552 4.99046 7.10346
172 1 -0.813092 9.9969 7.74439 5.59114
173 2 0.391182 10.6685 7.38404 6.23855
174 2 0.42191 10.4081 8.48761 5.06337
175 1 -0.821547 1.07356 9.08347 1.41351
176 2 0.392645 1.33348 9.78489 2.07718
177 2 0.428902 0.200787 8.67656 1.68312
178 1 -0.922451 6.30089 1.65347 2.29239
179 2 0.41688 6.82059 1.1126 2.95373
180 2 0.505571 6.69822 2.56863 2.22457
181 1 -0.868028 3.22947 10.125 3.3875
182 2 0.431349 3.80512 9.42059 2.97221
183 2 0.436679 3.60959 10.3856 4.27495
184 1 -1.05265 0.697699 6.81504 5.54192
185 2 0.489222 0.913699 7.76705 5.75878
186 2 0.563432 1.17492 6.54727 4.70492
187 1 -0.821071 4.09541 7.41278 4.29239
188 2 0.426512 3.89235 7.31051 3.31858
189 2 0.394559 5.03038 7.74939 4.40439
190 1 -1.0009 7.97662 3.77126 5.08478
191 2 0.510863 7.04133 3.86004 4.74221
192 2 0.49004 8.05757 4.24761 5.96031
