ITEM: TIMESTEP
0
ITEM: NUMBER OF ATOMS
192
ITEM: BOX BOUNDS pp pp pp
0.0000000000000000e+00 1.2400000000000000e+01
0.0000000000000000e+00 1.2400000000000000e+01
0.0000000000000000e+00 1.2400000000000000e+01
ITEM: ATOMS id type q x y z
1 1 -0.93157 6.94294 8.19258 7.05825
2 2 0.469708 7.63769 8.72305 6.57252
3 2 0.461862 7.36395 7.37778 7.45683
4 1 -0.934948 11.6821 3.64093 8.96921
5 2 0.467493 11.8716 3.90323 8.023
6 2 0.467455 11.533 2.65331 9.01785
7 1 -0.927684 7.65475 11.5465 4.2714
8 2 0.465644 7.98995 11.1069 5.10472
9 2 0.46204 8.21559 11.2599 3.49464
10 1 -1.03885 5.79513 11.6993 0.076275
11 2 0.543973 5.5849 12.3945 11.7888
12 2 0.49488 5.29826 11.9036 0.919715
13 1 -0.845248 1.82347 4.91846 9.5024
14 2 0.441585 1.02115 4.35827 9.2963
15 2 0.403663 2.64987 4.43783 9.20904
16 1 -0.880324 11.2253 0.531815 11.1129
17 2 0.454897 11.1385 1.42878 11.5463
18 2 0.425428 11.7693 0.616326 10.278
19 1 -0.857556 1.18413 7.55566 11.0056
20 2 0.403471 0.951952 7.8681 10.0845
21 2 0.454085 1.54196 6.62294 10.961
22 1 -0.88336 5.90407 0.472151 6.93241
23 2 0.400873 5.40916 1.01228 7.61309
24 2 0.482487 6.36543 1.08555 6.2914
25 1 -0.941294 3.00483 4.62806 3.51203
26 2 0.485133 2.47552 5.04906 2.77542
27 2 0.45616 3.66979 5.28713 3.86341
28 1 -0.847427 5.67958 5.02259 10.9637
29 2 0.34901 5.7888 4.63632 10.0478
30 2 0.498417 4.96272 4.52494 11.452
31 1 -0.885856 4.89843 10.3408 5.6279
32 2 0.486894 5.22454 11.2834 5.69934
33 2 0.398962 5.64455 9.71233 5.84783
34 1 -0.846227 5.15002 7.21744 4.76986
35 2 0.404608 6.04287 7.19243 5.21953
36 2 0.441619 5.2231 7.72566 3.91174
37 1 -0.819656 4.48153 8.50105 11.3014
38 2 0.384999 3.53196 8.54398 10.9908
39 2 0.434657 5.01133 7.92838 10.6758
40 1 -1.01014 3.43223 4.12466 0.112808
41 2 0.489992 2.53551 4.14442 12.0706
42 2 0.520151 3.53837 3.26529 0.613027
43 1 -0.800127 9.86048 3.45974 11.9187
44 2 0.354642 9.15137 3.2086 0.17755
45 2 0.445485 9.48571 4.10903 11.2569
46 1 -0.735133 5.9484 10.5807 9.06596
47 2 0.414382 5.63453 10.6999 8.124
48 2 0.320751 6.20167 11.4695 9.44788
49 1 -0.91808 11.7493 0.610181 7.6304
50 2 0.412991 0.338375 0.484371 7.70749
51 2 0.505088 11.4771 0.531661 6.67138
52 1 -1.0149 9.03737 10.2576 6.65609
53 2 0.544047 9.98024 9.98894 6.85311
54 2 0.470856 8.6003 10.5801 7.4957
55 1 -0.796543 0.929231 2.2203 3.87511
56 2 0.356699 1.81765 1.84562 3.60991
57 2 0.439844 0.376696 2.37898 3.05686
58 1 -0.94365 5.84852 9.00284 2.49285
59 2 0.461156 6.40864 9.29887 1.71913
60 2 0.482494 5.20075 9.72632 2.73154
61 1 -0.854131 3.21105 11.5708 10.9927
62 2 0.482961 3.79023 10.9177 11.4806
63 2 0.37117 2.24947 11.358 11.1661
64 1 -0.908662 10.827 0.270051 4.83052
65 2 0.513706 10.6644 0.79748 3.99662
66 2 0.394956 10.0381 12.0832 5.01292
67 1 -0.99592 3.65369 2.36999 8.63374
68 2 0.523345 3.29316 2.4953 7.70945
69 2 0.472575 2.99885 1.84646 9.17883
70 1 -0.901475 5.60307 1.58637 10.535
71 2 0.499924 4.96241 1.98338 9.8778
72 2 0.401552 6.39228 2.19171 10.6386
73 1 -0.848509 8.64692 3.76739 9.34721
74 2 0.395732 9.62072 3.55726 9.43418
75 2 0.452777 8.42149 3.91016 8.38347
76 1 -0.812992 1.81294 1.76806 10.9213
77 2 0.395749 1.96613 0.792881 11.0812
78 2 0.417243 1.72498 2.2399 11.7986
79 1 -0.894578 4.55988 7.17053 8.46857
80 2 0.444199 4.66326 6.26504 8.05697
81 2 0.45038 5.12087 7.83011 7.96833
82 1 -0.992011 9.42671 10.6479 2.04891
83 2 0.516682 9.05106 10.1184 1.28827
84 2 0.475329 9.73846 11.5372 1.7142
85 1 -0.985711 10.0827 1.72556 2.43139
86 2 0.453778 9.20696 1.49763 2.00579
87 2 0.531932 10.1946 2.71907 2.45235
88 1 -0.949685 7.48979 7.21496 10.0629
89 2 0.525176 6.98041 6.38691 10.2971
90 2 0.424508 7.06854 7.65184 9.26809
91 1 -1.01161 7.82593 9.59132 12.1134
92 2 0.509066 7.03002 10.1865 12.0026
93 2 0.502542 7.91633 9.00257 11.3102
94 1 -0.818987 8.25061 6.30593 0.847758
95 2 0.432558 9.01221 6.5283 0.239063
96 2 0.386429 8.33788 6.8289 1.69563
97 1 -0.894222 0.164144 10.3971 11.8285
98 2 0.464188 12.1213 9.50124 11.7915
99 2 0.430035 11.877 11.1138 11.7095
100 1 -0.773621 0.429807 0.715684 1.49485
101 2 0.351533 0.936197 0.3343 0.721471
102 2 0.422088 11.8543 0.52825 1.37957
103 1 -1.03848 2.18639 8.97853 7.64149
104 2 0.532136 2.50542 8.09484 7.98402
105 2 0.506347 2.50375 9.10608 6.7018
106 1 -0.88286 12.2923 9.58836 3.14558
107 2 0.427848 11.4239 10.0509 2.96703
108 2 0.455011 0.552669 9.8335 2.43577
109 1 -0.938612 10.1755 6.31353 10.2399
110 2 0.433476 10.6314 5.55927 9.76734
111 2 0.505136 9.23241 6.38838 9.9159
112 1 -0.940615 2.14383 12.1168 4.71531
113 2 0.457844 1.36064 0.186889 4.30829
114 2 0.48277 2.03033 12.0782 5.7081
115 1 -0.952277 2.18 11.8686 7.88256
116 2 0.5049 1.97525 10.8971 8.00229
117 2 0.447377 2.91089 12.1351 8.51087
118 1 -0.912299 10.3049 9.18712 10.0769
119 2 0.50162 10.1742 8.20989 9.90969
120 2 0.410679 10.5621 9.6399 9.22316
121 1 -0.876913 0.430178 6.4713 1.94746
122 2 0.419202 0.659409 6.6951 2.89475
123 2 0.457711 12.2676 7.20127 1.55924
124 1 -0.802502 8.08525 2.66643 6.42755
125 2 0.408073 7.95361 3.03379 5.50683
126 2 0.394429 8.92972 2.13155 6.45544
127 1 -0.877858 5.92668 5.00305 7.01896
128 2 0.483936 6.42403 4.94442 6.15339
129 2 0.393922 5.81551 4.08615 7.4023
130 1 -0.909247 10.6158 4.40919 2.9821
131 2 0.460641 10.705 4.56555 3.96577
132 2 0.448605 10.4324 5.27782 2.52178
133 1 -0.876906 2.58046 6.10897 6.32241
134 2 0.447371 2.7102 6.72749 5.54741
135 2 0.429535 3.37787 5.51184 6.40945
136 1 -0.922401 6.20828 4.44118 2.15084
137 2 0.449948 5.34663 4.38867 1.64605
138 2 0.472453 6.769 5.18009 1.77719
139 1 -0.935927 8.66757 0.148166 0.271883
140 2 0.463697 9.07042 0.121859 11.757
141 2 0.47223 7.79723 12.0557 0.267168
142 1 -0.767271 8.77857 11.6294 9.33965
143 2 0.349416 7.8092 11.5465 9.57082
144 2 0.417855 9.30835 10.9813 9.88672
145 1 -0.921694 11.8253 4.37514 5.85533
146 2 0.460871 12.2751 3.7771 5.19198
147 2 0.460824 11.9712 5.32986 5.59605
148 1 -0.866348 0.185398 3.84139 0.490618
149 2 0.464485 0.141512 4.77334 0.850565
150 2 0.401863 11.7677 3.33762 0.769182
151 1 -0.899179 10.6643 7.9775 0.448061
152 2 0.444895 9.8758 8.40698 0.0077252
153 2 0.454284 11.1815 7.45559 12.1698
154 1 -0.894342 4.07764 6.65456 1.38819
155 2 0.454854 4.19414 5.89399 0.749465
156 2 0.439488 4.68449 7.40521 1.12691
157 1 -0.901031 4.14702 1.96811 1.60077
158 2 0.398382 3.76087 2.53247 2.33041
159 2 0.502649 4.03158 1.00169 1.83033
160 1 -0.952064 11.8127 9.89783 7.34624
161 2 0.4155 11.8428 10.8543 7.63661
162 2 0.536564 0.331111 9.50537 7.39551
163 1 -0.951444 3.69146 2.97177 5.57557
164 2 0.506873 3.17399 3.48138 4.88816
165 2 0.444571 4.39873 2.42742 5.12452
166 1 -0.866814 12.324 6.7918 7.83597
167 2 0.383277 11.9079 6.05662 8.37113
168 2 0.483536 0.809383 6.48802 7.48419
169 1 -0.871462 9.21082 6.4935 7.01789
170 2 0.431468 8.7488 6.29412 6.15373
171 2 0.439994 10.1777 6.67986 6.84368
172 1 -0.92486 8.61607 7.8161 3.66316
173 2 0.486223 9.34703 8.47705 3.49331
174 2 0.438637 7.73419 8.28758 3.66518
175 1 -0.971495 2.45073 9.12357 1.73465
176 2 0.462547 1.98664 8.86851 0.886376
177 2 0.508949 2.9986 8.35271 2.05966
178 1 -0.923167 6.10901 1.8255 4.18093
179 2 0.484709 6.60879 1.00029 3.91776
180 2 0.438458 6.08109 2.45911 3.40778
181 1 -1.08114 3.95423 11.4976 2.38928
182 2 0.537326 3.2856 10.9172 1.92447
183 2 0.543811 3.66169 11.6533 3.33277
184 1 -0.971994 11.8911 7.29718 5.03343
185 2 0.446648 12.0694 7.41262 6.01061
186 2 0.525346 12.2627 8.07867 4.53219
187 1 -0.9299 2.33831 8.99169 4.80094
188 2 0.474265 1.87624 9.83688 4.53235
189 2 0.455635 3.32173 9.15794 4.87336
190 1 -0.96122 7.7023 5.22084 4.56912
191 2 0.478378 7.17165 4.66038 3.93327
192 2 0.482842 8.16377 5.95076 4.06486
