ITEM: TIMESTEP
0
ITEM: NUMBER OF ATOMS
192
ITEM: BOX BOUNDS pp pp pp
0.0000000000000000e+00 1.2400000000000000e+01
0.0000000000000000e+00 1.2400000000000000e+01
0.0000000000000000e+00 1.2400000000000000e+01
ITEM: ATOMS id type q x y z
1 1 -0.926744 6.55939 7.19665 7.36546
2 2 0.475373 5.89272 7.82201 6.9599
3 2 0.451371 7.38758 7.70272 7.6063
4 1 -0.831368 8.68778 4.1704 7.68075
5 2 0.410116 9.03846 5.10586 7.7248
6 2 0.421252 9.33717 3.59397 7.18474
7 1 -1.01178 9.06905 0.202657 2.93567
8 2 0.534971 9.46974 0.839192 2.27668
9 2 0.476814 9.44629 0.382132 3.84424
10 1 -0.909337 6.57903 1.62296 0.729954
11 2 0.404001 7.4028 1.08831 0.918504
12 2 0.505335 6.75754 2.25574 12.3765
13 1 -0.95074 12.0227 3.4709 7.65267
14 2 0.450313 0.0827354 3.07764 6.85661
15 2 0.500427 11.968 4.46403 7.54921
16 1 -0.898485 9.32331 0.133123 11.5588
17 2 0.4716 9.82186 0.181342 10.6932
18 2 0.426885 9.60187 0.892592 12.1466
19 1 -1.00631 2.2564 5.66281 10.2272
20 2 0.543155 2.791 5.66374 11.0723
21 2 0.463158 1.92437 4.73753 10.0438
22 1 -0.97722 5.66739 10.6084 8.1541
23 2 0.487147 5.25998 10.7457 7.25124
24 2 0.490074 5.00715 10.154 8.75211
25 1 -1.05088 3.17086 6.00525 0.471335
26 2 0.506021 3.72055 5.21558 0.743856
27 2 0.544859 2.58515 6.2825 1.23296
28 1 -1.09429 6.86252 3.32484 10.7181
29 2 0.488294 7.83859 3.54212 10.727
30 2 0.605991 6.34378 4.13242 10.4375
31 1 -0.863987 2.33798 11.3519 5.4621
32 2 0.452061 3.2099 11.7417 5.75843
33 2 0.411926 2.50766 10.5264 4.92376
34 1 -0.933285 4.57146 5.49368 4.08882
35 2 0.497104 3.69878 5.91487 4.33587
36 2 0.436181 4.64011 4.59293 4.51769
37 1 -1.033 5.31273 7.76855 11.6331
38 2 0.525769 4.73831 7.00893 11.9381
39 2 0.507234 6.14932 7.79447 12.1803
40 1 -0.984169 2.62726 2.40143 9.75331
41 2 0.514077 2.41518 2.49749 8.78078
42 2 0.470092 3.32572 1.69605 9.87409
43 1 -1.0849 9.86912 3.05267 11.323
44 2 0.525748 10.5272 2.50481 10.8064
45 2 0.559152 9.9104 4.00263 11.0133
46 1 -1.08686 3.8611 9.32496 9.88234
47 2 0.646506 4.49031 8.88135 10.5206
48 2 0.440353 3.1755 9.84169 10.3951
49 1 -0.972115 11.9404 1.54897 9.80741
50 2 0.561941 12.0835 2.07116 8.96667
51 2 0.410173 0.011248 0.66952 9.73781
52 1 -0.883897 8.71265 11.2044 7.25556
53 2 0.388698 7.88188 10.6834 7.05962
54 2 0.495198 8.51037 11.9122 7.93238
55 1 -0.923618 3.24427 2.57248 4.36204
56 2 0.501433 2.47737 3.20218 4.23812
57 2 0.422185 3.13528 1.78979 3.74924
58 1 -0.794824 5.4211 10.7181 0.118674
59 2 0.426613 5.91545 10.2384 11.7938
60 2 0.368211 5.80955 11.6317 0.238795
61 1 -0.868352 2.22127 9.32892 0.42399
62 2 0.473107 3.17834 9.61621 0.385394
63 2 0.395246 1.62895 10.1281 0.32148
64 1 -0.939475 0.886667 4.21232 4.3136
65 2 0.487217 1.23749 5.02622 3.85046
66 2 0.452258 12.3156 4.10111 4.10232
67 1 -0.924459 1.85762 1.49941 6.89045
68 2 0.468716 1.15004 0.79959 6.79258
69 2 0.455743 2.42696 1.51504 6.06849
70 1 -0.903288 4.99038 0.481028 9.99374
71 2 0.478944 5.31891 12.2822 9.26338
72 2 0.424344 5.76733 0.945322 10.4189
73 1 -0.947417 7.69335 1.04076 8.83696
74 2 0.491439 7.55326 1.70274 9.57328
75 2 0.455977 7.28624 1.38987 7.99293
76 1 -0.960057 2.90553 12.1153 11.9171
77 2 0.502375 2.46724 12.1121 11.0183
78 2 0.457682 3.88772 12.2687 11.8085
79 1 -0.984999 5.59555 5.49364 9.50739
80 2 0.550518 5.86148 6.17181 8.82228
81 2 0.434481 4.60628 5.35239 9.47011
82 1 -0.874874 12.2635 11.8507 0.689265
83 2 0.422481 0.573757 0.0833582 0.380744
84 2 0.452392 11.8453 11.4068 12.2967
85 1 -0.981786 10.3608 4.49905 4.18433
86 2 0.536597 10.5463 5.41223 4.54721
87 2 0.445189 9.55849 4.53384 3.5884
88 1 -1.0393 9.7288 5.71772 10.8011
89 2 0.497801 10.3179 6.19749 10.1509
90 2 0.541495 9.04126 6.35032 11.1576
91 1 -0.922511 8.35848 8.03427 12.2184
92 2 0.478687 8.12479 8.73177 11.541
93 2 0.443824 9.13159 8.34978 0.36868
94 1 -1.01457 9.45556 9.67425 2.33834
95 2 0.550078 9.06228 9.34188 3.19559
96 2 0.464493 9.41518 10.6732 2.31829
97 1 -0.826588 11.2833 10.6088 10.4781
98 2 0.413583 10.8982 10.4791 9.56441
99 2 0.413005 11.5421 9.72146 10.8598
100 1 -0.939993 1.6687 2.69106 0.067786
101 2 0.418164 0.744558 3.01545 0.269609
102 2 0.521829 1.83166 2.74077 11.4824
103 1 -1.04149 2.29884 7.63478 8.13431
104 2 0.561197 2.3607 6.86085 8.76456
105 2 0.480291 2.98719 8.31829 8.37718
106 1 -0.927089 0.357153 0.270231 3.52591
107 2 0.480679 0.100606 0.384501 2.56615
108 2 0.44641 1.34703 0.375448 3.62115
109 1 -0.876538 12.2178 7.66509 10.5468
110 2 0.467269 0.741937 7.47741 10.2139
111 2 0.40927 12.196 7.56857 11.5419
112 1 -0.920194 11.7925 0.117758 6.71911
113 2 0.440857 11.915 0.101197 5.72677
114 2 0.479336 10.8205 0.0289976 6.93658
115 1 -0.844153 1.85096 11.4772 9.24021
116 2 0.395151 2.68099 10.9922 8.96496
117 2 0.449001 1.47328 11.9648 8.45306
118 1 -0.866082 9.17365 8.23572 8.91136
119 2 0.430575 8.73478 9.00733 9.37181
120 2 0.435507 10.0164 8.54571 8.47118
121 1 -0.995668 1.25028 6.36171 2.42666
122 2 0.517317 0.867704 7.28 2.32479
123 2 0.478351 0.831904 5.74994 1.75531
124 1 -0.842337 9.63288 1.95126 5.49381
125 2 0.358735 8.68783 1.90425 5.17027
126 2 0.483601 10.0465 2.80997 5.19121
127 1 -0.929287 5.82668 2.89921 7.31533
128 2 0.45266 6.74497 3.17792 7.03414
129 2 0.476627 5.46083 3.56484 7.96579
130 1 -0.891989 9.06057 6.52948 2.44375
131 2 0.426401 8.32625 5.98738 2.85229
132 2 0.465588 8.81536 6.76848 1.5042
133 1 -0.846246 3.26776 4.50271 7.29621
134 2 0.398803 3.649 3.73485 6.78137
135 2 0.447443 2.53198 4.92596 6.76755
136 1 -0.806032 6.47275 5.50745 1.14667
137 2 0.419202 5.84523 5.62747 1.91596
138 2 0.386829 6.29135 4.63017 0.702266
139 1 -0.94489 10.3355 2.45794 1.87733
140 2 0.4802 10.2074 2.72117 0.921151
141 2 0.46469 10.8333 3.17989 2.35797
142 1 -0.992685 7.59434 10.4702 10.5637
143 2 0.521364 8.07351 11.1026 11.1724
144 2 0.471321 7.03291 10.989 9.91905
145 1 -1.04065 11.2776 7.30694 4.19009
146 2 0.471696 10.8907 7.04521 3.30589
147 2 0.568958 11.2567 8.30254 4.28152
148 1 -0.886299 11.7255 4.93071 0.867009
149 2 0.416878 11.2861 5.53929 1.52772
150 2 0.469421 11.24 4.98002 12.3942
151 1 -0.952178 11.8615 8.38572 1.31818
152 2 0.558121 11.2261 9.09769 1.6171
153 2 0.394057 0.250404 8.80876 0.872492
154 1 -0.872983 5.18478 9.09162 5.36286
155 2 0.380056 6.00604 8.82545 4.8582
156 2 0.492927 4.37854 8.94105 4.79075
157 1 -0.958023 4.1933 3.41473 1.26593
158 2 0.422504 4.9123 2.73655 1.11391
159 2 0.535519 3.30955 3.02856 1.00161
160 1 -0.89453 11.8571 9.15792 7.66806
161 2 0.470474 0.260569 8.85569 8.18095
162 2 0.424056 12.1094 9.92026 7.07209
163 1 -0.957238 5.00783 0.330365 5.87029
164 2 0.514609 5.11409 1.20635 6.34078
165 2 0.442629 5.16805 0.456232 4.89126
166 1 -0.909799 11.277 6.14164 7.02347
167 2 0.485414 11.5536 6.49676 6.13052
168 2 0.424385 11.2716 6.88606 7.69116
169 1 -0.911888 7.54838 5.83437 4.95117
170 2 0.478177 7.23655 5.84484 5.90126
171 2 0.433711 6.75728 5.78873 4.34118
172 1 -0.910973 8.60499 8.84578 4.84393
173 2 0.413031 8.6955 9.23448 5.76084
174 2 0.497941 8.36963 7.87644 4.91454
175 1 -0.884577 3.29692 9.59204 3.10324
176 2 0.429286 3.79736 10.4397 2.92714
177 2 0.455291 2.5795 9.47952 2.41575
178 1 -0.853124 6.22669 11.694 3.17874
179 2 0.377523 6.08626 10.8951 3.7636
180 2 0.475601 7.19075 11.7519 2.91945
181 1 -0.945785 3.28213 0.369151 2.33857
182 2 0.510968 3.10141 0.212352 1.36761
183 2 0.434817 4.26855 0.43976 2.48688
184 1 -0.892748 11.779 9.99686 4.50948
185 2 0.518904 12.3523 10.7868 4.29185
186 2 0.373844 11.154 10.2334 5.25342
187 1 -0.938811 2.20281 6.66523 5.46972
188 2 0.418448 1.4993 6.9686 4.82703
189 2 0.520363 2.15271 7.21569 6.30307
190 1 -0.752673 6.65863 2.78161 3.77696
191 2 0.354205 7.19734 2.00403 3.45267
192 2 0.398468 6.02812 3.07344 3.05773
