ITEM: TIMESTEP
0
ITEM: NUMBER OF ATOMS
192
ITEM: BOX BOUNDS pp pp pp
0.0000000000000000e+00 1.2400000000000000e+01
0.0000000000000000e+00 1.2400000000000000e+01
0.0000000000000000e+00 1.2400000000000000e+01
ITEM: ATOMS id type q x y z
1 1 -0.960787 6.08008 7.06276 7.84808
2 2 0.526266 6.22211 7.62195 7.0313
3 2 0.434521 6.93211 6.59573 8.08461
4 1 -1.00755 8.02941 4.72035 7.55331
5 2 0.591293 7.93799 4.73728 8.54898
6 2 0.416261 8.80695 4.14493 7.29969
7 1 -0.821977 10.736 11.8449 3.45089
8 2 0.362893 11.1808 11.8244 2.55552
9 2 0.459084 10.9375 0.313638 3.90337
10 1 -0.87461 6.39434 1.2781 0.730375
11 2 0.415034 7.05356 1.54945 1.43166
12 2 0.459577 6.58846 1.77062 12.282
13 1 -0.837842 11.5872 2.44617 7.27433
14 2 0.457424 12.25 2.29194 6.5416
15 2 0.380418 12.0574 2.8115 8.07772
16 1 -0.877699 9.39676 1.00694 10.4036
17 2 0.426315 9.41506 1.12325 9.41059
18 2 0.451385 9.49238 0.0370139 10.6275
19 1 -0.871401 1.53433 4.49199 10.7493
20 2 0.453615 1.38561 5.24965 10.1138
21 2 0.417785 2.51619 4.34112 10.8642
22 1 -0.983903 4.11287 9.57203 7.94731
23 2 0.492912 4.951 9.25416 7.50402
24 2 0.490991 3.69917 8.81813 8.4577
25 1 -0.805262 2.75401 5.77589 1.3758
26 2 0.429603 2.66986 4.9349 0.841322
27 2 0.375659 2.78277 6.56187 0.758211
28 1 -0.864454 6.57682 2.374 10.2636
29 2 0.433137 7.55174 2.21572 10.1071
30 2 0.431317 6.29443 3.20847 9.7904
31 1 -0.951733 4.28618 0.116764 5.37889
32 2 0.526059 4.80451 12.2528 6.19234
33 2 0.425674 3.73014 11.7441 5.07272
34 1 -0.911094 5.13812 6.21297 4.11414
35 2 0.405605 4.95722 7.19108 4.01129
36 2 0.505489 4.63737 5.86279 4.90574
37 1 -0.90182 5.21903 9.10118 2.90585
38 2 0.504418 4.53804 9.46096 2.26803
39 2 0.397401 5.5988 8.25023 2.54301
40 1 -0.888785 3.27382 1.69524 9.37089
41 2 0.431205 3.12518 2.63503 9.06315
42 2 0.457581 4.16474 1.37575 9.0481
43 1 -0.776972 10.6914 3.94439 10.1676
44 2 0.400154 11.6301 3.78621 10.4741
45 2 0.376818 10.238 3.06619 10.0152
46 1 -0.904758 3.37212 7.56619 10.1646
47 2 0.437824 3.47893 6.60851 10.4319
48 2 0.466933 2.72196 8.01322 10.779
49 1 -0.841148 0.244861 0.973689 10.2454
50 2 0.419317 12.0519 0.723408 9.4801
51 2 0.421831 1.1979 0.973527 9.94257
52 1 -0.908408 9.10476 10.1698 6.45132
53 2 0.438545 8.7734 10.9355 5.9001
54 2 0.469863 9.82446 10.4895 7.0676
55 1 -0.826607 3.81178 2.79622 3.88258
56 2 0.383017 3.65775 1.88033 4.25329
57 2 0.44359 3.39271 2.86417 2.97716
58 1 -0.895957 6.82763 11.0016 11.3628
59 2 0.431118 6.43537 11.8532 11.7106
60 2 0.464839 7.11627 10.4296 12.1306
61 1 -1.01144 2.86859 10.0825 1.33931
62 2 0.493121 2.86341 10.5167 2.2401
63 2 0.518314 3.11514 10.7584 0.644829
64 1 -0.800258 0.511026 3.66124 4.24445
65 2 0.402077 0.752909 2.69659 4.13984
66 2 0.398181 0.218142 4.02906 3.36188
67 1 -0.836111 0.962139 0.549911 5.00065
68 2 0.414197 1.09557 0.747796 4.02954
69 2 0.421914 1.81427 0.19983 5.38965
70 1 -0.933149 5.42536 0.0363634 8.02698
71 2 0.468149 5.26839 11.5727 8.506
72 2 0.465001 6.15132 0.546319 8.48842
73 1 -0.868621 8.74053 1.19419 7.34075
74 2 0.418289 9.42764 0.719855 6.7904
75 2 0.450331 8.06846 1.62346 6.73737
76 1 -0.91098 2.46801 0.0231718 12.0105
77 2 0.459548 1.52599 0.141391 11.6964
78 2 0.451432 3.08506 0.0299 11.2236
79 1 -0.989152 4.61483 5.09676 11.4838
80 2 0.564751 5.11717 5.4117 12.289
81 2 0.424401 5.23158 5.06571 10.6972
82 1 -0.989681 11.2943 12.2588 0.370623
83 2 0.466337 11.5917 0.669945 12.267
84 2 0.523343 10.6747 11.7204 12.1994
85 1 -0.975634 9.74803 4.5757 2.99567
86 2 0.49792 10.2942 4.90498 2.22545
87 2 0.477714 9.63019 5.31351 3.66031
88 1 -1.07837 7.82725 5.20299 10.2419
89 2 0.575193 8.36529 4.7222 10.9343
90 2 0.503179 7.5143 6.078 10.6113
91 1 -0.974542 10.0568 7.53038 11.001
92 2 0.503829 9.64948 7.29015 11.8821
93 2 0.470713 9.58591 7.0361 10.2702
94 1 -0.845851 8.00512 10.778 1.84475
95 2 0.434914 8.38849 9.92259 2.19307
96 2 0.410936 8.28703 11.5344 2.43502
97 1 -1.01464 9.82862 10.5517 10.8766
98 2 0.526242 10.0054 9.58129 11.0413
99 2 0.488395 8.84276 10.7035 10.8057
100 1 -0.837566 12.3954 3.07349 0.637996
101 2 0.429223 0.419943 2.43416 1.27914
102 2 0.408342 0.606715 3.22103 12.2605
103 1 -1.0357 1.25069 8.8259 7.23804
104 2 0.477698 2.05221 9.22477 6.79253
105 2 0.558006 1.12573 9.24549 8.13711
106 1 -1.00414 1.02926 0.967118 2.01903
107 2 0.484248 0.188612 0.573901 1.64661
108 2 0.519896 1.81935 0.558522 1.56207
109 1 -1.06681 1.39024 8.17884 12.2305
110 2 0.481113 0.41249 8.33083 12.375
111 2 0.585698 1.91377 8.76883 0.445142
112 1 -0.911431 11.3843 11.6778 7.42843
113 2 0.485048 12.2873 11.2495 7.4626
114 2 0.426383 11.4885 0.269976 7.35905
115 1 -0.87745 2.03466 11.7306 7.44983
116 2 0.412302 2.3082 0.290091 7.51698
117 2 0.465149 2.81748 11.1452 7.66093
118 1 -0.853764 9.64659 7.4618 7.79716
119 2 0.423698 9.63348 8.39832 7.44676
120 2 0.430066 9.53921 6.8202 7.03767
121 1 -0.875924 1.40098 7.08628 3.79097
122 2 0.457759 1.21728 6.66874 2.90107
123 2 0.418164 0.564232 7.50782 4.14049
124 1 -0.871123 9.99899 2.07462 4.69347
125 2 0.483318 10.1203 2.81953 4.03741
126 2 0.387806 9.73352 2.4518 5.58075
127 1 -0.935316 4.80043 4.47667 8.31432
128 2 0.524926 5.11033 5.41814 8.18164
129 2 0.41039 3.80785 4.43333 8.20072
130 1 -0.943656 8.37324 7.09823 1.05112
131 2 0.482213 7.56734 6.50999 1.11815
132 2 0.461443 8.59554 7.46336 1.95515
133 1 -0.851069 1.96846 3.53385 7.08443
134 2 0.369713 1.44761 4.10159 7.72191
135 2 0.481356 1.9162 3.92871 6.16717
136 1 -1.05603 6.00992 5.33447 1.49638
137 2 0.57797 5.5975 5.40593 2.40457
138 2 0.478063 6.34987 4.40442 1.3569
139 1 -0.843312 8.57626 3.41979 0.177378
140 2 0.400655 8.71208 2.43188 0.252182
141 2 0.442657 8.82369 3.85671 1.04218
142 1 -0.83627 6.51871 7.7964 10.5173
143 2 0.376238 7.09012 8.10002 9.75483
144 2 0.460032 5.5674 7.73197 10.2158
145 1 -0.784486 11.1382 5.993 5.66735
146 2 0.386971 11.7977 6.51428 6.20895
147 2 0.397514 11.4056 5.02951 5.65359
148 1 -0.815341 11.8508 5.92607 1.06617
149 2 0.407433 11.9052 6.40095 0.187806
150 2 0.407908 0.323985 5.47777 1.25737
151 1 -0.815144 11.7731 9.3269 1.53345
152 2 0.401539 11.1382 8.58618 1.75316
153 2 0.413605 11.3029 10.2053 1.61887
154 1 -1.02576 6.18036 8.85678 5.63779
155 2 0.506755 7.09864 9.25271 5.6348
156 2 0.519002 5.77901 8.93884 4.72554
157 1 -0.846408 3.15384 2.92563 0.758825
158 2 0.411227 2.7941 2.15207 0.237094
159 2 0.43518 4.01094 3.2355 0.347304
160 1 -0.92711 0.620992 9.68237 9.80661
161 2 0.465741 1.09886 9.23453 10.5623
162 2 0.461369 12.043 9.72709 10.0104
163 1 -0.889888 6.23799 2.64289 6.34931
164 2 0.45764 6.25965 3.20872 7.17355
165 2 0.432248 5.3086 2.30466 6.20151
166 1 -0.89623 0.510978 6.41481 8.6651
167 2 0.475368 0.497626 7.26349 8.13637
168 2 0.420862 12.1806 6.43585 9.34778
169 1 -0.973933 7.95364 6.1974 5.19828
170 2 0.519298 8.02172 5.74176 6.08584
171 2 0.454635 6.99084 6.29222 4.94524
172 1 -0.999643 9.14992 8.51045 3.53732
173 2 0.526764 9.84608 9.02305 4.03993
174 2 0.472879 8.88201 7.70526 4.06637
175 1 -0.859677 2.45755 9.91876 4.46082
176 2 0.376128 3.32877 9.51753 4.17798
177 2 0.483549 1.71348 9.28691 4.24373
178 1 -0.787872 7.52996 12.2458 4.39595
179 2 0.3888 6.73551 0.199856 4.88942
180 2 0.399071 8.09582 0.608998 4.08391
181 1 -0.899368 4.38811 12.2918 2.4923
182 2 0.50048 5.15441 0.395543 2.09354
183 2 0.398888 4.3532 0.0626278 3.47698
184 1 -0.90938 11.768 9.35209 5.02343
185 2 0.467135 11.6512 10.3375 4.89989
186 2 0.442245 12.1323 9.17154 5.93703
187 1 -0.851265 3.0515 6.71576 6.375
188 2 0.440567 2.61702 6.80664 5.47891
189 2 0.410698 2.71639 7.43593 6.98251
190 1 -0.911379 6.98314 3.22722 3.08123
191 2 0.465838 6.15334 3.25698 3.6385
192 2 0.445541 7.70185 3.76277 3.52466
