ITEM: TIMESTEP
0
ITEM: NUMBER OF ATOMS
192
ITEM: BOX BOUNDS pp pp pp
0.0000000000000000e+00 1.2400000000000000e+01
0.0000000000000000e+00 1.2400000000000000e+01
0.0000000000000000e+00 1.2400000000000000e+01
ITEM: ATOMS id type q x y z
1 1 -0.940558 0.26505 4.70244 5.38838
2 2 0.449439 11.75 5.09851 5.46448
3 2 0.491119 0.762898 4.84674 6.24356
4 1 -0.981346 8.81164 3.24899 9.23773
5 2 0.480444 8.32887 3.98166 8.758
6 2 0.500902 8.69816 2.39111 8.73657
7 1 -0.99562 8.14772 1.0694 7.45869
8 2 0.506265 8.4313 1.43158 6.57076
9 2 0.489355 7.90915 0.102928 7.36369
10 1 -0.945734 6.48411 0.477041 0.682684
11 2 0.484 7.201 0.0145 1.20432
12 2 0.461734 5.60623 0.361073 1.14731
13 1 -0.97841 10.1782 5.32335 3.88329
14 2 0.530336 9.38587 5.56248 3.32199
15 2 0.448074 11.0067 5.69804 3.46724
16 1 -0.866978 11.2867 11.9427 9.71485
17 2 0.424404 12.137 11.4504 9.90086
18 2 0.442574 11.4157 0.144923 8.92701
19 1 -1.14405 3.4277 3.82179 9.81143
20 2 0.61759 4.21712 3.49195 9.29372
21 2 0.526459 3.54787 3.60088 10.7793
22 1 -0.911365 3.90084 8.96692 4.94514
23 2 0.421332 3.09858 9.53858 4.77314
24 2 0.490033 3.65078 8.00359 4.84774
25 1 -0.863216 6.12791 9.22631 12.0495
26 2 0.48227 6.51253 8.32872 11.8341
27 2 0.380946 6.33316 9.86385 11.3069
28 1 -0.851181 9.43818 1.00847 12.0031
29 2 0.418258 10.0397 0.593817 11.3203
30 2 0.432923 9.93671 1.11996 0.462733
31 1 -0.931964 5.68062 11.385 4.35644
32 2 0.479065 5.45601 12.3245 4.09774
33 2 0.452899 4.84912 10.9114 4.64668
34 1 -1.05476 2.72828 6.48899 4.51673
35 2 0.550489 3.14617 6.05583 5.31532
36 2 0.50427 1.9941 5.90665 4.16764
37 1 -0.952006 5.90471 8.83683 2.40814
38 2 0.471407 5.41352 8.94465 3.27249
39 2 0.480599 5.25303 8.85515 1.64986
40 1 -0.874911 4.14665 0.23589 10.7301
41 2 0.411146 4.82432 11.9241 10.9148
42 2 0.463765 3.95307 0.738466 11.5727
43 1 -0.783392 9.65568 4.19128 0.112379
44 2 0.431955 9.55341 3.42204 11.8817
45 2 0.351436 8.75846 4.59228 0.297308
46 1 -0.989315 3.71348 9.0795 10.6125
47 2 0.455369 4.41567 9.13015 11.3227
48 2 0.533946 2.97533 9.71901 10.8274
49 1 -1.02651 2.254 0.768934 8.49073
50 2 0.533708 2.9049 0.683039 9.24502
51 2 0.492798 1.96193 12.2587 8.19719
52 1 -0.800901 6.62496 9.23824 8.61541
53 2 0.412304 6.65415 10.0584 9.18676
54 2 0.388597 5.68918 9.08702 8.29687
55 1 -0.88683 5.19559 5.0383 2.89262
56 2 0.423837 4.6422 5.38106 3.65175
57 2 0.462993 4.68289 5.12893 2.03885
58 1 -0.937257 8.20745 7.79065 10.7612
59 2 0.434346 8.01503 7.69707 9.78433
60 2 0.502911 8.62648 8.68194 10.9345
61 1 -0.867428 2.62289 8.82821 2.23123
62 2 0.463364 1.69187 9.13956 2.04077
63 2 0.404064 2.63112 8.30258 3.08191
64 1 -0.819257 1.14086 1.97339 3.46992
65 2 0.434915 1.00602 2.95787 3.58229
66 2 0.384342 0.394179 1.48142 3.91763
67 1 -0.850539 11.8835 2.126 7.50307
68 2 0.434831 0.39584 1.71758 7.53082
69 2 0.415709 11.9631 3.10867 7.33564
70 1 -0.910283 2.65733 11.7175 5.33065
71 2 0.48879 1.97989 0.0251233 5.12966
72 2 0.421493 2.25103 11.0276 5.92978
73 1 -0.77544 4.7372 11.8295 7.25466
74 2 0.447375 4.03983 11.7408 6.54345
75 2 0.328065 4.4381 11.3454 8.07698
76 1 -0.870212 7.48685 11.9056 9.8817
77 2 0.432834 7.70294 12.1767 10.8197
78 2 0.437378 8.11265 12.3629 9.24989
79 1 -0.982106 9.94014 7.90063 1.30379
80 2 0.502638 10.424 7.75031 0.441672
81 2 0.479468 9.21658 7.2176 1.4034
82 1 -0.818609 0.748206 2.48844 10.3982
83 2 0.419184 1.63122 2.86367 10.1163
84 2 0.399425 0.269551 2.12569 9.59865
85 1 -1.03828 7.75882 6.02246 2.39717
86 2 0.587245 7.1085 5.27167 2.51293
87 2 0.45104 7.25966 6.88244 2.29098
88 1 -0.809124 5.31711 6.44781 9.19873
89 2 0.39334 5.40698 5.45887 9.31679
90 2 0.415784 5.57711 6.90974 10.0467
91 1 -1.0431 7.45128 5.00967 7.30197
92 2 0.508784 7.3657 4.29693 6.60578
93 2 0.534316 7.78123 5.85268 6.87715
94 1 -0.868328 10.1109 0.350872 2.80077
95 2 0.460703 9.55193 11.9277 2.90077
96 2 0.407625 10.0405 0.904443 3.63059
97 1 -0.873703 9.7641 9.90537 11.5376
98 2 0.47366 10.536 10.3025 11.0412
99 2 0.400043 9.25911 10.6313 12.0046
100 1 -0.928952 2.41726 6.36046 10.7368
101 2 0.465141 3.16651 6.96979 10.4774
102 2 0.46381 2.67744 5.41339 10.5488
103 1 -0.944734 4.59485 5.43452 6.51641
104 2 0.442577 5.35346 4.8133 6.31994
105 2 0.502156 4.8575 6.05929 7.25171
106 1 -0.906093 0.545251 0.793509 0.671621
107 2 0.479905 0.585892 1.62795 0.122022
108 2 0.426188 0.594144 1.03069 1.64186
109 1 -0.952202 1.43885 10.7765 11.3351
110 2 0.423581 1.63435 11.7211 11.0714
111 2 0.528621 0.922862 10.7695 12.1916
112 1 -0.898546 10.5927 9.34435 7.66579
113 2 0.51076 11.2587 9.31445 8.41113
114 2 0.387786 9.85025 9.96927 7.90707
115 1 -1.02137 1.17169 10.5327 7.74034
116 2 0.446914 0.504311 10.7706 7.03462
117 2 0.574456 1.36608 9.55267 7.69853
118 1 -0.917023 10.4477 6.58583 6.70953
119 2 0.401777 10.0828 6.31253 5.81951
120 2 0.515247 10.2158 7.54254 6.88537
121 1 -0.856952 12.0293 11.6544 5.07598
122 2 0.387739 11.1765 12.1699 4.99265
123 2 0.469213 11.8611 10.6937 4.85487
124 1 -1.0691 6.89047 3.33748 5.17419
125 2 0.558071 7.37497 3.17641 4.31435
126 2 0.511029 5.93187 3.0719 5.07146
127 1 -0.912148 5.94913 5.51249 12.2511
128 2 0.37944 6.71255 5.96631 0.310737
129 2 0.532708 6.26575 4.65407 11.8475
130 1 -0.887531 0.0965923 6.88296 2.61868
131 2 0.471508 12.3576 6.56798 1.67981
132 2 0.416023 11.7467 7.49024 2.88099
133 1 -1.0595 1.41466 4.72709 7.9938
134 2 0.519883 0.645418 4.79584 8.62905
135 2 0.539615 2.23207 4.43527 8.49047
136 1 -0.805722 7.41495 7.41934 5.74423
137 2 0.403613 6.61431 8.01137 5.83633
138 2 0.402109 7.59868 7.25554 4.77499
139 1 -1.08062 6.83283 3.01197 11.6069
140 2 0.539276 6.53755 2.13277 11.9808
141 2 0.541343 7.37348 2.85783 10.7799
142 1 -0.958746 8.3443 10.5097 2.01758
143 2 0.556233 7.50841 9.96205 2.0547
144 2 0.402513 9.11142 9.92901 1.74492
145 1 -0.926939 2.85769 5.46827 1.26211
146 2 0.456776 2.27137 5.97964 1.89038
147 2 0.470163 3.11974 6.05667 0.497182
148 1 -1.06152 12.1306 6.37538 11.9675
149 2 0.551174 11.6413 5.5763 11.6181
150 2 0.510345 0.701721 6.29632 11.7426
151 1 -0.892072 12.357 9.87743 1.26838
152 2 0.47907 11.5252 9.32871 1.35252
153 2 0.413002 12.2099 10.7725 1.68946
154 1 -0.816736 9.90916 9.11935 4.58836
155 2 0.47033 9.19165 9.59104 5.10089
156 2 0.346406 9.7025 9.16045 3.61081
157 1 -0.91676 3.88439 2.94856 0.239581
158 2 0.49176 3.4031 3.51684 0.906975
159 2 0.425 4.85891 3.17254 0.252167
160 1 -0.891694 2.44709 7.98077 8.03526
161 2 0.440975 2.35682 6.98861 8.12173
162 2 0.450719 3.00574 8.33142 8.78689
163 1 -0.924552 2.85819 2.40215 6.1862
164 2 0.496837 2.8862 1.72904 6.92521
165 2 0.427715 2.52935 3.27624 6.54375
166 1 -0.928745 11.284 5.04756 9.47486
167 2 0.424168 11.4207 5.88668 8.94838
168 2 0.504577 10.3979 4.64756 9.24036
169 1 -0.95666 5.62173 2.73526 8.3575
170 2 0.433001 6.09403 3.43034 7.81546
171 2 0.52366 5.9616 1.82893 8.1064
172 1 -0.967416 8.01395 10.8785 6.12533
173 2 0.431229 7.71705 10.0283 6.56001
174 2 0.536187 7.25517 11.269 5.604
175 1 -0.873926 0.710769 8.54783 5.24364
176 2 0.431892 12.2348 8.25415 5.62638
177 2 0.442034 1.30853 7.75401 5.13165
178 1 -0.845646 7.87106 2.67083 2.53598
179 2 0.445691 7.71597 2.57789 1.55245
180 2 0.399956 8.81533 2.42045 2.74966
181 1 -0.847996 3.40526 12.355 1.5692
182 2 0.417174 3.24865 11.4218 1.89257
183 2 0.430823 2.52828 0.385193 1.35499
184 1 -0.934851 11.914 8.51086 9.96743
185 2 0.520083 11.8057 7.82002 10.6823
186 2 0.414767 0.328386 9.05995 10.1551
187 1 -0.943728 10.0654 2.45331 5.1341
188 2 0.453171 10.7207 2.37426 5.88533
189 2 0.490557 10.0983 3.37976 4.75912
190 1 -0.939895 4.65321 1.81625 4.04956
191 2 0.417812 4.24281 1.65984 3.15116
192 2 0.522084 3.93547 1.83222 4.74569
