ITEM: TIMESTEP
0
ITEM: NUMBER OF ATOMS
192
ITEM: BOX BOUNDS pp pp pp
0.0000000000000000e+00 1.2400000000000000e+01
0.0000000000000000e+00 1.2400000000000000e+01
0.0000000000000000e+00 1.2400000000000000e+01
ITEM: ATOMS id type q x y z
1 1 -0.854155 11.4964 5.39491 5.6318
2 2 0.41633 11.4382 5.32499 4.63595
3 2 0.437825 0.0532 5.49896 5.90333
4 1 -0.811797 9.90308 2.70213 11.2097
5 2 0.419245 10.6114 3.32052 11.5501
6 2 0.392552 9.18938 3.23247 10.7521
7 1 -1.02384 8.75887 0.314396 8.58524
8 2 0.490395 8.68089 11.9221 7.98008
9 2 0.533449 9.68324 0.690947 8.52396
10 1 -1.00623 6.55989 0.175806 0.873337
11 2 0.494 7.47152 0.3034 1.26403
12 2 0.512226 6.48348 0.702169 0.0265144
13 1 -0.968893 0.684596 5.94083 2.0803
14 2 0.466822 12.3013 5.32063 2.12343
15 2 0.502071 0.936943 6.22395 3.00559
16 1 -0.923379 11.3947 1.29616 8.77444
17 2 0.520877 11.6924 2.18946 9.11115
18 2 0.402502 12.1732 0.815907 8.37024
19 1 -0.945732 4.03684 1.32208 11.4324
20 2 0.433748 4.61204 0.561537 11.1312
21 2 0.511985 4.59255 2.1498 11.5103
22 1 -0.806723 3.3399 9.39791 4.4789
23 2 0.385992 3.67939 10.3083 4.24234
24 2 0.420731 3.80862 8.71224 3.92197
25 1 -0.870986 7.97772 9.19077 10.6227
26 2 0.405202 8.73256 9.2445 11.2764
27 2 0.465784 7.23841 8.64111 11.0117
28 1 -0.97011 2.48626 0.249027 9.31331
29 2 0.433334 2.22608 0.876282 8.57924
30 2 0.536776 2.81459 0.773302 10.099
31 1 -0.975891 5.73386 11.3754 4.24657
32 2 0.486661 5.02089 11.8254 3.7089
33 2 0.48923 5.51986 11.4584 5.21987
34 1 -1.02342 1.6191 6.87084 4.60888
35 2 0.507095 1.65505 7.56199 5.3307
36 2 0.516321 2.00096 6.01202 4.95038
37 1 -0.987974 3.59033 12.056 2.07592
38 2 0.526328 2.87326 11.6174 1.53422
39 2 0.461646 4.25029 0.0924 1.46434
40 1 -0.904847 4.95056 11.4143 7.26288
41 2 0.516262 5.18345 11.1244 8.19117
42 2 0.388586 4.42479 12.2641 7.3011
43 1 -0.904618 10.4279 1.42596 2.04751
44 2 0.500296 9.82831 0.760444 2.49208
45 2 0.404323 10.5563 1.17094 1.08914
46 1 -0.939212 5.57995 7.18415 10.7525
47 2 0.471626 4.94394 7.5452 10.0705
48 2 0.467587 5.27448 7.44997 11.6669
49 1 -0.925899 2.43351 3.79637 8.4708
50 2 0.477408 1.6981 3.33255 8.9648
51 2 0.448491 2.40125 3.53789 7.50531
52 1 -0.922992 6.60877 7.84948 7.55214
53 2 0.404142 6.81299 6.91234 7.8351
54 2 0.51885 5.63192 7.93282 7.35512
55 1 -0.899392 5.31669 2.07795 2.50644
56 2 0.406594 5.90798 2.2015 3.30338
57 2 0.492798 5.80797 1.56378 1.80338
58 1 -0.820675 7.74899 5.49346 9.81136
59 2 0.337279 7.50554 5.11866 8.91679
60 2 0.483396 6.97913 6.01917 10.1732
61 1 -0.971937 1.93019 10.338 0.428641
62 2 0.519321 1.55669 9.51785 0.862154
63 2 0.452616 2.33224 10.0947 11.9459
64 1 -0.915392 1.21232 1.28392 6.57534
65 2 0.559286 1.84068 1.2156 5.80042
66 2 0.356106 0.277406 1.39337 6.23776
67 1 -0.882497 11.2404 4.23821 8.46352
68 2 0.369345 11.4638 4.30189 7.49086
69 2 0.513152 11.326 5.14101 8.88498
70 1 -0.748529 0.566682 0.0258 3.38475
71 2 0.354108 0.880022 0.892468 2.99659
72 2 0.394421 0.569181 11.7221 2.67427
73 1 -0.981747 3.3736 1.18676 4.73877
74 2 0.491058 3.38777 0.960629 3.76477
75 2 0.490688 4.24402 1.60638 4.99625
76 1 -0.943002 6.16927 12.0088 9.94412
77 2 0.4714 6.23239 0.544147 9.59604
78 2 0.471602 7.08332 11.605 9.9824
79 1 -0.76124 10.2829 5.66028 0.226552
80 2 0.378743 9.6036 5.14149 0.745634
81 2 0.382498 9.82163 6.20934 11.9296
82 1 -0.90136 1.13918 2.93257 11.0909
83 2 0.452461 0.893143 2.11826 11.6166
84 2 0.448899 2.07469 3.20472 11.3162
85 1 -0.918347 5.99778 6.0877 3.87085
86 2 0.409312 6.72067 5.68943 4.43549
87 2 0.509035 6.18238 7.06041 3.73027
88 1 -0.833182 3.8621 4.58889 11.3739
89 2 0.385798 4.26072 5.28625 10.7783
90 2 0.447384 3.4818 5.02494 12.1895
91 1 -0.946307 6.66631 2.34214 8.80232
92 2 0.514005 7.42496 1.86446 8.35927
93 2 0.432302 6.60926 3.27624 8.4499
94 1 -0.941654 8.58219 11.952 3.18891
95 2 0.446455 7.61391 11.862 3.42204
96 2 0.4952 9.06411 11.1114 3.43634
97 1 -0.842675 9.40694 11.9448 11.9503
98 2 0.385391 9.11522 11.4236 11.1483
99 2 0.457284 9.54109 0.502313 11.6949
100 1 -1.05589 1.22965 7.00082 11.9438
101 2 0.456411 0.333555 7.28218 11.6005
102 2 0.599476 1.12973 6.61875 0.462519
103 1 -0.902318 5.14837 4.85119 8.0542
104 2 0.406647 4.93546 5.74392 8.45133
105 2 0.495671 4.38606 4.22434 8.21524
106 1 -0.879069 0.507442 0.269124 11.7083
107 2 0.417742 0.0285786 0.4522 10.8497
108 2 0.461327 0.652561 11.6845 11.8056
109 1 -0.886674 3.70411 9.96561 9.9478
110 2 0.429652 2.95376 9.38728 9.62761
111 2 0.457022 3.47914 10.9257 9.78188
112 1 -0.95972 10.1593 9.74869 8.24939
113 2 0.511221 9.99904 10.1602 7.35221
114 2 0.4485 9.29509 9.69232 8.74942
115 1 -0.912432 1.83544 10.41 7.47936
116 2 0.483817 1.66759 10.7991 8.38513
117 2 0.428615 2.69089 10.7758 7.11273
118 1 -0.921373 9.0421 7.64223 5.68237
119 2 0.408626 9.74509 6.99049 5.96703
120 2 0.512748 8.3122 7.66479 6.36555
121 1 -0.772372 11.3701 11.4667 5.85794
122 2 0.413164 11.4845 12.0431 5.04884
123 2 0.359208 12.1181 11.6394 6.49878
124 1 -0.819992 8.13076 4.97674 6.75328
125 2 0.390613 8.83558 4.90557 7.4591
126 2 0.42938 8.28504 4.27641 6.05634
127 1 -0.892481 7.25604 4.72358 1.16658
128 2 0.4765 6.2855 4.65556 1.39772
129 2 0.415981 7.78311 4.91628 1.99427
130 1 -0.880897 0.877932 9.19814 3.06158
131 2 0.497051 1.16063 8.51225 3.73213
132 2 0.383846 1.34208 10.0629 3.25333
133 1 -1.09165 2.75812 6.71887 9.61253
134 2 0.611997 2.20045 6.83188 10.4349
135 2 0.479657 2.72629 5.76413 9.31678
136 1 -1.01061 6.353 8.77498 2.90897
137 2 0.504539 6.349 9.66697 3.36099
138 2 0.506075 6.07237 8.8833 1.95528
139 1 -0.992309 6.81943 2.5638 11.6295
140 2 0.516036 7.06785 3.44484 12.032
141 2 0.476273 6.68876 2.67258 10.644
142 1 -0.832326 8.67226 8.18608 1.06655
143 2 0.477567 7.97203 8.43968 1.73391
144 2 0.354759 8.53197 7.23835 0.779989
145 1 -0.869282 3.93547 5.74574 2.06061
146 2 0.484612 4.37116 5.91218 2.94518
147 2 0.38467 2.94488 5.6847 2.18317
148 1 -0.974248 9.68074 5.95765 3.20833
149 2 0.479617 9.6323 6.45029 4.07722
150 2 0.494631 9.99764 6.57784 2.49073
151 1 -0.948323 11.1775 9.52592 0.0795229
152 2 0.43293 11.0703 10.4944 0.304555
153 2 0.515394 10.6924 8.971 0.755367
154 1 -0.903733 10.327 9.05309 3.58954
155 2 0.442992 11.3261 9.01171 3.57834
156 2 0.460741 9.9888 8.7056 4.4641
157 1 -0.931724 2.35511 2.40656 1.5982
158 2 0.442174 2.29394 1.5978 1.01325
159 2 0.48955 3.27328 2.46595 1.98993
160 1 -0.922828 3.79482 7.70793 7.02277
161 2 0.477544 3.31466 7.44244 7.85881
162 2 0.445284 3.40416 8.55805 6.66965
163 1 -0.966886 2.15999 4.14768 5.28334
164 2 0.454683 3.05607 3.81516 4.98929
165 2 0.512203 1.45096 3.76078 4.69377
166 1 -0.83848 11.3486 6.99614 9.6822
167 2 0.424212 10.5378 7.57921 9.63064
168 2 0.414267 12.142 7.49718 9.33657
169 1 -0.934968 5.67182 3.04622 5.69717
170 2 0.450188 6.4713 3.16336 5.108
171 2 0.48478 5.71898 3.6957 6.45608
172 1 -0.898459 8.02391 10.7615 6.72968
173 2 0.470906 7.56863 9.90749 6.9814
174 2 0.427553 7.44707 11.2712 6.09133
175 1 -0.891115 0.0358439 8.24615 6.72627
176 2 0.467356 0.692198 8.90846 7.08759
177 2 0.42376 11.5111 8.50932 7.00117
178 1 -0.990393 8.25247 3.58251 4.20093
179 2 0.470972 8.81354 2.82009 4.52331
180 2 0.519421 8.83858 4.2692 3.77087
181 1 -0.963563 5.70341 9.6068 0.223992
182 2 0.468753 5.04048 9.74669 11.8885
183 2 0.494809 6.30383 10.404 0.287646
184 1 -0.942371 0.41536 9.91848 10.1374
185 2 0.452822 12.0391 9.97264 9.50931
186 2 0.489549 0.081 9.77508 11.0689
187 1 -0.775043 10.4824 2.1246 5.67965
188 2 0.367695 11.336 2.49092 5.30917
189 2 0.407348 10.4073 2.36771 6.64674
190 1 -1.04335 0.27871 3.09772 3.35969
191 2 0.537118 1.01388 2.80503 2.74825
192 2 0.506236 11.9041 2.47125 3.27334
