ITEM: TIMESTEP
0
ITEM: NUMBER OF ATOMS
192
ITEM: BOX BOUNDS pp pp pp
0.0000000000000000e+00 1.2400000000000000e+01
0.0000000000000000e+00 1.2400000000000000e+01
0.0000000000000000e+00 1.2400000000000000e+01
ITEM: ATOMS id type q x y z
1 1 -0.931682 10.8629 6.37117 6.2142
2 2 0.484853 10.2097 5.62056 6.11413
3 2 0.446829 11.2443 6.6027 5.31925
4 1 -0.983892 9.37873 3.76406 10.1892
5 2 0.495453 9.17 4.58671 9.6604
6 2 0.488439 8.91791 2.97758 9.77803
7 1 -0.902304 7.82488 2.03405 8.6933
8 2 0.435904 8.601 1.40438 8.72749
9 2 0.4664 7.21142 1.76694 7.95012
10 1 -0.813791 8.02151 9.98114 1.54211
11 2 0.434781 8.68203 10.5295 2.05494
12 2 0.37901 7.67215 10.5145 0.771737
13 1 -0.866096 0.956265 3.37457 2.00041
14 2 0.444352 1.32057 3.22301 1.08155
15 2 0.421744 0.229686 4.06058 1.96196
16 1 -0.909836 10.9229 3.30476 7.16904
17 2 0.399025 11.2482 3.04128 6.26088
18 2 0.510811 11.4763 4.06268 7.51444
19 1 -0.974911 6.8608 3.54996 1.57255
20 2 0.515476 6.37449 4.20557 0.994898
21 2 0.459434 7.81635 3.49505 1.28285
22 1 -0.818904 3.00145 9.30895 2.92773
23 2 0.390491 3.78377 8.71566 3.11744
24 2 0.428413 3.19035 9.85995 2.11488
25 1 -0.858564 6.3377 9.47329 11.0354
26 2 0.457186 6.37581 10.1661 10.3153
27 2 0.401378 7.09179 8.82732 10.9167
28 1 -0.886186 2.91963 0.207574 9.48962
29 2 0.382282 2.97872 0.96532 10.1395
30 2 0.503904 2.27682 11.923 9.83335
31 1 -1.08756 6.16601 11.7689 9.15486
32 2 0.520236 5.67964 12.1454 8.36639
33 2 0.567327 6.06365 12.3857 9.9353
34 1 -1.00036 1.90051 7.03331 6.92182
35 2 0.509903 2.83092 6.88556 6.58637
36 2 0.490455 1.3366 7.40859 6.18618
37 1 -0.957235 4.78659 11.7305 1.48484
38 2 0.455114 5.05149 0.280123 1.31745
39 2 0.502122 4.69017 11.2525 0.611788
40 1 -0.989583 4.67747 0.799155 7.06571
41 2 0.463063 4.35201 0.810194 6.12022
42 2 0.52652 3.97375 1.18083 7.66496
43 1 -0.776205 9.05295 2.76661 3.48792
44 2 0.392323 9.43928 2.89489 2.57451
45 2 0.383883 8.09038 2.50724 3.40931
46 1 -0.964067 2.51945 5.5456 11.6448
47 2 0.495253 2.87787 6.23233 11.0124
48 2 0.468813 1.77567 5.94321 12.1821
49 1 -0.895547 2.59247 3.52498 8.01623
50 2 0.399654 2.66527 3.03411 8.88442
51 2 0.495893 1.97849 3.02817 7.40287
52 1 -0.912908 6.84521 7.00912 7.00695
53 2 0.416117 7.36484 6.16535 7.14129
54 2 0.496791 5.99645 6.80389 6.51962
55 1 -0.904149 7.28084 12.2453 3.21778
56 2 0.50363 6.69237 11.4399 3.14675
57 2 0.400519 7.24215 0.362818 2.36299
58 1 -0.928883 4.43507 6.52192 9.20374
59 2 0.43053 4.83136 5.96218 8.47597
60 2 0.498354 4.23591 7.43594 8.85034
61 1 -0.94807 0.405513 11.5224 10.7345
62 2 0.467489 12.0581 11.288 10.1128
63 2 0.480581 0.107993 11.3867 11.6795
64 1 -0.849893 1.39357 0.69507 6.84683
65 2 0.382802 0.419007 0.911693 6.90436
66 2 0.46709 1.54472 12.155 7.15263
67 1 -0.927462 0.212925 5.59849 8.66916
68 2 0.42066 0.994302 5.18704 9.13837
69 2 0.506802 0.540629 6.20244 7.94262
70 1 -0.878852 11.141 10.543 0.415401
71 2 0.465641 11.1181 10.6419 1.41024
72 2 0.413211 10.317 10.0667 0.108649
73 1 -0.919966 3.36283 0.146955 3.91693
74 2 0.475999 3.98049 0.60435 3.27717
75 2 0.443967 2.81406 11.8711 3.42494
76 1 -0.989021 5.88689 0.832585 11.509
77 2 0.49232 6.8711 0.752821 11.6671
78 2 0.496701 5.67641 1.75103 11.1741
79 1 -0.827348 11.3349 6.38317 11.2342
80 2 0.414413 11.6109 5.70395 10.5542
81 2 0.412935 10.904 7.15947 10.7741
82 1 -0.861165 12.2309 2.54383 10.0218
83 2 0.458945 11.3963 3.09446 10.0052
84 2 0.402219 12.0414 1.66449 10.4586
85 1 -0.906868 6.89109 9.36338 4.68848
86 2 0.473017 7.74676 9.18474 5.1742
87 2 0.433851 6.80084 8.72306 3.92569
88 1 -0.90762 5.4517 5.61888 0.0182851
89 2 0.441688 5.67048 5.58739 11.443
90 2 0.465932 4.46219 5.54195 0.140589
91 1 -0.894579 5.57618 3.44771 10.0956
92 2 0.433924 5.01702 4.11278 9.60059
93 2 0.460655 6.4476 3.32556 9.62049
94 1 -0.897929 10.456 11.5227 3.32294
95 2 0.494172 11.2251 11.8887 3.84695
96 2 0.403757 9.70419 12.1821 3.32974
97 1 -0.953115 8.78905 0.562424 11.8401
98 2 0.498122 9.55859 0.832934 0.0185
99 2 0.454993 9.05658 12.1843 11.2718
100 1 -1.00119 2.47652 2.57985 11.7388
101 2 0.500904 2.63624 3.56495 11.6749
102 2 0.500291 1.61854 2.35077 11.279
103 1 -1.02086 5.1783 4.4017 7.0116
104 2 0.533943 5.33331 4.22839 6.039
105 2 0.486919 4.29699 4.01474 7.28282
106 1 -0.849718 11.4195 1.42728 0.999469
107 2 0.358546 11.5666 2.33504 1.39236
108 2 0.491172 12.015 0.766108 1.45579
109 1 -0.784766 0.424369 10.239 7.31717
110 2 0.414249 0.0109262 9.48471 7.82723
111 2 0.370517 12.1091 10.7521 6.84276
112 1 -1.00498 9.88388 0.452943 7.27324
113 2 0.475225 10.1548 1.41433 7.32152
114 2 0.529751 8.96636 0.384486 6.88149
115 1 -0.914234 3.93323 9.41336 8.54356
116 2 0.4472 3.32895 9.68493 7.79449
117 2 0.467034 4.42057 10.2164 8.88656
118 1 -0.853852 9.75018 9.37943 5.48124
119 2 0.419338 9.65915 10.2843 5.89706
120 2 0.434514 9.93573 8.70243 6.19346
121 1 -0.840823 0.557193 8.52447 4.58853
122 2 0.43924 1.47791 8.88295 4.43431
123 2 0.401583 12.393 8.69626 3.78096
124 1 -0.882721 8.40219 4.48538 5.77443
125 2 0.470144 8.89596 3.64161 5.56408
126 2 0.412577 7.58506 4.26905 6.30876
127 1 -0.958324 8.45726 6.2407 3.42084
128 2 0.434018 7.56753 6.64206 3.20339
129 2 0.524306 8.32571 5.4189 3.97523
130 1 -0.895941 3.21764 5.15178 2.83297
131 2 0.477859 2.8144 4.23998 2.75533
132 2 0.418082 2.49338 5.82494 2.98238
133 1 -0.883284 1.21864 8.51619 9.81297
134 2 0.458284 1.83869 8.29551 9.06008
135 2 0.425 0.286799 8.25005 9.56631
136 1 -0.971668 5.89542 7.71482 2.20876
137 2 0.481988 6.26643 8.43673 1.62463
138 2 0.48968 5.53081 6.97887 1.63829
139 1 -0.923912 9.77661 4.55528 0.685748
140 2 0.41833 10.5624 5.14107 0.884052
141 2 0.505582 9.82954 4.23547 12.1397
142 1 -0.853584 8.39352 7.23086 0.134404
143 2 0.421738 8.44171 7.78043 0.968467
144 2 0.431846 8.80026 6.33298 0.30286
145 1 -0.95544 4.36916 7.42017 5.47001
146 2 0.440534 4.65861 7.39742 4.51308
147 2 0.514906 4.46806 8.34935 5.82617
148 1 -0.924475 0.154648 6.22613 2.70591
149 2 0.433088 0.767641 6.60106 2.01045
150 2 0.491387 11.706 6.75489 2.72229
151 1 -0.930404 10.0719 11.0188 9.55446
152 2 0.476031 9.89389 11.6897 8.83465
153 2 0.454373 9.5876 10.1692 9.34544
154 1 -1.00396 10.3023 8.16721 2.6558
155 2 0.524835 9.66048 7.43003 2.86701
156 2 0.47912 10.2966 8.83707 3.39827
157 1 -0.932854 4.10665 2.17209 1.50318
158 2 0.53142 3.53908 2.23935 0.682603
159 2 0.401434 5.0251 2.51267 1.30205
160 1 -0.88795 4.48144 10.5544 5.68337
161 2 0.465826 3.89686 11.1894 5.17844
162 2 0.422124 5.4391 10.729 5.4545
163 1 -0.794466 0.940548 4.13785 5.47177
164 2 0.402482 1.33264 4.91588 5.96262
165 2 0.391984 1.11755 4.23792 4.49266
166 1 -0.859057 7.93223 6.30199 9.53226
167 2 0.413711 7.46819 6.21239 10.4135
168 2 0.445347 7.37832 6.86585 8.91968
169 1 -0.994121 5.53726 4.1911 4.19615
170 2 0.484353 6.03268 3.73136 3.45913
171 2 0.509768 4.80506 4.75035 3.80739
172 1 -0.941125 7.77207 9.8182 7.85289
173 2 0.449615 7.24655 9.13245 7.34933
174 2 0.49151 7.16331 10.5552 8.14652
175 1 -0.933769 10.4879 8.07781 8.47703
176 2 0.419796 9.50209 8.09563 8.64378
177 2 0.513973 10.7035 7.34575 7.8308
178 1 -1.01305 7.3955 0.477499 6.01411
179 2 0.545707 7.37787 0.0340635 5.11797
180 2 0.46734 6.46202 0.703436 6.29264
181 1 -0.899279 3.36504 9.80205 11.833
182 2 0.458914 2.57552 9.69645 11.2285
183 2 0.440365 4.14589 9.30774 11.451
184 1 -0.898514 0.716493 7.98085 0.329383
185 2 0.454629 0.92766 8.05077 11.7544
186 2 0.443885 12.3657 8.60226 0.553228
187 1 -0.895351 0.297267 1.0098 3.92188
188 2 0.420902 0.385163 1.77095 3.27928
189 2 0.474449 1.0447 1.0456 4.58526
190 1 -0.799591 1.74123 11.8647 1.27323
191 2 0.386216 1.63674 10.9035 1.01801
192 2 0.413375 2.7137 12.0909 1.32933
