ITEM: TIMESTEP
0
ITEM: NUMBER OF ATOMS
192
ITEM: BOX BOUNDS pp pp pp
0.0000000000000000e+00 1.2400000000000000e+01
0.0000000000000000e+00 1.2400000000000000e+01
0.0000000000000000e+00 1.2400000000000000e+01
ITEM: ATOMS id type q x y z
1 1 -0.970937 11.081 5.9369 6.13569
2 2 0.439063 10.2799 6.31171 5.66906
3 2 0.531874 11.8705 6.52756 5.96903
4 1 -0.933341 9.7481 3.2915 9.56284
5 2 0.441592 9.76925 4.22499 9.92081
6 2 0.491749 10.4103 2.72938 10.0584
7 1 -0.849651 6.7358 1.09568 8.34941
8 2 0.469914 7.1192 1.19074 7.43073
9 2 0.379738 6.21274 0.245261 8.40598
10 1 -0.799052 8.46277 11.2128 3.69672
11 2 0.418714 8.45185 12.0592 3.1642
12 2 0.380338 8.05495 10.4752 3.15865
13 1 -0.895612 0.482096 3.65507 3.20546
14 2 0.498381 1.24199 4.26146 2.97121
15 2 0.39723 12.1291 4.19453 3.58232
16 1 -0.964898 11.9324 3.25023 7.40237
17 2 0.526242 11.4612 4.12353 7.27854
18 2 0.438656 11.4548 2.70892 8.09434
19 1 -0.895612 7.8461 3.66924 12.26
20 2 0.428204 7.37519 3.2844 11.4662
21 2 0.467408 8.72978 3.21565 12.3756
22 1 -0.93741 3.98801 8.58504 1.92909
23 2 0.479938 4.11226 9.26267 1.20426
24 2 0.457473 4.83534 8.49817 2.45301
25 1 -0.921281 7.56219 9.56219 12.3763
26 2 0.477448 7.42897 9.20466 11.4519
27 2 0.443833 8.47795 9.32157 0.297962
28 1 -0.993627 1.19596 11.4576 10.458
29 2 0.504533 0.275882 11.0921 10.317
30 2 0.489094 1.69797 11.4394 9.59331
31 1 -0.838417 4.19989 11.057 8.71812
32 2 0.386146 3.81285 11.9732 8.82225
33 2 0.452271 4.07196 10.5427 9.56615
34 1 -0.879662 1.32043 6.63459 5.44548
35 2 0.448346 2.16135 6.09364 5.4297
36 2 0.431316 1.11103 6.95225 4.52068
37 1 -0.944062 5.45332 11.2441 1.23498
38 2 0.446972 5.08942 11.8219 0.504351
39 2 0.497089 6.29153 10.7982 0.921093
40 1 -0.901113 3.57364 0.602261 5.8381
41 2 0.464817 3.31391 0.134915 4.99304
42 2 0.436295 4.26424 1.29675 5.63623
43 1 -0.755464 9.53014 3.63178 3.69199
44 2 0.393537 10.2137 2.90218 3.67198
45 2 0.361927 9.47273 4.0596 2.78995
46 1 -0.974724 2.67911 6.05446 0.0416309
47 2 0.460515 3.58482 6.14431 0.4559
48 2 0.51421 2.15998 6.8963 0.1894
49 1 -0.871413 3.329 1.8966 8.75769
50 2 0.489365 2.94401 1.41776 7.9687
51 2 0.382049 2.97026 2.82951 8.78904
52 1 -0.943837 6.75733 7.36397 7.52957
53 2 0.45973 7.33693 7.02918 6.78662
54 2 0.484108 5.89129 7.69393 7.15392
55 1 -0.924654 7.14777 1.26928 2.36822
56 2 0.491544 7.8844 1.35032 1.69681
57 2 0.433111 6.48443 0.589708 2.05489
58 1 -0.838969 4.20867 7.1613 9.92843
59 2 0.40538 4.04397 6.69634 9.05856
60 2 0.433589 4.24333 6.4866 10.6657
61 1 -0.864337 10.9246 10.0564 10.2025
62 2 0.485549 10.1153 10.6256 10.0577
63 2 0.378789 10.6669 9.23305 10.7082
64 1 -0.886708 1.39068 12.16 7.60383
65 2 0.395348 0.468185 11.8516 7.37163
66 2 0.491361 2.0589 11.6494 7.06277
67 1 -0.842816 2.35222 5.22248 8.6465
68 2 0.381855 1.61848 5.51478 9.25985
69 2 0.460961 2.01668 4.49458 8.04852
70 1 -0.845952 10.6329 9.51556 1.15695
71 2 0.445378 11.2124 9.87302 1.88935
72 2 0.400574 10.3355 8.58945 1.38909
73 1 -0.879363 3.73571 2.17862 3.29217
74 2 0.397483 2.85208 1.76225 3.07809
75 2 0.48188 4.24736 2.32837 2.44612
76 1 -0.868134 5.27705 0.919525 11.0809
77 2 0.392656 5.85871 0.388141 10.465
78 2 0.475478 4.59401 1.41795 10.547
79 1 -0.96483 12.3515 5.1869 11.0922
80 2 0.45051 0.630596 5.77513 11.5313
81 2 0.51432 11.769 5.73839 10.4951
82 1 -0.890162 12.2472 2.11438 10.2721
83 2 0.456844 0.173545 1.20273 10.5219
84 2 0.433318 0.612492 2.66054 9.93134
85 1 -0.797013 5.98131 10.7761 6.00148
86 2 0.360172 5.56097 10.0321 5.48221
87 2 0.436842 5.26595 11.3505 6.39953
88 1 -0.840523 5.65382 6.12325 0.0467385
89 2 0.390459 5.98086 7.02933 0.315215
90 2 0.450064 6.3628 5.44364 0.235104
91 1 -0.889684 6.05166 3.8743 9.53207
92 2 0.476197 6.02404 3.04365 8.97596
93 2 0.413486 5.29501 4.47445 9.27264
94 1 -0.948201 12.1502 11.2364 3.45434
95 2 0.510647 11.5283 11.9946 3.25851
96 2 0.437554 0.1888 11.3854 4.34059
97 1 -0.914976 8.89861 0.840793 0.0370739
98 2 0.49392 8.69834 0.282503 11.632
99 2 0.421056 9.64555 0.423464 0.554689
100 1 -0.933083 2.50242 3.21074 11.5417
101 2 0.503576 2.5327 4.20522 11.4412
102 2 0.429507 1.58271 2.93144 11.8176
103 1 -0.897026 5.28422 4.78894 6.91185
104 2 0.416181 5.03527 3.93483 6.45521
105 2 0.480845 6.26517 4.78941 7.10616
106 1 -0.9364 11.1217 1.07903 2.19448
107 2 0.411354 12.0223 1.13965 2.62488
108 2 0.525046 11.0544 1.75955 1.46484
109 1 -0.92388 12.3179 9.35338 7.10157
110 2 0.453596 11.3775 9.68088 7.0097
111 2 0.470284 0.323585 9.24587 6.19391
112 1 -0.851381 9.43683 0.202762 6.29492
113 2 0.412889 10.2694 0.652171 5.97101
114 2 0.438492 9.06333 12.0281 5.56671
115 1 -0.877315 2.4625 9.73452 5.2613
116 2 0.445706 2.74513 10.0538 4.35675
117 2 0.431608 3.01823 8.94616 5.52521
118 1 -0.844324 9.22165 9.49118 6.9291
119 2 0.404222 9.1706 9.13256 7.86119
120 2 0.440102 8.38659 10.0008 6.72181
121 1 -0.927564 1.23045 8.5093 2.64113
122 2 0.498022 2.09456 8.50755 2.13783
123 2 0.429543 0.903556 9.44929 2.73892
124 1 -0.957824 8.31943 4.13718 7.02948
125 2 0.513349 8.68451 3.76301 7.88196
126 2 0.444475 8.49576 3.49686 6.28189
127 1 -0.929893 8.4655 6.42576 4.97041
128 2 0.486748 8.61904 5.64558 5.57683
129 2 0.443145 8.18188 6.097 4.06958
130 1 -0.788733 3.16136 5.17703 3.02595
131 2 0.370737 3.42291 5.15329 2.06105
132 2 0.417996 3.98373 5.16151 3.59471
133 1 -1.01869 1.50534 7.96475 9.11268
134 2 0.552389 0.919533 8.39094 8.42333
135 2 0.4663 2.03591 7.22954 8.69082
136 1 -0.844698 6.83501 8.38882 2.94077
137 2 0.402806 7.38796 8.47547 3.76947
138 2 0.441892 7.39197 7.99842 2.20771
139 1 -0.972589 10.9419 3.55753 0.719821
140 2 0.506952 11.4364 3.74646 12.2714
141 2 0.465637 11.1236 4.28565 1.38076
142 1 -0.885119 8.86776 6.85303 0.749523
143 2 0.453517 9.56449 6.13748 0.698888
144 2 0.431602 8.20264 6.7233 0.0141375
145 1 -0.898412 4.67859 7.33405 5.53707
146 2 0.496993 4.73982 6.40329 5.89754
147 2 0.401419 5.10863 7.37112 4.63502
148 1 -0.942381 11.3748 6.33844 2.31401
149 2 0.485994 12.1716 6.89465 2.07786
150 2 0.456387 10.8674 6.78013 3.05391
151 1 -0.926141 8.91336 12.1697 9.68726
152 2 0.474817 8.97888 0.72179 9.38861
153 2 0.451324 8.22057 11.6965 9.14302
154 1 -0.873562 10.7982 8.61364 4.43888
155 2 0.440761 9.92962 8.70214 4.92649
156 2 0.432801 11.1454 9.52276 4.20872
157 1 -0.999825 4.74825 3.06298 0.739709
158 2 0.519503 4.06534 3.29061 0.045568
159 2 0.480323 5.50296 2.56398 0.31379
160 1 -0.965186 2.90856 11.5761 2.91009
161 2 0.444015 3.82601 11.295 2.62853
162 2 0.521172 2.40875 11.9248 2.11726
163 1 -0.842662 2.11185 3.63873 6.05432
164 2 0.419448 1.32268 3.14296 6.41685
165 2 0.423214 2.44863 3.17555 5.23453
166 1 -0.94436 7.7957 6.20708 10.0829
167 2 0.470273 7.29704 5.38142 10.3468
168 2 0.474087 7.44457 6.54361 9.20916
169 1 -0.892398 5.98113 4.51562 2.96348
170 2 0.449012 6.57874 3.71388 2.95408
171 2 0.443385 5.40226 4.50948 2.14809
172 1 -0.886951 7.0242 9.54566 9.50753
173 2 0.489809 6.75866 9.0201 8.69927
174 2 0.397143 6.20523 9.81207 10.0158
175 1 -0.931865 10.6472 6.36333 8.9961
176 2 0.454624 9.64965 6.4066 8.94105
177 2 0.477241 11.0389 6.54182 8.09349
178 1 -0.877831 6.30509 2.14806 4.99148
179 2 0.479601 6.53954 1.43245 4.3335
180 2 0.398229 5.78693 2.86827 4.53017
181 1 -0.970479 3.4526 9.688 11.326
182 2 0.465943 2.52227 9.92633 11.6047
183 2 0.504536 3.43072 8.86109 10.7641
184 1 -0.986342 0.9063 8.3685 11.7449
185 2 0.564891 0.909683 8.25239 10.7517
186 2 0.42145 0.150433 8.96811 12.0079
187 1 -0.901248 11.9094 1.30475 5.0815
188 2 0.447218 12.12 2.05361 4.45311
189 2 0.45403 12.1272 1.5833 6.0169
190 1 -0.939561 2.132 0.498371 0.589736
191 2 0.447165 2.78785 1.14305 0.196994
192 2 0.492396 1.68425 12.3891 12.2548
