ITEM: TIMESTEP
0
ITEM: NUMBER OF ATOMS
192
ITEM: BOX BOUNDS pp pp pp
0.0000000000000000e+00 1.2400000000000000e+01
0.0000000000000000e+00 1.2400000000000000e+01
0.0000000000000000e+00 1.2400000000000000e+01
ITEM: ATOMS id type q x y z
1 1 -0.835135 6.21404 9.91795 4.12549
2 2 0.44561 6.14177 10.5474 3.35179
3 2 0.389525 6.83902 10.2982 4.80727
4 1 -0.945311 2.00406 11.3178 10.8842
5 2 0.430684 1.62523 10.8471 10.0874
6 2 0.514627 2.95578 11.5659 10.7035
7 1 -1.01943 6.11237 3.93365 10.1068
8 2 0.579056 5.50012 4.06778 9.32763
9 2 0.440378 6.14723 2.96183 10.34
10 1 -0.958012 9.47598 10.2913 3.47229
11 2 0.503454 9.49304 9.31109 3.27485
12 2 0.454558 9.18913 10.4356 4.41934
13 1 -0.90723 0.294838 8.93721 2.75033
14 2 0.432184 11.8282 9.38918 2.53913
15 2 0.475046 1.01124 9.29298 2.15016
16 1 -0.771756 10.2956 5.82387 6.35967
17 2 0.39866 10.9758 5.33119 5.81695
18 2 0.373096 10.6168 5.90462 7.30322
19 1 -0.922064 10.2336 7.276 3.67368
20 2 0.401715 11.0119 6.97573 3.12213
21 2 0.520349 9.48245 6.62356 3.57335
22 1 -0.909486 5.72575 6.46072 4.6687
23 2 0.412205 5.81224 7.41376 4.95896
24 2 0.497281 4.77037 6.17492 4.74337
25 1 -0.815551 6.99545 10.0524 10.9445
26 2 0.400499 7.10181 9.77533 11.8994
27 2 0.415051 7.89512 10.2367 10.5487
28 1 -0.887345 9.37087 4.25172 10.126
29 2 0.454721 8.42014 3.98611 9.96607
30 2 0.432624 9.68626 3.85794 10.9894
31 1 -0.942603 3.61999 7.06627 9.02704
32 2 0.526582 3.36206 6.51467 9.82027
33 2 0.416021 2.88605 7.0379 8.34842
34 1 -0.839674 12.2674 3.24267 4.13402
35 2 0.404723 11.5787 3.18549 3.41122
36 2 0.43495 11.8478 3.01573 5.01292
37 1 -0.913804 11.7388 0.16251 9.37731
38 2 0.443358 10.7837 0.437608 9.26784
39 2 0.470446 11.9777 0.166673 10.3483
40 1 -0.921212 6.88567 0.427044 3.73647
41 2 0.419462 7.46241 0.232251 4.52983
42 2 0.50175 6.71428 1.41077 3.68243
43 1 -0.946976 7.16492 6.79803 9.70764
44 2 0.469539 8.02728 7.304 9.68942
45 2 0.477437 7.15057 6.13666 8.95771
46 1 -0.966204 5.45638 3.13433 3.16796
47 2 0.494014 4.83312 3.66286 3.74435
48 2 0.472189 5.78068 3.70709 2.41511
49 1 -0.932765 3.09021 1.86321 5.95311
50 2 0.491772 2.47654 1.58697 6.69278
51 2 0.440993 3.82872 1.19468 5.86548
52 1 -1.01737 5.80943 8.21442 7.35459
53 2 0.523614 5.95421 7.79872 8.2525
54 2 0.493759 4.89194 7.98894 7.0269
55 1 -1.01205 11.1002 1.04193 12.356
56 2 0.514337 10.4386 1.6696 0.366167
57 2 0.497713 11.8921 1.55847 12.0303
58 1 -0.901928 2.20948 1.54245 8.74095
59 2 0.405259 1.62485 0.77516 9.00452
60 2 0.496669 3.1409 1.37888 9.06607
61 1 -0.970514 8.60134 8.48212 6.273
62 2 0.496208 7.67576 8.16926 6.48615
63 2 0.474307 9.15638 7.70442 5.97784
64 1 -1.00797 4.79062 9.63781 0.905867
65 2 0.580535 4.90844 8.85132 0.299595
66 2 0.42743 4.27145 9.36063 1.71435
67 1 -0.899944 0.21658 4.6014 10.6165
68 2 0.449919 0.48168 3.68522 10.9171
69 2 0.450025 0.954293 5.24529 10.8195
70 1 -0.876502 2.96139 7.97483 6.19176
71 2 0.404775 2.3064 8.72924 6.23484
72 2 0.471727 3.24562 7.8339 5.24341
73 1 -1.06829 9.27441 2.33526 4.31174
74 2 0.523109 9.06059 2.10764 5.26172
75 2 0.545179 9.5407 1.50512 3.82188
76 1 -0.951391 7.65051 1.58023 11.2125
77 2 0.451189 7.5072 0.997356 12.0123
78 2 0.500202 8.23 1.10305 10.5518
79 1 -0.94502 1.31052 4.29016 8.08751
80 2 0.483458 0.817398 4.42255 8.94734
81 2 0.461563 0.914681 3.51709 7.59184
82 1 -0.929126 11.1718 7.56295 0.096537
83 2 0.44819 10.7089 6.95571 11.8508
84 2 0.480937 10.6704 8.4258 0.1607
85 1 -0.859757 5.8532 1.70201 7.75897
86 2 0.449348 5.32823 2.51441 7.50516
87 2 0.410409 6.82906 1.92033 7.75266
88 1 -1.05456 5.30719 7.26482 11.9326
89 2 0.522961 4.47817 6.86744 11.5391
90 2 0.5316 6.06774 7.14969 11.2936
91 1 -0.983062 1.25685 2.27268 12.0449
92 2 0.457696 1.87325 2.1216 11.2721
93 2 0.525365 1.75066 2.11731 0.500472
94 1 -0.871635 10.4 10.4693 12.355
95 2 0.453414 9.62108 11.0955 12.3219
96 2 0.418222 11.1913 10.9417 0.343239
97 1 -1.04774 10.3882 0.249545 2.61071
98 2 0.48223 10.6519 0.403834 1.65854
99 2 0.565511 10.0613 11.7106 2.7181
100 1 -0.902956 4.67632 0.76869 10.3555
101 2 0.455655 5.38243 0.490725 9.7042
102 2 0.447301 4.98561 0.573109 11.2861
103 1 -0.905501 3.96024 0.00474121 0.815079
104 2 0.486705 3.88031 11.4085 0.847133
105 2 0.418796 4.31192 0.33924 1.6894
106 1 -0.932516 0.519229 0.333403 4.24329
107 2 0.441063 0.521033 1.2888 3.94795
108 2 0.491453 12.1366 12.2608 3.83827
109 1 -0.912506 3.27851 11.5446 4.12888
110 2 0.482448 2.37139 11.9546 4.22375
111 2 0.430057 3.84724 11.8097 4.90751
112 1 -1.03506 6.9069 11.0225 7.42431
113 2 0.545927 6.54142 10.1513 7.09648
114 2 0.489132 6.15118 11.6386 7.64632
115 1 -1.01663 0.861335 11.0463 7.3557
116 2 0.469289 0.17586 11.5816 7.84927
117 2 0.54734 0.4158 10.2803 6.89229
118 1 -0.927697 6.69302 4.74651 0.363107
119 2 0.466314 6.3771 5.6952 0.349788
120 2 0.461383 6.62554 4.35976 11.8434
121 1 -0.988808 12.1335 9.09884 5.67044
122 2 0.482743 11.316 8.52289 5.66472
123 2 0.506065 0.057011 9.22771 4.73304
124 1 -0.995119 4.24261 4.31339 7.98507
125 2 0.473192 4.16228 5.21815 7.56679
126 2 0.521928 3.36428 3.83914 7.92486
127 1 -0.91274 0.923035 11.4429 1.38424
128 2 0.448292 1.0643 11.4511 0.394302
129 2 0.464448 1.30563 12.2766 1.78244
130 1 -0.894187 1.24341 6.48172 4.17706
131 2 0.44836 1.15993 5.93146 3.34625
132 2 0.445827 1.10577 7.44655 3.95309
133 1 -0.898622 0.203915 7.31939 7.99741
134 2 0.4681 0.23036 7.92607 7.20289
135 2 0.430522 0.647724 6.45263 7.76989
136 1 -0.903329 7.59276 11.8482 1.1346
137 2 0.490142 7.68019 12.3746 1.98039
138 2 0.413187 6.79046 11.2542 1.19309
139 1 -0.899767 10.5006 9.98039 7.86825
140 2 0.408347 10.9699 9.47838 8.59467
141 2 0.49142 9.73582 9.43437 7.52617
142 1 -0.960355 10.1174 6.97268 9.54131
143 2 0.471882 10.9932 6.94736 9.05927
144 2 0.488473 9.84726 6.04277 9.79094
145 1 -0.968996 3.66196 11.3339 7.07002
146 2 0.507384 2.69584 11.0772 7.09707
147 2 0.461613 4.16865 10.7965 7.74415
148 1 -0.889288 0.892308 5.82607 1.28854
149 2 0.406397 0.520174 4.99579 0.873621
150 2 0.48289 0.253751 6.58305 1.14987
151 1 -0.888603 7.26583 5.32208 6.76014
152 2 0.418986 8.01739 4.98781 6.19143
153 2 0.469617 6.53635 5.67549 6.17451
154 1 -0.955982 8.27422 5.00411 3.63645
155 2 0.492701 8.43965 4.05931 3.91929
156 2 0.463281 7.29667 5.20488 3.70034
157 1 -0.861405 2.78791 2.03993 2.65433
158 2 0.449633 3.71504 2.41454 2.66386
159 2 0.411771 2.26234 2.43163 3.40955
160 1 -0.838229 4.22105 3.25059 0.0381781
161 2 0.422751 4.24644 2.31985 0.402986
162 2 0.415478 4.99623 3.38821 11.8216
163 1 -0.932705 12.2994 1.66601 6.75152
164 2 0.443357 0.0837573 1.10218 7.55657
165 2 0.489348 0.223655 1.19331 5.93213
166 1 -0.932636 9.49796 3.26051 0.987986
167 2 0.456891 9.46813 3.55387 1.94352
168 2 0.475745 8.67133 3.57035 0.518211
169 1 -1.03415 3.54559 4.62542 4.95821
170 2 0.520135 3.36919 3.7933 5.48401
171 2 0.514015 2.6831 5.10294 4.7906
172 1 -0.964937 4.44725 10.0051 9.57655
173 2 0.503072 5.18209 9.956 10.253
174 2 0.461865 3.92523 9.15221 9.589
175 1 -0.977461 8.73874 11.9937 9.42988
176 2 0.423182 9.6358 11.5595 9.34767
177 2 0.55428 8.11949 11.612 8.74374
178 1 -0.819692 8.95503 2.50996 7.20756
179 2 0.388146 8.507 3.29963 7.62671
180 2 0.431546 9.93022 2.52385 7.42849
181 1 -0.789303 1.97929 8.66452 12.2599
182 2 0.417632 2.15936 9.64389 12.1681
183 2 0.371671 1.02688 8.52465 0.130761
184 1 -1.09296 2.89685 5.89747 11.4241
185 2 0.57025 2.43724 6.33852 12.195
186 2 0.522709 3.29491 5.03082 11.7249
187 1 -0.872222 9.22955 12.2172 5.9493
188 2 0.417706 10.0567 11.6696 6.07599
189 2 0.454516 8.46976 11.792 6.44123
190 1 -0.938923 3.63351 8.75976 3.54829
191 2 0.486667 4.54274 8.99699 3.89037
192 2 0.452256 3.13355 9.59594 3.32281
