ITEM: TIMESTEP
0
ITEM: NUMBER OF ATOMS
192
ITEM: BOX BOUNDS pp pp pp
0.0000000000000000e+00 1.2400000000000000e+01
0.0000000000000000e+00 1.2400000000000000e+01
0.0000000000000000e+00 1.2400000000000000e+01
ITEM: ATOMS id type q x y z
1 1 -0.86454 6.66063 7.54179 3.68352
2 2 0.436394 6.6369 7.56557 4.68296
3 2 0.428145 5.82981 7.10338 3.3407
4 1 -0.992213 0.692522 11.2366 10.9254
5 2 0.481384 0.800698 11.6249 11.8405
6 2 0.510829 1.03593 11.8846 10.2456
7 1 -0.962111 5.41478 0.832026 9.2544
8 2 0.565932 6.17075 0.499677 9.81837
9 2 0.396179 4.64495 1.08109 9.84204
10 1 -0.992384 9.2139 8.82249 4.79501
11 2 0.532502 9.87441 8.07792 4.69834
12 2 0.459882 8.48164 8.70776 4.12371
13 1 -0.900959 3.30987 9.22768 4.5493
14 2 0.458079 2.48555 9.6638 4.91026
15 2 0.44288 3.5137 8.40691 5.08296
16 1 -0.921165 8.92792 5.1698 5.38771
17 2 0.461333 9.80927 5.64148 5.4148
18 2 0.459832 9.04513 4.26798 4.97179
19 1 -0.98354 11.4214 6.74666 5.2703
20 2 0.557994 11.9853 7.0654 6.03219
21 2 0.425546 11.8969 6.01036 4.7889
22 1 -0.93487 6.43343 6.88352 11.9919
23 2 0.491843 6.2235 7.39002 0.428242
24 2 0.443027 6.12561 5.93707 12.0893
25 1 -0.83851 6.09703 8.75018 9.79226
26 2 0.390966 5.72709 9.67492 9.88175
27 2 0.447544 6.2084 8.3464 10.7003
28 1 -0.893124 8.9601 4.61098 0.140418
29 2 0.345746 8.37533 5.38862 0.371349
30 2 0.547378 9.808 4.94273 12.1269
31 1 -0.873787 2.46341 7.67396 11.8074
32 2 0.42753 2.75134 7.48322 10.869
33 2 0.446257 1.46455 7.68522 11.8539
34 1 -0.94035 12.0882 4.1381 3.60058
35 2 0.476483 11.2866 3.75987 3.13755
36 2 0.463867 0.379732 4.38496 2.9217
37 1 -0.837831 0.267505 2.9096 9.59206
38 2 0.380151 0.0317 1.96624 9.35864
39 2 0.457681 1.19764 3.10711 9.28246
40 1 -0.934274 7.52517 0.242927 3.62996
41 2 0.506682 7.09055 11.7465 3.54325
42 2 0.427592 7.20021 0.843033 2.89902
43 1 -0.98472 6.18366 3.66455 8.12696
44 2 0.498331 5.93679 3.4433 9.07041
45 2 0.486389 6.1714 2.83083 7.57491
46 1 -0.859189 8.0561 3.55194 2.62458
47 2 0.423849 8.49175 3.68623 1.73454
48 2 0.435341 8.59198 2.90186 3.16332
49 1 -1.00513 4.05593 3.45933 3.33889
50 2 0.550453 4.70169 3.60565 4.08828
51 2 0.454678 3.13216 3.36164 3.70917
52 1 -0.899232 6.16653 8.07282 6.6778
53 2 0.485438 6.54166 7.75935 7.55017
54 2 0.413794 6.19061 9.07197 6.64437
55 1 -0.795934 10.7261 0.767886 11.4048
56 2 0.367034 11.4723 0.219295 11.0277
57 2 0.4289 10.1435 1.09455 10.6606
58 1 -0.803429 3.22117 2.42948 7.74066
59 2 0.419839 3.47411 2.21511 8.6841
60 2 0.38359 4.03628 2.4 7.1621
61 1 -1.00255 9.36428 8.63097 7.72814
62 2 0.515478 8.9191 7.82289 8.11393
63 2 0.487072 9.0814 8.74462 6.77573
64 1 -0.968733 3.95721 7.55975 2.25679
65 2 0.518638 3.90068 8.40529 2.78772
66 2 0.450095 3.70558 7.74515 1.30689
67 1 -0.889776 11.224 5.31772 10.8381
68 2 0.394915 11.6324 6.22408 10.9463
69 2 0.494861 11.9001 4.69169 10.4495
70 1 -0.829694 2.70149 8.8428 7.93588
71 2 0.351991 1.72984 8.7315 7.72727
72 2 0.477703 3.22467 8.1217 7.48168
73 1 -0.941361 9.77312 2.52064 4.74171
74 2 0.525502 10.3141 2.7513 5.5505
75 2 0.415859 10.0236 1.60655 4.42275
76 1 -1.10308 7.63757 12.3362 10.509
77 2 0.518972 7.48785 0.202609 11.4612
78 2 0.584108 8.33805 11.6237 10.4684
79 1 -0.916073 1.64603 4.07144 5.81082
80 2 0.439737 1.99889 3.16398 6.03889
81 2 0.476335 0.752487 3.9808 5.37108
82 1 -0.922877 9.16709 7.60233 12.3097
83 2 0.437151 9.45236 6.89283 0.554092
84 2 0.485726 8.40667 7.26331 11.7558
85 1 -0.94782 6.16624 1.53905 6.00756
86 2 0.43185 6.10839 0.863138 6.74226
87 2 0.51597 6.53091 1.10536 5.18358
88 1 -0.799183 6.44949 9.7788 0.96438
89 2 0.42238 5.63756 10.3165 1.19161
90 2 0.376803 7.26931 10.3274 1.12851
91 1 -0.960968 0.674565 12.0881 1.57299
92 2 0.452953 0.992609 0.196948 2.37294
93 2 0.508014 12.0791 11.9996 1.60836
94 1 -0.887656 12.3109 9.243 2.20083
95 2 0.494532 11.4993 9.53115 1.6926
96 2 0.393124 0.395994 10.0493 2.53925
97 1 -0.900343 7.55896 1.28831 0.632506
98 2 0.422899 8.16882 2.05857 0.446002
99 2 0.477444 6.61606 1.61624 0.690892
100 1 -0.937288 3.05923 1.04534 11.5471
101 2 0.448034 3.11079 1.14107 0.141161
102 2 0.489254 3.23529 0.0939804 11.2942
103 1 -0.933415 3.71339 10.858 1.72263
104 2 0.399014 2.9101 10.9055 1.12893
105 2 0.534401 3.43141 10.9746 2.67495
106 1 -0.852849 0.473421 1.30075 4.66631
107 2 0.425872 12.3887 2.07909 4.26729
108 2 0.426977 12.3234 0.907705 5.40321
109 1 -0.923162 3.28547 0.363267 3.97199
110 2 0.419277 2.48014 0.936575 4.12288
111 2 0.503885 3.7475 0.201363 4.84395
112 1 -0.759875 7.24616 10.9625 7.6643
113 2 0.381376 7.79394 10.2039 8.01719
114 2 0.3785 6.82919 11.4559 8.42762
115 1 -0.885418 1.30687 0.128149 8.39114
116 2 0.440967 1.47146 0.474163 7.46745
117 2 0.444452 0.44587 12.0198 8.40818
118 1 -0.802097 6.53588 3.43493 11.1725
119 2 0.40808 5.63114 3.7271 11.4825
120 2 0.394017 7.14924 3.35929 11.9587
121 1 -0.771225 0.38574 10.6349 5.89326
122 2 0.417233 12.0092 10.6442 5.26332
123 2 0.353992 0.36682 9.79348 6.43333
124 1 -0.931794 1.85117 5.57359 8.8425
125 2 0.441678 2.1984 5.92358 7.97248
126 2 0.490116 2.53837 4.97981 9.26105
127 1 -0.928468 10.6371 0.412902 2.50607
128 2 0.466718 10.9009 1.11829 1.8482
129 2 0.46175 9.68889 0.141273 2.3412
130 1 -1.05568 3.25227 6.50052 6.26411
131 2 0.535488 4.1523 6.37254 5.84747
132 2 0.520195 2.64249 5.76319 5.97339
133 1 -0.9616 12.1277 7.38127 7.90053
134 2 0.48201 11.7748 8.06131 8.54317
135 2 0.47959 0.340273 6.75421 8.38179
136 1 -0.959185 9.89929 10.2026 0.91347
137 2 0.445092 9.81158 10.6763 0.0371553
138 2 0.514093 9.65033 9.24093 0.798918
139 1 -1.0047 9.71501 10.4753 10.0843
140 2 0.536098 9.50369 9.71289 9.47263
141 2 0.468599 10.5859 10.8867 9.8155
142 1 -0.892116 7.82522 6.45956 8.78152
143 2 0.460713 7.5981 5.66835 8.21372
144 2 0.431403 7.1672 6.53187 9.53104
145 1 -0.862273 3.82521 11.6622 6.85031
146 2 0.415725 3.96296 12.3519 7.56117
147 2 0.446548 3.28652 10.9052 7.22022
148 1 -1.0272 1.33123 6.42592 2.4016
149 2 0.525531 0.730174 7.18924 2.16481
150 2 0.501669 2.20623 6.78048 2.73125
151 1 -1.00535 5.6722 5.07071 5.5299
152 2 0.498243 5.65502 4.696 6.45688
153 2 0.507111 6.61353 5.0827 5.1926
154 1 -0.855502 9.60942 6.49596 2.70501
155 2 0.393097 10.4124 6.36946 3.28739
156 2 0.462405 8.78935 6.2116 3.20163
157 1 -0.937233 1.76809 4.12455 1.06071
158 2 0.440119 2.75876 4.0174 0.976487
159 2 0.497114 1.56521 4.96557 1.56224
160 1 -0.967337 4.57338 1.40994 1.45546
161 2 0.452505 4.20307 0.508081 1.678
162 2 0.514832 4.44425 2.02459 2.23363
163 1 -0.974934 11.0013 3.52131 7.17872
164 2 0.507496 10.2403 3.17207 7.72546
165 2 0.467438 11.6547 3.98678 7.77575
166 1 -0.915825 11.5513 2.73905 0.91583
167 2 0.460654 12.1529 3.52666 0.782534
168 2 0.455171 11.7799 2.02856 0.250294
169 1 -0.968131 4.54961 4.69872 0.871005
170 2 0.412647 4.21451 5.64005 0.911165
171 2 0.555483 4.62215 4.33088 1.79806
172 1 -0.878754 3.60036 10.7127 11.1513
173 2 0.414195 3.87767 10.3348 12.0346
174 2 0.464558 2.8836 10.1397 10.7538
175 1 -0.982657 10.8403 0.00865831 8.04146
176 2 0.57536 10.4519 12.0814 7.18003
177 2 0.407298 10.5272 0.942416 8.21486
178 1 -0.94024 8.73414 2.34867 8.50844
179 2 0.49351 7.99772 3.01769 8.40786
180 2 0.446729 8.35597 1.48377 8.8385
181 1 -0.943523 12.0773 8.45876 10.6894
182 2 0.449322 11.1344 8.43682 11.0219
183 2 0.494202 0.0858442 9.34592 10.904
184 1 -0.911155 3.15615 3.8849 10.6813
185 2 0.511604 3.25098 3.09198 11.2833
186 2 0.399551 3.01143 4.70653 11.2327
187 1 -0.989804 9.84265 11.6678 5.43039
188 2 0.513196 9.72379 10.708 5.17605
189 2 0.476608 9.34381 12.2476 4.78618
190 1 -0.821563 6.16434 10.4076 4.54669
191 2 0.451241 5.35555 9.94716 4.91261
192 2 0.370322 6.95762 9.80446 4.63029
