ITEM: TIMESTEP
0
ITEM: NUMBER OF ATOMS
192
ITEM: BOX BOUNDS pp pp pp
0.0000000000000000e+00 1.2400000000000000e+01
0.0000000000000000e+00 1.2400000000000000e+01
0.0000000000000000e+00 1.2400000000000000e+01
ITEM: ATOMS id type q x y z
1 1 -0.9475 5.10701 8.13225 3.53191
2 2 0.455897 5.42532 9.00883 3.89288
3 2 0.491603 4.16073 8.22337 3.22165
4 1 -0.864038 1.11526 10.0137 10.3189
5 2 0.418091 1.26014 10.9656 10.5889
6 2 0.445946 1.67015 9.80764 9.5129
7 1 -0.847151 5.05949 0.511127 9.60345
8 2 0.416672 5.39498 12.2459 10.2705
9 2 0.430479 5.83215 0.894628 9.09756
10 1 -0.915629 9.28034 10.0789 4.47063
11 2 0.44803 9.94598 10.0459 3.72509
12 2 0.467598 8.79876 9.20429 4.5265
13 1 -1.01548 3.06825 9.19962 5.31252
14 2 0.516819 2.33091 9.3598 5.96878
15 2 0.498658 3.36903 8.24796 5.37479
16 1 -0.870576 8.68955 5.19868 6.53343
17 2 0.408602 8.90263 5.62255 5.65313
18 2 0.461974 9.50307 5.21077 7.11484
19 1 -0.928218 10.2704 7.24757 4.88766
20 2 0.411123 10.4417 7.4347 5.85494
21 2 0.517095 11.1308 7.0108 4.43647
22 1 -0.873719 7.83481 6.97569 12.0281
23 2 0.442529 7.34664 7.62889 0.20691
24 2 0.431191 7.6718 6.04739 12.3623
25 1 -0.966498 6.25887 8.96624 10.1998
26 2 0.484239 6.69959 8.18521 10.6422
27 2 0.482259 5.73729 9.48322 10.8785
28 1 -0.858867 8.92292 4.3807 1.22351
29 2 0.438718 9.53702 4.44385 2.01021
30 2 0.420149 9.46134 4.36136 0.381052
31 1 -0.828688 3.68413 7.14201 11.6774
32 2 0.432953 3.89504 7.26383 10.7075
33 2 0.395735 4.20183 6.36528 12.0361
34 1 -0.843053 11.0019 4.20852 3.24185
35 2 0.402527 11.6325 4.98227 3.30222
36 2 0.440527 11.3283 3.56574 2.54884
37 1 -0.895663 0.0503944 2.88191 9.90558
38 2 0.472311 12.2746 1.99792 9.47238
39 2 0.423352 1.01573 3.11975 9.79806
40 1 -0.934181 6.10582 12.3297 2.20034
41 2 0.508562 5.6711 11.8784 2.97964
42 2 0.425619 7.09452 12.3668 2.34562
43 1 -0.925194 6.38817 2.68294 7.85135
44 2 0.477962 6.94683 2.89791 8.65241
45 2 0.447232 6.85499 1.99641 7.29389
46 1 -0.88585 7.01347 3.00214 3.13144
47 2 0.411148 7.85849 3.37518 3.51458
48 2 0.474702 7.09646 2.94226 2.13669
49 1 -0.897768 3.10097 4.22848 3.34074
50 2 0.462379 2.77662 4.85935 2.6359
51 2 0.435389 4.05194 4.44055 3.56587
52 1 -0.835643 6.84883 8.4412 5.84765
53 2 0.386983 6.13802 8.00681 5.29443
54 2 0.44866 6.42944 9.10166 6.47046
55 1 -0.837098 11.132 12.0803 11.3111
56 2 0.396584 11.9175 0.0317437 10.8017
57 2 0.440513 11.0324 11.1008 11.1361
58 1 -1.10123 3.25933 2.25243 7.26101
59 2 0.547916 4.24772 2.36148 7.36679
60 2 0.553316 3.00195 1.31219 7.48397
61 1 -0.883291 8.52801 7.22877 8.72539
62 2 0.435952 8.28811 6.43903 9.28998
63 2 0.447339 7.94022 7.25126 7.91669
64 1 -0.919625 2.60046 8.07024 1.87599
65 2 0.459068 2.2626 8.96205 2.17687
66 2 0.460557 3.09846 8.17552 1.01523
67 1 -0.911972 11.0617 4.97781 11.497
68 2 0.465844 11.9139 5.45902 11.7023
69 2 0.446129 11.2708 4.07496 11.1213
70 1 -0.880748 3.66485 9.28067 8.77823
71 2 0.407932 3.25933 8.39085 8.56898
72 2 0.472816 4.64168 9.16739 8.95983
73 1 -0.962626 9.60563 2.22728 5.84508
74 2 0.468388 9.16881 3.06143 6.1818
75 2 0.494237 10.5873 2.38488 5.73827
76 1 -0.947552 7.83512 11.5545 10.456
77 2 0.468429 8.49488 12.0373 9.8801
78 2 0.479123 8.19563 10.6519 10.6911
79 1 -1.05162 1.61014 4.10973 6.13637
80 2 0.604452 2.28822 3.50503 6.55417
81 2 0.447165 1.53694 3.90456 5.16039
82 1 -0.80876 10.8762 7.30323 1.06324
83 2 0.408799 10.0503 6.84835 1.39639
84 2 0.399962 11.3454 6.70705 0.411752
85 1 -0.854272 6.89223 0.660685 5.80509
86 2 0.421192 7.88828 0.749124 5.79644
87 2 0.43308 6.50875 1.13285 5.01136
88 1 -0.913173 7.37941 8.89292 1.6298
89 2 0.407813 6.61099 9.44149 1.95935
90 2 0.50536 8.0162 9.47857 1.12828
91 1 -0.973345 2.05963 0.592058 10.5051
92 2 0.505387 3.03014 0.696913 10.288
93 2 0.467958 1.8753 0.984555 11.4062
94 1 -0.854261 12.2505 9.77488 3.27806
95 2 0.41601 11.8929 9.47157 2.39485
96 2 0.438251 0.332366 10.6434 3.16207
97 1 -0.851119 7.50564 1.57253 12.3341
98 2 0.386826 6.54432 1.84786 12.3406
99 2 0.464293 7.61369 0.752472 11.7721
100 1 -0.868602 5.32795 3.80509 11.932
101 2 0.419443 5.01747 2.99687 0.0323
102 2 0.449159 5.26469 4.60844 0.124103
103 1 -0.912059 2.17352 11.0754 2.17029
104 2 0.386579 1.71547 11.3268 1.31768
105 2 0.52548 2.38804 11.9024 2.68994
106 1 -0.787228 0.222193 1.31336 5.16167
107 2 0.390544 1.05654 0.961655 4.7372
108 2 0.396684 0.121452 0.919495 6.07531
109 1 -0.931032 2.85524 1.26267 3.67693
110 2 0.50155 2.68206 2.2469 3.71308
111 2 0.429482 3.33476 0.977884 4.50697
112 1 -0.893758 6.35445 10.763 7.7786
113 2 0.42545 7.17545 11.3278 7.69493
114 2 0.468308 6.40605 10.2222 8.61815
115 1 -0.913809 12.3308 0.180063 8.18443
116 2 0.443944 0.834282 12.3012 8.50992
117 2 0.469864 11.8164 11.7724 7.8962
118 1 -0.836773 8.37803 3.66367 9.96367
119 2 0.39807 9.12228 4.27575 10.231
120 2 0.438703 8.25095 2.96576 10.6685
121 1 -0.985663 0.672849 9.70738 6.70466
122 2 0.426381 12.3325 9.93741 6.07305
123 2 0.559282 0.41928 8.89843 7.23505
124 1 -0.958785 2.42467 6.57712 8.63733
125 2 0.493905 2.82138 6.81368 7.75039
126 2 0.464881 2.61735 5.61775 8.84346
127 1 -0.949795 10.8861 1.94253 1.33242
128 2 0.501909 10.3121 1.58235 2.06782
129 2 0.447886 10.3694 1.94336 0.476258
130 1 -1.053 3.42514 6.50979 5.93959
131 2 0.546113 4.30696 6.03821 5.94187
132 2 0.506888 2.71896 5.89447 5.58931
133 1 -0.946777 12.0108 7.46902 8.1393
134 2 0.514367 0.10111 7.28977 8.99223
135 2 0.432411 11.4643 6.6682 7.89433
136 1 -0.882457 9.22902 11.1032 0.884026
137 2 0.4491 9.85162 11.0969 0.101514
138 2 0.433357 9.26661 11.9961 1.33271
139 1 -0.945778 9.84031 9.32154 10.7725
140 2 0.483348 9.47773 8.8076 9.99509
141 2 0.46243 10.0078 8.69748 11.5357
142 1 -0.839139 5.96008 5.61126 7.66029
143 2 0.450772 6.65185 5.45659 6.95493
144 2 0.388366 5.36253 4.81182 7.72213
145 1 -0.891623 3.25336 11.7882 6.86353
146 2 0.500358 3.57989 11.1398 7.55125
147 2 0.391266 2.52111 11.3664 6.32882
148 1 -0.868516 0.833024 7.12082 4.03672
149 2 0.485829 0.705037 8.03455 3.65108
150 2 0.382687 1.81059 6.92068 4.10246
151 1 -0.932055 5.56609 4.79665 4.87558
152 2 0.462966 6.25768 5.5071 4.74532
153 2 0.469088 5.66314 4.10225 4.16256
154 1 -0.967352 7.79871 6.4738 3.63974
155 2 0.491146 8.5531 6.7737 4.22365
156 2 0.476205 7.30179 7.27259 3.3006
157 1 -0.878831 1.7585 4.9218 0.453564
158 2 0.46585 1.98118 5.8965 0.434308
159 2 0.412981 1.93127 4.52254 11.9531
160 1 -0.981248 4.03829 1.34145 0.63552
161 2 0.463614 4.70614 1.15873 1.35704
162 2 0.517634 3.18558 1.66589 1.04496
163 1 -0.993266 11.5146 4.3909 7.21556
164 2 0.407642 11.6364 4.08657 8.16032
165 2 0.585624 12.3855 4.32333 6.72875
166 1 -0.963428 1.26386 1.91443 0.954646
167 2 0.464049 1.09043 2.8795 0.758238
168 2 0.49938 0.397098 1.45052 1.13773
169 1 -0.968713 5.66721 5.63859 1.8349
170 2 0.461366 5.25512 6.42259 2.29915
171 2 0.507348 6.56086 5.44375 2.23916
172 1 -0.853879 4.91142 10.6273 0.119311
173 2 0.45893 5.3358 11.5304 0.186004
174 2 0.394949 4.25714 10.5105 0.866487
175 1 -0.853702 9.87429 10.3783 7.51079
176 2 0.441641 9.76692 10.2599 6.52364
177 2 0.412061 9.79976 9.48963 7.9632
178 1 -0.837857 9.18897 1.19517 8.70913
179 2 0.413587 9.21235 2.13591 8.37078
180 2 0.42427 9.96973 0.689443 8.34217
181 1 -0.947807 0.727895 7.04076 11.004
182 2 0.457606 1.62743 6.79862 10.6403
183 2 0.490201 0.668916 8.03292 11.1141
184 1 -0.939316 3.11507 3.79444 9.98506
185 2 0.525042 3.94176 3.47513 10.4483
186 2 0.414273 2.91978 3.20046 9.20464
187 1 -0.959939 9.45519 0.412079 3.47607
188 2 0.489601 9.08341 12.0409 3.99283
189 2 0.470338 9.54547 1.20478 4.07897
190 1 -1.04997 5.34524 10.9462 4.65626
191 2 0.549353 5.84886 11.2415 5.46816
192 2 0.500615 4.59773 10.3408 4.92956
