ITEM: TIMESTEP
0
ITEM: NUMBER OF ATOMS
192
ITEM: BOX BOUNDS pp pp pp
0.0000000000000000e+00 1.2400000000000000e+01
0.0000000000000000e+00 1.2400000000000000e+01
0.0000000000000000e+00 1.2400000000000000e+01
ITEM: ATOMS id type q x y z
1 1 -0.799161 2.76377 9.07972 5.06605
2 2 0.450866 2.34199 8.17327 5.08752
3 2 0.348295 2.22258 9.68546 4.48278
4 1 -1.01174 0.332973 9.61297 1.14982
5 2 0.496214 0.0307833 10.5487 0.968092
6 2 0.515529 11.947 9.05439 1.41482
7 1 -0.882979 4.94273 0.00576081 0.0992018
8 2 0.420157 4.25822 11.8665 0.589797
9 2 0.462822 5.85661 12.0659 0.321321
10 1 -0.825241 8.5319 1.55632 4.10079
11 2 0.429383 8.39608 0.603249 4.37138
12 2 0.395858 7.96798 2.14955 4.67531
13 1 -0.974662 5.21611 8.39837 9.30201
14 2 0.460166 4.44392 8.8252 9.77269
15 2 0.514496 5.29685 8.77921 8.3809
16 1 -0.96148 7.79124 1.1571 7.32969
17 2 0.503043 8.254 2.03951 7.24477
18 2 0.458437 8.01735 0.745737 8.21268
19 1 -1.1661 8.5962 10.2429 7.53106
20 2 0.573335 8.35939 9.28723 7.35617
21 2 0.592762 8.07033 10.579 8.3124
22 1 -1.05408 6.38701 6.51235 10.9339
23 2 0.487751 7.35419 6.76551 10.956
24 2 0.566329 5.89639 7.12415 10.3134
25 1 -0.947102 9.61229 4.27301 10.6146
26 2 0.512033 8.80747 3.9692 11.1244
27 2 0.435069 10.1004 3.47689 10.2569
28 1 -1.01518 11.1247 1.75374 9.95817
29 2 0.525984 11.2753 0.981866 9.34048
30 2 0.489193 11.9167 2.36348 9.92898
31 1 -0.864782 5.09484 9.08787 0.800931
32 2 0.413457 4.93715 9.30421 12.2374
33 2 0.451325 4.29676 9.35986 1.3386
34 1 -0.856761 0.818653 7.08766 4.11641
35 2 0.444595 0.162984 7.75267 3.75883
36 2 0.412166 1.12991 6.49419 3.37418
37 1 -1.10024 10.8839 11.7856 8.41453
38 2 0.582969 10.1764 11.2096 8.0052
39 2 0.517269 11.1465 0.1015 7.76755
40 1 -0.825253 7.69784 5.19894 2.89936
41 2 0.414776 6.89249 4.68975 3.20289
42 2 0.410478 8.51069 4.84261 3.36013
43 1 -0.934498 8.11298 1.2859 10.4276
44 2 0.40933 9.09084 1.15693 10.2628
45 2 0.525168 7.97996 1.72878 11.3142
46 1 -0.823325 5.4705 3.07034 5.34846
47 2 0.428015 4.59658 3.52074 5.53122
48 2 0.39531 5.48185 2.17313 5.78993
49 1 -0.945167 2.67766 4.45128 2.71711
50 2 0.483719 2.21515 3.8022 2.11313
51 2 0.461447 3.18599 5.11415 2.16739
52 1 -0.932194 9.03068 3.81977 7.02057
53 2 0.493954 9.70834 4.00305 7.73274
54 2 0.43824 8.99225 4.59468 6.38966
55 1 -0.899994 7.90366 1.12382 0.974911
56 2 0.446179 8.36358 1.97171 1.23865
57 2 0.453815 7.8187 0.528279 1.77374
58 1 -0.89756 3.32622 0.968683 6.88847
59 2 0.488193 2.9775 1.8855 6.6939
60 2 0.409367 2.59897 0.414399 7.29331
61 1 -0.894283 11.8639 9.68614 5.77838
62 2 0.398521 10.9032 9.49411 5.57759
63 2 0.495762 12.1947 10.4057 5.16775
64 1 -0.912315 10.7173 0.0236 2.68421
65 2 0.453955 10.2992 12.1717 3.55696
66 2 0.45836 10.0353 0.46868 2.10393
67 1 -1.07467 1.27325 3.51345 10.7122
68 2 0.506743 2.0177 2.99209 10.295
69 2 0.56793 1.54225 4.4733 10.7917
70 1 -0.830797 3.03392 9.28972 11.1517
71 2 0.462754 2.04311 9.19887 11.0515
72 2 0.368044 3.28179 10.2585 11.1491
73 1 -0.912302 11.4397 1.33231 6.47607
74 2 0.413366 10.5665 1.81918 6.49705
75 2 0.498936 11.9457 1.59059 5.6531
76 1 -0.942365 8.96603 8.09021 10.7938
77 2 0.502107 8.75344 8.93858 11.2787
78 2 0.440259 9.80458 7.69381 11.1676
79 1 -0.884174 3.75053 5.91243 4.99739
80 2 0.465043 3.3077 5.43472 4.23863
81 2 0.419131 3.06149 6.17775 5.6718
82 1 -1.00563 11.4156 6.45728 10.9386
83 2 0.514924 10.7826 5.68329 10.9216
84 2 0.490706 11.6088 6.7505 10.0023
85 1 -0.906879 5.63846 11.8864 5.45458
86 2 0.45389 4.72495 12.1304 5.78014
87 2 0.45299 6.32616 12.3538 6.01017
88 1 -0.903292 6.9931 10.9606 2.45254
89 2 0.44098 7.06043 10.8261 3.44117
90 2 0.462312 6.71547 10.1039 2.01775
91 1 -0.905527 1.47375 12.2541 9.60501
92 2 0.442309 1.97527 0.613656 10.0193
93 2 0.463219 0.675885 12.0357 10.1669
94 1 -0.847549 9.19598 10.3244 0.415705
95 2 0.450123 8.79417 9.66117 1.04715
96 2 0.397426 8.58376 11.1096 0.322957
97 1 -0.869343 5.54929 2.99846 2.2521
98 2 0.470712 5.55351 2.73303 3.21622
99 2 0.398631 5.9141 2.24973 1.69863
100 1 -1.05407 3.82013 1.99146 10.6674
101 2 0.502851 4.29074 1.34772 11.2708
102 2 0.551215 4.47001 2.36266 10.0042
103 1 -0.897462 12.3131 12.318 12.0989
104 2 0.431036 11.4749 0.24955 11.6659
105 2 0.466426 0.1727 0.537064 0.440118
106 1 -0.944113 11.8754 5.35416 1.24126
107 2 0.395901 0.110555 5.76217 1.89707
108 2 0.548212 11.8441 5.91536 0.414165
109 1 -0.719336 3.6744 0.731814 3.60166
110 2 0.345396 3.16889 0.457235 2.78369
111 2 0.37394 4.34067 0.0236042 3.83515
112 1 -0.939097 8.0539 7.34157 8.03464
113 2 0.450939 7.24893 6.78831 8.24897
114 2 0.488158 8.5659 7.52428 8.87398
115 1 -0.960884 0.684039 11.301 3.86049
116 2 0.535911 12.2675 11.6985 3.44193
117 2 0.424973 1.28335 12.0335 4.18334
118 1 -0.920251 11.7566 4.78863 8.41675
119 2 0.385691 12.0823 4.61789 9.3467
120 2 0.534561 11.827 5.76511 8.21295
121 1 -0.998101 9.21606 10.9788 4.99753
122 2 0.575932 8.81429 11.0145 5.91258
123 2 0.422169 9.20732 10.0354 4.66615
124 1 -0.968942 5.46243 2.75583 8.4746
125 2 0.527698 5.49403 3.67579 8.08385
126 2 0.441244 6.23569 2.22175 8.1328
127 1 -0.838333 10.6066 2.63665 0.811234
128 2 0.367362 10.6263 2.4478 12.2294
129 2 0.470971 11.0101 3.53475 0.986089
130 1 -0.93912 5.33519 5.56621 7.66868
131 2 0.518691 4.62636 6.24363 7.86532
132 2 0.420429 5.41457 5.4444 6.6793
133 1 -0.998686 2.63613 7.03955 7.59171
134 2 0.501856 1.77508 6.85325 8.06487
135 2 0.49683 2.80911 8.02448 7.5898
136 1 -0.941538 3.04229 10.5107 1.96495
137 2 0.525759 2.23606 9.95409 1.76444
138 2 0.415779 3.10377 10.6653 2.95101
139 1 -0.949737 11.8424 9.66842 10.1064
140 2 0.492976 11.6885 10.2842 9.3336
141 2 0.45676 11.6223 10.1422 10.9591
142 1 -0.895654 6.94863 3.72025 11.7387
143 2 0.477948 6.51725 4.27053 11.0238
144 2 0.417706 6.28765 3.54398 0.0681574
145 1 -0.864501 4.98613 12.0354 9.08136
146 2 0.397894 4.03122 11.886 9.33794
147 2 0.466608 5.04353 0.402523 8.44243
148 1 -0.901233 10.6156 7.8606 2.20524
149 2 0.444784 10.1976 7.665 1.31811
150 2 0.456449 10.0425 7.48546 2.93379
151 1 -0.831585 8.22654 7.87388 4.99276
152 2 0.421831 8.8856 7.49666 5.64342
153 2 0.409754 7.30551 7.57118 5.23788
154 1 -0.961498 7.68761 7.80056 1.22303
155 2 0.475299 6.89616 7.92515 0.62462
156 2 0.486198 7.55791 6.98086 1.78096
157 1 -0.891182 3.11025 5.63272 10.8873
158 2 0.410968 4.04154 5.40726 10.6012
159 2 0.480214 3.14056 6.3398 11.5938
160 1 -0.986384 1.78477 2.28434 0.898033
161 2 0.542152 1.45513 2.65879 0.0313557
162 2 0.444231 2.73258 1.98358 0.792203
163 1 -0.911131 11.0016 6.44406 5.8833
164 2 0.432841 11.9356 6.71514 5.65076
165 2 0.47829 10.6335 5.86131 5.15881
166 1 -0.8441 0.461338 2.38447 3.51033
167 2 0.404781 0.851829 3.30048 3.41835
168 2 0.439318 0.580137 1.88382 2.65287
169 1 -0.877841 4.75941 5.77218 1.00111
170 2 0.469618 5.49481 5.75614 0.323665
171 2 0.408223 4.87692 5.01085 1.63875
172 1 -0.856625 2.22462 7.23834 1.08933
173 2 0.424523 1.69175 8.04366 0.829514
174 2 0.432102 3.16777 7.5102 1.28059
175 1 -0.883412 1.78655 9.81891 7.85434
176 2 0.431366 1.63942 10.6344 8.41405
177 2 0.452045 1.12953 9.80898 7.10053
178 1 -1.00074 7.44314 11.0169 9.90726
179 2 0.50079 7.66214 11.9293 10.2531
180 2 0.499949 6.49745 11.0016 9.58253
181 1 -0.830756 1.44172 3.38273 6.59164
182 2 0.455482 0.608153 3.43 7.14204
183 2 0.375274 1.75502 4.30873 6.38098
184 1 -1.10332 12.3427 7.56537 8.32782
185 2 0.519128 11.9153 7.88565 7.48236
186 2 0.584197 12.3903 8.31892 8.9835
187 1 -0.96823 10.5728 4.57966 3.86017
188 2 0.488969 10.6973 3.59322 3.96718
189 2 0.479262 10.8393 4.85088 2.93528
190 1 -0.853521 5.55432 9.22009 6.40074
191 2 0.376871 5.19901 8.35407 6.04895
192 2 0.47665 5.19353 9.97532 5.85351
