ITEM: TIMESTEP
0
ITEM: NUMBER OF ATOMS
192
ITEM: BOX BOUNDS pp pp pp
0.0000000000000000e+00 1.2400000000000000e+01
0.0000000000000000e+00 1.2400000000000000e+01
0.0000000000000000e+00 1.2400000000000000e+01
ITEM: ATOMS id type q x y z
1 1 -0.788791 3.98553 8.03183 3.67896
2 2 0.409238 4.23399 7.39085 2.95272
3 2 0.379553 3.7443 8.91476 3.27616
4 1 -0.904262 12.164 8.14016 3.42578
5 2 0.451003 0.448515 8.71034 3.88008
6 2 0.453259 11.6757 7.59731 4.10906
7 1 -0.850523 3.63283 12.0209 11.6891
8 2 0.443331 3.02633 11.2633 11.9304
9 2 0.407192 4.41205 11.6714 11.1689
10 1 -0.769676 7.03209 0.967773 6.06797
11 2 0.387415 7.08739 12.388 5.87551
12 2 0.382261 6.54071 1.11152 6.92697
13 1 -0.852915 6.70264 6.19767 8.58591
14 2 0.37466 6.97109 6.01404 7.64028
15 2 0.478255 7.49776 6.51552 9.10241
16 1 -0.987695 10.001 1.77378 7.76334
17 2 0.426284 10.5371 2.5849 7.52944
18 2 0.561411 9.03135 2.01504 7.80269
19 1 -0.934465 6.55639 10.824 8.35574
20 2 0.486154 5.96685 11.6313 8.32701
21 2 0.448311 7.44884 11.049 7.96465
22 1 -0.896309 8.76922 7.66958 11.7276
23 2 0.416627 9.25094 7.92565 0.16567
24 2 0.479683 8.8904 6.69135 11.5591
25 1 -0.849088 11.9653 4.34286 10.0844
26 2 0.420121 0.159173 5.11991 9.87565
27 2 0.428967 11.9558 3.7126 9.30806
28 1 -0.794149 0.666421 3.66458 6.90762
29 2 0.404837 0.324928 4.19544 6.13201
30 2 0.389312 1.60904 3.38238 6.72922
31 1 -0.812023 5.73843 9.32904 10.6809
32 2 0.374014 6.21376 9.65697 11.4973
33 2 0.438009 6.16396 9.72344 9.86644
34 1 -0.958521 2.30424 5.12674 3.48926
35 2 0.565519 2.56355 5.35506 4.42768
36 2 0.393002 1.58282 5.74753 3.18236
37 1 -0.824525 0.256382 0.400811 7.46951
38 2 0.364617 0.139867 12.2703 6.62989
39 2 0.459908 11.8281 0.932752 7.64535
40 1 -1.10149 8.11884 2.28768 1.81266
41 2 0.530763 8.5434 2.60159 0.963415
42 2 0.570725 7.77249 3.07483 2.32299
43 1 -0.894501 10.476 0.892773 11.3015
44 2 0.448917 9.69944 0.39277 11.685
45 2 0.445585 10.912 0.33857 10.5925
46 1 -0.84833 5.39605 4.20218 6.39789
47 2 0.45569 5.27299 3.85024 5.46999
48 2 0.39264 5.79889 5.11654 6.35689
49 1 -1.06262 4.6338 3.29149 3.68177
50 2 0.565651 3.81184 3.8088 3.44351
51 2 0.496966 4.37739 2.48528 4.21495
52 1 -0.846663 9.58508 5.27689 7.01465
53 2 0.479214 10.2583 5.2095 6.27827
54 2 0.36745 9.49184 6.23236 7.29464
55 1 -0.994264 9.36736 12.0068 1.40961
56 2 0.490715 9.05161 0.542175 1.56879
57 2 0.50355 8.57813 11.3992 1.32044
58 1 -0.907514 3.01317 1.27347 5.36077
59 2 0.401537 3.31611 0.325334 5.45705
60 2 0.505977 2.05767 1.28984 5.06624
61 1 -0.821127 12.1837 9.55093 6.60332
62 2 0.370877 11.9852 10.2489 7.2914
63 2 0.45025 11.8779 9.87051 5.70646
64 1 -0.938265 10.6335 11.1339 4.16852
65 2 0.452717 10.5412 10.2176 3.77875
66 2 0.485548 10.7359 11.8012 3.4308
67 1 -0.788082 3.43463 3.59368 9.1632
68 2 0.372506 2.80962 3.03755 8.61541
69 2 0.415576 3.7635 4.36299 8.61547
70 1 -0.88999 11.8531 7.6664 10.5305
71 2 0.393809 11.036 7.29468 10.09
72 2 0.49618 11.5879 8.17682 11.3485
73 1 -0.921801 9.57972 1.77513 4.16995
74 2 0.440462 8.91569 1.67346 4.91072
75 2 0.481339 9.10864 2.06789 3.33786
76 1 -0.801148 8.75752 10.4888 10.8675
77 2 0.444586 8.52941 9.69339 11.4289
78 2 0.356562 7.95462 10.7654 10.3394
79 1 -0.98902 2.53525 6.05806 6.13705
80 2 0.531619 1.8208 6.3209 6.78549
81 2 0.4574 3.27281 6.73288 6.16209
82 1 -0.960985 11.3579 9.45437 0.551492
83 2 0.499776 11.176 9.47268 1.53464
84 2 0.461209 10.9134 10.237 0.115612
85 1 -0.970827 4.35657 11.2642 3.483
86 2 0.512183 4.97292 11.9644 3.12258
87 2 0.458644 4.86838 10.6431 4.07654
88 1 -0.982406 6.60379 11.2736 0.541758
89 2 0.570622 6.04425 11.8721 1.11506
90 2 0.411785 6.98888 11.8016 12.1849
91 1 -0.786059 1.16255 1.74573 11.5405
92 2 0.423225 1.87403 1.11193 11.237
93 2 0.362834 0.283499 1.27001 11.5716
94 1 -0.875085 8.81535 9.2191 2.62768
95 2 0.497559 8.7876 8.34938 3.12045
96 2 0.377527 7.88325 9.55408 2.48995
97 1 -1.08328 5.70198 0.956605 2.05811
98 2 0.567277 6.53648 1.38317 1.70931
99 2 0.516001 5.13783 1.64795 2.50953
100 1 -1.06538 5.02897 3.1071 11.8522
101 2 0.574276 4.29978 3.53375 12.3872
102 2 0.491102 4.75629 3.0651 10.891
103 1 -0.953176 12.3046 0.0733279 1.4095
104 2 0.51157 11.3205 0.0209 1.23942
105 2 0.441606 0.32162 0.709361 0.760248
106 1 -0.900396 0.894847 6.73953 0.744453
107 2 0.438496 0.81235 7.14246 12.2329
108 2 0.461901 0.420814 7.31763 1.4086
109 1 -0.8631 2.45604 1.18911 1.61618
110 2 0.473124 3.17603 0.703817 1.12008
111 2 0.389975 1.72157 0.550774 1.84659
112 1 -0.929975 8.67542 5.03649 10.4051
113 2 0.435496 9.31574 4.35052 10.0595
114 2 0.494479 8.38494 4.78599 11.3286
115 1 -0.962632 1.47494 10.5937 4.29045
116 2 0.459225 0.866896 11.3781 4.16795
117 2 0.503407 2.40468 10.8478 4.02397
118 1 -0.815765 9.57736 8.47179 8.54209
119 2 0.422457 9.25491 9.38514 8.29345
120 2 0.393308 9.64551 8.40183 9.53731
121 1 -0.84014 6.4306 10.0714 5.3732
122 2 0.362574 7.36871 10.1809 5.7018
123 2 0.477566 5.99807 9.30537 5.84869
124 1 -0.88021 4.30631 0.388838 8.37384
125 2 0.414222 3.70038 1.05594 8.80724
126 2 0.465987 3.7635 12.1514 7.82704
127 1 -0.897706 10.5198 4.0011 0.048822
128 2 0.431707 10.5786 3.0384 12.1847
129 2 0.465999 10.8691 4.57244 11.7062
130 1 -0.965011 7.4872 3.14109 8.31414
131 2 0.477091 7.81361 4.0473 8.58291
132 2 0.48792 6.64409 3.23401 7.78449
133 1 -0.927076 0.352841 6.90731 7.87128
134 2 0.460811 12.367 7.58496 7.24524
135 2 0.466264 0.170763 7.18354 8.81497
136 1 -0.897344 1.83315 9.81076 0.265584
137 2 0.504295 0.929797 10.1807 0.482551
138 2 0.393049 2.16215 9.26228 1.03431
139 1 -0.869202 0.0748209 11.3488 10.1004
140 2 0.412345 0.154812 11.771 9.19746
141 2 0.456858 0.557609 10.4731 10.1028
142 1 -0.96444 7.13418 4.77868 0.485075
143 2 0.445383 6.73916 5.59528 0.905931
144 2 0.519057 6.40191 4.207 0.114962
145 1 -0.887765 2.58439 9.39041 9.7685
146 2 0.460024 3.04634 9.35783 10.6548
147 2 0.427741 2.51086 8.46501 9.39671
148 1 -0.791534 9.53686 7.86218 5.21488
149 2 0.419794 8.78064 7.2181 5.33018
150 2 0.371741 9.54505 8.50694 5.97923
151 1 -1.01924 6.41294 6.6951 5.04003
152 2 0.517561 5.71242 7.22198 5.52135
153 2 0.50168 6.45983 6.99515 4.08726
154 1 -0.830257 9.28175 6.24848 2.63044
155 2 0.406938 8.68979 5.69765 2.04208
156 2 0.423319 9.97374 5.66133 3.05047
157 1 -0.82061 4.067 6.67112 10.0032
158 2 0.4391 4.80409 6.26929 9.45979
159 2 0.38151 4.1428 6.35908 10.9502
160 1 -0.927801 2.76041 4.26041 0.750378
161 2 0.470497 2.2285 3.46683 0.454921
162 2 0.457304 2.20505 4.82556 1.36045
163 1 -0.955035 7.44135 4.12626 3.88533
164 2 0.491576 7.34763 4.93606 4.4645
165 2 0.463458 6.5605 3.65691 3.8235
166 1 -0.860148 0.211549 3.33419 2.16709
167 2 0.437023 12.362 3.77985 1.30736
168 2 0.423125 1.18226 3.0946 2.14886
169 1 -0.893947 6.41161 7.49491 1.88404
170 2 0.398794 7.27997 7.75604 1.46239
171 2 0.495152 5.6599 7.71333 1.26176
172 1 -0.911326 3.73655 7.37795 0.793215
173 2 0.423388 3.41045 7.81347 12.3542
174 2 0.487938 3.07279 6.69258 1.09272
175 1 -0.965856 3.00203 10.5215 6.99819
176 2 0.50572 2.24081 10.1615 6.4588
177 2 0.460136 2.79126 10.4343 7.97184
178 1 -0.889303 7.36971 1.51153 11.39
179 2 0.382792 7.51205 1.30526 10.4219
180 2 0.506511 6.62359 2.17065 11.4842
181 1 -0.971372 0.432286 1.12643 4.23325
182 2 0.514083 0.26865 1.16722 3.24757
183 2 0.457289 12.0534 1.52539 4.71724
184 1 -0.992403 9.16849 11.3259 6.92463
185 2 0.488237 9.66187 12.088 7.3438
186 2 0.504166 9.43585 11.2435 5.96456
187 1 -0.93571 11.1422 4.78277 4.69185
188 2 0.471011 10.5778 3.95755 4.6708
189 2 0.464699 11.8438 4.72501 3.98154
190 1 -1.01851 4.72898 8.26797 6.91555
191 2 0.548576 4.23772 9.12479 7.07219
192 2 0.469932 4.88514 7.80861 7.78997
