ITEM: TIMESTEP
0
ITEM: NUMBER OF ATOMS
192
ITEM: BOX BOUNDS pp pp pp
0.0000000000000000e+00 1.2400000000000000e+01
0.0000000000000000e+00 1.2400000000000000e+01
0.0000000000000000e+00 1.2400000000000000e+01
ITEM: ATOMS id type q x y z
1 1 -0.869105 1.81928 8.97874 3.50051
2 2 0.452408 1.1181 9.59653 3.85644
3 2 0.416697 2.72499 9.33306 3.73325
4 1 -0.796737 11.5975 7.33074 5.11916
5 2 0.367992 0.0922102 6.95809 5.36555
6 2 0.428745 11.4926 7.31579 4.12479
7 1 -1.02011 4.25258 0.116669 12.2682
8 2 0.571422 4.82082 12.3663 11.4592
9 2 0.448684 3.34698 0.432752 11.9853
10 1 -1.10596 5.90092 1.1925 3.92056
11 2 0.623639 6.4885 0.459223 4.2627
12 2 0.482321 5.81796 1.11695 2.92687
13 1 -0.854088 8.37237 5.88634 9.74308
14 2 0.38414 8.95778 5.40715 9.08911
15 2 0.469948 8.00299 5.23123 10.4022
16 1 -1.01217 9.07321 1.8233 7.38675
17 2 0.499213 9.52457 2.32893 8.12201
18 2 0.512956 8.29243 2.34994 7.05053
19 1 -0.928875 5.77037 11.5589 10.0941
20 2 0.475096 6.19105 12.0104 9.30718
21 2 0.453779 6.30458 10.7499 10.3391
22 1 -0.809241 7.10379 7.81113 0.023
23 2 0.389364 7.70246 7.61544 0.799734
24 2 0.419878 7.65311 8.13118 11.6511
25 1 -0.84597 2.10632 3.30784 9.2616
26 2 0.425344 2.54273 4.07221 9.73624
27 2 0.420626 2.21738 2.47327 9.80121
28 1 -0.875681 1.08155 2.96083 6.2543
29 2 0.434216 0.358072 2.33098 5.9717
30 2 0.441465 0.774377 3.48716 7.04716
31 1 -1.00142 4.0533 8.16527 11.0662
32 2 0.4903 4.68512 8.45561 11.7849
33 2 0.51112 4.54555 7.61454 10.3921
34 1 -0.951222 2.07359 5.01147 3.99336
35 2 0.481743 1.84745 4.10897 4.35992
36 2 0.469479 2.31493 5.62555 4.74481
37 1 -0.840771 0.0457138 0.537809 8.89472
38 2 0.385093 12.1022 1.33234 9.39545
39 2 0.455678 1.03326 0.459294 9.03108
40 1 -0.830722 8.91768 4.76346 1.7677
41 2 0.341448 8.61767 4.34671 0.90961
42 2 0.489274 8.1227 5.10911 2.26624
43 1 -0.820333 9.93109 1.23919 0.0346727
44 2 0.44947 10.4435 0.401837 12.2441
45 2 0.370864 10.5228 1.8915 0.508395
46 1 -0.922342 7.12713 3.51594 6.19532
47 2 0.479777 6.26563 3.84697 5.81028
48 2 0.442564 7.88245 4.07287 5.84989
49 1 -1.0637 5.08597 4.00966 4.19614
50 2 0.495506 4.28309 4.25267 3.65179
51 2 0.568197 5.30795 3.04551 4.05067
52 1 -0.718316 11.8849 5.23227 7.23422
53 2 0.325187 11.9969 5.32821 8.22329
54 2 0.393129 11.4129 6.0363 6.87267
55 1 -1.01425 10.287 10.7207 1.9088
56 2 0.481056 9.41038 11.0076 1.52242
57 2 0.53319 10.2475 9.74844 2.13926
58 1 -0.857661 3.51133 0.912391 5.55704
59 2 0.42015 4.43868 1.1604 5.27684
60 2 0.437511 3.05675 0.425456 4.81121
61 1 -0.851513 9.77214 11.2253 8.39701
62 2 0.447658 9.53794 12.1715 8.17374
63 2 0.403856 10.6831 11.0148 8.04232
64 1 -0.795049 9.65402 9.38086 5.95659
65 2 0.38386 9.63392 8.53017 6.48187
66 2 0.411189 9.5317 9.17596 4.98548
67 1 -0.940414 3.9385 4.84908 7.23046
68 2 0.4291 4.22246 4.95389 6.27736
69 2 0.511314 3.19794 4.17938 7.28591
70 1 -0.846881 1.58275 7.06046 9.12172
71 2 0.461576 2.18489 6.68538 9.82653
72 2 0.385305 0.629817 6.88824 9.37124
73 1 -0.80147 8.97003 2.04198 3.08289
74 2 0.366048 9.41662 1.58796 2.31189
75 2 0.435422 8.14473 2.50742 2.76311
76 1 -0.893293 8.60457 10.6008 11.3703
77 2 0.41828 8.437 10.0079 10.5826
78 2 0.475013 9.58274 10.7975 11.4373
79 1 -0.895455 2.79165 7.34639 5.93207
80 2 0.437054 2.28791 8.12154 5.55075
81 2 0.458401 2.48233 7.17553 6.86755
82 1 -0.795474 11.017 7.39028 10.0834
83 2 0.392014 10.7407 6.4508 10.286
84 2 0.40346 11.2566 7.85803 10.9342
85 1 -0.88242 4.5424 10.8641 4.12004
86 2 0.441266 4.77359 11.8274 3.98342
87 2 0.441155 4.28647 10.7149 5.07516
88 1 -0.903081 7.16992 11.3282 1.99847
89 2 0.462478 7.07596 12.2527 1.62926
90 2 0.440603 6.95563 10.661 1.28506
91 1 -0.856603 1.28426 1.74517 12.0551
92 2 0.411118 0.631906 1.07708 0.012973
93 2 0.445484 0.78965 2.54536 11.7159
94 1 -0.908959 10.7517 7.76438 1.59741
95 2 0.469517 10.5555 6.82133 1.32881
96 2 0.439442 11.6675 8.01635 1.28476
97 1 -0.94091 6.41672 1.89406 1.20138
98 2 0.465435 6.6965 2.66952 0.635337
99 2 0.475475 5.60381 1.4678 0.804522
100 1 -0.891705 5.48823 2.86794 9.95771
101 2 0.423112 4.7185 3.50341 9.89689
102 2 0.468593 5.50048 2.28074 9.14836
103 1 -1.16313 0.170009 12.2272 1.70854
104 2 0.62306 11.6579 11.8398 1.84267
105 2 0.54007 0.782515 11.5218 1.35175
106 1 -0.892582 1.00137 7.46508 0.405674
107 2 0.421178 1.50999 7.23146 1.23437
108 2 0.471404 1.53099 8.11608 12.2619
109 1 -0.886922 2.83739 0.686699 2.5918
110 2 0.438699 3.33673 0.339916 1.79782
111 2 0.448223 1.86667 0.465643 2.49769
112 1 -0.886438 10.7117 3.07802 9.53613
113 2 0.461302 11.4621 3.28822 10.1627
114 2 0.425136 9.84518 3.09915 10.0349
115 1 -0.912569 0.517301 11.0397 5.30272
116 2 0.465385 0.210241 11.9587 5.54994
117 2 0.447184 12.2582 10.3666 5.63817
118 1 -1.00348 7.68204 8.99637 9.00386
119 2 0.481511 8.32836 9.46962 8.40528
120 2 0.521964 7.82707 8.00921 8.93687
121 1 -0.902325 7.88051 8.9623 3.38345
122 2 0.408948 7.01686 8.68014 3.80118
123 2 0.493377 7.84187 9.93718 3.16407
124 1 -0.864748 3.26256 0.562445 8.53649
125 2 0.483283 3.33751 0.799003 7.56776
126 2 0.381465 3.80395 12.1424 8.72223
127 1 -0.955212 0.242722 4.42133 11.5617
128 2 0.456857 1.01553 4.93137 11.184
129 2 0.498356 0.0498 4.74583 0.0876685
130 1 -0.861784 6.28226 0.928743 7.55966
131 2 0.450132 7.19037 0.707632 7.20408
132 2 0.411653 5.8641 1.63586 6.98947
133 1 -0.764452 12.191 9.10856 7.73689
134 2 0.398121 11.2181 9.03712 7.95686
135 2 0.366331 0.205244 8.19862 7.758
136 1 -0.946783 2.1703 10.2722 0.852369
137 2 0.446831 2.25306 9.84502 1.75276
138 2 0.499952 3.07883 10.5209 0.516632
139 1 -0.938665 11.4859 11.1677 11.2224
140 2 0.512923 11.7967 11.4656 10.3198
141 2 0.425742 12.1853 10.5889 11.6415
142 1 -0.831987 5.93476 4.77883 0.38971
143 2 0.416936 5.3296 4.69339 1.18122
144 2 0.415051 6.57835 5.52898 0.541616
145 1 -0.901358 2.13658 9.92953 9.7322
146 2 0.481353 2.95636 9.4732 10.0782
147 2 0.420005 1.55531 9.26244 9.26624
148 1 -0.765955 8.18146 6.91493 6.72819
149 2 0.365533 7.69734 6.04032 6.75483
150 2 0.400423 8.47917 7.10275 5.79219
151 1 -0.955225 5.49062 7.88692 5.17315
152 2 0.447622 5.91029 8.60503 5.7283
153 2 0.507603 4.69822 7.51314 5.65523
154 1 -0.871105 12.0008 5.13461 2.42467
155 2 0.472526 11.9116 4.21493 2.80705
156 2 0.398579 0.473583 5.53087 2.70965
157 1 -0.93987 5.15543 6.80548 8.91053
158 2 0.411824 6.12532 6.56223 8.89896
159 2 0.528046 4.62514 6.08253 8.46766
160 1 -0.947754 2.86986 3.54168 1.41659
161 2 0.435864 2.31023 4.12564 2.00464
162 2 0.51189 2.63578 2.5831 1.57889
163 1 -0.948925 7.05417 5.83536 3.42075
164 2 0.464817 6.92853 6.74067 3.8265
165 2 0.484108 6.61407 5.14742 3.99786
166 1 -0.944436 0.139176 2.36629 2.70687
167 2 0.524709 0.238085 1.40669 2.44345
168 2 0.419727 12.092 2.42253 3.59952
169 1 -0.850789 5.0222 9.16303 1.66046
170 2 0.396391 5.87543 8.66157 1.8038
171 2 0.454398 4.77048 9.64017 2.50247
172 1 -1.02477 3.25047 5.03619 11.1826
173 2 0.460759 3.89226 5.80178 11.2272
174 2 0.564014 3.32145 4.49251 12.0189
175 1 -0.934514 3.12887 10.0586 6.9609
176 2 0.45812 2.3793 10.4769 6.44789
177 2 0.476394 2.96396 10.1683 7.94109
178 1 -1.00055 7.97128 3.24274 11.1657
179 2 0.466173 8.23305 2.28747 11.3034
180 2 0.534374 6.97767 3.30593 11.0722
181 1 -0.969225 10.9565 1.60654 5.22511
182 2 0.533095 10.3802 1.84832 6.00572
183 2 0.43613 10.4155 1.09608 4.55672
184 1 -0.99291 7.44655 11.7435 5.21217
185 2 0.546107 6.99566 11.3435 6.01009
186 2 0.446803 8.37621 11.3825 5.13874
187 1 -0.849586 9.75965 4.8205 4.7735
188 2 0.427269 9.81734 3.89612 4.39641
189 2 0.422316 10.2658 5.45223 4.18633
190 1 -1.0064 6.09365 10.1736 7.22548
191 2 0.484389 5.10729 10.0608 7.34548
192 2 0.522009 6.5588 9.98015 8.08933
