ITEM: TIMESTEP
0
ITEM: NUMBER OF ATOMS
192
ITEM: BOX BOUNDS pp pp pp
0.0000000000000000e+00 1.2400000000000000e+01
0.0000000000000000e+00 1.2400000000000000e+01
0.0000000000000000e+00 1.2400000000000000e+01
ITEM: ATOMS id type q x y z
1 1 -1.05372 11.1917 10.1394 2.3281
2 2 0.538905 10.2066 10.3108 2.31721
3 2 0.514816 11.4431 9.69432 3.18757
4 1 -0.901662 0.309739 8.70667 4.30497
5 2 0.463361 0.892425 8.26046 3.62572
6 2 0.438301 0.845526 8.90342 5.12609
7 1 -0.868911 4.16925 0.639449 0.651652
8 2 0.476248 3.46328 12.3839 0.38351
9 2 0.392663 3.73696 1.48088 0.975884
10 1 -0.832734 6.18583 12.3241 5.06807
11 2 0.456489 6.43199 11.5242 5.61533
12 2 0.376245 6.94787 0.571629 5.0627
13 1 -0.915279 10.2057 6.60208 9.14947
14 2 0.493264 10.4349 6.28757 8.22828
15 2 0.422015 10.6635 6.02203 9.82324
16 1 -0.88983 9.37157 1.1907 7.07955
17 2 0.412869 9.57305 1.66064 7.93895
18 2 0.476961 8.6579 1.68853 6.58676
19 1 -0.781856 6.50959 10.7512 9.89139
20 2 0.437765 5.82205 11.4234 9.61687
21 2 0.344091 7.3337 10.8722 9.33804
22 1 -0.883707 6.47967 8.62671 0.544695
23 2 0.429988 5.83063 8.21713 1.18578
24 2 0.453719 7.36992 8.18169 0.641713
25 1 -1.02367 1.7084 4.31016 8.46803
26 2 0.547558 1.87402 3.51359 9.04944
27 2 0.476116 1.06177 4.06656 7.74516
28 1 -0.820994 12.0783 2.82654 6.61617
29 2 0.428853 11.6288 1.99615 6.94547
30 2 0.392141 11.4605 3.60535 6.72449
31 1 -1.01236 4.5859 8.54146 11.0153
32 2 0.547536 5.39548 8.39223 11.583
33 2 0.464826 4.73714 9.33054 10.4199
34 1 -1.01884 2.42832 4.4729 4.83017
35 2 0.511429 2.27136 5.05211 4.03024
36 2 0.507407 2.20587 3.52458 4.60387
37 1 -0.801713 12.221 11.6518 10.6042
38 2 0.418939 0.0412399 10.8806 10.0069
39 2 0.382774 11.244 11.6398 10.8174
40 1 -0.896125 11.3195 5.09182 1.14697
41 2 0.449529 11.8135 5.08631 0.277478
42 2 0.446595 11.0862 4.15394 1.40372
43 1 -0.9139 10.6065 1.69699 0.438083
44 2 0.471131 10.2047 0.916392 12.3592
45 2 0.442769 11.5935 1.56229 0.52578
46 1 -0.859728 7.25753 2.94246 6.10002
47 2 0.420558 7.64355 3.80043 6.43895
48 2 0.43917 6.57573 3.13905 5.39539
49 1 -0.907141 5.31911 2.37083 3.0869
50 2 0.494341 6.24192 2.56654 2.75504
51 2 0.4128 5.37333 1.79413 3.90205
52 1 -0.978256 11.1312 5.99373 6.30162
53 2 0.443438 11.8855 6.54142 5.93967
54 2 0.534818 10.7108 5.47298 5.55856
55 1 -1.1328 8.42198 10.7271 2.55015
56 2 0.556919 7.94553 9.97961 3.01302
57 2 0.575881 7.78942 11.1932 1.93159
58 1 -0.922632 2.402 1.34429 5.87826
59 2 0.471277 2.02885 0.418652 5.8154
60 2 0.451356 1.66732 1.98554 6.09973
61 1 -0.933813 8.69525 10.6966 7.67583
62 2 0.49796 8.70683 11.6129 7.27563
63 2 0.435854 8.95632 10.7504 8.63965
64 1 -0.801767 9.90493 9.11889 5.4516
65 2 0.399959 10.7465 8.58978 5.34263
66 2 0.401808 9.75381 9.30874 6.42172
67 1 -0.885482 4.49448 3.28449 7.4229
68 2 0.446214 3.74349 3.89195 7.68177
69 2 0.439268 4.19834 2.68728 6.67749
70 1 -1.06171 2.79336 9.37464 8.53998
71 2 0.487759 3.63763 8.84626 8.45034
72 2 0.573952 2.05945 8.77781 8.86429
73 1 -0.9327 8.21812 2.94499 1.97861
74 2 0.462405 9.01466 2.67193 1.43919
75 2 0.470295 7.50716 3.29581 1.36913
76 1 -0.932411 9.59879 11.311 11.8711
77 2 0.498862 9.46554 10.4659 11.3534
78 2 0.433548 9.91155 11.0903 0.39488
79 1 -0.877551 2.29026 6.74237 6.46933
80 2 0.384175 2.00782 6.52032 7.40257
81 2 0.493376 2.64143 5.91948 6.02264
82 1 -0.993756 1.37993 7.11244 9.46819
83 2 0.457656 1.29516 7.0213 10.4604
84 2 0.5361 1.3727 6.20491 9.04826
85 1 -0.979138 3.83629 10.7957 3.62865
86 2 0.489141 4.67777 11.261 3.90318
87 2 0.489997 3.21484 10.742 4.41025
88 1 -0.958105 6.91192 0.000833426 0.787098
89 2 0.537843 5.98144 0.357025 0.701462
90 2 0.420262 7.19638 11.9988 12.3168
91 1 -0.921073 1.1544 1.8549 0.0246634
92 2 0.459263 1.32603 0.902235 12.1737
93 2 0.46181 1.41083 1.99927 0.980386
94 1 -0.825176 9.59317 7.43676 2.01854
95 2 0.457849 10.3452 6.81336 1.8044
96 2 0.367327 9.48596 7.50135 3.01068
97 1 -0.94409 6.26977 3.52565 12.1991
98 2 0.418301 6.21808 4.384 11.6887
99 2 0.525789 6.03697 2.76379 11.5946
100 1 -0.957635 5.56749 1.65459 10.1561
101 2 0.487564 4.61561 1.42066 10.3541
102 2 0.47007 5.72003 1.62287 9.16832
103 1 -0.995718 0.438078 0.268449 3.37686
104 2 0.491308 12.2584 0.257498 4.1916
105 2 0.50441 0.121215 11.9721 2.73291
106 1 -1.00605 2.42477 8.30819 0.401369
107 2 0.505758 1.47418 8.24615 0.0971819
108 2 0.500291 3.01951 8.44916 12.0099
109 1 -1.04311 2.34875 2.37097 2.71236
110 2 0.488938 3.33958 2.37268 2.84743
111 2 0.554172 1.96347 1.52521 3.08149
112 1 -0.854933 11.198 3.38356 10.1252
113 2 0.398516 11.5015 2.84302 10.9099
114 2 0.456417 10.2061 3.30144 10.0275
115 1 -0.952793 11.3323 11.6555 5.50067
116 2 0.523529 10.5979 12.1702 5.05816
117 2 0.429263 11.0171 10.7269 5.69693
118 1 -1.00429 8.99178 8.9566 10.2266
119 2 0.572823 9.19117 8.02211 9.93167
120 2 0.431464 8.05512 9.00395 10.5736
121 1 -0.922848 6.83422 8.62659 4.11189
122 2 0.479629 5.87163 8.50045 3.87204
123 2 0.44322 6.90595 8.89547 5.07239
124 1 -0.900583 2.11157 1.53985 9.21306
125 2 0.442082 1.59588 1.35111 10.0488
126 2 0.458501 2.71278 0.766828 9.01061
127 1 -0.8901 1.48761 5.14411 11.8369
128 2 0.442395 2.27324 5.66454 11.5023
129 2 0.447705 1.69342 4.16638 11.7956
130 1 -0.907163 4.53142 12.1581 7.9196
131 2 0.448395 4.91878 11.2725 7.66327
132 2 0.458768 3.9655 0.10366 7.17104
133 1 -0.837472 11.9236 9.17348 8.68673
134 2 0.377918 10.9428 9.33415 8.57667
135 2 0.459554 12.0827 8.20665 8.8866
136 1 -0.923245 1.95089 11.0012 1.05134
137 2 0.461863 2.59826 11.0666 1.81071
138 2 0.461382 1.70802 10.0427 0.901976
139 1 -0.977351 12.1844 8.62066 0.0991784
140 2 0.44484 11.2701 8.24934 12.3374
141 2 0.532512 12.1285 9.36751 0.761813
142 1 -0.753361 8.55505 5.81904 11.7274
143 2 0.39356 7.97669 5.59866 0.112808
144 2 0.359802 9.43191 5.34654 11.8161
145 1 -0.894649 2.64008 11.43 10.3833
146 2 0.486741 2.69917 10.9283 9.52031
147 2 0.407909 2.32086 10.8157 11.1049
148 1 -0.954057 7.80068 6.16677 6.47342
149 2 0.474112 7.1295 6.40164 5.7703
150 2 0.479945 8.71141 6.44986 6.1727
151 1 -0.891478 5.01265 5.73458 4.99924
152 2 0.433399 4.82175 6.58054 4.50134
153 2 0.458078 4.23977 5.10781 4.90013
154 1 -0.9593 1.63962 6.08514 2.32481
155 2 0.477639 2.27178 6.0891 1.54998
156 2 0.48166 0.76674 5.68835 2.04084
157 1 -0.985355 6.44881 4.95656 8.65015
158 2 0.515678 6.94861 5.25521 7.83713
159 2 0.469677 6.14288 4.01271 8.52538
160 1 -0.853263 4.2436 4.80897 1.44227
161 2 0.397703 3.95035 4.2478 2.21629
162 2 0.455561 4.65484 4.22394 0.743262
163 1 -0.828815 7.05899 5.79578 2.33531
164 2 0.433216 6.12959 5.62321 2.00905
165 2 0.395599 7.07863 6.65495 2.84662
166 1 -0.877774 11.6695 3.00089 3.30253
167 2 0.420791 0.201732 2.98757 2.94097
168 2 0.456983 11.3205 2.06546 3.35921
169 1 -1.04361 4.15944 8.03532 3.03353
170 2 0.520914 3.50144 7.57017 2.44135
171 2 0.522698 3.8373 8.96218 3.22633
172 1 -0.900948 4.1646 5.57304 10.5772
173 2 0.436275 4.88925 5.23341 9.97755
174 2 0.464673 4.15894 6.57288 10.5599
175 1 -0.995682 1.90329 10.844 6.04396
176 2 0.482771 0.933848 11.0326 6.20082
177 2 0.512912 2.28613 10.38 6.8428
178 1 -0.920102 8.41026 3.09735 9.74618
179 2 0.481827 7.9232 3.9289 9.47915
180 2 0.438275 7.79187 2.4972 10.2535
181 1 -0.993628 9.53032 0.624533 3.6533
182 2 0.432005 9.05093 1.49938 3.58379
183 2 0.561623 9.03856 12.3321 3.12539
184 1 -1.04001 6.05187 9.83787 6.78014
185 2 0.552402 5.664 8.97255 7.09761
186 2 0.487604 6.93262 9.99253 7.22778
187 1 -0.974713 9.83218 5.19157 3.83526
188 2 0.515188 10.0889 4.29595 3.472
189 2 0.459525 9.13296 5.60103 3.24923
190 1 -1.00241 4.91761 7.43636 7.78658
191 2 0.483277 4.07076 7.17848 7.32144
192 2 0.519135 5.53051 6.64712 7.82491
