ITEM: TIMESTEP
0
ITEM: NUMBER OF ATOMS
192
ITEM: BOX BOUNDS pp pp pp
0.0000000000000000e+00 1.2400000000000000e+01
0.0000000000000000e+00 1.2400000000000000e+01
0.0000000000000000e+00 1.2400000000000000e+01
ITEM: ATOMS id type q x y z
1 1 -0.81568 10.3736 12.2761 1.55112
2 2 0.357247 11.0762 12.3636 2.25732
3 2 0.458433 10.27 11.3133 1.30146
4 1 -0.768331 1.2244 7.38862 4.65345
5 2 0.464116 0.445202 7.8616 4.24217
6 2 0.304215 1.84335 8.05917 5.06243
7 1 -0.827208 3.60379 0.792237 1.71305
8 2 0.416329 3.75801 0.784822 2.70106
9 2 0.410879 3.60203 1.73621 1.38302
10 1 -0.93198 4.65068 0.793954 4.98508
11 2 0.436402 4.07868 12.3964 5.17683
12 2 0.495578 5.61324 0.522912 4.99072
13 1 -0.921113 9.94136 5.75578 8.73782
14 2 0.449639 10.1096 4.91321 8.22616
15 2 0.471474 9.97606 5.56285 9.71843
16 1 -1.08192 11.9674 2.64804 7.66911
17 2 0.616184 11.8496 3.49388 7.14884
18 2 0.465736 11.358 1.94437 7.3038
19 1 -0.79752 6.52731 10.6264 9.53207
20 2 0.417482 6.12893 9.76334 9.22166
21 2 0.380038 6.3287 11.3443 8.8648
22 1 -0.945697 6.43102 8.83283 12.3483
23 2 0.452818 6.23177 9.5519 11.6826
24 2 0.492879 6.68121 7.99282 11.8669
25 1 -1.06692 10.7374 8.07011 7.33066
26 2 0.521164 10.7318 7.71521 6.39577
27 2 0.54576 10.841 7.31192 7.97441
28 1 -0.983635 12.3387 5.09392 6.52894
29 2 0.506018 0.770231 5.2954 7.04667
30 2 0.477616 12.2373 5.75913 5.78921
31 1 -0.892095 4.60907 4.96828 9.36235
32 2 0.403495 4.89865 5.83221 8.95032
33 2 0.488601 3.68797 4.74057 9.04654
34 1 -0.869805 2.86037 5.4851 6.94764
35 2 0.514364 3.27275 4.61542 6.67631
36 2 0.355441 3.1552 6.20443 6.31864
37 1 -0.97169 11.4858 12.3147 9.71969
38 2 0.437211 11.1831 0.86355 9.80984
39 2 0.534479 11.9325 12.1901 8.83374
40 1 -1.01549 12.3101 3.56543 2.54239
41 2 0.506286 0.723476 3.92731 2.99788
42 2 0.509204 0.187053 2.93989 1.81299
43 1 -0.885251 8.07509 3.58546 11.0253
44 2 0.458124 8.51495 2.71904 11.2616
45 2 0.427128 8.25646 4.25797 11.7428
46 1 -0.918414 7.57299 1.76006 4.75325
47 2 0.498356 8.24906 2.251 4.20379
48 2 0.420059 7.52178 2.17056 5.66368
49 1 -1.08307 7.72248 5.77273 4.41647
50 2 0.546321 7.4801 6.49 3.76318
51 2 0.536753 6.97285 5.11408 4.48169
52 1 -0.944454 10.2797 6.96279 4.56133
53 2 0.477635 10.5807 6.9357 3.60809
54 2 0.466818 9.59083 6.25409 4.71363
55 1 -1.03168 7.17892 11.6085 2.4244
56 2 0.486022 7.62402 0.0912908 2.57446
57 2 0.545658 6.74815 11.6015 1.52196
58 1 -0.977322 1.375 1.78413 5.16462
59 2 0.537899 0.433649 1.77559 4.82729
60 2 0.439423 1.43684 2.38026 5.96513
61 1 -0.926226 9.88954 10.159 9.95766
62 2 0.509144 10.5135 10.9285 9.82135
63 2 0.417082 10.3626 9.30436 9.74351
64 1 -0.972718 9.06632 9.69519 3.53855
65 2 0.503021 9.67848 9.86847 4.31007
66 2 0.469697 8.45388 10.4763 3.41699
67 1 -1.11099 3.65669 2.81917 6.84116
68 2 0.536233 4.01043 2.06114 6.2932
69 2 0.574759 2.99525 2.47032 7.50509
70 1 -1.10642 5.50976 7.93156 8.24458
71 2 0.538306 4.8453 8.32337 7.6082
72 2 0.568117 6.32287 7.64072 7.74033
73 1 -0.908232 7.92159 1.81339 1.14458
74 2 0.469509 7.82435 1.18964 0.369019
75 2 0.438723 8.78453 1.62854 1.61486
76 1 -0.933228 8.78454 0.526792 11.076
77 2 0.499008 8.55132 12.1438 10.4994
78 2 0.43422 9.77909 0.611316 11.1371
79 1 -0.915473 3.73154 8.87864 6.25243
80 2 0.462248 2.90323 8.50577 6.67062
81 2 0.453224 3.50684 9.27185 5.36086
82 1 -0.979016 1.20619 8.9623 7.84354
83 2 0.513519 1.62031 8.50493 8.63051
84 2 0.465497 0.272153 8.62818 7.71729
85 1 -0.974622 2.22919 11.3979 4.1607
86 2 0.491122 1.93863 11.1916 3.22633
87 2 0.4835 1.79519 12.2458 4.46524
88 1 -0.936875 5.60119 12.0014 12.3676
89 2 0.476562 5.73369 12.1923 11.395
90 2 0.460314 4.66769 12.2448 0.2309
91 1 -0.99419 0.419938 1.75836 0.219131
92 2 0.46827 1.33945 2.13199 0.0971
93 2 0.525919 12.2836 1.91522 11.7898
94 1 -0.988012 11.7272 8.18259 2.29
95 2 0.471793 12.0095 9.0967 2.58104
96 2 0.51622 11.0326 8.26018 1.57479
97 1 -0.880724 4.99207 5.31018 0.532309
98 2 0.449315 4.58878 6.06001 1.05683
99 2 0.431409 5.29233 5.65046 12.0412
100 1 -0.863163 5.55466 1.98905 10.7545
101 2 0.398674 5.16777 2.58347 10.0495
102 2 0.464489 6.38554 2.40605 11.123
103 1 -0.886997 0.74495 11.2465 1.53941
104 2 0.41343 1.45093 11.1398 0.839266
105 2 0.473567 0.277762 12.1213 1.41112
106 1 -0.953653 2.58974 7.68757 9.89482
107 2 0.512678 2.61402 6.75262 10.2488
108 2 0.440975 3.48354 8.11667 10.0252
109 1 -0.903432 5.84862 3.85529 3.4015
110 2 0.437401 5.8952 3.80988 2.40362
111 2 0.466031 6.25589 3.02973 3.79213
112 1 -1.02068 11.5323 2.78139 10.4979
113 2 0.535909 11.7278 2.93607 9.52945
114 2 0.484776 11.5197 3.65768 10.9795
115 1 -0.848602 11.748 10.4757 4.68411
116 2 0.453619 11.0782 10.63 5.41048
117 2 0.394983 0.267581 10.4593 5.07663
118 1 -0.928969 9.6412 9.27366 0.32428
119 2 0.502859 9.63625 9.7092 11.8241
120 2 0.42611 8.70437 9.20755 0.667757
121 1 -0.874564 5.07451 10.1715 3.60291
122 2 0.371603 4.25428 10.7383 3.67982
123 2 0.50296 5.76458 10.655 3.06438
124 1 -0.932139 2.14734 1.79478 8.97707
125 2 0.500383 1.1576 1.91644 8.90206
126 2 0.431756 2.35872 1.29093 9.8146
127 1 -0.994006 2.81222 3.35408 12.3878
128 2 0.486671 3.791 3.23039 12.2244
129 2 0.507335 2.67477 4.09859 0.64107
130 1 -0.780151 3.96772 11.9488 7.9544
131 2 0.370402 4.12551 0.352005 8.52885
132 2 0.409749 4.79671 11.7428 7.43446
133 1 -0.937396 10.6231 5.56904 11.6829
134 2 0.478404 9.82104 5.67867 12.2699
135 2 0.458992 11.4413 5.86053 12.1785
136 1 -0.764614 0.212538 9.10045 11.1869
137 2 0.39599 1.07345 8.79029 10.7836
138 2 0.368623 0.382319 9.44691 12.1095
139 1 -0.88515 0.801685 5.87993 0.805184
140 2 0.407059 0.283403 5.1791 1.29531
141 2 0.478091 0.857137 6.70638 1.36546
142 1 -1.01135 8.27253 5.09898 1.25212
143 2 0.43254 7.40867 4.69533 0.950765
144 2 0.57881 8.09474 5.98389 1.68262
145 1 -0.800929 2.18306 11.328 10.8647
146 2 0.398219 2.34029 11.3037 9.87742
147 2 0.40271 1.34028 10.8348 11.0803
148 1 -0.833392 9.38945 3.76595 6.42903
149 2 0.412534 9.61385 3.94656 5.47142
150 2 0.420857 8.42122 3.52779 6.50532
151 1 -1.00322 7.8303 7.13679 6.76228
152 2 0.475049 8.77068 7.30142 7.05992
153 2 0.528172 7.83081 6.82972 5.81059
154 1 -0.934728 2.84542 3.75791 3.2809
155 2 0.492326 3.80592 4.01921 3.3767
156 2 0.442402 2.655 2.96829 3.8642
157 1 -0.987788 6.50828 3.38927 7.07739
158 2 0.533689 5.51802 3.34942 6.94397
159 2 0.454099 6.71428 3.94987 7.87944
160 1 -0.755058 4.36449 6.80153 3.2587
161 2 0.359014 3.66839 6.80855 3.97662
162 2 0.396044 4.47887 7.72648 2.89623
163 1 -1.1593 7.60189 7.74527 2.30361
164 2 0.545115 6.94598 8.21771 1.7149
165 2 0.614189 8.09875 8.4159 2.85443
166 1 -0.901032 11.0274 1.32414 4.95702
167 2 0.435521 10.3778 0.729276 5.43042
168 2 0.465511 10.5599 1.80471 4.21511
169 1 -0.745798 3.65652 9.65789 0.89787
170 2 0.377638 3.82446 10.1697 0.0553315
171 2 0.36816 4.03224 10.1627 1.67504
172 1 -0.833956 1.74186 4.73219 10.0029
173 2 0.358574 0.898657 5.21718 10.2348
174 2 0.475382 1.93243 4.04222 10.7012
175 1 -0.92404 0.78853 12.0104 7.44382
176 2 0.465359 1.26972 11.1896 7.75167
177 2 0.458681 1.38435 0.139073 6.83924
178 1 -0.763658 7.90018 0.751248 8.04052
179 2 0.378374 7.15243 1.27983 7.63867
180 2 0.385284 8.26439 1.23899 8.8339
181 1 -1.01402 9.49521 10.4723 6.50742
182 2 0.457622 8.70926 10.8525 6.99501
183 2 0.556397 9.8841 9.71907 7.03794
184 1 -0.85685 6.5154 10.7484 6.34628
185 2 0.437881 6.00932 9.89532 6.21949
186 2 0.418969 7.42444 10.6604 5.93896
187 1 -1.11214 9.44943 3.17127 3.14888
188 2 0.553923 10.3684 3.29873 2.77578
189 2 0.558218 8.82266 3.82243 2.72092
190 1 -0.92883 6.93647 6.69651 10.4875
191 2 0.479908 6.45621 7.16374 9.74522
192 2 0.448922 7.34745 5.85363 10.1402
