ITEM: TIMESTEP
0
ITEM: NUMBER OF ATOMS
192
ITEM: BOX BOUNDS pp pp pp
0.0000000000000000e+00 1.2400000000000000e+01
0.0000000000000000e+00 1.2400000000000000e+01
0.0000000000000000e+00 1.2400000000000000e+01
ITEM: ATOMS id type q x y z
1 1 -0.908832 0.0408379 2.07728 11.6276
2 2 0.499106 11.7681 2.62325 12.127
3 2 0.409726 0.608077 2.67948 11.0658
4 1 -0.901229 3.18384 7.69848 3.48074
5 2 0.520565 2.76254 6.7941 3.54863
6 2 0.380664 3.73574 7.74746 2.64827
7 1 -0.862133 2.76193 0.499454 4.47202
8 2 0.414791 3.38018 12.2322 4.0566
9 2 0.447342 2.70152 1.30772 3.8863
10 1 -0.919568 4.76616 2.51906 6.04916
11 2 0.444783 3.82773 2.86386 6.02736
12 2 0.474785 5.22669 2.85758 6.86972
13 1 -0.910515 11.8318 6.79158 9.88533
14 2 0.456014 11.5344 7.19957 10.7485
15 2 0.454501 11.156 6.98624 9.17438
16 1 -0.894679 11.1321 1.26813 7.93126
17 2 0.447179 11.9564 1.29362 7.36573
18 2 0.4475 11.1074 2.07526 8.52113
19 1 -0.955378 7.78721 10.3929 8.99567
20 2 0.392771 7.02419 10.9351 8.64382
21 2 0.562607 8.41802 10.9885 9.49297
22 1 -0.92992 2.95684 7.77122 12.2202
23 2 0.529013 2.12276 8.31289 12.1158
24 2 0.400907 2.90518 6.96314 11.6334
25 1 -0.934085 10.4164 7.54443 5.53035
26 2 0.470539 9.76172 7.33012 4.80547
27 2 0.463547 10.3982 8.52683 5.71624
28 1 -0.981246 0.302303 5.68157 6.43889
29 2 0.462007 0.886821 6.47616 6.60315
30 2 0.519239 11.8 5.98842 6.1362
31 1 -0.810189 2.71624 6.83859 9.07257
32 2 0.411063 3.10132 6.71829 8.15756
33 2 0.399126 1.72466 6.71435 9.03591
34 1 -0.88442 3.57929 5.84908 6.33353
35 2 0.470918 4.29192 5.83692 5.63209
36 2 0.413502 2.74778 5.42792 5.97129
37 1 -0.997317 9.37203 12.2369 10.3339
38 2 0.560393 9.19652 0.2977 11.2038
39 2 0.436924 9.68634 0.505587 9.65996
40 1 -0.869199 1.33256 2.9646 6.27948
41 2 0.478993 0.862098 3.84231 6.18837
42 2 0.390206 1.19032 2.4226 5.45123
43 1 -1.04049 5.69897 4.34887 10.8695
44 2 0.520675 5.72122 5.34697 10.812
45 2 0.519812 5.80545 3.95983 9.95441
46 1 -0.931189 6.48176 0.990569 4.29863
47 2 0.425467 5.95332 1.75621 4.66543
48 2 0.505721 5.86012 0.320524 3.89291
49 1 -0.928685 9.25869 6.03711 3.48746
50 2 0.530756 9.05753 5.2657 4.09116
51 2 0.397929 9.19276 5.74076 2.53465
52 1 -0.887311 11.7858 3.25008 3.26771
53 2 0.44405 11.2284 3.5631 2.49873
54 2 0.44326 11.1954 2.8365 3.9608
55 1 -0.732302 7.99492 10.3136 12.2749
56 2 0.368162 7.38631 9.71733 0.398365
57 2 0.36414 8.74435 9.77266 11.8932
58 1 -0.886417 0.23967 11.6506 6.11164
59 2 0.447797 0.687833 10.7947 6.36962
60 2 0.43862 0.89773 12.2455 5.65003
61 1 -0.84996 8.99783 7.53736 8.71062
62 2 0.404665 8.42017 6.80402 8.35212
63 2 0.445296 8.44767 8.3625 8.839
64 1 -0.907705 10.7861 9.47783 1.65084
65 2 0.505233 10.2319 10.1132 2.18855
66 2 0.402473 11.6643 9.90364 1.43285
67 1 -1.02622 6.25952 3.0566 8.36176
68 2 0.566327 6.96643 2.35752 8.25417
69 2 0.459891 6.52183 3.87688 7.8535
70 1 -0.884723 5.37435 8.73454 8.12559
71 2 0.466544 5.24574 9.53476 8.71134
72 2 0.418179 4.516 8.52177 7.65873
73 1 -0.982125 7.80777 5.41763 0.603175
74 2 0.491392 7.10904 5.84564 0.0299511
75 2 0.490733 7.36862 4.94598 1.36783
76 1 -0.860644 7.75142 2.18068 11.2773
77 2 0.426028 7.36821 3.10128 11.3524
78 2 0.434616 7.02593 1.50565 11.4115
79 1 -0.870391 2.31874 10.5005 8.67785
80 2 0.417498 2.5408 10.3274 9.6374
81 2 0.452893 3.14017 10.8042 8.19513
82 1 -0.875382 0.229248 8.75011 7.24556
83 2 0.436783 1.06619 9.10621 7.66115
84 2 0.438599 11.9018 8.72342 7.93125
85 1 -0.835291 3.46069 9.68239 5.7344
86 2 0.37419 4.06486 10.2674 5.19331
87 2 0.461101 3.46189 8.75816 5.35256
88 1 -0.840873 4.33369 10.3252 11.2702
89 2 0.405672 3.66145 10.8835 11.7564
90 2 0.435201 4.65693 9.59412 11.871
91 1 -0.945103 1.79965 2.13978 2.13341
92 2 0.429151 0.947082 2.65973 2.18626
93 2 0.515952 2.30162 2.40544 1.31033
94 1 -0.916536 0.697465 9.64524 3.47718
95 2 0.429409 0.369336 9.85097 4.39914
96 2 0.487127 0.696921 8.6552 3.33636
97 1 -1.00189 4.92479 6.08879 1.24842
98 2 0.487298 4.70854 5.11262 1.26646
99 2 0.514592 4.17361 6.58871 0.817348
100 1 -0.953421 5.08894 0.679145 10.6496
101 2 0.461795 5.35113 12.2926 10.0904
102 2 0.491626 4.64445 1.36469 10.073
103 1 -0.94324 11.9688 12.2442 1.93441
104 2 0.440734 12.3409 11.4586 2.42876
105 2 0.502506 0.148015 0.643475 2.09435
106 1 -0.81712 0.534027 5.01498 0.460751
107 2 0.412506 11.9531 5.05785 0.650279
108 2 0.404614 1.02551 5.58868 1.11597
109 1 -0.877316 5.42943 0.821627 1.09016
110 2 0.497418 5.39531 0.738304 0.0942155
111 2 0.379897 4.61562 0.398182 1.48816
112 1 -0.989643 10.0695 3.43125 0.317672
113 2 0.512011 9.71696 2.51417 0.504025
114 2 0.477632 9.30504 4.06805 0.216822
115 1 -0.82577 9.91108 0.855972 4.45674
116 2 0.399505 9.96858 0.395872 3.57074
117 2 0.426265 10.2546 0.246854 5.17158
118 1 -0.928989 0.457143 9.16631 11.9059
119 2 0.44341 11.9509 9.13996 12.3278
120 2 0.485578 0.380455 9.51853 10.9731
121 1 -1.02355 4.93583 10.9542 3.2174
122 2 0.592378 4.30063 10.8422 2.45321
123 2 0.431168 5.5247 10.1486 3.28219
124 1 -0.871753 2.8794 1.94349 8.97418
125 2 0.409532 3.01208 2.23503 8.02686
126 2 0.462221 2.08688 2.41552 9.36033
127 1 -0.911554 3.31617 3.41972 12.3353
128 2 0.391719 2.43561 3.79567 12.0467
129 2 0.519835 4.00711 3.61771 11.64
130 1 -0.865636 5.07814 11.7211 7.67722
131 2 0.406072 5.14802 11.214 6.81815
132 2 0.459564 4.8679 0.279161 7.48263
133 1 -0.871708 12.1841 6.93242 3.01136
134 2 0.406419 11.7271 7.4142 2.26367
135 2 0.465289 11.6453 7.02838 3.84833
136 1 -0.904207 11.8006 10.5897 9.45835
137 2 0.455422 11.2057 11.1697 10.0149
138 2 0.448785 0.221077 11.1013 9.20329
139 1 -0.976147 2.46543 5.05143 3.46626
140 2 0.515771 2.93203 4.27754 3.03801
141 2 0.460376 1.48839 4.85184 3.54077
142 1 -0.843375 9.98561 7.24462 12.3783
143 2 0.407805 9.95219 7.65274 0.890628
144 2 0.43557 9.3792 6.45011 12.3461
145 1 -0.937907 2.10397 12.3299 11.7543
146 2 0.516924 1.37517 0.599395 11.6107
147 2 0.420983 2.86564 0.128855 11.1376
148 1 -0.75838 9.77784 3.99141 8.88465
149 2 0.36063 9.052 4.53991 8.46954
150 2 0.39775 9.64438 3.95666 9.87509
151 1 -0.929661 6.95199 5.81886 7.27208
152 2 0.483232 6.31732 6.55123 7.02546
153 2 0.446428 7.55804 5.6288 6.49969
154 1 -0.869526 4.94006 3.24033 2.88946
155 2 0.496732 5.31995 2.68523 2.14949
156 2 0.372793 5.47622 3.0985 3.72159
157 1 -0.856074 9.19346 4.06928 5.59929
158 2 0.418704 10.1225 3.89131 5.92376
159 2 0.43737 8.5543 3.45892 6.0672
160 1 -0.898392 5.96841 6.32104 4.52419
161 2 0.485298 6.48087 7.11115 4.18785
162 2 0.413094 5.38592 5.96574 3.79312
163 1 -0.85997 6.78825 8.16209 2.06551
164 2 0.379525 7.70393 7.79274 1.90707
165 2 0.480445 6.10738 7.54748 1.66717
166 1 -0.963988 8.22958 1.54587 7.12616
167 2 0.458001 7.80945 1.32287 6.24652
168 2 0.505987 9.06762 1.01229 7.24011
169 1 -1.0329 2.95432 10.5564 1.43408
170 2 0.529481 2.41587 10.7872 0.623631
171 2 0.503423 2.34859 10.204 2.14746
172 1 -0.944617 0.789353 4.09304 9.44953
173 2 0.495427 0.497381 4.84762 10.0372
174 2 0.449191 0.528648 4.28696 8.50379
175 1 -0.911981 9.85356 10.447 6.59533
176 2 0.510731 10.6316 10.8783 7.05218
177 2 0.401251 9.09843 10.3496 7.24363
178 1 -0.882192 8.49815 2.95698 2.69391
179 2 0.45282 8.75891 2.23639 2.05145
180 2 0.429372 8.15105 2.54349 3.53566
181 1 -0.881195 8.60108 10.7106 3.35312
182 2 0.416354 8.34112 11.5749 3.78375
183 2 0.464841 8.13254 9.95549 3.81171
184 1 -0.8346 7.42354 8.72276 5.45556
185 2 0.428998 8.19218 9.15545 5.9267
186 2 0.405601 6.58492 8.87158 5.97956
187 1 -1.0237 9.28081 0.644519 1.08862
188 2 0.515982 10.1723 0.228646 1.26812
189 2 0.507719 8.55689 12.3976 1.32829
190 1 -0.917762 5.99515 7.10257 10.6053
191 2 0.397163 6.79616 7.66258 10.8169
192 2 0.520598 5.59073 7.41113 9.74438
