ITEM: TIMESTEP
0
ITEM: NUMBER OF ATOMS
192
ITEM: BOX BOUNDS pp pp pp
0.0000000000000000e+00 1.2400000000000000e+01
0.0000000000000000e+00 1.2400000000000000e+01
0.0000000000000000e+00 1.2400000000000000e+01
ITEM: ATOMS id type q x y z
1 1 -1.03986 12.3343 0.747969 10.8963
2 2 0.53354 0.21117 1.56896 11.3956
3 2 0.506316 12.1216 0.989488 9.94949
4 1 -0.810844 3.04544 7.58077 2.99078
5 2 0.389952 2.12018 7.22724 2.85324
6 2 0.420891 3.71063 6.91146 2.65981
7 1 -0.912086 2.97773 1.35207 4.55915
8 2 0.495951 3.06487 0.618277 5.23292
9 2 0.416136 2.72961 0.962481 3.67221
10 1 -1.05495 6.49649 3.04294 5.90312
11 2 0.601735 6.75228 4.00339 5.79305
12 2 0.453213 5.60706 2.98471 6.35648
13 1 -0.88877 10.6755 6.74608 9.40359
14 2 0.437017 10.477 5.81709 9.0912
15 2 0.451753 10.1559 6.93576 10.2367
16 1 -1.00183 11.3607 1.50437 8.04208
17 2 0.484429 10.6796 0.787861 7.89098
18 2 0.517399 11.0738 2.34076 7.57499
19 1 -1.02261 6.73467 8.98746 11.418
20 2 0.570884 6.58075 8.82783 12.3931
21 2 0.451723 7.67937 8.75451 11.1871
22 1 -0.776251 2.65914 6.70232 11.3066
23 2 0.423942 3.54886 6.50539 10.8948
24 2 0.35231 2.08291 7.17944 10.6431
25 1 -1.00209 9.8238 8.24724 4.49204
26 2 0.599872 9.43379 8.36461 5.40534
27 2 0.402218 10.617 7.64051 4.54377
28 1 -1.01787 0.53447 6.6736 7.07535
29 2 0.486842 0.215944 7.54621 7.44562
30 2 0.531026 0.5746 5.99503 7.80879
31 1 -0.872438 3.50745 8.27739 7.96847
32 2 0.398522 3.50648 7.34082 8.31894
33 2 0.473916 2.56697 8.56886 7.79367
34 1 -0.837373 4.19316 5.6532 5.70925
35 2 0.404666 5.0559 6.12739 5.53366
36 2 0.432706 3.57718 5.78323 4.93229
37 1 -0.934158 9.6151 12.2213 10.9878
38 2 0.433533 8.91708 0.42252 10.5987
39 2 0.500625 10.5213 0.207259 10.815
40 1 -0.836793 0.760267 3.70802 6.0416
41 2 0.396207 0.923941 4.42934 6.71459
42 2 0.440586 1.45848 2.9985 6.13696
43 1 -0.876328 4.47805 3.63231 11.5095
44 2 0.419556 4.83467 3.36866 0.0058
45 2 0.456772 4.84223 3.0159 10.8113
46 1 -1.08574 7.55074 1.14948 4.28943
47 2 0.60669 7.11923 1.86986 4.83244
48 2 0.479047 7.11337 0.273022 4.49074
49 1 -1.00981 8.68792 6.42264 2.50197
50 2 0.502522 9.11443 6.83174 3.30864
51 2 0.507285 8.71885 5.426 2.57784
52 1 -0.99856 12.038 3.48276 3.12083
53 2 0.51413 11.7368 2.75979 2.49903
54 2 0.48443 11.9702 3.1601 4.06492
55 1 -0.863925 6.58661 12.2442 0.59409
56 2 0.419524 6.60499 11.5328 12.2916
57 2 0.444401 6.95165 0.695153 0.216342
58 1 -0.932014 0.0836508 0.166423 5.05938
59 2 0.482519 0.476948 11.6482 5.10545
60 2 0.449495 0.80458 0.84522 5.19903
61 1 -0.99215 9.83088 4.17464 8.02236
62 2 0.430858 9.84998 4.4993 7.07672
63 2 0.561292 8.90329 3.88313 8.25604
64 1 -0.912403 9.32403 10.2778 0.626115
65 2 0.430777 10.1807 10.6561 0.976813
66 2 0.481626 9.05272 10.7749 12.202
67 1 -0.876399 4.18478 4.30073 8.43107
68 2 0.431191 4.02409 4.45026 7.45545
69 2 0.445209 4.55168 5.13611 8.84035
70 1 -1.01915 6.23439 9.4494 8.58671
71 2 0.526613 6.20357 9.52836 9.58312
72 2 0.492533 5.76844 8.6109 8.30421
73 1 -0.828024 7.27741 5.47556 12.1758
74 2 0.425101 8.13073 5.11881 11.7955
75 2 0.402922 7.43858 5.80325 0.706703
76 1 -0.836902 7.83749 2.43939 12.1059
77 2 0.389941 8.35424 2.40171 0.561161
78 2 0.446961 8.42007 2.80562 11.3803
79 1 -0.843645 3.70411 11.0194 8.8336
80 2 0.394107 3.12394 11.0685 9.64662
81 2 0.449537 4.23911 10.1749 8.85635
82 1 -0.883542 0.963946 9.66859 8.28165
83 2 0.380774 1.7354 10.1145 8.7355
84 2 0.502768 0.164633 10.2685 8.31636
85 1 -0.941972 2.94878 11.2133 5.64879
86 2 0.455987 2.29764 10.5262 5.97119
87 2 0.485985 3.82997 11.0756 6.10105
88 1 -0.8873 3.76868 9.56308 0.441739
89 2 0.439118 3.20978 9.90508 12.0863
90 2 0.448182 3.45652 8.64884 0.700056
91 1 -0.885518 1.57537 1.55213 1.70053
92 2 0.419892 1.6632 2.11718 0.880159
93 2 0.465626 2.38157 0.967348 1.79039
94 1 -0.792445 0.672364 9.34112 5.15304
95 2 0.432088 0.858886 8.35959 5.11061
96 2 0.360357 12.0902 9.49856 5.0498
97 1 -0.932585 5.03333 5.94875 1.40496
98 2 0.477103 5.68073 5.70227 0.683768
99 2 0.455482 4.54993 5.12943 1.71324
100 1 -0.957723 6.10481 0.615776 8.71404
101 2 0.486949 5.37773 0.688248 9.39677
102 2 0.470774 5.85894 12.3215 8.03766
103 1 -0.848403 0.0392097 11.1403 1.68255
104 2 0.483862 0.624984 11.6791 2.28804
105 2 0.36454 0.0274412 11.5563 0.773258
106 1 -0.912437 11.9403 5.36668 0.691946
107 2 0.420083 12.0258 4.56741 1.28681
108 2 0.492354 11.9246 6.19684 1.24926
109 1 -0.84006 4.37644 0.584685 11.258
110 2 0.434611 4.7302 0.496452 12.1891
111 2 0.405449 3.50668 0.0967397 11.1842
112 1 -0.883103 10.4333 3.67269 10.8806
113 2 0.452807 10.7457 4.03058 10.0006
114 2 0.430296 10.8167 4.22555 11.6204
115 1 -1.06547 10.3386 1.84243 5.161
116 2 0.473654 9.54659 1.50498 4.65218
117 2 0.591819 11.0518 1.14159 5.17074
118 1 -0.886015 11.9059 8.26744 1.81064
119 2 0.402589 11.3503 8.04178 2.61087
120 2 0.483426 0.0934109 9.04854 2.02225
121 1 -0.912954 6.00656 10.6547 3.31029
122 2 0.431662 6.60152 11.2099 2.72918
123 2 0.481292 5.82709 9.7785 2.86293
124 1 -0.770051 2.01302 1.3977 8.07011
125 2 0.372749 2.18153 0.448528 8.33598
126 2 0.397302 1.038 1.6009 8.15979
127 1 -1.05014 1.60348 3.26655 11.6416
128 2 0.477088 1.23821 4.09228 12.0714
129 2 0.573048 2.5862 3.3755 11.4919
130 1 -0.908169 6.07205 11.2363 6.36277
131 2 0.403475 6.67403 11.0906 5.57765
132 2 0.504694 6.19207 10.4902 7.01777
133 1 -0.983344 0.116259 6.17293 4.32561
134 2 0.481327 0.61256 5.34187 4.07454
135 2 0.502018 0.217069 6.33783 5.30676
136 1 -0.968548 0.17386 8.4646 11.2047
137 2 0.486564 12.1546 7.74841 10.6468
138 2 0.481984 0.263114 8.14336 12.1475
139 1 -0.881282 2.358 4.28966 3.00623
140 2 0.402185 2.97035 3.56194 2.69727
141 2 0.479097 1.46467 3.90053 3.23109
142 1 -0.946319 9.38762 7.62957 11.9785
143 2 0.410998 9.14149 6.90084 0.217508
144 2 0.535321 9.62046 8.45678 0.0898435
145 1 -1.08143 1.77122 10.8479 11.0804
146 2 0.506659 1.20641 11.6731 11.0723
147 2 0.57477 1.19447 10.0476 10.9165
148 1 -0.940186 7.24609 3.47017 8.87062
149 2 0.463228 6.35105 3.76542 8.53633
150 2 0.476958 7.28084 2.471 8.89224
151 1 -1.0403 7.40061 5.59082 5.86278
152 2 0.51209 7.34676 6.58119 5.73523
153 2 0.528209 8.25186 5.24922 5.46443
154 1 -0.833367 5.21348 2.69094 2.35954
155 2 0.413978 4.91551 2.76667 3.31111
156 2 0.41939 5.84349 1.91978 2.26788
157 1 -1.03074 9.85092 4.78971 4.83878
158 2 0.51494 10.8101 5.01417 4.66658
159 2 0.5158 9.75887 3.80349 4.9763
160 1 -0.844647 6.07342 8.1438 5.43919
161 2 0.448036 6.11463 8.85221 4.73458
162 2 0.39661 5.12706 7.84134 5.55282
163 1 -1.00372 6.71628 8.32146 1.85137
164 2 0.511847 7.57251 8.06938 2.30229
165 2 0.491875 6.16675 7.50044 1.69663
166 1 -0.984251 8.95765 0.196581 7.47119
167 2 0.498057 8.01494 12.2773 7.56788
168 2 0.486195 9.01281 0.848792 6.71515
169 1 -1.01658 3.1703 11.6672 2.27953
170 2 0.51518 3.43542 11.1298 1.4789
171 2 0.501405 3.53422 11.2365 3.10542
172 1 -0.924246 1.11386 4.81956 9.21979
173 2 0.459245 1.99914 4.4816 8.90031
174 2 0.465 0.767822 4.21846 9.94017
175 1 -0.936726 10.6086 10.5431 8.78239
176 2 0.49675 9.96487 11.2266 8.43821
177 2 0.439975 10.4495 10.3973 9.75885
178 1 -0.874036 8.31873 3.28414 2.81973
179 2 0.369331 9.20635 3.12624 2.38706
180 2 0.504705 7.99041 2.43214 3.22755
181 1 -0.835414 9.29555 11.2048 3.49437
182 2 0.44937 9.62347 10.3111 3.80061
183 2 0.386043 8.75704 11.0939 2.65907
184 1 -0.982354 9.05606 8.69672 7.11682
185 2 0.503322 9.86004 8.82008 7.69854
186 2 0.479032 8.23239 8.93405 7.63183
187 1 -0.886462 10.4495 1.30253 1.87662
188 2 0.405228 10.9497 0.860594 1.13194
189 2 0.481234 9.90512 0.619705 2.36384
190 1 -0.966042 5.31972 6.59781 10.0398
191 2 0.461814 5.42868 7.46215 10.5307
192 2 0.504228 6.01825 5.95065 10.3451
