ITEM: TIMESTEP
0
ITEM: NUMBER OF ATOMS
192
ITEM: BOX BOUNDS pp pp pp
0.0000000000000000e+00 1.2400000000000000e+01
0.0000000000000000e+00 1.2400000000000000e+01
0.0000000000000000e+00 1.2400000000000000e+01
ITEM: ATOMS id type q x y z
1 1 -0.998433 0.262671 11.9803 12.0536
2 2 0.450949 0.171088 12.0644 0.645821
3 2 0.547484 11.7546 11.9241 11.6386
4 1 -0.915089 3.24899 9.85761 1.2168
5 2 0.462742 2.6571 10.3051 1.88716
6 2 0.452346 3.7135 9.08332 1.64658
7 1 -0.87492 3.5914 2.80658 7.72698
8 2 0.475841 2.72417 3.142 8.09497
9 2 0.399078 3.80568 1.91912 8.13502
10 1 -0.885459 8.55996 4.55633 9.86796
11 2 0.483269 9.20586 3.7995 9.76777
12 2 0.40219 7.74201 4.37078 9.32341
13 1 -0.949027 9.56212 6.81104 7.02147
14 2 0.509576 10.4673 7.20067 7.1911
15 2 0.439451 9.24337 6.33838 7.84305
16 1 -0.966197 0.394153 0.915054 7.65222
17 2 0.526612 0.675591 1.16285 8.57925
18 2 0.439585 0.0657252 1.72989 7.17454
19 1 -0.779309 8.31286 7.81865 10.2803
20 2 0.379873 7.72471 7.2595 9.69592
21 2 0.399437 8.3487 7.4196 11.1965
22 1 -0.92273 2.1833 7.24716 10.0982
23 2 0.459658 2.01101 8.22019 9.9448
24 2 0.463071 2.44785 6.81548 9.23581
25 1 -0.825737 9.09932 5.4969 3.28749
26 2 0.384077 8.23919 5.77588 3.71451
27 2 0.44166 9.714 6.28366 3.23099
28 1 -0.953476 12.0658 8.24071 6.3905
29 2 0.50352 12.2821 7.32404 6.05447
30 2 0.449955 0.496992 8.7966 6.40117
31 1 -0.85605 2.81454 7.89389 7.18772
32 2 0.378453 3.29779 8.72512 6.91288
33 2 0.477597 3.46436 7.13658 7.25269
34 1 -0.752249 2.28913 7.30812 3.66831
35 2 0.40113 2.61363 6.45244 4.07144
36 2 0.351119 1.4236 7.57046 4.09498
37 1 -0.87223 9.71082 11.534 11.4399
38 2 0.427389 9.72583 10.64 11.8876
39 2 0.444841 8.9234 11.5861 10.8256
40 1 -0.923919 4.71416 5.61433 7.38576
41 2 0.461509 5.38903 5.80112 6.67185
42 2 0.46241 4.17697 4.80925 7.13422
43 1 -0.869104 3.1714 3.43176 1.84236
44 2 0.453566 3.03007 2.445 1.92188
45 2 0.415538 2.41346 3.83693 1.33112
46 1 -0.824933 6.69228 2.66115 4.49675
47 2 0.414661 5.8232 2.1665 4.49055
48 2 0.410273 7.44093 2.02187 4.32108
49 1 -1.04702 5.87949 4.36469 11.9181
50 2 0.597457 6.768 3.91567 12.0125
51 2 0.449565 5.49366 4.53439 0.424891
52 1 -0.960557 0.16898 5.5232 5.69182
53 2 0.481146 11.7781 4.92504 5.82125
54 2 0.479411 0.744194 5.16122 4.95826
55 1 -0.965211 7.44824 0.0618096 0.507271
56 2 0.444541 7.97446 12.0121 1.22895
57 2 0.52067 6.88395 11.7847 0.0349
58 1 -0.893792 1.15591 1.07783 2.92502
59 2 0.455251 2.02241 1.41173 3.2961
60 2 0.438541 1.18303 0.0802477 2.86103
61 1 -0.880115 1.42549 4.88446 8.23843
62 2 0.479312 1.1208 4.95935 7.28892
63 2 0.400803 0.972666 5.58493 8.79006
64 1 -0.924021 9.25738 9.07878 0.892432
65 2 0.380298 9.66979 8.455 0.22849
66 2 0.543722 8.30523 8.81654 1.04944
67 1 -0.87051 3.21475 3.88428 10.9126
68 2 0.428915 3.99256 4.05143 11.5184
69 2 0.441595 2.73131 4.74366 10.7459
70 1 -0.952983 5.18548 9.18336 9.15123
71 2 0.55767 4.92454 8.2748 9.47746
72 2 0.395313 6.12059 9.15485 8.79801
73 1 -0.884242 11.1868 6.01208 9.83304
74 2 0.410545 11.36 5.06806 9.55223
75 2 0.473696 10.4949 6.02356 10.5549
76 1 -0.998925 8.13376 2.66745 12.3893
77 2 0.58135 7.70662 1.79807 12.1408
78 2 0.417574 8.88753 2.49899 0.62448
79 1 -0.924176 4.41871 12.1086 8.60001
80 2 0.487408 4.2775 11.1227 8.51007
81 2 0.436768 4.0097 0.0273 9.45509
82 1 -1.10688 1.37929 10.8896 6.53069
83 2 0.534252 1.71494 10.3731 7.31845
84 2 0.572628 0.921487 11.7203 6.84729
85 1 -0.888158 3.27275 0.892286 4.98848
86 2 0.407981 3.25072 0.969381 5.98526
87 2 0.480177 3.85241 0.120665 4.72656
88 1 -0.935995 5.74169 10.3229 11.8437
89 2 0.457323 4.86928 10.2688 12.3295
90 2 0.478672 5.61391 10.0318 10.8956
91 1 -0.842472 11.0718 1.95092 0.97679
92 2 0.421393 10.742 2.22177 0.0723994
93 2 0.421079 11.7614 2.60405 1.28953
94 1 -0.851659 11.0068 10.7587 5.30963
95 2 0.374576 11.3281 11.6922 5.46849
96 2 0.477083 11.4432 10.1402 5.96318
97 1 -0.802286 12.2096 5.02026 2.64457
98 2 0.41043 11.814 5.26439 1.75917
99 2 0.391856 12.1245 5.79394 3.2724
100 1 -0.945906 7.31886 12.2822 9.49018
101 2 0.447168 6.51371 11.7804 9.17395
102 2 0.498739 7.037 0.592017 10.1357
103 1 -0.870789 11.4998 10.8287 2.3569
104 2 0.486336 10.7697 10.2282 2.03053
105 2 0.384453 11.1637 11.7696 2.39884
106 1 -0.92516 9.74604 5.41718 0.0377387
107 2 0.476217 9.22946 5.21857 0.870625
108 2 0.448943 9.49826 4.75895 11.7269
109 1 -0.983104 3.04592 12.0338 11.4483
110 2 0.471186 3.44023 11.9222 12.3604
111 2 0.511918 2.04906 12.071 11.5183
112 1 -0.981123 10.7305 2.55176 9.76596
113 2 0.407346 11.7066 2.40251 9.92387
114 2 0.573777 10.4322 2.00585 8.98302
115 1 -0.853884 12.0741 2.35812 5.36187
116 2 0.376832 11.3756 1.78903 5.79569
117 2 0.477053 12.3334 1.95612 4.48372
118 1 -0.889907 11.3842 7.96106 3.30746
119 2 0.451275 11.9769 8.06961 2.50935
120 2 0.438631 11.5226 8.7294 3.93237
121 1 -0.945991 6.75081 7.52558 0.994063
122 2 0.507519 6.40227 6.73381 1.4957
123 2 0.438472 6.08359 7.80211 0.302437
124 1 -0.922113 5.66926 1.69163 10.8662
125 2 0.472815 5.72276 2.68996 10.8441
126 2 0.449297 4.715 1.41116 10.9698
127 1 -0.838677 0.802447 5.25402 11.9448
128 2 0.370093 12.226 5.25319 11.7292
129 2 0.468583 1.18887 6.15269 11.7373
130 1 -0.902462 7.59605 11.9987 6.40777
131 2 0.427964 8.14658 12.3503 7.16492
132 2 0.474498 7.83285 11.0418 6.23975
133 1 -0.943022 1.9598 10.8505 3.78751
134 2 0.586082 1.69161 10.9464 4.7461
135 2 0.35694 1.14781 10.6783 3.22981
136 1 -0.8743 0.610353 8.13808 0.637387
137 2 0.447635 0.0029 8.16561 12.2435
138 2 0.426665 1.28687 8.87095 0.564996
139 1 -0.835768 2.89353 3.94841 4.96747
140 2 0.461237 3.15212 3.1213 5.4665
141 2 0.374531 2.42941 3.69436 4.11891
142 1 -0.980009 11.6793 8.93773 10.2256
143 2 0.529881 11.0094 9.34695 9.6061
144 2 0.450128 11.6728 7.94396 10.1143
145 1 -0.935026 1.83086 10.2583 9.41387
146 2 0.471365 1.00557 9.8647 9.81879
147 2 0.463661 2.36323 10.7193 10.1238
148 1 -0.856714 6.64452 2.16791 7.80575
149 2 0.395278 6.18709 3.0553 7.74828
150 2 0.461436 5.98451 1.47006 8.08395
151 1 -0.900204 5.89637 5.29861 2.67026
152 2 0.475312 6.09537 5.4174 3.64303
153 2 0.424892 5.17175 4.61851 2.55887
154 1 -0.980412 5.732 11.6464 4.13082
155 2 0.454283 6.48345 11.8234 3.4952
156 2 0.526129 6.06859 11.7084 5.07043
157 1 -0.976345 8.82211 3.8368 5.9162
158 2 0.447233 9.04587 4.76248 5.61115
159 2 0.529113 7.88454 3.61503 5.64826
160 1 -0.885683 5.1205 8.66428 4.13986
161 2 0.454333 5.70449 9.45141 3.9414
162 2 0.43135 4.16087 8.92833 4.04295
163 1 -0.820343 3.41165 6.91102 1.00131
164 2 0.434783 2.60579 7.47125 1.19298
165 2 0.38556 3.28503 5.99978 1.39325
166 1 -1.1086 9.44328 1.65208 7.53215
167 2 0.56279 9.45985 2.36555 6.83165
168 2 0.545807 8.50612 1.52608 7.8575
169 1 -0.848353 4.26962 0.69681 1.7841
170 2 0.393491 4.84077 1.19496 1.1317
171 2 0.454862 4.8498 0.274825 2.48075
172 1 -0.976853 1.26171 1.68402 10.2724
173 2 0.505678 1.63843 2.59858 10.4196
174 2 0.471175 0.958099 1.30398 11.1461
175 1 -0.819422 10.2024 10.6792 8.4921
176 2 0.43395 10.3296 11.6626 8.36316
177 2 0.385472 9.34874 10.5155 8.98655
178 1 -0.952061 9.72307 1.89253 3.65226
179 2 0.468687 10.2554 2.01744 2.81501
180 2 0.483375 9.4581 2.78587 4.01521
181 1 -0.932295 8.55443 9.21033 5.95761
182 2 0.46463 9.33825 9.65709 5.5263
183 2 0.467665 8.86166 8.38866 6.43769
184 1 -0.99358 6.6745 6.36992 5.32263
185 2 0.455409 7.57405 6.71653 5.5885
186 2 0.538171 6.1944 7.06485 4.7873
187 1 -0.88675 8.70043 11.6422 3.42182
188 2 0.394917 9.49096 11.0464 3.27994
189 2 0.491833 9.01407 0.159263 3.66795
190 1 -0.971772 5.07696 6.81716 10.6752
191 2 0.51797 5.42788 5.91064 10.9099
192 2 0.453802 4.21961 6.97944 11.1637
