ITEM: TIMESTEP
0
ITEM: NUMBER OF ATOMS
2162
ITEM: BOX BOUNDS pp pp ff
0.0000000000000000e+00 5.2951974149999998e+01
0.0000000000000000e+00 6.1143673049999997e+01
0.0000000000000000e+00 6.0000000000000000e+01
ITEM: ATOMS id mol type q x y z
1 1 1 0.00018039535846 0.00000000 0.00000000 25.00000000
2 1 1 0.000182083365676 1.47088817 2.54765304 25.00000000
3 1 1 0.000185869194385 0.00000000 5.09530609 25.00000000
4 1 1 0.00019315280769 1.47088817 7.64295913 25.00000000
5 1 1 0.000201990971278 0.00000000 10.19061218 25.00000000
6 1 1 0.000214620319105 1.47088817 12.73826522 25.00000000
7 1 1 0.000227262235316 0.00000000 15.28591827 25.00000000
8 1 1 0.000244036337173 1.47088817 17.83357131 25.00000000
9 1 1 0.000181568081557 2.94177634 0.00000000 25.00000000
10 1 1 0.000184579345686 4.41266451 2.54765304 25.00000000
11 1 1 0.000187396945762 2.94177634 5.09530609 25.00000000
12 1 1 0.000197159644637 4.41266451 7.64295913 25.00000000
13 1 1 0.000204748201261 2.94177634 10.19061218 25.00000000
14 1 1 0.000222472686414 4.41266451 12.73826522 25.00000000
15 1 1 0.000232720650437 2.94177634 15.28591827 25.00000000
16 1 1 0.000259787143591 4.41266451 17.83357131 25.00000000
17 1 1 0.000184994940416 5.88355268 0.00000000 25.00000000
18 1 1 0.000189387532818 7.35444085 2.54765304 25.00000000
19 1 1 0.000191898784202 5.88355268 5.09530609 25.00000000
20 1 1 0.000205101545898 7.35444085 7.64295913 25.00000000
21 1 1 0.000213130646874 5.88355268 10.19061218 25.00000000
22 1 1 0.000239079556955 7.35444085 12.73826522 25.00000000
23 1 1 0.000250204387834 5.88355268 15.28591827 25.00000000
24 1 1 0.000295104333654 7.35444085 17.83357131 25.00000000
25 1 1 0.000190393880642 8.82532903 0.00000000 25.00000000
26 1 1 0.000196123627617 10.29621720 2.54765304 25.00000000
27 1 1 0.000199120112425 8.82532903 5.09530609 25.00000000
28 1 1 0.000216800511367 10.29621720 7.64295913 25.00000000
29 1 1 0.000227454167124 8.82532903 10.19061218 25.00000000
30 1 1 0.000265906904287 10.29621720 12.73826522 25.00000000
31 1 1 0.000282590756039 8.82532903 15.28591827 25.00000000
32 1 1 0.000353906311373 10.29621720 17.83357131 25.00000000
33 1 1 0.0001972749005 11.76710537 0.00000000 25.00000000
34 1 1 0.000204178632958 13.23799354 2.54765304 25.00000000
35 1 1 0.000208594025251 11.76710537 5.09530609 25.00000000
36 1 1 0.000231802287837 13.23799354 7.64295913 25.00000000
37 1 1 0.000247989577023 11.76710537 10.19061218 25.00000000
38 1 1 0.00030344507086 13.23799354 12.73826522 25.00000000
39 1 1 0.000331954937671 11.76710537 15.28591827 25.00000000
40 1 1 0.000430399982556 13.23799354 17.83357131 25.00000000
41 1 1 0.0002049319534 14.70888171 0.00000000 25.00000000
42 1 1 0.000212704261772 16.17976988 2.54765304 25.00000000
43 1 1 0.000219557409611 14.70888171 5.09530609 25.00000000
44 1 1 0.000248999117172 16.17976988 7.64295913 25.00000000
45 1 1 0.000274131512989 14.70888171 10.19061218 25.00000000
46 1 1 0.000348494718979 16.17976988 12.73826522 25.00000000
47 1 1 0.000394047568454 14.70888171 15.28591827 25.00000000
48 1 1 0.000502749164827 16.17976988 17.83357131 25.00000000
49 1 1 2.87656005346e-05 1.47088817 0.84921768 27.40195032
50 1 1 2.92499779162e-05 2.94177634 3.39687073 27.40195032
51 1 1 2.98491089554e-05 1.47088817 5.94452377 27.40195032
52 1 1 3.11869181676e-05 2.94177634 8.49217681 27.40195032
53 1 1 3.24309983878e-05 1.47088817 11.03982986 27.40195032
54 1 1 3.4621442192e-05 2.94177634 13.58748290 27.40195032
55 1 1 3.62032389332e-05 1.47088817 16.13513595 27.40195032
56 1 1 3.94434998305e-05 2.94177634 18.68278899 27.40195032
57 1 1 2.91088729782e-05 4.41266451 0.84921768 27.40195032
58 1 1 2.98049768353e-05 5.88355268 3.39687073 27.40195032
59 1 1 3.03023958069e-05 4.41266451 5.94452377 27.40195032
60 1 1 3.20638284897e-05 5.88355268 8.49217681 27.40195032
61 1 1 3.32331753121e-05 4.41266451 11.03982986 27.40195032
62 1 1 3.65880030336e-05 5.88355268 13.58748290 27.40195032
63 1 1 3.81021587121e-05 4.41266451 16.13513595 27.40195032
64 1 1 4.44378444524e-05 5.88355268 18.68278899 27.40195032
65 1 1 2.97625260422e-05 7.35444085 0.84921768 27.40195032
66 1 1 3.06735299513e-05 8.82532903 3.39687073 27.40195032
67 1 1 3.1180299088e-05 7.35444085 5.94452377 27.40195032
68 1 1 3.35732009913e-05 8.82532903 8.49217681 27.40195032
69 1 1 3.50149748351e-05 7.35444085 11.03982986 27.40195032
70 1 1 4.06967819349e-05 8.82532903 13.58748290 27.40195032
71 1 1 4.29378201687e-05 7.35444085 16.13513595 27.40195032
72 1 1 5.41521609528e-05 8.82532903 18.68278899 27.40195032
73 1 1 3.06614870726e-05 10.29621720 0.84921768 27.40195032
74 1 1 3.1779926458e-05 11.76710537 3.39687073 27.40195032
75 1 1 3.24453678504e-05 10.29621720 5.94452377 27.40195032
76 1 1 3.58257451809e-05 11.76710537 8.49217681 27.40195032
77 1 1 3.81577824231e-05 10.29621720 11.03982986 27.40195032
78 1 1 4.75596350379e-05 11.76710537 13.58748290 27.40195032
79 1 1 5.15698738061e-05 10.29621720 16.13513595 27.40195032
80 1 1 6.28566326417e-05 11.76710537 18.68278899 27.40195032
81 1 1 3.17119933012e-05 13.23799354 0.84921768 27.40195032
82 1 1 3.30277730964e-05 14.70888171 3.39687073 27.40195032
83 1 1 3.4060730634e-05 13.23799354 5.94452377 27.40195032
84 1 1 3.88839372908e-05 14.70888171 8.49217681 27.40195032
85 1 1 4.29794806497e-05 13.23799354 11.03982986 27.40195032
86 1 1 5.5936392755e-05 14.70888171 13.58748290 27.40195032
87 1 1 6.08023182258e-05 13.23799354 16.13513595 27.40195032
88 1 1 4.78092101778e-05 14.70888171 18.68278899 27.40195032
89 1 1 3.27980346768e-05 16.17976988 0.84921768 27.40195032
90 1 1 2.90590306806e-05 0.00000000 3.39687073 27.40195032
91 1 1 3.59476440328e-05 16.17976988 5.94452377 27.40195032
92 1 1 3.08965020175e-05 0.00000000 8.49217681 27.40195032
93 1 1 4.90548069064e-05 16.17976988 11.03982986 27.40195032
94 1 1 3.40530380472e-05 0.00000000 13.58748290 27.40195032
95 1 1 5.95390375656e-05 16.17976988 16.13513595 27.40195032
96 1 1 3.80816311155e-05 0.00000000 18.68278899 27.40195032
97 1 1 -5.1267786048e-08 2.94177634 1.69843536 29.80390065
98 1 1 -5.33821902606e-08 4.41266451 4.24608841 29.80390065
99 1 1 -5.52555508047e-08 2.94177634 6.79374145 29.80390065
100 1 1 -6.14947228822e-08 4.41266451 9.34139450 29.80390065
101 1 1 -6.56744464691e-08 2.94177634 11.88904754 29.80390065
102 1 1 -7.54466498301e-08 4.41266451 14.43670058 29.80390065
103 1 1 -7.97929667696e-08 2.94177634 16.98435363 29.80390065
104 1 1 -7.95712964485e-08 4.41266451 19.53200667 29.80390065
105 1 1 -5.26109030023e-08 5.88355268 1.69843536 29.80390065
106 1 1 -5.58184699103e-08 7.35444085 4.24608841 29.80390065
107 1 1 -5.81284766994e-08 5.88355268 6.79374145 29.80390065
108 1 1 -6.69079732602e-08 7.35444085 9.34139450 29.80390065
109 1 1 -7.1472600696e-08 5.88355268 11.88904754 29.80390065
110 1 1 -7.67336185493e-08 7.35444085 14.43670058 29.80390065
111 1 1 -7.61961543774e-08 5.88355268 16.98435363 29.80390065
112 1 1 -6.16915000431e-08 7.35444085 19.53200667 29.80390065
113 1 1 -5.48802790826e-08 8.82532903 1.69843536 29.80390065
114 1 1 -5.92705765359e-08 10.29621720 4.24608841 29.80390065
115 1 1 -6.24746763396e-08 8.82532903 6.79374145 29.80390065
116 1 1 -7.19155942194e-08 10.29621720 9.34139450 29.80390065
117 1 1 -7.60296099922e-08 8.82532903 11.88904754 29.80390065
118 1 1 -7.36586724195e-08 10.29621720 14.43670058 29.80390065
119 1 1 -6.49083481234e-08 8.82532903 16.98435363 29.80390065
120 1 1 -1.22971950135e-07 10.29621720 19.53200667 29.80390065
121 1 1 -5.7888368329e-08 11.76710537 1.69843536 29.80390065
122 1 1 -6.27985398205e-08 13.23799354 4.24608841 29.80390065
123 1 1 -6.66947513772e-08 11.76710537 6.79374145 29.80390065
124 1 1 -7.44525344978e-08 13.23799354 9.34139450 29.80390065
125 1 1 -7.77494752106e-08 11.76710537 11.88904754 29.80390065
126 1 1 -9.32577586445e-08 13.23799354 14.43670058 29.80390065
127 1 1 -1.00585138164e-07 11.76710537 16.98435363 29.80390065
128 1 1 -4.94638879856e-07 13.23799354 19.53200667 29.80390065
129 1 1 -6.1118949015e-08 14.70888171 1.69843536 29.80390065
130 1 1 -6.53315038953e-08 16.17976988 4.24608841 29.80390065
131 1 1 -6.90809435174e-08 14.70888171 6.79374145 29.80390065
132 1 1 -7.89388773559e-08 16.17976988 9.34139450 29.80390065
133 1 1 -8.90179498794e-08 14.70888171 11.88904754 29.80390065
134 1 1 -1.94654153636e-07 16.17976988 14.43670058 29.80390065
135 1 1 -2.7263946097e-07 14.70888171 16.98435363 29.80390065
136 1 1 -1.01531523161e-06 16.17976988 19.53200667 29.80390065
137 1 1 -5.08308649659e-08 0.00000000 1.69843536 29.80390065
138 1 1 -5.22090024408e-08 1.47088817 4.24608841 29.80390065
139 1 1 -5.43038966536e-08 0.00000000 6.79374145 29.80390065
140 1 1 -5.82716861531e-08 1.47088817 9.34139450 29.80390065
141 1 1 -6.31424238623e-08 0.00000000 11.88904754 29.80390065
142 1 1 -7.10087238574e-08 1.47088817 14.43670058 29.80390065
143 1 1 -7.82870528129e-08 0.00000000 16.98435363 29.80390065
144 1 1 -8.58300235664e-08 1.47088817 19.53200667 29.80390065
145 1 1 -2.88324751827e-05 4.41266451 2.54765304 32.20585097
146 1 1 -2.98459682118e-05 5.88355268 5.09530609 32.20585097
147 1 1 -3.05771538219e-05 4.41266451 7.64295913 32.20585097
148 1 1 -3.27253237958e-05 5.88355268 10.19061218 32.20585097
149 1 1 -3.40424253091e-05 4.41266451 12.73826522 32.20585097
150 1 1 -3.81523346976e-05 5.88355268 15.28591827 32.20585097
151 1 1 -3.95518920716e-05 4.41266451 17.83357131 32.20585097
152 1 1 -2.88949936457e-05 5.88355268 0.00000000 32.20585097
153 1 1 -2.95084973664e-05 7.35444085 2.54765304 32.20585097
154 1 1 -3.08163961782e-05 8.82532903 5.09530609 32.20585097
155 1 1 -3.16157052662e-05 7.35444085 7.64295913 32.20585097
156 1 1 -3.47229939128e-05 8.82532903 10.19061218 32.20585097
157 1 1 -3.64645299357e-05 7.35444085 12.73826522 32.20585097
158 1 1 -4.38303234492e-05 8.82532903 15.28591827 32.20585097
159 1 1 -4.5926379657e-05 7.35444085 17.83357131 32.20585097
160 1 1 -2.96618204803e-05 8.82532903 0.00000000 32.20585097
161 1 1 -3.04415221951e-05 10.29621720 2.54765304 32.20585097
162 1 1 -3.20886832281e-05 11.76710537 5.09530609 32.20585097
163 1 1 -3.31953857889e-05 10.29621720 7.64295913 32.20585097
164 1 1 -3.79301888776e-05 11.76710537 10.19061218 32.20585097
165 1 1 -4.09542204097e-05 10.29621720 12.73826522 32.20585097
166 1 1 -5.2668927594e-05 11.76710537 15.28591827 32.20585097
167 1 1 -5.61148372391e-05 10.29621720 17.83357131 32.20585097
168 1 1 -3.06245714277e-05 11.76710537 0.00000000 32.20585097
169 1 1 -3.15420197898e-05 13.23799354 2.54765304 32.20585097
170 1 1 -3.35915822694e-05 14.70888171 5.09530609 32.20585097
171 1 1 -3.53634429146e-05 13.23799354 7.64295913 32.20585097
172 1 1 -4.24504180682e-05 14.70888171 10.19061218 32.20585097
173 1 1 -4.77406849229e-05 13.23799354 12.73826522 32.20585097
174 1 1 -6.04500996186e-05 14.70888171 15.28591827 32.20585097
175 1 1 -6.13349747173e-05 13.23799354 17.83357131 32.20585097
176 1 1 -3.16789206502e-05 14.70888171 0.00000000 32.20585097
177 1 1 -3.26986674969e-05 16.17976988 2.54765304 32.20585097
178 1 1 -2.90240722337e-05 0.00000000 5.09530609 32.20585097
179 1 1 -3.80692947008e-05 16.17976988 7.64295913 32.20585097
180 1 1 -3.12974572513e-05 0.00000000 10.19061218 32.20585097
181 1 1 -5.52901513648e-05 16.17976988 12.73826522 32.20585097
182 1 1 -3.4739541033e-05 0.00000000 15.28591827 32.20585097
183 1 1 -3.89659008433e-05 16.17976988 17.83357131 32.20585097
184 1 1 -2.82334176567e-05 0.00000000 0.00000000 32.20585097
185 1 1 -2.84776690227e-05 1.47088817 2.54765304 32.20585097
186 1 1 -2.92338468049e-05 2.94177634 5.09530609 32.20585097
187 1 1 -3.00555920074e-05 1.47088817 7.64295913 32.20585097
188 1 1 -3.16428039388e-05 2.94177634 10.19061218 32.20585097
189 1 1 -3.30189836262e-05 1.47088817 12.73826522 32.20585097
190 1 1 -3.54827387223e-05 2.94177634 15.28591827 32.20585097
191 1 1 -3.70281712311e-05 1.47088817 17.83357131 32.20585097
192 1 1 -2.84028196866e-05 2.94177634 0.00000000 32.20585097
193 1 1 -0.000187802408011 5.88355268 3.39687073 34.60780130
194 1 1 -0.000197758200028 7.35444085 5.94452377 34.60780130
195 1 1 -0.000204106226898 5.88355268 8.49217681 34.60780130
196 1 1 -0.000225138202731 7.35444085 11.03982986 34.60780130
197 1 1 -0.000235688928697 5.88355268 13.58748290 34.60780130
198 1 1 -0.000273661574326 7.35444085 16.13513595 34.60780130
199 1 1 -0.000283117318201 5.88355268 18.68278899 34.60780130
200 1 1 -0.000187435335775 7.35444085 0.84921768 34.60780130
201 1 1 -0.00019397431427 8.82532903 3.39687073 34.60780130
202 1 1 -0.000207050042283 10.29621720 5.94452377 34.60780130
203 1 1 -0.00021519132728 8.82532903 8.49217681 34.60780130
204 1 1 -0.000245196564555 10.29621720 11.03982986 34.60780130
205 1 1 -0.000260379500848 8.82532903 13.58748290 34.60780130
206 1 1 -0.000320091777706 10.29621720 16.13513595 34.60780130
207 1 1 -0.000335279817495 8.82532903 18.68278899 34.60780130
208 1 1 -0.000193697760261 10.29621720 0.84921768 34.60780130
209 1 1 -0.000201939158811 11.76710537 3.39687073 34.60780130
210 1 1 -0.000218601042892 13.23799354 5.94452377 34.60780130
211 1 1 -0.000230550262796 11.76710537 8.49217681 34.60780130
212 1 1 -0.000272672469581 13.23799354 11.03982986 34.60780130
213 1 1 -0.000297735733555 11.76710537 13.58748290 34.60780130
214 1 1 -0.000383718867249 13.23799354 16.13513595 34.60780130
215 1 1 -0.000410786089031 11.76710537 18.68278899 34.60780130
216 1 1 -0.000201131409687 13.23799354 0.84921768 34.60780130
217 1 1 -0.000210955287604 14.70888171 3.39687073 34.60780130
218 1 1 -0.000231412501509 16.17976988 5.94452377 34.60780130
219 1 1 -0.000249495594501 14.70888171 8.49217681 34.60780130
220 1 1 -0.00030574014337 16.17976988 11.03982986 34.60780130
221 1 1 -0.000346146812091 14.70888171 13.58748290 34.60780130
222 1 1 -0.000451941891598 16.17976988 16.13513595 34.60780130
223 1 1 -0.000490240068826 14.70888171 18.68278899 34.60780130
224 1 1 -0.000208924867059 16.17976988 0.84921768 34.60780130
225 1 1 -0.000182589648666 0.00000000 3.39687073 34.60780130
226 1 1 -0.000188001037912 1.47088817 5.94452377 34.60780130
227 1 1 -0.000195224924977 0.00000000 8.49217681 34.60780130
228 1 1 -0.00020612530398 1.47088817 11.03982986 34.60780130
229 1 1 -0.000217708392377 0.00000000 13.58748290 34.60780130
230 1 1 -0.000233314220456 1.47088817 16.13513595 34.60780130
231 1 1 -0.000246940965554 0.00000000 18.68278899 34.60780130
232 1 1 -0.000180604879057 1.47088817 0.84921768 34.60780130
233 1 1 -0.000183915127249 2.94177634 3.39687073 34.60780130
234 1 1 -0.000191302201168 4.41266451 5.94452377 34.60780130
235 1 1 -0.000197445634257 2.94177634 8.49217681 34.60780130
236 1 1 -0.000212331625295 4.41266451 11.03982986 34.60780130
237 1 1 -0.0002220447471 2.94177634 13.58748290 34.60780130
238 1 1 -0.000245882914759 4.41266451 16.13513595 34.60780130
239 1 1 -0.000255380411295 2.94177634 18.68278899 34.60780130
240 1 1 -0.00018294318199 4.41266451 0.84921768 34.60780130
241 1 1 0.000257443380377 0.00000000 20.38122435 25.00000000
242 1 1 0.000275024992073 1.47088817 22.92887739 25.00000000
243 1 1 0.000283727458968 0.00000000 25.47653044 25.00000000
244 1 1 0.000295991985925 1.47088817 28.02418348 25.00000000
245 1 1 0.000294454132995 0.00000000 30.57183653 25.00000000
246 1 1 0.000295998642981 1.47088817 33.11948957 25.00000000
247 1 1 0.000283736371706 0.00000000 35.66714262 25.00000000
248 1 1 0.000275035434438 1.47088817 38.21479566 25.00000000
249 1 1 0.000267710894053 2.94177634 20.38122435 25.00000000
250 1 1 0.000302473248224 4.41266451 22.92887739 25.00000000
251 1 1 0.000299557196762 2.94177634 25.47653044 25.00000000
252 1 1 0.000332787274623 4.41266451 28.02418348 25.00000000
253 1 1 0.000312848247138 2.94177634 30.57183653 25.00000000
254 1 1 0.000332796178577 4.41266451 33.11948957 25.00000000
255 1 1 0.000299570425158 2.94177634 35.66714262 25.00000000
256 1 1 0.000302488132458 4.41266451 38.21479566 25.00000000
257 1 1 0.000301676218955 5.88355268 20.38122435 25.00000000
258 1 1 0.000363687403779 7.35444085 22.92887739 25.00000000
259 1 1 0.000351545052932 5.88355268 25.47653044 25.00000000
260 1 1 0.00041165872457 7.35444085 28.02418348 25.00000000
261 1 1 0.000372564923261 5.88355268 30.57183653 25.00000000
262 1 1 0.000411645008339 7.35444085 33.11948957 25.00000000
263 1 1 0.000351546837346 5.88355268 35.66714262 25.00000000
264 1 1 0.000363655376847 7.35444085 38.21479566 25.00000000
265 1 1 0.000364989940507 8.82532903 20.38122435 25.00000000
266 1 1 0.000454961608457 10.29621720 22.92887739 25.00000000
267 1 1 0.000441088708291 8.82532903 25.47653044 25.00000000
268 1 1 0.000512874025241 10.29621720 28.02418348 25.00000000
269 1 1 0.000470128660804 8.82532903 30.57183653 25.00000000
270 1 1 0.000512772796048 10.29621720 33.11948957 25.00000000
271 1 1 0.000440978649754 8.82532903 35.66714262 25.00000000
272 1 1 0.000454706454764 10.29621720 38.21479566 25.00000000
273 1 1 0.00045138300718 11.76710537 20.38122435 25.00000000
274 1 1 0.000540834450822 13.23799354 22.92887739 25.00000000
275 1 1 0.00053551394918 11.76710537 25.47653044 25.00000000
276 1 1 0.000605183104892 13.23799354 28.02418348 25.00000000
277 1 1 0.000562645915162 11.76710537 30.57183653 25.00000000
278 1 1 0.000604952550674 13.23799354 33.11948957 25.00000000
279 1 1 0.000535056157287 11.76710537 35.66714262 25.00000000
280 1 1 0.00054008814933 13.23799354 38.21479566 25.00000000
281 1 1 0.00053037334573 14.70888171 20.38122435 25.00000000
282 1 1 0.000643645404203 16.17976988 22.92887739 25.00000000
283 1 1 0.000645470939532 14.70888171 25.47653044 25.00000000
284 1 1 0.00123584569777 16.17976988 28.02418348 25.00000000
285 1 1 0.00080198969449 14.70888171 30.57183653 25.00000000
286 1 1 0.00123562982737 16.17976988 33.11948957 25.00000000
287 1 1 0.000644505927312 14.70888171 35.66714262 25.00000000
288 1 1 0.000642680333875 16.17976988 38.21479566 25.00000000
289 1 1 4.06857954002e-05 1.47088817 21.23044203 27.40195032
290 1 1 4.49031570579e-05 2.94177634 23.77809508 27.40195032
291 1 1 4.45944560353e-05 1.47088817 26.32574812 27.40195032
292 1 1 4.84410876361e-05 2.94177634 28.87340116 27.40195032
293 1 1 4.58115113787e-05 1.47088817 31.42105421 27.40195032
294 1 1 4.76713899855e-05 2.94177634 33.96870725 27.40195032
295 1 1 4.3496309742e-05 1.47088817 36.51636030 27.40195032
296 1 1 4.31447590683e-05 2.94177634 39.06401334 27.40195032
297 1 1 4.50265674489e-05 4.41266451 21.23044203 27.40195032
298 1 1 5.39488201827e-05 5.88355268 23.77809508 27.40195032
299 1 1 5.14982967302e-05 4.41266451 26.32574812 27.40195032
300 1 1 5.93718561599e-05 5.88355268 28.87340116 27.40195032
301 1 1 5.34604446762e-05 4.41266451 31.42105421 27.40195032
302 1 1 5.82459894858e-05 5.88355268 33.96870725 27.40195032
303 1 1 4.96623977271e-05 4.41266451 36.51636030 27.40195032
304 1 1 5.09157481826e-05 5.88355268 39.06401334 27.40195032
305 1 1 5.49477770163e-05 7.35444085 21.23044203 27.40195032
306 1 1 6.40407484395e-05 8.82532903 23.77809508 27.40195032
307 1 1 6.31445713095e-05 7.35444085 26.32574812 27.40195032
308 1 1 6.16360668168e-05 8.82532903 28.87340116 27.40195032
309 1 1 6.44525255093e-05 7.35444085 31.42105421 27.40195032
310 1 1 6.28358227263e-05 8.82532903 33.96870725 27.40195032
311 1 1 6.12511095233e-05 7.35444085 36.51636030 27.40195032
312 1 1 6.21462991892e-05 8.82532903 39.06401334 27.40195032
313 1 1 6.35540710404e-05 10.29621720 21.23044203 27.40195032
314 1 1 3.67214064208e-05 11.76710537 23.77809508 27.40195032
315 1 1 4.90969588662e-05 10.29621720 26.32574812 27.40195032
316 1 1 -2.02394225387e-05 11.76710537 28.87340116 27.40195032
317 1 1 3.71365057548e-05 10.29621720 31.42105421 27.40195032
318 1 1 -4.97880632828e-06 11.76710537 33.96870725 27.40195032
319 1 1 5.65416274424e-05 10.29621720 36.51636030 27.40195032
320 1 1 5.27749915342e-05 11.76710537 39.06401334 27.40195032
321 1 1 3.62879265216e-05 13.23799354 21.23044203 27.40195032
322 1 1 -0.000107410872604 14.70888171 23.77809508 27.40195032
323 1 1 -8.13091341212e-05 13.23799354 26.32574812 27.40195032
324 1 1 -0.000259790856896 14.70888171 28.87340116 27.40195032
325 1 1 -0.000135039167206 13.23799354 31.42105421 27.40195032
326 1 1 -0.000228597209008 14.70888171 33.96870725 27.40195032
327 1 1 -3.77651932436e-05 13.23799354 36.51636030 27.40195032
328 1 1 -3.81128372792e-05 14.70888171 39.06401334 27.40195032
329 1 1 -8.19265291114e-05 16.17976988 21.23044203 27.40195032
330 1 1 4.21911856894e-05 0.00000000 23.77809508 27.40195032
331 1 1 -0.000305941398493 16.17976988 26.32574812 27.40195032
332 1 1 4.4752137889e-05 0.00000000 28.87340116 27.40195032
333 1 1 -0.000293125864335 16.17976988 31.42105421 27.40195032
334 1 1 4.42011519697e-05 0.00000000 33.96870725 27.40195032
335 1 1 -0.000258539314009 16.17976988 36.51636030 27.40195032
336 1 1 4.09051340316e-05 0.00000000 39.06401334 27.40195032
337 1 1 -8.74642696837e-08 2.94177634 22.07965971 29.80390065
338 1 1 -8.34270197728e-08 4.41266451 24.62731276 29.80390065
339 1 1 -9.31206031298e-08 2.94177634 27.17496580 29.80390065
340 1 1 -1.00965141236e-07 4.41266451 29.72261885 29.80390065
341 1 1 -9.37581731608e-08 2.94177634 32.27027189 29.80390065
342 1 1 -1.07172131529e-07 4.41266451 34.81792493 29.80390065
343 1 1 -8.70028242143e-08 2.94177634 37.36557798 29.80390065
344 1 1 -9.1265127879e-08 4.41266451 39.91323102 29.80390065
345 1 1 -6.94731960076e-08 5.88355268 22.07965971 29.80390065
346 1 1 -1.05363752308e-07 7.35444085 24.62731276 29.80390065
347 1 1 -1.01544649001e-07 5.88355268 27.17496580 29.80390065
348 1 1 -2.01308448176e-07 7.35444085 29.72261885 29.80390065
349 1 1 -1.47790604057e-07 5.88355268 32.27027189 29.80390065
350 1 1 -2.34822430571e-07 7.35444085 34.81792493 29.80390065
351 1 1 -1.34488751655e-07 5.88355268 37.36557798 29.80390065
352 1 1 -1.55586645959e-07 7.35444085 39.91323102 29.80390065
353 1 1 -1.24535470754e-07 8.82532903 22.07965971 29.80390065
354 1 1 -4.96950694247e-07 10.29621720 24.62731276 29.80390065
355 1 1 -2.77053128133e-07 8.82532903 27.17496580 29.80390065
356 1 1 -6.28540756878e-07 10.29621720 29.72261885 29.80390065
357 1 1 -4.27113941799e-07 8.82532903 32.27027189 29.80390065
358 1 1 -5.71083136122e-07 10.29621720 34.81792493 29.80390065
359 1 1 -2.86652351885e-07 8.82532903 37.36557798 29.80390065
360 1 1 -2.85644800126e-07 10.29621720 39.91323102 29.80390065
361 1 1 -6.81665207675e-07 11.76710537 22.07965971 29.80390065
362 1 1 -2.09827744403e-06 13.23799354 24.62731276 29.80390065
363 1 1 -1.01777742557e-06 11.76710537 27.17496580 29.80390065
364 1 1 -1.30865752369e-06 13.23799354 29.72261885 29.80390065
365 1 1 -1.15958231321e-06 11.76710537 32.27027189 29.80390065
366 1 1 -7.07625770108e-07 13.23799354 34.81792493 29.80390065
367 1 1 -3.54699072671e-07 11.76710537 37.36557798 29.80390065
368 1 1 -3.5365806379e-07 13.23799354 39.91323102 29.80390065
369 1 1 -2.0972945982e-06 14.70888171 22.07965971 29.80390065
370 1 1 -3.93545262935e-06 16.17976988 24.62731276 29.80390065
371 1 1 -2.15675085057e-06 14.70888171 27.17496580 29.80390065
372 1 1 -1.80964749645e-07 16.17976988 29.72261885 29.80390065
373 1 1 -1.72520428287e-06 14.70888171 32.27027189 29.80390065
374 1 1 5.08034000674e-07 16.17976988 34.81792493 29.80390065
375 1 1 3.02673070064e-07 14.70888171 37.36557798 29.80390065
376 1 1 -7.05994911797e-07 16.17976988 39.91323102 29.80390065
377 1 1 -9.21520048385e-08 0.00000000 22.07965971 29.80390065
378 1 1 -9.47219330284e-08 1.47088817 24.62731276 29.80390065
379 1 1 -9.68822882426e-08 0.00000000 27.17496580 29.80390065
380 1 1 -9.42595123297e-08 1.47088817 29.72261885 29.80390065
381 1 1 -9.04808735655e-08 0.00000000 32.27027189 29.80390065
382 1 1 -8.66541386388e-08 1.47088817 34.81792493 29.80390065
383 1 1 -8.17480337883e-08 0.00000000 37.36557798 29.80390065
384 1 1 -7.82634243923e-08 1.47088817 39.91323102 29.80390065
385 1 1 -4.66459521501e-05 4.41266451 22.92887739 32.20585097
386 1 1 -5.54844308882e-05 5.88355268 25.47653044 32.20585097
387 1 1 -5.19051897016e-05 4.41266451 28.02418348 32.20585097
388 1 1 -5.87548504303e-05 5.88355268 30.57183653 32.20585097
389 1 1 -5.19111424613e-05 4.41266451 33.11948957 32.20585097
390 1 1 -5.5521541737e-05 5.88355268 35.66714262 32.20585097
391 1 1 -4.66521826271e-05 4.41266451 38.21479566 32.20585097
392 1 1 -4.68642927757e-05 5.88355268 20.38122435 32.20585097
393 1 1 -5.75331493706e-05 7.35444085 22.92887739 32.20585097
394 1 1 -6.29016100065e-05 8.82532903 25.47653044 32.20585097
395 1 1 -6.30121386304e-05 7.35444085 28.02418348 32.20585097
396 1 1 -5.9929948532e-05 8.82532903 30.57183653 32.20585097
397 1 1 -6.30732763706e-05 7.35444085 33.11948957 32.20585097
398 1 1 -6.30200644758e-05 8.82532903 35.66714262 32.20585097
399 1 1 -5.76082325779e-05 7.35444085 38.21479566 32.20585097
400 1 1 -5.77278928927e-05 8.82532903 20.38122435 32.20585097
401 1 1 -6.07522515633e-05 10.29621720 22.92887739 32.20585097
402 1 1 -1.48527271349e-05 11.76710537 25.47653044 32.20585097
403 1 1 -4.04607129533e-05 10.29621720 28.02418348 32.20585097
404 1 1 2.74215994688e-05 11.76710537 30.57183653 32.20585097
405 1 1 -4.06330427211e-05 10.29621720 33.11948957 32.20585097
406 1 1 -1.47332100513e-05 11.76710537 35.66714262 32.20585097
407 1 1 -6.08243820534e-05 10.29621720 38.21479566 32.20585097
408 1 1 -6.02256941761e-05 11.76710537 20.38122435 32.20585097
409 1 1 -2.8705429262e-06 13.23799354 22.92887739 32.20585097
410 1 1 0.000176997259899 14.70888171 25.47653044 32.20585097
411 1 1 0.000117863883754 13.23799354 28.02418348 32.20585097
412 1 1 0.00027407429436 14.70888171 30.57183653 32.20585097
413 1 1 0.00011760660227 13.23799354 33.11948957 32.20585097
414 1 1 0.000178284649447 14.70888171 35.66714262 32.20585097
415 1 1 -2.29721758874e-06 13.23799354 38.21479566 32.20585097
416 1 1 -1.40913192343e-05 14.70888171 20.38122435 32.20585097
417 1 1 0.000177268816138 16.17976988 22.92887739 32.20585097
418 1 1 -4.25844859177e-05 0.00000000 25.47653044 32.20585097
419 1 1 0.000315423884301 16.17976988 28.02418348 32.20585097
420 1 1 -4.41729106491e-05 0.00000000 30.57183653 32.20585097
421 1 1 0.000315233941782 16.17976988 33.11948957 32.20585097
422 1 1 -4.25745097451e-05 0.00000000 35.66714262 32.20585097
423 1 1 0.000178556623599 16.17976988 38.21479566 32.20585097
424 1 1 -3.88431135707e-05 0.00000000 20.38122435 32.20585097
425 1 1 -4.14443303721e-05 1.47088817 22.92887739 32.20585097
426 1 1 -4.56677820544e-05 2.94177634 25.47653044 32.20585097
427 1 1 -4.46186761536e-05 1.47088817 28.02418348 32.20585097
428 1 1 -4.78789036442e-05 2.94177634 30.57183653 32.20585097
429 1 1 -4.46129732277e-05 1.47088817 33.11948957 32.20585097
430 1 1 -4.56627878139e-05 2.94177634 35.66714262 32.20585097
431 1 1 -4.14343575933e-05 1.47088817 38.21479566 32.20585097
432 1 1 -4.05886037556e-05 2.94177634 20.38122435 32.20585097
433 1 1 -0.00033633758046 5.88355268 23.77809508 34.60780130
434 1 1 -0.000399517621843 7.35444085 26.32574812 34.60780130
435 1 1 -0.000369561829781 5.88355268 28.87340116 34.60780130
436 1 1 -0.000416901550966 7.35444085 31.42105421 34.60780130
437 1 1 -0.000362388963918 5.88355268 33.96870725 34.60780130
438 1 1 -0.000383232740229 7.35444085 36.51636030 34.60780130
439 1 1 -0.000319356934524 5.88355268 39.06401334 34.60780130
440 1 1 -0.000340675614762 7.35444085 21.23044203 34.60780130
441 1 1 -0.000418722298888 8.82532903 23.77809508 34.60780130
442 1 1 -0.000498805749381 10.29621720 26.32574812 34.60780130
443 1 1 -0.000465952640044 8.82532903 28.87340116 34.60780130
444 1 1 -0.000517976051456 10.29621720 31.42105421 34.60780130
445 1 1 -0.00045625147945 8.82532903 33.96870725 34.60780130
446 1 1 -0.000479783992111 10.29621720 36.51636030 34.60780130
447 1 1 -0.000392969770088 8.82532903 39.06401334 34.60780130
448 1 1 -0.000422864966522 10.29621720 21.23044203 34.60780130
449 1 1 -0.000512806099826 11.76710537 23.77809508 34.60780130
450 1 1 -0.000582667666576 13.23799354 26.32574812 34.60780130
451 1 1 -0.000557572247856 11.76710537 28.87340116 34.60780130
452 1 1 -0.000615225023257 13.23799354 31.42105421 34.60780130
453 1 1 -0.00054863034805 11.76710537 33.96870725 34.60780130
454 1 1 -0.000562263218935 13.23799354 36.51636030 34.60780130
455 1 1 -0.000485426007709 11.76710537 39.06401334 34.60780130
456 1 1 -0.00050992780683 13.23799354 21.23044203 34.60780130
457 1 1 -0.00059234919215 14.70888171 23.77809508 34.60780130
458 1 1 -0.000978265614393 16.17976988 26.32574812 34.60780130
459 1 1 -0.000771689369801 14.70888171 28.87340116 34.60780130
460 1 1 -0.00141130717637 16.17976988 31.42105421 34.60780130
461 1 1 -0.00070881003529 14.70888171 33.96870725 34.60780130
462 1 1 -0.000766959003243 16.17976988 36.51636030 34.60780130
463 1 1 -0.000559962090884 14.70888171 39.06401334 34.60780130
464 1 1 -0.000578585192612 16.17976988 21.23044203 34.60780130
465 1 1 -0.000275761165444 0.00000000 23.77809508 34.60780130
466 1 1 -0.000290538766412 1.47088817 26.32574812 34.60780130
467 1 1 -0.000292801097765 0.00000000 28.87340116 34.60780130
468 1 1 -0.000298203065315 1.47088817 31.42105421 34.60780130
469 1 1 -0.000289143215204 0.00000000 33.96870725 34.60780130
470 1 1 -0.000283397221165 1.47088817 36.51636030 34.60780130
471 1 1 -0.000266845230208 0.00000000 39.06401334 34.60780130
472 1 1 -0.000264794315143 1.47088817 21.23044203 34.60780130
473 1 1 -0.00028985172723 2.94177634 23.77809508 34.60780130
474 1 1 -0.000324950944552 4.41266451 26.32574812 34.60780130
475 1 1 -0.000310860908281 2.94177634 28.87340116 34.60780130
476 1 1 -0.000336154386402 4.41266451 31.42105421 34.60780130
477 1 1 -0.000306317405355 2.94177634 33.96870725 34.60780130
478 1 1 -0.000314598047705 4.41266451 36.51636030 34.60780130
479 1 1 -0.000279026077716 2.94177634 39.06401334 34.60780130
480 1 1 -0.000288156756307 4.41266451 21.23044203 34.60780130
481 1 1 0.000257449524606 0.00000000 40.76244870 25.00000000
482 1 1 0.00024404041108 1.47088817 43.31010174 25.00000000
483 1 1 0.000227261765527 0.00000000 45.85775479 25.00000000
484 1 1 0.000214618931974 1.47088817 48.40540783 25.00000000
485 1 1 0.000201989169895 0.00000000 50.95306088 25.00000000
486 1 1 0.00019315173061 1.47088817 53.50071392 25.00000000
487 1 1 0.000185868740278 0.00000000 56.04836697 25.00000000
488 1 1 0.000182083215871 1.47088817 58.59602001 25.00000000
489 1 1 0.000267723074088 2.94177634 40.76244870 25.00000000
490 1 1 0.000259800331078 4.41266451 43.31010174 25.00000000
491 1 1 0.000232724130462 2.94177634 45.85775479 25.00000000
492 1 1 0.000222475225764 4.41266451 48.40540783 25.00000000
493 1 1 0.000204747026625 2.94177634 50.95306088 25.00000000
494 1 1 0.000197158740011 4.41266451 53.50071392 25.00000000
495 1 1 0.0001873964061 2.94177634 56.04836697 25.00000000
496 1 1 0.000184579111848 4.41266451 58.59602001 25.00000000
497 1 1 0.000301688215754 5.88355268 40.76244870 25.00000000
498 1 1 0.000295116707706 7.35444085 43.31010174 25.00000000
499 1 1 0.000250216789114 5.88355268 45.85775479 25.00000000
500 1 1 0.000239088645573 7.35444085 48.40540783 25.00000000
501 1 1 0.000213131681387 5.88355268 50.95306088 25.00000000
502 1 1 0.000205101449968 7.35444085 53.50071392 25.00000000
503 1 1 0.000191898184362 5.88355268 56.04836697 25.00000000
504 1 1 0.000189387278329 7.35444085 58.59602001 25.00000000
505 1 1 0.000364935223348 8.82532903 40.76244870 25.00000000
506 1 1 0.000353874713741 10.29621720 43.31010174 25.00000000
507 1 1 0.000282606323594 8.82532903 45.85775479 25.00000000
508 1 1 0.000265920112192 10.29621720 48.40540783 25.00000000
509 1 1 0.000227458562445 8.82532903 50.95306088 25.00000000
510 1 1 0.000216801489135 10.29621720 53.50071392 25.00000000
511 1 1 0.000199119777983 8.82532903 56.04836697 25.00000000
512 1 1 0.000196123536774 10.29621720 58.59602001 25.00000000
513 1 1 0.000451127926972 11.76710537 40.76244870 25.00000000
514 1 1 0.00043029012067 13.23799354 43.31010174 25.00000000
515 1 1 0.000331957242034 11.76710537 45.85775479 25.00000000
516 1 1 0.000303454165926 13.23799354 48.40540783 25.00000000
517 1 1 0.00024799514651 11.76710537 50.95306088 25.00000000
518 1 1 0.000231802246591 13.23799354 53.50071392 25.00000000
519 1 1 0.000208593954968 11.76710537 56.04836697 25.00000000
520 1 1 0.000204178681172 13.23799354 58.59602001 25.00000000
521 1 1 0.000529915518676 14.70888171 40.76244870 25.00000000
522 1 1 0.000502647943892 16.17976988 43.31010174 25.00000000
523 1 1 0.00039403400998 14.70888171 45.85775479 25.00000000
524 1 1 0.000348494634735 16.17976988 48.40540783 25.00000000
525 1 1 0.000274131453947 14.70888171 50.95306088 25.00000000
526 1 1 0.00024899343389 16.17976988 53.50071392 25.00000000
527 1 1 0.00021955625877 14.70888171 56.04836697 25.00000000
528 1 1 0.000212703825284 16.17976988 58.59602001 25.00000000
529 1 1 3.91728785414e-05 1.47088817 41.61166638 27.40195032
530 1 1 3.77018441604e-05 2.94177634 44.15931943 27.40195032
531 1 1 3.48382137854e-05 1.47088817 46.70697247 27.40195032
532 1 1 3.33192775992e-05 2.94177634 49.25462551 27.40195032
533 1 1 3.1419763407e-05 1.47088817 51.80227856 27.40195032
534 1 1 3.03659820142e-05 2.94177634 54.34993160 27.40195032
535 1 1 2.93105809539e-05 1.47088817 56.89758465 27.40195032
536 1 1 2.89666671647e-05 2.94177634 59.44523769 27.40195032
537 1 1 4.25701292476e-05 4.41266451 41.61166638 27.40195032
538 1 1 4.14335842902e-05 5.88355268 44.15931943 27.40195032
539 1 1 3.62375776396e-05 4.41266451 46.70697247 27.40195032
540 1 1 3.47695763263e-05 5.88355268 49.25462551 27.40195032
541 1 1 3.20626270326e-05 4.41266451 51.80227856 27.40195032
542 1 1 3.10928476634e-05 5.88355268 54.34993160 27.40195032
543 1 1 2.97083497238e-05 4.41266451 56.89758465 27.40195032
544 1 1 2.94812782449e-05 5.88355268 59.44523769 27.40195032
545 1 1 5.08174206828e-05 7.35444085 41.61166638 27.40195032
546 1 1 4.91713616864e-05 8.82532903 44.15931943 27.40195032
547 1 1 3.97097447931e-05 7.35444085 46.70697247 27.40195032
548 1 1 3.76403729523e-05 8.82532903 49.25462551 27.40195032
549 1 1 3.3404090011e-05 7.35444085 51.80227856 27.40195032
550 1 1 3.22804323817e-05 8.82532903 54.34993160 27.40195032
551 1 1 3.04693340449e-05 7.35444085 56.89758465 27.40195032
552 1 1 3.02836744477e-05 8.82532903 59.44523769 27.40195032
553 1 1 6.1490378249e-05 10.29621720 41.61166638 27.40195032
554 1 1 5.9294721801e-05 11.76710537 44.15931943 27.40195032
555 1 1 4.6180110963e-05 10.29621720 46.70697247 27.40195032
556 1 1 4.24516814739e-05 11.76710537 49.25462551 27.40195032
557 1 1 3.55996678026e-05 10.29621720 51.80227856 27.40195032
558 1 1 3.39243162877e-05 11.76710537 54.34993160 27.40195032
559 1 1 3.15331508755e-05 10.29621720 56.89758465 27.40195032
560 1 1 3.12939653164e-05 11.76710537 59.44523769 27.40195032
561 1 1 5.55797947803e-05 13.23799354 41.61166638 27.40195032
562 1 1 6.09394869037e-05 14.70888171 44.15931943 27.40195032
563 1 1 5.50290437411e-05 13.23799354 46.70697247 27.40195032
564 1 1 4.90651410729e-05 14.70888171 49.25462551 27.40195032
565 1 1 3.88332424241e-05 13.23799354 51.80227856 27.40195032
566 1 1 3.60052940754e-05 14.70888171 54.34993160 27.40195032
567 1 1 3.28220286177e-05 13.23799354 56.89758465 27.40195032
568 1 1 3.24072487775e-05 14.70888171 59.44523769 27.40195032
569 1 1 -6.00922737559e-06 16.17976988 41.61166638 27.40195032
570 1 1 3.66813368086e-05 0.00000000 44.15931943 27.40195032
571 1 1 6.16893951034e-05 16.17976988 46.70697247 27.40195032
572 1 1 3.28782708159e-05 0.00000000 49.25462551 27.40195032
573 1 1 4.30122899519e-05 16.17976988 51.80227856 27.40195032
574 1 1 3.01196949006e-05 0.00000000 54.34993160 27.40195032
575 1 1 3.42330286141e-05 16.17976988 56.89758465 27.40195032
576 1 1 2.87895418564e-05 0.00000000 59.44523769 27.40195032
577 1 1 -7.52906900385e-08 2.94177634 42.46088406 29.80390065
578 1 1 -7.16760590931e-08 4.41266451 45.00853711 29.80390065
579 1 1 -6.5180205228e-08 2.94177634 47.55619015 29.80390065
580 1 1 -6.20309206879e-08 4.41266451 50.10384320 29.80390065
581 1 1 -5.71509297627e-08 2.94177634 52.65149624 29.80390065
582 1 1 -5.4895868583e-08 4.41266451 55.19914928 29.80390065
583 1 1 -5.1870899589e-08 2.94177634 57.74680233 29.80390065
584 1 1 -5.15449751484e-08 4.41266451 60.29445537 29.80390065
585 1 1 -9.2405623608e-08 5.88355268 42.46088406 29.80390065
586 1 1 -8.5583169872e-08 7.35444085 45.00853711 29.80390065
587 1 1 -6.77721031643e-08 5.88355268 47.55619015 29.80390065
588 1 1 -6.50337101047e-08 7.35444085 50.10384320 29.80390065
589 1 1 -5.96816550465e-08 5.88355268 52.65149624 29.80390065
590 1 1 -5.77047107613e-08 7.35444085 55.19914928 29.80390065
591 1 1 -5.35220212362e-08 5.88355268 57.74680233 29.80390065
592 1 1 -5.32965714058e-08 7.35444085 60.29445537 29.80390065
593 1 1 -1.5353360929e-07 8.82532903 42.46088406 29.80390065
594 1 1 -1.28211776563e-07 10.29621720 45.00853711 29.80390065
595 1 1 -7.57209241439e-08 8.82532903 47.55619015 29.80390065
596 1 1 -6.99929614256e-08 10.29621720 50.10384320 29.80390065
597 1 1 -6.34098477198e-08 8.82532903 52.65149624 29.80390065
598 1 1 -6.16696971484e-08 10.29621720 55.19914928 29.80390065
599 1 1 -5.6163104257e-08 8.82532903 57.74680233 29.80390065
600 1 1 -5.58544861307e-08 10.29621720 60.29445537 29.80390065
601 1 1 -2.83773259812e-07 11.76710537 42.46088406 29.80390065
602 1 1 -2.28931699292e-07 13.23799354 45.00853711 29.80390065
603 1 1 -9.65094263302e-08 11.76710537 47.55619015 29.80390065
604 1 1 -7.86032818423e-08 13.23799354 50.10384320 29.80390065
605 1 1 -6.83951118125e-08 11.76710537 52.65149624 29.80390065
606 1 1 -6.68298026323e-08 13.23799354 55.19914928 29.80390065
607 1 1 -5.97456612715e-08 11.76710537 57.74680233 29.80390065
608 1 1 -5.90932742636e-08 13.23799354 60.29445537 29.80390065
609 1 1 -5.68060887197e-07 14.70888171 42.46088406 29.80390065
610 1 1 -4.22142878749e-07 16.17976988 45.00853711 29.80390065
611 1 1 -1.38789867012e-07 14.70888171 47.55619015 29.80390065
612 1 1 -8.87730135798e-08 16.17976988 50.10384320 29.80390065
613 1 1 -7.43672726897e-08 14.70888171 52.65149624 29.80390065
614 1 1 -7.25907513742e-08 16.17976988 55.19914928 29.80390065
615 1 1 -6.42265034172e-08 14.70888171 57.74680233 29.80390065
616 1 1 -6.27442764982e-08 16.17976988 60.29445537 29.80390065
617 1 1 -7.34059332121e-08 0.00000000 42.46088406 29.80390065
618 1 1 -6.91558452742e-08 1.47088817 45.00853711 29.80390065
619 1 1 -6.45729441138e-08 0.00000000 47.55619015 29.80390065
620 1 1 -6.03824324365e-08 1.47088817 50.10384320 29.80390065
621 1 1 -5.62234856923e-08 0.00000000 52.65149624 29.80390065
622 1 1 -5.33934751916e-08 1.47088817 55.19914928 29.80390065
623 1 1 -5.13056406444e-08 0.00000000 57.74680233 29.80390065
624 1 1 -5.06580013409e-08 1.47088817 60.29445537 29.80390065
625 1 1 -3.95464647783e-05 4.41266451 43.31010174 32.20585097
626 1 1 -3.81456462442e-05 5.88355268 45.85775479 32.20585097
627 1 1 -3.40383742495e-05 4.41266451 48.40540783 32.20585097
628 1 1 -3.27228749517e-05 5.88355268 50.95306088 32.20585097
629 1 1 -3.05774435384e-05 4.41266451 53.50071392 32.20585097
630 1 1 -2.98462187474e-05 5.88355268 56.04836697 32.20585097
631 1 1 -2.88325026493e-05 4.41266451 58.59602001 32.20585097
632 1 1 -4.68835257422e-05 5.88355268 40.76244870 32.20585097
633 1 1 -4.59455083218e-05 7.35444085 43.31010174 32.20585097
634 1 1 -4.3836458236e-05 8.82532903 45.85775479 32.20585097
635 1 1 -3.6457042603e-05 7.35444085 48.40540783 32.20585097
636 1 1 -3.47179608802e-05 8.82532903 50.95306088 32.20585097
637 1 1 -3.16149585449e-05 7.35444085 53.50071392 32.20585097
638 1 1 -3.0816349758e-05 8.82532903 56.04836697 32.20585097
639 1 1 -2.95085392219e-05 7.35444085 58.59602001 32.20585097
640 1 1 -5.78180847922e-05 8.82532903 40.76244870 32.20585097
641 1 1 -5.6189931853e-05 10.29621720 43.31010174 32.20585097
642 1 1 -5.27056670997e-05 11.76710537 45.85775479 32.20585097
643 1 1 -4.0949833103e-05 10.29621720 48.40540783 32.20585097
644 1 1 -3.79259587773e-05 11.76710537 50.95306088 32.20585097
645 1 1 -3.31937907944e-05 10.29621720 53.50071392 32.20585097
646 1 1 -3.20886554681e-05 11.76710537 56.04836697 32.20585097
647 1 1 -3.04414523615e-05 10.29621720 58.59602001 32.20585097
648 1 1 -6.02980089419e-05 11.76710537 40.76244870 32.20585097
649 1 1 -6.14534855682e-05 13.23799354 43.31010174 32.20585097
650 1 1 -6.0510845292e-05 14.70888171 45.85775479 32.20585097
651 1 1 -4.77463055511e-05 13.23799354 48.40540783 32.20585097
652 1 1 -4.24503966613e-05 14.70888171 50.95306088 32.20585097
653 1 1 -3.53635025987e-05 13.23799354 53.50071392 32.20585097
654 1 1 -3.35932372826e-05 14.70888171 56.04836697 32.20585097
655 1 1 -3.15420566744e-05 13.23799354 58.59602001 32.20585097
656 1 1 -1.39719379176e-05 14.70888171 40.76244870 32.20585097
657 1 1 -3.91382317805e-05 16.17976988 43.31010174 32.20585097
658 1 1 -3.47375127973e-05 0.00000000 45.85775479 32.20585097
659 1 1 -5.52899570514e-05 16.17976988 48.40540783 32.20585097
660 1 1 -3.12983190462e-05 0.00000000 50.95306088 32.20585097
661 1 1 -3.80735630293e-05 16.17976988 53.50071392 32.20585097
662 1 1 -2.90242872519e-05 0.00000000 56.04836697 32.20585097
663 1 1 -3.26996373828e-05 16.17976988 58.59602001 32.20585097
664 1 1 -3.883470566e-05 0.00000000 40.76244870 32.20585097
665 1 1 -3.70223558943e-05 1.47088817 43.31010174 32.20585097
666 1 1 -3.54779753383e-05 2.94177634 45.85775479 32.20585097
667 1 1 -3.30185097986e-05 1.47088817 48.40540783 32.20585097
668 1 1 -3.16428115617e-05 2.94177634 50.95306088 32.20585097
669 1 1 -3.00562722552e-05 1.47088817 53.50071392 32.20585097
670 1 1 -2.92341183665e-05 2.94177634 56.04836697 32.20585097
671 1 1 -2.84776156257e-05 1.47088817 58.59602001 32.20585097
672 1 1 -4.05814601712e-05 2.94177634 40.76244870 32.20585097
673 1 1 -0.000265774781283 5.88355268 44.15931943 34.60780130
674 1 1 -0.000254915366029 7.35444085 46.70697247 34.60780130
675 1 1 -0.000223345420324 5.88355268 49.25462551 34.60780130
676 1 1 -0.00021389150496 7.35444085 51.80227856 34.60780130
677 1 1 -0.000197061262644 5.88355268 54.34993160 34.60780130
678 1 1 -0.000192558127992 7.35444085 56.89758465 34.60780130
679 1 1 -0.000185510758029 5.88355268 59.44523769 34.60780130
680 1 1 -0.000317400583147 7.35444085 41.61166638 34.60780130
681 1 1 -0.000307418198657 8.82532903 44.15931943 34.60780130
682 1 1 -0.000290520867755 10.29621720 46.70697247 34.60780130
683 1 1 -0.000242083490205 8.82532903 49.25462551 34.60780130
684 1 1 -0.000229040040685 10.29621720 51.80227856 34.60780130
685 1 1 -0.000205856633868 8.82532903 54.34993160 34.60780130
686 1 1 -0.000200258628032 10.29621720 56.89758465 34.60780130
687 1 1 -0.000191092898037 8.82532903 59.44523769 34.60780130
688 1 1 -0.000388563606093 10.29621720 41.61166638 34.60780130
689 1 1 -0.000370022069299 11.76710537 44.15931943 34.60780130
690 1 1 -0.000340451560207 13.23799354 46.70697247 34.60780130
691 1 1 -0.000269811592212 11.76710537 49.25462551 34.60780130
692 1 1 -0.000249147976412 13.23799354 51.80227856 34.60780130
693 1 1 -0.000217676354823 11.76710537 54.34993160 34.60780130
694 1 1 -0.000209608840386 13.23799354 56.89758465 34.60780130
695 1 1 -0.000198229066703 11.76710537 59.44523769 34.60780130
696 1 1 -0.000473378673857 13.23799354 41.61166638 34.60780130
697 1 1 -0.000443570546486 14.70888171 44.15931943 34.60780130
698 1 1 -0.000398285970859 16.17976988 46.70697247 34.60780130
699 1 1 -0.00030580019724 14.70888171 49.25462551 34.60780130
700 1 1 -0.00027290870363 16.17976988 51.80227856 34.60780130
701 1 1 -0.000231770614434 14.70888171 54.34993160 34.60780130
702 1 1 -0.000219696763909 16.17976988 56.89758465 34.60780130
703 1 1 -0.000206203743915 14.70888171 59.44523769 34.60780130
704 1 1 -0.000541805540957 16.17976988 41.61166638 34.60780130
705 1 1 -0.000236782488809 0.00000000 44.15931943 34.60780130
706 1 1 -0.000223446829001 1.47088817 46.70697247 34.60780130
707 1 1 -0.000209249408869 0.00000000 49.25462551 34.60780130
708 1 1 -0.000198954530256 1.47088817 51.80227856 34.60780130
709 1 1 -0.000189844140587 0.00000000 54.34993160 34.60780130
710 1 1 -0.000184310666727 1.47088817 56.89758465 34.60780130
711 1 1 -0.000180765079189 0.00000000 59.44523769 34.60780130
712 1 1 -0.00025432000133 1.47088817 41.61166638 34.60780130
713 1 1 -0.000243600806115 2.94177634 44.15931943 34.60780130
714 1 1 -0.000233385023008 4.41266451 46.70697247 34.60780130
715 1 1 -0.000212695433328 2.94177634 49.25462551 34.60780130
716 1 1 -0.000203903439926 4.41266451 51.80227856 34.60780130
717 1 1 -0.000191662813244 2.94177634 54.34993160 34.60780130
718 1 1 -0.00018711831712 4.41266451 56.89758465 34.60780130
719 1 1 -0.000181974259957 2.94177634 59.44523769 34.60780130
720 1 1 -0.000273698199643 4.41266451 41.61166638 34.60780130
721 1 1 0.000212467570692 17.65065805 0.00000000 25.00000000
722 1 1 0.000220639147668 19.12154622 2.54765304 25.00000000
723 1 1 0.00023084257229 17.65065805 5.09530609 25.00000000
724 1 1 0.000266248983761 19.12154622 7.64295913 25.00000000
725 1 1 0.000303225128688 17.65065805 10.19061218 25.00000000
726 1 1 0.000393026531514 19.12154622 12.73826522 25.00000000
727 1 1 0.000455397477315 17.65065805 15.28591827 25.00000000
728 1 1 0.000553929971464 19.12154622 17.83357131 25.00000000
729 1 1 0.000218875266695 20.59243439 0.00000000 25.00000000
730 1 1 0.000226822888441 22.06332256 2.54765304 25.00000000
731 1 1 0.000240861027838 20.59243439 5.09530609 25.00000000
732 1 1 0.000280485789258 22.06332256 7.64295913 25.00000000
733 1 1 0.000330268692014 20.59243439 10.19061218 25.00000000
734 1 1 0.00042745768337 22.06332256 12.73826522 25.00000000
735 1 1 0.000501239619517 20.59243439 15.28591827 25.00000000
736 1 1 0.000598042416691 22.06332256 17.83357131 25.00000000
737 1 1 0.000223195060391 23.53421073 0.00000000 25.00000000
738 1 1 0.000230223722975 25.00509890 2.54765304 25.00000000
739 1 1 0.000247843983079 23.53421073 5.09530609 25.00000000
740 1 1 0.000288588036285 25.00509890 7.64295913 25.00000000
741 1 1 0.000349422447549 23.53421073 10.19061218 25.00000000
742 1 1 0.000445604315709 25.00509890 12.73826522 25.00000000
743 1 1 0.000526640385181 23.53421073 15.28591827 25.00000000
744 1 1 0.000639499670807 25.00509890 17.83357131 25.00000000
745 1 1 0.000224721937894 26.47598708 0.00000000 25.00000000
746 1 1 0.000230223722963 27.94687525 2.54765304 25.00000000
747 1 1 0.000250356930995 26.47598708 5.09530609 25.00000000
748 1 1 0.000288588036259 27.94687525 7.64295913 25.00000000
749 1 1 0.000356321216686 26.47598708 10.19061218 25.00000000
750 1 1 0.000445604315648 27.94687525 12.73826522 25.00000000
751 1 1 0.000534465606854 26.47598708 15.28591827 25.00000000
752 1 1 0.00063949967045 27.94687525 17.83357131 25.00000000
753 1 1 0.000223195060379 29.41776342 0.00000000 25.00000000
754 1 1 0.000226822888437 30.88865159 2.54765304 25.00000000
755 1 1 0.000247843983055 29.41776342 5.09530609 25.00000000
756 1 1 0.000280485789221 30.88865159 7.64295913 25.00000000
757 1 1 0.000349422447481 29.41776342 10.19061218 25.00000000
758 1 1 0.000427457683256 30.88865159 12.73826522 25.00000000
759 1 1 0.000526640385004 29.41776342 15.28591827 25.00000000
760 1 1 0.000598042416132 30.88865159 17.83357131 25.00000000
761 1 1 0.000218875266714 32.35953976 0.00000000 25.00000000
762 1 1 0.000220639147707 33.83042793 2.54765304 25.00000000
763 1 1 0.000240861027841 32.35953976 5.09530609 25.00000000
764 1 1 0.000266248983763 33.83042793 7.64295913 25.00000000
765 1 1 0.000330268691955 32.35953976 10.19061218 25.00000000
766 1 1 0.000393026531425 33.83042793 12.73826522 25.00000000
767 1 1 0.000501239619348 32.35953976 15.28591827 25.00000000
768 1 1 0.00055392997118 33.83042793 17.83357131 25.00000000
769 1 1 3.37890296867e-05 19.12154622 0.84921768 27.40195032
770 1 1 3.54105558383e-05 20.59243439 3.39687073 27.40195032
771 1 1 3.7901850472e-05 19.12154622 5.94452377 27.40195032
772 1 1 4.60014473746e-05 20.59243439 8.49217681 27.40195032
773 1 1 5.48810837811e-05 19.12154622 11.03982986 27.40195032
774 1 1 6.06756177211e-05 20.59243439 13.58748290 27.40195032
775 1 1 3.53969545945e-05 19.12154622 16.13513595 27.40195032
776 1 1 -0.000136065081041 20.59243439 18.68278899 27.40195032
777 1 1 3.45508989531e-05 22.06332256 0.84921768 27.40195032
778 1 1 3.61911476272e-05 23.53421073 3.39687073 27.40195032
779 1 1 3.95647946951e-05 22.06332256 5.94452377 27.40195032
780 1 1 4.8516184695e-05 23.53421073 8.49217681 27.40195032
781 1 1 5.88436243416e-05 22.06332256 11.03982986 27.40195032
782 1 1 5.49954187027e-05 23.53421073 13.58748290 27.40195032
783 1 1 -6.32102210785e-06 22.06332256 16.13513595 27.40195032
784 1 1 -0.000229390218786 23.53421073 18.68278899 27.40195032
785 1 1 3.49668319766e-05 25.00509890 0.84921768 27.40195032
786 1 1 3.64727651987e-05 26.47598708 3.39687073 27.40195032
787 1 1 4.05303655625e-05 25.00509890 5.94452377 27.40195032
788 1 1 4.9423291607e-05 26.47598708 8.49217681 27.40195032
789 1 1 6.05614226141e-05 25.00509890 11.03982986 27.40195032
790 1 1 5.17612028836e-05 26.47598708 13.58748290 27.40195032
791 1 1 -3.87203264312e-05 25.00509890 16.13513595 27.40195032
792 1 1 -0.00025908645974 26.47598708 18.68278899 27.40195032
793 1 1 3.49668319817e-05 27.94687525 0.84921768 27.40195032
794 1 1 3.6191147641e-05 29.41776342 3.39687073 27.40195032
795 1 1 4.05303655641e-05 27.94687525 5.94452377 27.40195032
796 1 1 4.85161846985e-05 29.41776342 8.49217681 27.40195032
797 1 1 6.05614226099e-05 27.94687525 11.03982986 27.40195032
798 1 1 5.49954187144e-05 29.41776342 13.58748290 27.40195032
799 1 1 -3.87203264208e-05 27.94687525 16.13513595 27.40195032
800 1 1 -0.000229390218939 29.41776342 18.68278899 27.40195032
801 1 1 3.45508989866e-05 30.88865159 0.84921768 27.40195032
802 1 1 3.5410555893e-05 32.35953976 3.39687073 27.40195032
803 1 1 3.95647947216e-05 30.88865159 5.94452377 27.40195032
804 1 1 4.60014474177e-05 32.35953976 8.49217681 27.40195032
805 1 1 5.88436243571e-05 30.88865159 11.03982986 27.40195032
806 1 1 6.06756177856e-05 32.35953976 13.58748290 27.40195032
807 1 1 -6.32102202529e-06 30.88865159 16.13513595 27.40195032
808 1 1 -0.000136065080831 32.35953976 18.68278899 27.40195032
809 1 1 3.3789029767e-05 33.83042793 0.84921768 27.40195032
810 1 1 3.42926535872e-05 17.65065805 3.39687073 27.40195032
811 1 1 3.79018505469e-05 33.83042793 5.94452377 27.40195032
812 1 1 4.25031761046e-05 17.65065805 8.49217681 27.40195032
813 1 1 5.48810838468e-05 33.83042793 11.03982986 27.40195032
814 1 1 6.1640108738e-05 17.65065805 13.58748290 27.40195032
815 1 1 3.53969547825e-05 33.83042793 16.13513595 27.40195032
816 1 1 -2.14486217814e-05 17.65065805 18.68278899 27.40195032
817 1 1 -6.60737783004e-08 20.59243439 1.69843536 29.80390065
818 1 1 -6.86359931296e-08 22.06332256 4.24608841 29.80390065
819 1 1 -7.60837381296e-08 20.59243439 6.79374145 29.80390065
820 1 1 -1.27545290879e-07 22.06332256 9.34139450 29.80390065
821 1 1 -2.28488617169e-07 20.59243439 11.88904754 29.80390065
822 1 1 -5.67412454425e-07 22.06332256 14.43670058 29.80390065
823 1 1 -1.15663217708e-06 20.59243439 16.98435363 29.80390065
824 1 1 -1.72317874194e-06 22.06332256 19.53200667 29.80390065
825 1 1 -6.74408789078e-08 23.53421073 1.69843536 29.80390065
826 1 1 -7.02147923952e-08 25.00509890 4.24608841 29.80390065
827 1 1 -8.46057973734e-08 23.53421073 6.79374145 29.80390065
828 1 1 -1.51542192699e-07 25.00509890 9.34139450 29.80390065
829 1 1 -2.82540421228e-07 23.53421073 11.88904754 29.80390065
830 1 1 -3.52376172024e-07 25.00509890 14.43670058 29.80390065
831 1 1 -7.0541290204e-07 23.53421073 16.98435363 29.80390065
832 1 1 5.09813855239e-07 25.00509890 19.53200667 29.80390065
833 1 1 -6.79360381788e-08 26.47598708 1.69843536 29.80390065
834 1 1 -7.02147704703e-08 27.94687525 4.24608841 29.80390065
835 1 1 -8.9115998752e-08 26.47598708 6.79374145 29.80390065
836 1 1 -1.51542170721e-07 27.94687525 9.34139450 29.80390065
837 1 1 -2.83252046371e-07 26.47598708 11.88904754 29.80390065
838 1 1 -3.52376149543e-07 27.94687525 14.43670058 29.80390065
839 1 1 3.04007906084e-07 26.47598708 16.98435363 29.80390065
840 1 1 5.0981387974e-07 27.94687525 19.53200667 29.80390065
841 1 1 -6.74408358151e-08 29.41776342 1.69843536 29.80390065
842 1 1 -6.86359300107e-08 30.88865159 4.24608841 29.80390065
843 1 1 -8.46057543721e-08 29.41776342 6.79374145 29.80390065
844 1 1 -1.27545227431e-07 30.88865159 9.34139450 29.80390065
845 1 1 -2.82540378826e-07 29.41776342 11.88904754 29.80390065
846 1 1 -5.67412391626e-07 30.88865159 14.43670058 29.80390065
847 1 1 -7.05412881333e-07 29.41776342 16.98435363 29.80390065
848 1 1 -1.72317868514e-06 30.88865159 19.53200667 29.80390065
849 1 1 -6.60736971081e-08 32.35953976 1.69843536 29.80390065
850 1 1 -6.69433011176e-08 33.83042793 4.24608841 29.80390065
851 1 1 -7.60836567678e-08 32.35953976 6.79374145 29.80390065
852 1 1 -9.66025330409e-08 33.83042793 9.34139450 29.80390065
853 1 1 -2.28488535696e-07 32.35953976 11.88904754 29.80390065
854 1 1 -4.22019404143e-07 33.83042793 14.43670058 29.80390065
855 1 1 -1.15663208569e-06 32.35953976 16.98435363 29.80390065
856 1 1 -1.30651004378e-06 33.83042793 19.53200667 29.80390065
857 1 1 -6.39531209206e-08 17.65065805 1.69843536 29.80390065
858 1 1 -6.69433977196e-08 19.12154622 4.24608841 29.80390065
859 1 1 -7.08681773969e-08 17.65065805 6.79374145 29.80390065
860 1 1 -9.66026296863e-08 19.12154622 9.34139450 29.80390065
861 1 1 -1.38857779874e-07 17.65065805 11.88904754 29.80390065
862 1 1 -4.22019500424e-07 19.12154622 14.43670058 29.80390065
863 1 1 -6.24867445767e-07 17.65065805 16.98435363 29.80390065
864 1 1 -1.3065101148e-06 19.12154622 19.53200667 29.80390065
865 1 1 -3.46253036087e-05 22.06332256 2.54765304 32.20585097
866 1 1 -3.77836270813e-05 23.53421073 5.09530609 32.20585097
867 1 1 -4.35136872478e-05 22.06332256 7.64295913 32.20585097
868 1 1 -5.55241746287e-05 23.53421073 10.19061218 32.20585097
869 1 1 -6.10281601245e-05 22.06332256 12.73826522 32.20585097
870 1 1 -1.34815521553e-05 23.53421073 15.28591827 32.20585097
871 1 1 0.000118636618401 22.06332256 17.83357131 32.20585097
872 1 1 -3.41458694711e-05 23.53421073 0.00000000 32.20585097
873 1 1 -3.50958210536e-05 25.00509890 2.54765304 32.20585097
874 1 1 -3.81821974763e-05 26.47598708 5.09530609 32.20585097
875 1 1 -4.49796550663e-05 25.00509890 7.64295913 32.20585097
876 1 1 -5.65428265133e-05 26.47598708 10.19061218 32.20585097
877 1 1 -5.9473616222e-05 25.00509890 12.73826522 32.20585097
878 1 1 -1.45804842863e-06 26.47598708 15.28591827 32.20585097
879 1 1 0.000179033296606 25.00509890 17.83357131 32.20585097
880 1 1 -3.43506116712e-05 26.47598708 0.00000000 32.20585097
881 1 1 -3.50958210158e-05 27.94687525 2.54765304 32.20585097
882 1 1 -3.77836270096e-05 29.41776342 5.09530609 32.20585097
883 1 1 -4.49796550231e-05 27.94687525 7.64295913 32.20585097
884 1 1 -5.55241745457e-05 29.41776342 10.19061218 32.20585097
885 1 1 -5.94736161778e-05 27.94687525 12.73826522 32.20585097
886 1 1 -1.34815521074e-05 29.41776342 15.28591827 32.20585097
887 1 1 0.000179033296685 27.94687525 17.83357131 32.20585097
888 1 1 -3.41458694038e-05 29.41776342 0.00000000 32.20585097
889 1 1 -3.46253035199e-05 30.88865159 2.54765304 32.20585097
890 1 1 -3.66991081445e-05 32.35953976 5.09530609 32.20585097
891 1 1 -4.35136871484e-05 30.88865159 7.64295913 32.20585097
892 1 1 -5.24492618921e-05 32.35953976 10.19061218 32.20585097
893 1 1 -6.10281600283e-05 30.88865159 12.73826522 32.20585097
894 1 1 -3.89265114731e-05 32.35953976 15.28591827 32.20585097
895 1 1 0.000118636618431 30.88865159 17.83357131 32.20585097
896 1 1 -3.35660520305e-05 32.35953976 0.00000000 32.20585097
897 1 1 -3.37774117306e-05 33.83042793 2.54765304 32.20585097
898 1 1 -3.52017181226e-05 17.65065805 5.09530609 32.20585097
899 1 1 -4.09898658156e-05 33.83042793 7.64295913 32.20585097
900 1 1 -4.77086828528e-05 17.65065805 10.19061218 32.20585097
901 1 1 -6.03583433816e-05 33.83042793 12.73826522 32.20585097
902 1 1 -5.77660987403e-05 17.65065805 15.28591827 32.20585097
903 1 1 2.87151062715e-05 33.83042793 17.83357131 32.20585097
904 1 1 -3.27027753965e-05 17.65065805 0.00000000 32.20585097
905 1 1 -3.37774118367e-05 19.12154622 2.54765304 32.20585097
906 1 1 -3.66991082484e-05 20.59243439 5.09530609 32.20585097
907 1 1 -4.09898659302e-05 19.12154622 7.64295913 32.20585097
908 1 1 -5.24492620086e-05 20.59243439 10.19061218 32.20585097
909 1 1 -6.03583434913e-05 19.12154622 12.73826522 32.20585097
910 1 1 -3.89265115181e-05 20.59243439 15.28591827 32.20585097
911 1 1 2.87151063939e-05 19.12154622 17.83357131 32.20585097
912 1 1 -3.35660521297e-05 20.59243439 0.00000000 32.20585097
913 1 1 -0.000233247017793 23.53421073 3.39687073 34.60780130
914 1 1 -0.000259753890746 25.00509890 5.94452377 34.60780130
915 1 1 -0.000303114114207 23.53421073 8.49217681 34.60780130
916 1 1 -0.000382443140531 25.00509890 11.03982986 34.60780130
917 1 1 -0.000469549936975 23.53421073 13.58748290 34.60780130
918 1 1 -0.000555983304983 25.00509890 16.13513595 34.60780130
919 1 1 -0.00070359531501 23.53421073 18.68278899 34.60780130
920 1 1 -0.000224669057872 25.00509890 0.84921768 34.60780130
921 1 1 -0.000235166559131 26.47598708 3.39687073 34.60780130
922 1 1 -0.00025975389069 27.94687525 5.94452377 34.60780130
923 1 1 -0.000308105620803 26.47598708 8.49217681 34.60780130
924 1 1 -0.000382443140447 27.94687525 11.03982986 34.60780130
925 1 1 -0.000478753054236 26.47598708 13.58748290 34.60780130
926 1 1 -0.000555983304803 27.94687525 16.13513595 34.60780130
927 1 1 -0.000763373242425 26.47598708 18.68278899 34.60780130
928 1 1 -0.000224669057824 27.94687525 0.84921768 34.60780130
929 1 1 -0.000233247017703 29.41776342 3.39687073 34.60780130
930 1 1 -0.000254040788963 30.88865159 5.94452377 34.60780130
931 1 1 -0.000303114114086 29.41776342 8.49217681 34.60780130
932 1 1 -0.000367074004938 30.88865159 11.03982986 34.60780130
933 1 1 -0.000469549936784 29.41776342 13.58748290 34.60780130
934 1 1 -0.000539770065582 30.88865159 16.13513595 34.60780130
935 1 1 -0.000703595313963 29.41776342 18.68278899 34.60780130
936 1 1 -0.000221642611171 30.88865159 0.84921768 34.60780130
937 1 1 -0.000227864869919 32.35953976 3.39687073 34.60780130
938 1 1 -0.000243911517324 33.83042793 5.94452377 34.60780130
939 1 1 -0.000289388803141 32.35953976 8.49217681 34.60780130
940 1 1 -0.000339499799955 33.83042793 11.03982986 34.60780130
941 1 1 -0.000441849475914 32.35953976 13.58748290 34.60780130
942 1 1 -0.000506435496229 33.83042793 16.13513595 34.60780130
943 1 1 -0.000608462722894 32.35953976 18.68278899 34.60780130
944 1 1 -0.000216102501782 33.83042793 0.84921768 34.60780130
945 1 1 -0.000220009470188 17.65065805 3.39687073 34.60780130
946 1 1 -0.000243911517468 19.12154622 5.94452377 34.60780130
947 1 1 -0.000270191140573 17.65065805 8.49217681 34.60780130
948 1 1 -0.000339499800174 19.12154622 11.03982986 34.60780130
949 1 1 -0.000397967097136 17.65065805 13.58748290 34.60780130
950 1 1 -0.000506435496554 19.12154622 16.13513595 34.60780130
951 1 1 -0.000549572234769 17.65065805 18.68278899 34.60780130
952 1 1 -0.000216102501904 19.12154622 0.84921768 34.60780130
953 1 1 -0.000227864870045 20.59243439 3.39687073 34.60780130
954 1 1 -0.000254040789091 22.06332256 5.94452377 34.60780130
955 1 1 -0.000289388803311 20.59243439 8.49217681 34.60780130
956 1 1 -0.00036707400513 22.06332256 11.03982986 34.60780130
957 1 1 -0.000441849476175 20.59243439 13.58748290 34.60780130
958 1 1 -0.000539770065933 22.06332256 16.13513595 34.60780130
959 1 1 -0.000608462723738 20.59243439 18.68278899 34.60780130
960 1 1 -0.000221642611279 22.06332256 0.84921768 34.60780130
961 1 1 0.000599783655044 17.65065805 20.38122435 25.00000000
962 1 1 0.00123334257266 19.12154622 22.92887739 25.00000000
963 1 1 0.00151574891459 17.65065805 25.47653044 25.00000000
964 1 1 0.00618860526381 19.12154622 28.02418348 25.00000000
965 1 1 0.00331081973654 17.65065805 30.57183653 25.00000000
966 1 1 0.00618898202692 19.12154622 33.11948957 25.00000000
967 1 1 0.00151504484924 17.65065805 35.66714262 25.00000000
968 1 1 0.00123312600691 19.12154622 38.21479566 25.00000000
969 1 1 0.000797125197087 20.59243439 20.38122435 25.00000000
970 1 1 0.00330837133669 22.06332256 22.92887739 25.00000000
971 1 1 0.00618776396854 20.59243439 25.47653044 25.00000000
972 1 1 0.0259953372563 22.06332256 28.02418348 25.00000000
973 1 1 0.0177763293356 20.59243439 30.57183653 25.00000000
974 1 1 0.0259964543481 22.06332256 33.11948957 25.00000000
975 1 1 0.00618813789609 20.59243439 35.66714262 25.00000000
976 1 1 0.00330836983255 22.06332256 38.21479566 25.00000000
977 1 1 0.00123174275299 23.53421073 20.38122435 25.00000000
978 1 1 0.00618705357665 25.00509890 22.92887739 25.00000000
979 1 1 0.0177752235942 23.53421073 25.47653044 25.00000000
980 1 1 0.0581684986084 25.00509890 28.02418348 25.00000000
981 1 1 0.0581687494202 23.53421073 30.57183653 25.00000000
982 1 1 0.0581685041346 25.00509890 33.11948957 25.00000000
983 1 1 0.017775219774 23.53421073 35.66714262 25.00000000
984 1 1 0.00618667559109 25.00509890 38.21479566 25.00000000
985 1 1 0.0015123571677 26.47598708 20.38122435 25.00000000
986 1 1 0.00618705356779 27.94687525 22.92887739 25.00000000
987 1 1 0.0259958141413 26.47598708 25.47653044 25.00000000
988 1 1 0.05816849852 27.94687525 28.02418348 25.00000000
989 1 1 0.0891400087858 26.47598708 30.57183653 25.00000000
990 1 1 0.0581685040463 27.94687525 33.11948957 25.00000000
991 1 1 0.0259946953742 26.47598708 35.66714262 25.00000000
992 1 1 0.00618667558222 27.94687525 38.21479566 25.00000000
993 1 1 0.0012317427501 29.41776342 20.38122435 25.00000000
994 1 1 0.00330837132358 30.88865159 22.92887739 25.00000000
995 1 1 0.0177752235432 29.41776342 25.47653044 25.00000000
996 1 1 0.0259953371445 30.88865159 28.02418348 25.00000000
997 1 1 0.0581687492446 29.41776342 30.57183653 25.00000000
998 1 1 0.0259964542363 30.88865159 33.11948957 25.00000000
999 1 1 0.0177752197231 29.41776342 35.66714262 25.00000000
1000 1 1 0.00330836981942 30.88865159 38.21479566 25.00000000
1001 1 1 0.000797125194972 32.35953976 20.38122435 25.00000000
1002 1 1 0.00123334256707 33.83042793 22.92887739 25.00000000
1003 1 1 0.006187763936 32.35953976 25.47653044 25.00000000
1004 1 1 0.00618860522455 33.83042793 28.02418348 25.00000000
1005 1 1 0.0177763292372 32.35953976 30.57183653 25.00000000
1006 1 1 0.0061889819877 33.83042793 33.11948957 25.00000000
1007 1 1 0.00618813786359 32.35953976 35.66714262 25.00000000
1008 1 1 0.0012331260013 33.83042793 38.21479566 25.00000000
1009 1 1 -0.000260430286166 19.12154622 21.23044203 27.40195032
1010 1 1 6.76776005611e-05 20.59243439 23.77809508 27.40195032
1011 1 1 0.000382629718092 19.12154622 26.32574812 27.40195032
1012 1 1 0.00477015173765 20.59243439 28.87340116 27.40195032
1013 1 1 0.00168069334465 19.12154622 31.42105421 27.40195032
1014 1 1 0.00290053634281 20.59243439 33.96870725 27.40195032
1015 1 1 -0.000127090354949 19.12154622 36.51636030 27.40195032
1016 1 1 -0.00029361892731 20.59243439 39.06401334 27.40195032
1017 1 1 -0.000293688133674 22.06332256 21.23044203 27.40195032
1018 1 1 0.0016804202299 23.53421073 23.77809508 27.40195032
1019 1 1 0.00477002803005 22.06332256 26.32574812 27.40195032
1020 1 1 0.0189067896441 23.53421073 28.87340116 27.40195032
1021 1 1 0.0120521350999 22.06332256 31.42105421 27.40195032
1022 1 1 0.012052018914 23.53421073 33.96870725 27.40195032
1023 1 1 0.00168047065401 22.06332256 36.51636030 27.40195032
1024 1 1 6.75482359357e-05 23.53421073 39.06401334 27.40195032
1025 1 1 -0.000127352069716 25.00509890 21.23044203 27.40195032
1026 1 1 0.00290036204831 26.47598708 23.77809508 27.40195032
1027 1 1 0.0120519928812 25.00509890 26.32574812 27.40195032
1028 1 1 0.0296390798159 26.47598708 28.87340116 27.40195032
1029 1 1 0.029639065249 25.00509890 31.42105421 27.40195032
1030 1 1 0.0189067763396 26.47598708 33.96870725 27.40195032
1031 1 1 0.00476996322205 25.00509890 36.51636030 27.40195032
1032 1 1 0.000382342392766 26.47598708 39.06401334 27.40195032
1033 1 1 -0.000127352070903 27.94687525 21.23044203 27.40195032
1034 1 1 0.00168042022068 29.41776342 23.77809508 27.40195032
1035 1 1 0.0120519928598 27.94687525 26.32574812 27.40195032
1036 1 1 0.01890678958 29.41776342 28.87340116 27.40195032
1037 1 1 0.0296390651993 27.94687525 31.42105421 27.40195032
1038 1 1 0.0120520188717 29.41776342 33.96870725 27.40195032
1039 1 1 0.00476996321223 27.94687525 36.51636030 27.40195032
1040 1 1 6.75482327196e-05 29.41776342 39.06401334 27.40195032
1041 1 1 -0.000293688135137 30.88865159 21.23044203 27.40195032
1042 1 1 6.76775952761e-05 32.35953976 23.77809508 27.40195032
1043 1 1 0.00477002800189 30.88865159 26.32574812 27.40195032
1044 1 1 0.00477015170139 32.35953976 28.87340116 27.40195032
1045 1 1 0.0120521350375 30.88865159 31.42105421 27.40195032
1046 1 1 0.00290053631832 32.35953976 33.96870725 27.40195032
1047 1 1 0.00168047064081 30.88865159 36.51636030 27.40195032
1048 1 1 -0.000293618928911 32.35953976 39.06401334 27.40195032
1049 1 1 -0.000260430286086 33.83042793 21.23044203 27.40195032
1050 1 1 -0.000306156710677 17.65065805 23.77809508 27.40195032
1051 1 1 0.000382629709157 33.83042793 26.32574812 27.40195032
1052 1 1 6.79667568955e-05 17.65065805 28.87340116 27.40195032
1053 1 1 0.00168069332494 33.83042793 31.42105421 27.40195032
1054 1 1 -0.000126924124209 17.65065805 33.96870725 27.40195032
1055 1 1 -0.000127090358842 33.83042793 36.51636030 27.40195032
1056 1 1 -0.000229084160172 17.65065805 39.06401334 27.40195032
1057 1 1 -1.80166078952e-07 20.59243439 22.07965971 29.80390065
1058 1 1 8.12435356886e-06 22.06332256 24.62731276 29.80390065
1059 1 1 1.15379328763e-05 20.59243439 27.17496580 29.80390065
1060 1 1 2.9577467295e-05 22.06332256 29.72261885 29.80390065
1061 1 1 1.45687837568e-05 20.59243439 32.27027189 29.80390065
1062 1 1 1.45691844719e-05 22.06332256 34.81792493 29.80390065
1063 1 1 1.4047785262e-06 20.59243439 37.36557798 29.80390065
1064 1 1 -1.79601168392e-07 22.06332256 39.91323102 29.80390065
1065 1 1 1.40475717828e-06 23.53421073 22.07965971 29.80390065
1066 1 1 1.45686282251e-05 25.00509890 24.62731276 29.80390065
1067 1 1 2.95793565831e-05 23.53421073 27.17496580 29.80390065
1068 1 1 5.84365430038e-05 25.00509890 29.72261885 29.80390065
1069 1 1 4.04808362306e-05 23.53421073 32.27027189 29.80390065
1070 1 1 2.95802753771e-05 25.00509890 34.81792493 29.80390065
1071 1 1 8.12427090413e-06 23.53421073 37.36557798 29.80390065
1072 1 1 8.16663398832e-08 25.00509890 39.91323102 29.80390065
1073 1 1 3.87071556608e-06 26.47598708 22.07965971 29.80390065
1074 1 1 1.45686282575e-05 27.94687525 24.62731276 29.80390065
1075 1 1 4.04807414631e-05 26.47598708 27.17496580 29.80390065
1076 1 1 5.84365429523e-05 27.94687525 29.72261885 29.80390065
1077 1 1 5.84408267877e-05 26.47598708 32.27027189 29.80390065
1078 1 1 2.95802753527e-05 27.94687525 34.81792493 29.80390065
1079 1 1 1.15371469677e-05 26.47598708 37.36557798 29.80390065
1080 1 1 8.16663527382e-08 27.94687525 39.91323102 29.80390065
1081 1 1 1.40475716135e-06 29.41776342 22.07965971 29.80390065
1082 1 1 8.1243536291e-06 30.88865159 24.62731276 29.80390065
1083 1 1 2.95793565645e-05 29.41776342 27.17496580 29.80390065
1084 1 1 2.95774672493e-05 30.88865159 29.72261885 29.80390065
1085 1 1 4.04808361641e-05 29.41776342 32.27027189 29.80390065
1086 1 1 1.45691844768e-05 30.88865159 34.81792493 29.80390065
1087 1 1 8.12427098439e-06 29.41776342 37.36557798 29.80390065
1088 1 1 -1.79601108268e-07 30.88865159 39.91323102 29.80390065
1089 1 1 -1.801659099e-07 32.35953976 22.07965971 29.80390065
1090 1 1 8.03408594381e-08 33.83042793 24.62731276 29.80390065
1091 1 1 1.15379329765e-05 32.35953976 27.17496580 29.80390065
1092 1 1 8.12414882892e-06 33.83042793 29.72261885 29.80390065
1093 1 1 1.45687837198e-05 32.35953976 32.27027189 29.80390065
1094 1 1 3.87066756127e-06 33.83042793 34.81792493 29.80390065
1095 1 1 1.40477849774e-06 32.35953976 37.36557798 29.80390065
1096 1 1 -1.72349134772e-06 33.83042793 39.91323102 29.80390065
1097 1 1 -2.15557249894e-06 17.65065805 22.07965971 29.80390065
1098 1 1 8.03408614113e-08 19.12154622 24.62731276 29.80390065
1099 1 1 8.03012178862e-08 17.65065805 27.17496580 29.80390065
1100 1 1 8.12414880308e-06 19.12154622 29.72261885 29.80390065
1101 1 1 1.40444988863e-06 17.65065805 32.27027189 29.80390065
1102 1 1 3.87066741355e-06 19.12154622 34.81792493 29.80390065
1103 1 1 5.08747970762e-07 17.65065805 37.36557798 29.80390065
1104 1 1 -1.72349149382e-06 19.12154622 39.91323102 29.80390065
1105 1 1 -0.000133839619552 22.06332256 22.92887739 32.20585097
1106 1 1 -0.00553521643715 23.53421073 25.47653044 32.20585097
1107 1 1 -0.00882762161807 22.06332256 28.02418348 32.20585097
1108 1 1 -0.0218197475069 23.53421073 30.57183653 32.20585097
1109 1 1 -0.0088281007295 22.06332256 33.11948957 32.20585097
1110 1 1 -0.00553520683583 23.53421073 35.66714262 32.20585097
1111 1 1 -0.000133835046401 22.06332256 38.21479566 32.20585097
1112 1 1 0.000315816360291 23.53421073 20.38122435 32.20585097
1113 1 1 -0.00108797705653 25.00509890 22.92887739 32.20585097
1114 1 1 -0.00882801261293 26.47598708 25.47653044 32.20585097
1115 1 1 -0.0218197205767 25.00509890 28.02418348 32.20585097
1116 1 1 -0.0342394414355 26.47598708 30.57183653 32.20585097
1117 1 1 -0.0218197336894 25.00509890 33.11948957 32.20585097
1118 1 1 -0.00882752978207 26.47598708 35.66714262 32.20585097
1119 1 1 -0.00108760624364 25.00509890 38.21479566 32.20585097
1120 1 1 0.00028915329462 26.47598708 20.38122435 32.20585097
1121 1 1 -0.00108797705275 27.94687525 22.92887739 32.20585097
1122 1 1 -0.00553521641513 29.41776342 25.47653044 32.20585097
1123 1 1 -0.0218197205395 27.94687525 28.02418348 32.20585097
1124 1 1 -0.0218197474334 29.41776342 30.57183653 32.20585097
1125 1 1 -0.0218197336524 27.94687525 33.11948957 32.20585097
1126 1 1 -0.00553520681388 29.41776342 35.66714262 32.20585097
1127 1 1 -0.00108760623986 27.94687525 38.21479566 32.20585097
1128 1 1 0.000315816361226 29.41776342 20.38122435 32.20585097
1129 1 1 -0.000133839614466 30.88865159 22.92887739 32.20585097
1130 1 1 -0.00108777690573 32.35953976 25.47653044 32.20585097
1131 1 1 -0.00882762157047 30.88865159 28.02418348 32.20585097
1132 1 1 -0.00553538343758 32.35953976 30.57183653 32.20585097
1133 1 1 -0.00882810068209 30.88865159 33.11948957 32.20585097
1134 1 1 -0.00108813649676 32.35953976 35.66714262 32.20585097
1135 1 1 -0.000133835041267 30.88865159 38.21479566 32.20585097
1136 1 1 0.00027479910241 32.35953976 20.38122435 32.20585097
1137 1 1 0.000315795585904 33.83042793 22.92887739 32.20585097
1138 1 1 0.000287308365669 17.65065805 25.47653044 32.20585097
1139 1 1 -0.00108790136977 33.83042793 28.02418348 32.20585097
1140 1 1 -0.000134202621309 17.65065805 30.57183653 32.20585097
1141 1 1 -0.00108826896055 33.83042793 33.11948957 32.20585097
1142 1 1 0.00028874955676 17.65065805 35.66714262 32.20585097
1143 1 1 0.000315608764532 33.83042793 38.21479566 32.20585097
1144 1 1 0.000118666661291 17.65065805 20.38122435 32.20585097
1145 1 1 0.000315795584696 19.12154622 22.92887739 32.20585097
1146 1 1 -0.00108777691882 20.59243439 25.47653044 32.20585097
1147 1 1 -0.00108790138502 19.12154622 28.02418348 32.20585097
1148 1 1 -0.00553538347885 20.59243439 30.57183653 32.20585097
1149 1 1 -0.00108826897572 19.12154622 33.11948957 32.20585097
1150 1 1 -0.00108813650972 20.59243439 35.66714262 32.20585097
1151 1 1 0.000315608763272 19.12154622 38.21479566 32.20585097
1152 1 1 0.00027479910208 20.59243439 20.38122435 32.20585097
1153 1 1 -0.00774770547443 23.53421073 23.77809508 34.60780130
1154 1 1 -0.0339063442571 25.00509890 26.32574812 34.60780130
1155 1 1 -0.0509124109586 23.53421073 28.87340116 34.60780130
1156 1 1 -0.0777371462949 25.00509890 31.42105421 34.60780130
1157 1 1 -0.0339065180312 23.53421073 33.96870725 34.60780130
1158 1 1 -0.0157495708591 25.00509890 36.51636030 34.60780130
1159 1 1 -0.00299953853483 23.53421073 39.06401334 34.60780130
1160 1 1 -0.002269365732 25.00509890 21.23044203 34.60780130
1161 1 1 -0.0109670216956 26.47598708 23.77809508 34.60780130
1162 1 1 -0.0339063442068 27.94687525 26.32574812 34.60780130
1163 1 1 -0.0777371915017 26.47598708 28.87340116 34.60780130
1164 1 1 -0.0777371461747 27.94687525 31.42105421 34.60780130
1165 1 1 -0.0509123111609 26.47598708 33.96870725 34.60780130
1166 1 1 -0.0157495708363 27.94687525 36.51636030 34.60780130
1167 1 1 -0.00404231610668 26.47598708 39.06401334 34.60780130
1168 1 1 -0.00226936572883 27.94687525 21.23044203 34.60780130
1169 1 1 -0.00774770545245 29.41776342 23.77809508 34.60780130
1170 1 1 -0.0157501118459 30.88865159 26.32574812 34.60780130
1171 1 1 -0.0509124108057 29.41776342 28.87340116 34.60780130
1172 1 1 -0.0339071083749 30.88865159 31.42105421 34.60780130
1173 1 1 -0.0339065179316 29.41776342 33.96870725 34.60780130
1174 1 1 -0.00774805225685 30.88865159 36.51636030 34.60780130
1175 1 1 -0.00299953852645 29.41776342 39.06401334 34.60780130
1176 1 1 -0.00140760881225 30.88865159 21.23044203 34.60780130
1177 1 1 -0.00300037631568 32.35953976 23.77809508 34.60780130
1178 1 1 -0.004044217363 33.83042793 26.32574812 34.60780130
1179 1 1 -0.0157507873893 32.35953976 28.87340116 34.60780130
1180 1 1 -0.00774948469702 33.83042793 31.42105421 34.60780130
1181 1 1 -0.0109682259271 32.35953976 33.96870725 34.60780130
1182 1 1 -0.00227107467327 33.83042793 36.51636030 34.60780130
1183 1 1 -0.00140805875626 32.35953976 39.06401334 34.60780130
1184 1 1 -0.000767474330241 33.83042793 21.23044203 34.60780130
1185 1 1 -0.000976838055897 17.65065805 23.77809508 34.60780130
1186 1 1 -0.00404421738804 19.12154622 26.32574812 34.60780130
1187 1 1 -0.00300227965268 17.65065805 28.87340116 34.60780130
1188 1 1 -0.00774948474705 19.12154622 31.42105421 34.60780130
1189 1 1 -0.0022721787174 17.65065805 33.96870725 34.60780130
1190 1 1 -0.00227107468628 19.12154622 36.51636030 34.60780130
1191 1 1 -0.000705593233216 17.65065805 39.06401334 34.60780130
1192 1 1 -0.000767474332529 19.12154622 21.23044203 34.60780130
1193 1 1 -0.00300037633083 20.59243439 23.77809508 34.60780130
1194 1 1 -0.0157501119125 22.06332256 26.32574812 34.60780130
1195 1 1 -0.0157507874762 20.59243439 28.87340116 34.60780130
1196 1 1 -0.0339071085228 22.06332256 31.42105421 34.60780130
1197 1 1 -0.0109682259865 20.59243439 33.96870725 34.60780130
1198 1 1 -0.0077480522889 22.06332256 36.51636030 34.60780130
1199 1 1 -0.0014080587624 20.59243439 39.06401334 34.60780130
1200 1 1 -0.0014076088172 22.06332256 21.23044203 34.60780130
1201 1 1 0.000599553008087 17.65065805 40.76244870 25.00000000
1202 1 1 0.000553929883583 19.12154622 43.31010174 25.00000000
1203 1 1 0.0004553974366 17.65065805 45.85775479 25.00000000
1204 1 1 0.000393039961823 19.12154622 48.40540783 25.00000000
1205 1 1 0.00030321589242 17.65065805 50.95306088 25.00000000
1206 1 1 0.000266235602947 19.12154622 53.50071392 25.00000000
1207 1 1 0.000230837857974 17.65065805 56.04836697 25.00000000
1208 1 1 0.000220637198699 19.12154622 58.59602001 25.00000000
1209 1 1 0.000797125119602 20.59243439 40.76244870 25.00000000
1210 1 1 0.000598272790154 22.06332256 43.31010174 25.00000000
1211 1 1 0.000501340745124 20.59243439 45.85775479 25.00000000
1212 1 1 0.000427567439077 22.06332256 48.40540783 25.00000000
1213 1 1 0.000330266269938 20.59243439 50.95306088 25.00000000
1214 1 1 0.000280469957799 22.06332256 53.50071392 25.00000000
1215 1 1 0.000240851367863 20.59243439 56.04836697 25.00000000
1216 1 1 0.000226818888977 22.06332256 58.59602001 25.00000000
1217 1 1 0.00123195883054 23.53421073 40.76244870 25.00000000
1218 1 1 0.00064046442574 25.00509890 43.31010174 25.00000000
1219 1 1 0.000527098058122 23.53421073 45.85775479 25.00000000
1220 1 1 0.000445859241954 25.00509890 48.40540783 25.00000000
1221 1 1 0.000349453904902 23.53421073 50.95306088 25.00000000
1222 1 1 0.000288575158212 25.00509890 53.50071392 25.00000000
1223 1 1 0.000247830611338 23.53421073 56.04836697 25.00000000
1224 1 1 0.000230218271943 25.00509890 58.59602001 25.00000000
1225 1 1 0.00151306097473 26.47598708 40.76244870 25.00000000
1226 1 1 0.000640464425382 27.94687525 43.31010174 25.00000000
1227 1 1 0.00053521177069 26.47598708 45.85775479 25.00000000
1228 1 1 0.000445859241893 27.94687525 48.40540783 25.00000000
1229 1 1 0.000356375617575 26.47598708 50.95306088 25.00000000
1230 1 1 0.000288575158185 27.94687525 53.50071392 25.00000000
1231 1 1 0.000250342331851 26.47598708 56.04836697 25.00000000
1232 1 1 0.000230218271931 27.94687525 58.59602001 25.00000000
1233 1 1 0.00123195882764 29.41776342 40.76244870 25.00000000
1234 1 1 0.000598272789584 30.88865159 43.31010174 25.00000000
1235 1 1 0.000527098057942 29.41776342 45.85775479 25.00000000
1236 1 1 0.000427567438962 30.88865159 48.40540783 25.00000000
1237 1 1 0.000349453904834 29.41776342 50.95306088 25.00000000
1238 1 1 0.000280469957762 30.88865159 53.50071392 25.00000000
1239 1 1 0.000247830611314 29.41776342 56.04836697 25.00000000
1240 1 1 0.000226818888973 30.88865159 58.59602001 25.00000000
1241 1 1 0.000797125117502 32.35953976 40.76244870 25.00000000
1242 1 1 0.000553929883296 33.83042793 43.31010174 25.00000000
1243 1 1 0.000501340744956 32.35953976 45.85775479 25.00000000
1244 1 1 0.000393039961734 33.83042793 48.40540783 25.00000000
1245 1 1 0.000330266269878 32.35953976 50.95306088 25.00000000
1246 1 1 0.000266235602949 33.83042793 53.50071392 25.00000000
1247 1 1 0.000240851367866 32.35953976 56.04836697 25.00000000
1248 1 1 0.000220637198738 33.83042793 58.59602001 25.00000000
1249 1 1 -0.000135989820382 19.12154622 41.61166638 27.40195032
1250 1 1 -2.15985128535e-05 20.59243439 44.15931943 27.40195032
1251 1 1 5.94143940756e-05 19.12154622 46.70697247 27.40195032
1252 1 1 6.05190070004e-05 20.59243439 49.25462551 27.40195032
1253 1 1 4.74710767209e-05 19.12154622 51.80227856 27.40195032
1254 1 1 4.06794025328e-05 20.59243439 54.34993160 27.40195032
1255 1 1 3.56119071426e-05 19.12154622 56.89758465 27.40195032
1256 1 1 3.44297800167e-05 20.59243439 59.44523769 27.40195032
1257 1 1 -0.000260577626901 22.06332256 41.61166638 27.40195032
1258 1 1 -8.23311857441e-05 23.53421073 44.15931943 27.40195032
1259 1 1 4.74271285808e-05 22.06332256 46.70697247 27.40195032
1260 1 1 6.22087975422e-05 23.53421073 49.25462551 27.40195032
1261 1 1 5.11473255453e-05 22.06332256 51.80227856 27.40195032
1262 1 1 4.23770618249e-05 23.53421073 54.34993160 27.40195032
1263 1 1 3.67412015213e-05 22.06332256 56.89758465 27.40195032
1264 1 1 3.50615022705e-05 23.53421073 59.44523769 27.40195032
1265 1 1 -0.000306523619683 25.00509890 41.61166638 27.40195032
1266 1 1 -0.000108108420022 26.47598708 44.15931943 27.40195032
1267 1 1 3.55598097789e-05 25.00509890 46.70697247 27.40195032
1268 1 1 6.23886362115e-05 26.47598708 49.25462551 27.40195032
1269 1 1 5.31688195868e-05 25.00509890 51.80227856 27.40195032
1270 1 1 4.30043604374e-05 26.47598708 54.34993160 27.40195032
1271 1 1 3.73850308267e-05 25.00509890 56.89758465 27.40195032
1272 1 1 3.52859227335e-05 26.47598708 59.44523769 27.40195032
1273 1 1 -0.000306523619979 27.94687525 41.61166638 27.40195032
1274 1 1 -8.23311857134e-05 29.41776342 44.15931943 27.40195032
1275 1 1 3.55598097844e-05 27.94687525 46.70697247 27.40195032
1276 1 1 6.2208797544e-05 29.41776342 49.25462551 27.40195032
1277 1 1 5.31688195836e-05 27.94687525 51.80227856 27.40195032
1278 1 1 4.23770618325e-05 29.41776342 54.34993160 27.40195032
1279 1 1 3.73850308301e-05 27.94687525 56.89758465 27.40195032
1280 1 1 3.50615022858e-05 29.41776342 59.44523769 27.40195032
1281 1 1 -0.000260577627113 30.88865159 41.61166638 27.40195032
1282 1 1 -2.15985126815e-05 32.35953976 44.15931943 27.40195032
1283 1 1 4.74271286328e-05 30.88865159 46.70697247 27.40195032
1284 1 1 6.05190070428e-05 32.35953976 49.25462551 27.40195032
1285 1 1 5.11473255624e-05 30.88865159 51.80227856 27.40195032
1286 1 1 4.06794025806e-05 32.35953976 54.34993160 27.40195032
1287 1 1 3.67412015515e-05 30.88865159 56.89758465 27.40195032
1288 1 1 3.44297800728e-05 32.35953976 59.44523769 27.40195032
1289 1 1 -0.000135989820019 33.83042793 41.61166638 27.40195032
1290 1 1 3.54665064215e-05 17.65065805 44.15931943 27.40195032
1291 1 1 5.94143941874e-05 33.83042793 46.70697247 27.40195032
1292 1 1 5.58699981406e-05 17.65065805 49.25462551 27.40195032
1293 1 1 4.74710767875e-05 33.83042793 51.80227856 27.40195032
1294 1 1 3.83792228434e-05 17.65065805 54.34993160 27.40195032
1295 1 1 3.56119072205e-05 33.83042793 56.89758465 27.40195032
1296 1 1 3.34988149567e-05 17.65065805 59.44523769 27.40195032
1297 1 1 -1.30663851874e-06 20.59243439 42.46088406 29.80390065
1298 1 1 -1.01482529554e-06 22.06332256 45.00853711 29.80390065
1299 1 1 -2.71855212573e-07 20.59243439 47.55619015 29.80390065
1300 1 1 -9.9319039093e-08 22.06332256 50.10384320 29.80390065
1301 1 1 -7.30211168658e-08 20.59243439 52.65149624 29.80390065
1302 1 1 -7.6273282023e-08 22.06332256 55.19914928 29.80390065
1303 1 1 -7.31638829627e-08 20.59243439 57.74680233 29.80390065
1304 1 1 -6.91014707169e-08 22.06332256 60.29445537 29.80390065
1305 1 1 -2.15498890185e-06 23.53421073 42.46088406 29.80390065
1306 1 1 -2.09615724267e-06 25.00509890 45.00853711 29.80390065
1307 1 1 -4.93222305819e-07 23.53421073 47.55619015 29.80390065
1308 1 1 -1.20652675204e-07 25.00509890 50.10384320 29.80390065
1309 1 1 -6.31846744533e-08 23.53421073 52.65149624 29.80390065
1310 1 1 -7.38567571667e-08 25.00509890 55.19914928 29.80390065
1311 1 1 -7.53660092392e-08 23.53421073 57.74680233 29.80390065
1312 1 1 -7.06090744671e-08 25.00509890 60.29445537 29.80390065
1313 1 1 -3.934135233e-06 26.47598708 42.46088406 29.80390065
1314 1 1 -2.096157223e-06 27.94687525 45.00853711 29.80390065
1315 1 1 -6.79245520449e-07 26.47598708 47.55619015 29.80390065
1316 1 1 -1.20652653418e-07 27.94687525 50.10384320 29.80390065
1317 1 1 -5.82047550942e-08 26.47598708 52.65149624 29.80390065
1318 1 1 -7.38567353152e-08 27.94687525 55.19914928 29.80390065
1319 1 1 -7.59440440331e-08 26.47598708 57.74680233 29.80390065
1320 1 1 -7.06090525824e-08 27.94687525 60.29445537 29.80390065
1321 1 1 -2.15498882215e-06 29.41776342 42.46088406 29.80390065
1322 1 1 -1.01482523206e-06 30.88865159 45.00853711 29.80390065
1323 1 1 -4.93222259914e-07 29.41776342 47.55619015 29.80390065
1324 1 1 -9.93189763451e-08 30.88865159 50.10384320 29.80390065
1325 1 1 -6.31846311336e-08 29.41776342 52.65149624 29.80390065
1326 1 1 -7.62732190035e-08 30.88865159 55.19914928 29.80390065
1327 1 1 -7.53659660039e-08 29.41776342 57.74680233 29.80390065
1328 1 1 -6.91014076266e-08 30.88865159 60.29445537 29.80390065
1329 1 1 -1.30663846944e-06 32.35953976 42.46088406 29.80390065
1330 1 1 -6.2467153728e-07 33.83042793 45.00853711 29.80390065
1331 1 1 -2.71855132179e-07 32.35953976 47.55619015 29.80390065
1332 1 1 -9.2676202032e-08 33.83042793 50.10384320 29.80390065
1333 1 1 -7.30210359097e-08 32.35953976 52.65149624 29.80390065
1334 1 1 -7.65152686731e-08 33.83042793 55.19914928 29.80390065
1335 1 1 -7.31638019441e-08 32.35953976 57.74680233 29.80390065
1336 1 1 -6.63026794168e-08 33.83042793 60.29445537 29.80390065
1337 1 1 -1.15689445179e-06 17.65065805 42.46088406 29.80390065
1338 1 1 -6.24671636255e-07 19.12154622 45.00853711 29.80390065
1339 1 1 -1.9432302646e-07 17.65065805 47.55619015 29.80390065
1340 1 1 -9.26762989557e-08 19.12154622 50.10384320 29.80390065
1341 1 1 -7.76692991108e-08 17.65065805 52.65149624 29.80390065
1342 1 1 -7.65153655571e-08 19.12154622 55.19914928 29.80390065
1343 1 1 -6.91103524662e-08 17.65065805 57.74680233 29.80390065
1344 1 1 -6.6302776166e-08 19.12154622 60.29445537 29.80390065
1345 1 1 0.000118893100577 22.06332256 43.31010174 32.20585097
1346 1 1 -1.36007851303e-05 23.53421073 45.85775479 32.20585097
1347 1 1 -6.09095599709e-05 22.06332256 48.40540783 32.20585097
1348 1 1 -5.54491955623e-05 23.53421073 50.95306088 32.20585097
1349 1 1 -4.35076460246e-05 22.06332256 53.50071392 32.20585097
1350 1 1 -3.77907625502e-05 23.53421073 56.04836697 32.20585097
1351 1 1 -3.46298315954e-05 22.06332256 58.59602001 32.20585097
1352 1 1 0.000316004300345 23.53421073 40.76244870 32.20585097
1353 1 1 0.00017774578833 25.00509890 43.31010174 32.20585097
1354 1 1 -2.03076700879e-06 26.47598708 45.85775479 32.20585097
1355 1 1 -5.94010214832e-05 25.00509890 48.40540783 32.20585097
1356 1 1 -5.6452740476e-05 26.47598708 50.95306088 32.20585097
1357 1 1 -4.49609846176e-05 25.00509890 53.50071392 32.20585097
1358 1 1 -3.81884102046e-05 26.47598708 56.04836697 32.20585097
1359 1 1 -3.51012608653e-05 25.00509890 58.59602001 32.20585097
1360 1 1 0.000287712277684 26.47598708 40.76244870 32.20585097
1361 1 1 0.000177745788408 27.94687525 43.31010174 32.20585097
1362 1 1 -1.36007850772e-05 29.41776342 45.85775479 32.20585097
1363 1 1 -5.94010214396e-05 27.94687525 48.40540783 32.20585097
1364 1 1 -5.54491954796e-05 29.41776342 50.95306088 32.20585097
1365 1 1 -4.49609845744e-05 27.94687525 53.50071392 32.20585097
1366 1 1 -3.77907624785e-05 29.41776342 56.04836697 32.20585097
1367 1 1 -3.51012608276e-05 27.94687525 58.59602001 32.20585097
1368 1 1 0.000316004301323 29.41776342 40.76244870 32.20585097
1369 1 1 0.000118893100631 30.88865159 43.31010174 32.20585097
1370 1 1 -3.87543321112e-05 32.35953976 45.85775479 32.20585097
1371 1 1 -6.09095598738e-05 30.88865159 48.40540783 32.20585097
1372 1 1 -5.24124196503e-05 32.35953976 50.95306088 32.20585097
1373 1 1 -4.35076459252e-05 30.88865159 53.50071392 32.20585097
1374 1 1 -3.67066568627e-05 32.35953976 56.04836697 32.20585097
1375 1 1 -3.46298315066e-05 30.88865159 58.59602001 32.20585097
1376 1 1 0.000274798590755 32.35953976 40.76244870 32.20585097
1377 1 1 2.87147342445e-05 33.83042793 43.31010174 32.20585097
1378 1 1 -5.77660344638e-05 17.65065805 45.85775479 32.20585097
1379 1 1 -6.02973115094e-05 33.83042793 48.40540783 32.20585097
1380 1 1 -4.77028577447e-05 17.65065805 50.95306088 32.20585097
1381 1 1 -4.09941655028e-05 33.83042793 53.50071392 32.20585097
1382 1 1 -3.52067892885e-05 17.65065805 56.04836697 32.20585097
1383 1 1 -3.37801776484e-05 33.83042793 58.59602001 32.20585097
1384 1 1 0.000118409607194 17.65065805 40.76244870 32.20585097
1385 1 1 2.87147343591e-05 19.12154622 43.31010174 32.20585097
1386 1 1 -3.87543321489e-05 20.59243439 45.85775479 32.20585097
1387 1 1 -6.02973116185e-05 19.12154622 48.40540783 32.20585097
1388 1 1 -5.24124197663e-05 20.59243439 50.95306088 32.20585097
1389 1 1 -4.09941656175e-05 19.12154622 53.50071392 32.20585097
1390 1 1 -3.67066569663e-05 20.59243439 56.04836697 32.20585097
1391 1 1 -3.37801777545e-05 19.12154622 58.59602001 32.20585097
1392 1 1 0.000274798590483 20.59243439 40.76244870 32.20585097
1393 1 1 -0.00057594296882 23.53421073 44.15931943 34.60780130
1394 1 1 -0.000505149523326 25.00509890 46.70697247 34.60780130
1395 1 1 -0.000406536035483 23.53421073 49.25462551 34.60780130
1396 1 1 -0.000328782886423 25.00509890 51.80227856 34.60780130
1397 1 1 -0.000269986395006 23.53421073 54.34993160 34.60780130
1398 1 1 -0.000241105489249 25.00509890 56.89758465 34.60780130
1399 1 1 -0.000225399980223 23.53421073 59.44523769 34.60780130
1400 1 1 -0.000974433691003 25.00509890 41.61166638 34.60780130
1401 1 1 -0.000587776610239 26.47598708 44.15931943 34.60780130
1402 1 1 -0.000505149523208 27.94687525 46.70697247 34.60780130
1403 1 1 -0.000415170926282 26.47598708 49.25462551 34.60780130
1404 1 1 -0.00032878288635 27.94687525 51.80227856 34.60780130
1405 1 1 -0.000273484678107 26.47598708 54.34993160 34.60780130
1406 1 1 -0.000241105489197 27.94687525 56.89758465 34.60780130
1407 1 1 -0.000227017476326 26.47598708 59.44523769 34.60780130
1408 1 1 -0.000974433689911 27.94687525 41.61166638 34.60780130
1409 1 1 -0.000575942968389 29.41776342 44.15931943 34.60780130
1410 1 1 -0.000487742546248 30.88865159 46.70697247 34.60780130
1411 1 1 -0.000406536035321 29.41776342 49.25462551 34.60780130
1412 1 1 -0.000317337744189 30.88865159 51.80227856 34.60780130
1413 1 1 -0.000269986394899 29.41776342 54.34993160 34.60780130
1414 1 1 -0.000236876622259 30.88865159 56.89758465 34.60780130
1415 1 1 -0.000225399980137 29.41776342 59.44523769 34.60780130
1416 1 1 -0.000766511212901 30.88865159 41.61166638 34.60780130
1417 1 1 -0.000548597077767 32.35953976 44.15931943 34.60780130
1418 1 1 -0.000451129479947 33.83042793 46.70697247 34.60780130
1419 1 1 -0.000381873810998 32.35953976 49.25462551 34.60780130
1420 1 1 -0.000297187716086 33.83042793 51.80227856 34.60780130
1421 1 1 -0.000260340249311 32.35953976 54.34993160 34.60780130
1422 1 1 -0.000229277541439 33.83042793 56.89758465 34.60780130
1423 1 1 -0.000220834833884 32.35953976 59.44523769 34.60780130
1424 1 1 -0.000608952931795 33.83042793 41.61166638 34.60780130
1425 1 1 -0.00050688923899 17.65065805 44.15931943 34.60780130
1426 1 1 -0.000451129480231 19.12154622 46.70697247 34.60780130
1427 1 1 -0.000345720978076 17.65065805 49.25462551 34.60780130
1428 1 1 -0.000297187716274 19.12154622 51.80227856 34.60780130
1429 1 1 -0.000246726572204 17.65065805 54.34993160 34.60780130
1430 1 1 -0.000229277541571 19.12154622 56.89758465 34.60780130
1431 1 1 -0.00021409212951 17.65065805 59.44523769 34.60780130
1432 1 1 -0.000608952932699 19.12154622 41.61166638 34.60780130
1433 1 1 -0.000548597078193 20.59243439 44.15931943 34.60780130
1434 1 1 -0.000487742546505 22.06332256 46.70697247 34.60780130
1435 1 1 -0.000381873811226 20.59243439 49.25462551 34.60780130
1436 1 1 -0.000317337744355 22.06332256 51.80227856 34.60780130
1437 1 1 -0.00026034024946 20.59243439 54.34993160 34.60780130
1438 1 1 -0.000236876622377 22.06332256 56.89758465 34.60780130
1439 1 1 -0.000220834834004 20.59243439 59.44523769 34.60780130
1440 1 1 -0.000766511214647 22.06332256 41.61166638 34.60780130
1441 1 1 0.000212467570757 35.30131610 0.00000000 25.00000000
1442 1 1 0.000212704261854 36.77220427 2.54765304 25.00000000
1443 1 1 0.00023084257234 35.30131610 5.09530609 25.00000000
1444 1 1 0.00024899911722 36.77220427 7.64295913 25.00000000
1445 1 1 0.000303225128673 35.30131610 10.19061218 25.00000000
1446 1 1 0.000348494718935 36.77220427 12.73826522 25.00000000
1447 1 1 0.000455397477205 35.30131610 15.28591827 25.00000000
1448 1 1 0.000502749164726 36.77220427 17.83357131 25.00000000
1449 1 1 0.000204931953502 38.24309244 0.00000000 25.00000000
1450 1 1 0.000204178633067 39.71398061 2.54765304 25.00000000
1451 1 1 0.0002195574097 38.24309244 5.09530609 25.00000000
1452 1 1 0.000231802287921 39.71398061 7.64295913 25.00000000
1453 1 1 0.000274131513022 38.24309244 10.19061218 25.00000000
1454 1 1 0.000303445070864 39.71398061 12.73826522 25.00000000
1455 1 1 0.000394047568383 38.24309244 15.28591827 25.00000000
1456 1 1 0.000430399982467 39.71398061 17.83357131 25.00000000
1457 1 1 0.000197274900611 41.18486878 0.00000000 25.00000000
1458 1 1 0.000196123627712 42.65575695 2.54765304 25.00000000
1459 1 1 0.000208594025353 41.18486878 5.09530609 25.00000000
1460 1 1 0.000216800511444 42.65575695 7.64295913 25.00000000
1461 1 1 0.000247989577084 41.18486878 10.19061218 25.00000000
1462 1 1 0.000265906904305 42.65575695 12.73826522 25.00000000
1463 1 1 0.000331954937633 41.18486878 15.28591827 25.00000000
1464 1 1 0.00035390631128 42.65575695 17.83357131 25.00000000
1465 1 1 0.000190393880694 44.12664513 0.00000000 25.00000000
1466 1 1 0.000189387532862 45.59753330 2.54765304 25.00000000
1467 1 1 0.000199120112462 44.12664513 5.09530609 25.00000000
1468 1 1 0.000205101545928 45.59753330 7.64295913 25.00000000
1469 1 1 0.000227454167102 44.12664513 10.19061218 25.00000000
1470 1 1 0.000239079556942 45.59753330 12.73826522 25.00000000
1471 1 1 0.000282590755861 44.12664513 15.28591827 25.00000000
1472 1 1 0.000295104333553 45.59753330 17.83357131 25.00000000
1473 1 1 0.00018499494044 47.06842147 0.00000000 25.00000000
1474 1 1 0.000184579345696 48.53930964 2.54765304 25.00000000
1475 1 1 0.00019189878422 47.06842147 5.09530609 25.00000000
1476 1 1 0.000197159644637 48.53930964 7.64295913 25.00000000
1477 1 1 0.00021313064687 47.06842147 10.19061218 25.00000000
1478 1 1 0.000222472686387 48.53930964 12.73826522 25.00000000
1479 1 1 0.000250204387779 47.06842147 15.28591827 25.00000000
1480 1 1 0.000259787143512 48.53930964 17.83357131 25.00000000
1481 1 1 0.000181568081562 50.01019781 0.00000000 25.00000000
1482 1 1 0.000182083365678 51.48108598 2.54765304 25.00000000
1483 1 1 0.000187396945763 50.01019781 5.09530609 25.00000000
1484 1 1 0.000193152807689 51.48108598 7.64295913 25.00000000
1485 1 1 0.000204748201251 50.01019781 10.19061218 25.00000000
1486 1 1 0.000214620319095 51.48108598 12.73826522 25.00000000
1487 1 1 0.000232720650402 50.01019781 15.28591827 25.00000000
1488 1 1 0.000244036337146 51.48108598 17.83357131 25.00000000
1489 1 1 3.27980347939e-05 36.77220427 0.84921768 27.40195032
1490 1 1 3.30277732269e-05 38.24309244 3.39687073 27.40195032
1491 1 1 3.59476441467e-05 36.77220427 5.94452377 27.40195032
1492 1 1 3.88839374158e-05 38.24309244 8.49217681 27.40195032
1493 1 1 4.90548070101e-05 36.77220427 11.03982986 27.40195032
1494 1 1 5.59363928778e-05 38.24309244 13.58748290 27.40195032
1495 1 1 5.95390377529e-05 36.77220427 16.13513595 27.40195032
1496 1 1 4.78092104962e-05 38.24309244 18.68278899 27.40195032
1497 1 1 3.17119934396e-05 39.71398061 0.84921768 27.40195032
1498 1 1 3.17799265946e-05 41.18486878 3.39687073 27.40195032
1499 1 1 3.40607307713e-05 39.71398061 5.94452377 27.40195032
1500 1 1 3.58257453153e-05 41.18486878 8.49217681 27.40195032
1501 1 1 4.29794807795e-05 39.71398061 11.03982986 27.40195032
1502 1 1 4.75596351636e-05 41.18486878 13.58748290 27.40195032
1503 1 1 6.08023183762e-05 39.71398061 16.13513595 27.40195032
1504 1 1 6.28566328174e-05 41.18486878 18.68278899 27.40195032
1505 1 1 3.06614871966e-05 42.65575695 0.84921768 27.40195032
1506 1 1 3.0673530051e-05 44.12664513 3.39687073 27.40195032
1507 1 1 3.24453679741e-05 42.65575695 5.94452377 27.40195032
1508 1 1 3.35732010864e-05 44.12664513 8.49217681 27.40195032
1509 1 1 3.81577825421e-05 42.65575695 11.03982986 27.40195032
1510 1 1 4.06967820085e-05 44.12664513 13.58748290 27.40195032
1511 1 1 5.15698739161e-05 42.65575695 16.13513595 27.40195032
1512 1 1 5.41521609954e-05 44.12664513 18.68278899 27.40195032
1513 1 1 2.97625261212e-05 45.59753330 0.84921768 27.40195032
1514 1 1 2.98049768916e-05 47.06842147 3.39687073 27.40195032
1515 1 1 3.11802991658e-05 45.59753330 5.94452377 27.40195032
1516 1 1 3.2063828543e-05 47.06842147 8.49217681 27.40195032
1517 1 1 3.5014974908e-05 45.59753330 11.03982986 27.40195032
1518 1 1 3.65880030783e-05 47.06842147 13.58748290 27.40195032
1519 1 1 4.29378202269e-05 45.59753330 16.13513595 27.40195032
1520 1 1 4.44378444779e-05 47.06842147 18.68278899 27.40195032
1521 1 1 2.91088730172e-05 48.53930964 0.84921768 27.40195032
1522 1 1 2.92499779413e-05 50.01019781 3.39687073 27.40195032
1523 1 1 3.03023958444e-05 48.53930964 5.94452377 27.40195032
1524 1 1 3.11869181905e-05 50.01019781 8.49217681 27.40195032
1525 1 1 3.32331753451e-05 48.53930964 11.03982986 27.40195032
1526 1 1 3.46214422101e-05 50.01019781 13.58748290 27.40195032
1527 1 1 3.81021587341e-05 48.53930964 16.13513595 27.40195032
1528 1 1 3.94434998381e-05 50.01019781 18.68278899 27.40195032
1529 1 1 2.87656005479e-05 51.48108598 0.84921768 27.40195032
1530 1 1 3.42926536864e-05 35.30131610 3.39687073 27.40195032
1531 1 1 2.9849108968e-05 51.48108598 5.94452377 27.40195032
1532 1 1 4.2503176195e-05 35.30131610 8.49217681 27.40195032
1533 1 1 3.24309983989e-05 51.48108598 11.03982986 27.40195032
1534 1 1 6.16401088433e-05 35.30131610 13.58748290 27.40195032
1535 1 1 3.62032389408e-05 51.48108598 16.13513595 27.40195032
1536 1 1 -2.14486213791e-05 35.30131610 18.68278899 27.40195032
1537 1 1 -6.11188246076e-08 38.24309244 1.69843536 29.80390065
1538 1 1 -6.2798413487e-08 39.71398061 4.24608841 29.80390065
1539 1 1 -6.90808191993e-08 38.24309244 6.79374145 29.80390065
1540 1 1 -7.44524081782e-08 39.71398061 9.34139450 29.80390065
1541 1 1 -8.90178254524e-08 38.24309244 11.88904754 29.80390065
1542 1 1 -9.32576320603e-08 39.71398061 14.43670058 29.80390065
1543 1 1 -2.72639336102e-07 38.24309244 16.98435363 29.80390065
1544 1 1 -4.9463875193e-07 39.71398061 19.53200667 29.80390065
1545 1 1 -5.78882438757e-08 41.18486878 1.69843536 29.80390065
1546 1 1 -5.92704578383e-08 42.65575695 4.24608841 29.80390065
1547 1 1 -6.66946268904e-08 41.18486878 6.79374145 29.80390065
1548 1 1 -7.19154755706e-08 42.65575695 9.34139450 29.80390065
1549 1 1 -7.77493506176e-08 41.18486878 11.88904754 29.80390065
1550 1 1 -7.3658553747e-08 42.65575695 14.43670058 29.80390065
1551 1 1 -1.00585013188e-07 41.18486878 16.98435363 29.80390065
1552 1 1 -1.22971830999e-07 42.65575695 19.53200667 29.80390065
1553 1 1 -5.48801696787e-08 44.12664513 1.69843536 29.80390065
1554 1 1 -5.58183731828e-08 45.59753330 4.24608841 29.80390065
1555 1 1 -6.24745669252e-08 44.12664513 6.79374145 29.80390065
1556 1 1 -6.69078765586e-08 45.59753330 9.34139450 29.80390065
1557 1 1 -7.60295005983e-08 44.12664513 11.88904754 29.80390065
1558 1 1 -7.67335218818e-08 45.59753330 14.43670058 29.80390065
1559 1 1 -6.49082388351e-08 44.12664513 16.98435363 29.80390065
1560 1 1 -6.16914034618e-08 45.59753330 19.53200667 29.80390065
1561 1 1 -5.26108218625e-08 47.06842147 1.69843536 29.80390065
1562 1 1 -5.33821271514e-08 48.53930964 4.24608841 29.80390065
1563 1 1 -5.81283955994e-08 47.06842147 6.79374145 29.80390065
1564 1 1 -6.14946597832e-08 48.53930964 9.34139450 29.80390065
1565 1 1 -7.14725196473e-08 47.06842147 11.88904754 29.80390065
1566 1 1 -7.54465867611e-08 48.53930964 14.43670058 29.80390065
1567 1 1 -7.61960734374e-08 47.06842147 16.98435363 29.80390065
1568 1 1 -7.95712334899e-08 48.53930964 19.53200667 29.80390065
1569 1 1 -5.12677428731e-08 50.01019781 1.69843536 29.80390065
1570 1 1 -5.22089805521e-08 51.48108598 4.24608841 29.80390065
1571 1 1 -5.5255507596e-08 50.01019781 6.79374145 29.80390065
1572 1 1 -5.82716643104e-08 51.48108598 9.34139450 29.80390065
1573 1 1 -6.56744032249e-08 50.01019781 11.88904754 29.80390065
1574 1 1 -7.1008702068e-08 51.48108598 14.43670058 29.80390065
1575 1 1 -7.97929235145e-08 50.01019781 16.98435363 29.80390065
1576 1 1 -8.58300018323e-08 51.48108598 19.53200667 29.80390065
1577 1 1 -6.39530115486e-08 35.30131610 1.69843536 29.80390065
1578 1 1 -6.53313851701e-08 36.77220427 4.24608841 29.80390065
1579 1 1 -7.08680680321e-08 35.30131610 6.79374145 29.80390065
1580 1 1 -7.8938758504e-08 36.77220427 9.34139450 29.80390065
1581 1 1 -1.38857670046e-07 35.30131610 11.88904754 29.80390065
1582 1 1 -1.94654034206e-07 36.77220427 14.43670058 29.80390065
1583 1 1 -6.24867336386e-07 35.30131610 16.98435363 29.80390065
1584 1 1 -1.01531511315e-06 36.77220427 19.53200667 29.80390065
1585 1 1 -3.15420196858e-05 39.71398061 2.54765304 32.20585097
1586 1 1 -3.20886831259e-05 41.18486878 5.09530609 32.20585097
1587 1 1 -3.53634428082e-05 39.71398061 7.64295913 32.20585097
1588 1 1 -3.79301887713e-05 41.18486878 10.19061218 32.20585097
1589 1 1 -4.77406848081e-05 39.71398061 12.73826522 32.20585097
1590 1 1 -5.2668927483e-05 41.18486878 15.28591827 32.20585097
1591 1 1 -6.13349746759e-05 39.71398061 17.83357131 32.20585097
1592 1 1 -3.06245713257e-05 41.18486878 0.00000000 32.20585097
1593 1 1 -3.04415220916e-05 42.65575695 2.54765304 32.20585097
1594 1 1 -3.08163960673e-05 44.12664513 5.09530609 32.20585097
1595 1 1 -3.31953856845e-05 42.65575695 7.64295913 32.20585097
1596 1 1 -3.4722993794e-05 44.12664513 10.19061218 32.20585097
1597 1 1 -4.0954220298e-05 42.65575695 12.73826522 32.20585097
1598 1 1 -4.38303233013e-05 44.12664513 15.28591827 32.20585097
1599 1 1 -5.61148371283e-05 42.65575695 17.83357131 32.20585097
1600 1 1 -2.96618203707e-05 44.12664513 0.00000000 32.20585097
1601 1 1 -2.95084972594e-05 45.59753330 2.54765304 32.20585097
1602 1 1 -2.98459681115e-05 47.06842147 5.09530609 32.20585097
1603 1 1 -3.16157051572e-05 45.59753330 7.64295913 32.20585097
1604 1 1 -3.27253236913e-05 47.06842147 10.19061218 32.20585097
1605 1 1 -3.64645298194e-05 45.59753330 12.73826522 32.20585097
1606 1 1 -3.81523345816e-05 47.06842147 15.28591827 32.20585097
1607 1 1 -4.59263795232e-05 45.59753330 17.83357131 32.20585097
1608 1 1 -2.88949935464e-05 47.06842147 0.00000000 32.20585097
1609 1 1 -2.88324751003e-05 48.53930964 2.54765304 32.20585097
1610 1 1 -2.92338467466e-05 50.01019781 5.09530609 32.20585097
1611 1 1 -3.05771537371e-05 48.53930964 7.64295913 32.20585097
1612 1 1 -3.16428038776e-05 50.01019781 10.19061218 32.20585097
1613 1 1 -3.40424252183e-05 48.53930964 12.73826522 32.20585097
1614 1 1 -3.54827386548e-05 50.01019781 15.28591827 32.20585097
1615 1 1 -3.95518919669e-05 48.53930964 17.83357131 32.20585097
1616 1 1 -2.84028196291e-05 50.01019781 0.00000000 32.20585097
1617 1 1 -2.84776689938e-05 51.48108598 2.54765304 32.20585097
1618 1 1 -3.52017180102e-05 35.30131610 5.09530609 32.20585097
1619 1 1 -3.00555919777e-05 51.48108598 7.64295913 32.20585097
1620 1 1 -4.77086827298e-05 35.30131610 10.19061218 32.20585097
1621 1 1 -3.30189835944e-05 51.48108598 12.73826522 32.20585097
1622 1 1 -5.77660986866e-05 35.30131610 15.28591827 32.20585097
1623 1 1 -3.70281711949e-05 51.48108598 17.83357131 32.20585097
1624 1 1 -3.27027752871e-05 35.30131610 0.00000000 32.20585097
1625 1 1 -3.26986673858e-05 36.77220427 2.54765304 32.20585097
1626 1 1 -3.35915821604e-05 38.24309244 5.09530609 32.20585097
1627 1 1 -3.8069294584e-05 36.77220427 7.64295913 32.20585097
1628 1 1 -4.24504179511e-05 38.24309244 10.19061218 32.20585097
1629 1 1 -5.52901512439e-05 36.77220427 12.73826522 32.20585097
1630 1 1 -6.04500995255e-05 38.24309244 15.28591827 32.20585097
1631 1 1 -3.89659009212e-05 36.77220427 17.83357131 32.20585097
1632 1 1 -3.16789205424e-05 38.24309244 0.00000000 32.20585097
1633 1 1 -0.000201939158706 41.18486878 3.39687073 34.60780130
1634 1 1 -0.000207050042167 42.65575695 5.94452377 34.60780130
1635 1 1 -0.000230550262665 41.18486878 8.49217681 34.60780130
1636 1 1 -0.000245196564396 42.65575695 11.03982986 34.60780130
1637 1 1 -0.000297735733343 41.18486878 13.58748290 34.60780130
1638 1 1 -0.00032009177745 42.65575695 16.13513595 34.60780130
1639 1 1 -0.000410786088719 41.18486878 18.68278899 34.60780130
1640 1 1 -0.000193697760155 42.65575695 0.84921768 34.60780130
1641 1 1 -0.000193974314129 44.12664513 3.39687073 34.60780130
1642 1 1 -0.0001977581999 45.59753330 5.94452377 34.60780130
1643 1 1 -0.000215191327099 44.12664513 8.49217681 34.60780130
1644 1 1 -0.000225138202573 45.59753330 11.03982986 34.60780130
1645 1 1 -0.00026037950055 44.12664513 13.58748290 34.60780130
1646 1 1 -0.000273661574096 45.59753330 16.13513595 34.60780130
1647 1 1 -0.000335279816972 44.12664513 18.68278899 34.60780130
1648 1 1 -0.000187435335656 45.59753330 0.84921768 34.60780130
1649 1 1 -0.000187802407895 47.06842147 3.39687073 34.60780130
1650 1 1 -0.000191302201066 48.53930964 5.94452377 34.60780130
1651 1 1 -0.000204106226766 47.06842147 8.49217681 34.60780130
1652 1 1 -0.000212331625172 48.53930964 11.03982986 34.60780130
1653 1 1 -0.000235688928525 47.06842147 13.58748290 34.60780130
1654 1 1 -0.000245882914594 48.53930964 16.13513595 34.60780130
1655 1 1 -0.000283117317952 47.06842147 18.68278899 34.60780130
1656 1 1 -0.000182943181894 48.53930964 0.84921768 34.60780130
1657 1 1 -0.000183915127179 50.01019781 3.39687073 34.60780130
1658 1 1 -0.000188001037875 51.48108598 5.94452377 34.60780130
1659 1 1 -0.000197445634179 50.01019781 8.49217681 34.60780130
1660 1 1 -0.000206125303936 51.48108598 11.03982986 34.60780130
1661 1 1 -0.000222044747001 50.01019781 13.58748290 34.60780130
1662 1 1 -0.000233314220399 51.48108598 16.13513595 34.60780130
1663 1 1 -0.000255380411159 50.01019781 18.68278899 34.60780130
1664 1 1 -0.000180604879022 51.48108598 0.84921768 34.60780130
1665 1 1 -0.000220009470061 35.30131610 3.39687073 34.60780130
1666 1 1 -0.000231412501372 36.77220427 5.94452377 34.60780130
1667 1 1 -0.000270191140401 35.30131610 8.49217681 34.60780130
1668 1 1 -0.00030574014316 36.77220427 11.03982986 34.60780130
1669 1 1 -0.000397967096866 35.30131610 13.58748290 34.60780130
1670 1 1 -0.0004519418913 36.77220427 16.13513595 34.60780130
1671 1 1 -0.000549572234364 35.30131610 18.68278899 34.60780130
1672 1 1 -0.000208924866941 36.77220427 0.84921768 34.60780130
1673 1 1 -0.000210955287489 38.24309244 3.39687073 34.60780130
1674 1 1 -0.000218601042773 39.71398061 5.94452377 34.60780130
1675 1 1 -0.000249495594349 38.24309244 8.49217681 34.60780130
1676 1 1 -0.000272672469404 39.71398061 11.03982986 34.60780130
1677 1 1 -0.000346146811841 38.24309244 13.58748290 34.60780130
1678 1 1 -0.000383718866965 39.71398061 16.13513595 34.60780130
1679 1 1 -0.000490240068536 38.24309244 18.68278899 34.60780130
1680 1 1 -0.000201131409584 39.71398061 0.84921768 34.60780130
1681 1 1 0.000599783654473 35.30131610 20.38122435 25.00000000
1682 1 1 0.000643645403305 36.77220427 22.92887739 25.00000000
1683 1 1 0.00151574890609 35.30131610 25.47653044 25.00000000
1684 1 1 0.00123584569111 36.77220427 28.02418348 25.00000000
1685 1 1 0.00331081971388 35.30131610 30.57183653 25.00000000
1686 1 1 0.00123562982072 36.77220427 33.11948957 25.00000000
1687 1 1 0.00151504484073 35.30131610 35.66714262 25.00000000
1688 1 1 0.000642680332973 36.77220427 38.21479566 25.00000000
1689 1 1 0.000530373345665 38.24309244 20.38122435 25.00000000
1690 1 1 0.000540834450793 39.71398061 22.92887739 25.00000000
1691 1 1 0.000645470938736 38.24309244 25.47653044 25.00000000
1692 1 1 0.000605183104588 39.71398061 28.02418348 25.00000000
1693 1 1 0.00080198969205 38.24309244 30.57183653 25.00000000
1694 1 1 0.000604952550371 39.71398061 33.11948957 25.00000000
1695 1 1 0.000644505926517 38.24309244 35.66714262 25.00000000
1696 1 1 0.000540088149302 39.71398061 38.21479566 25.00000000
1697 1 1 0.000451383007075 41.18486878 20.38122435 25.00000000
1698 1 1 0.000454961608309 42.65575695 22.92887739 25.00000000
1699 1 1 0.000535513949149 41.18486878 25.47653044 25.00000000
1700 1 1 0.000512874025133 42.65575695 28.02418348 25.00000000
1701 1 1 0.000562645915132 41.18486878 30.57183653 25.00000000
1702 1 1 0.000512772795941 42.65575695 33.11948957 25.00000000
1703 1 1 0.000535056157258 41.18486878 35.66714262 25.00000000
1704 1 1 0.000454706454616 42.65575695 38.21479566 25.00000000
1705 1 1 0.00036498994009 44.12664513 20.38122435 25.00000000
1706 1 1 0.000363687403567 45.59753330 22.92887739 25.00000000
1707 1 1 0.000441088707741 44.12664513 25.47653044 25.00000000
1708 1 1 0.000411658724297 45.59753330 28.02418348 25.00000000
1709 1 1 0.000470128660246 44.12664513 30.57183653 25.00000000
1710 1 1 0.000411645008066 45.59753330 33.11948957 25.00000000
1711 1 1 0.000440978649205 44.12664513 35.66714262 25.00000000
1712 1 1 0.000363655376636 45.59753330 38.21479566 25.00000000
1713 1 1 0.000301676218811 47.06842147 20.38122435 25.00000000
1714 1 1 0.00030247324807 48.53930964 22.92887739 25.00000000
1715 1 1 0.000351545052696 47.06842147 25.47653044 25.00000000
1716 1 1 0.000332787274411 48.53930964 28.02418348 25.00000000
1717 1 1 0.000372564922989 47.06842147 30.57183653 25.00000000
1718 1 1 0.000332796178366 48.53930964 33.11948957 25.00000000
1719 1 1 0.00035154683711 47.06842147 35.66714262 25.00000000
1720 1 1 0.000302488132303 48.53930964 38.21479566 25.00000000
1721 1 1 0.000267710893975 50.01019781 20.38122435 25.00000000
1722 1 1 0.000275024992023 51.48108598 22.92887739 25.00000000
1723 1 1 0.000299557196636 50.01019781 25.47653044 25.00000000
1724 1 1 0.000295991985856 51.48108598 28.02418348 25.00000000
1725 1 1 0.000312848246989 50.01019781 30.57183653 25.00000000
1726 1 1 0.000295998642912 51.48108598 33.11948957 25.00000000
1727 1 1 0.000299570425032 50.01019781 35.66714262 25.00000000
1728 1 1 0.000275035434388 51.48108598 38.21479566 25.00000000
1729 1 1 -8.19265284429e-05 36.77220427 21.23044203 27.40195032
1730 1 1 -0.000107410871698 38.24309244 23.77809508 27.40195032
1731 1 1 -0.000305941398515 36.77220427 26.32574812 27.40195032
1732 1 1 -0.000259790856047 38.24309244 28.87340116 27.40195032
1733 1 1 -0.000293125865758 36.77220427 31.42105421 27.40195032
1734 1 1 -0.00022859720805 38.24309244 33.96870725 27.40195032
1735 1 1 -0.000258539313457 36.77220427 36.51636030 27.40195032
1736 1 1 -3.81128365713e-05 38.24309244 39.06401334 27.40195032
1737 1 1 3.62879269672e-05 39.71398061 21.23044203 27.40195032
1738 1 1 3.67214069036e-05 41.18486878 23.77809508 27.40195032
1739 1 1 -8.13091331264e-05 39.71398061 26.32574812 27.40195032
1740 1 1 -2.02394217058e-05 41.18486878 28.87340116 27.40195032
1741 1 1 -0.000135039166062 39.71398061 31.42105421 27.40195032
1742 1 1 -4.97880557967e-06 41.18486878 33.96870725 27.40195032
1743 1 1 -3.77651924168e-05 39.71398061 36.51636030 27.40195032
1744 1 1 5.27749918803e-05 41.18486878 39.06401334 27.40195032
1745 1 1 6.35540712144e-05 42.65575695 21.23044203 27.40195032
1746 1 1 6.40407485634e-05 44.12664513 23.77809508 27.40195032
1747 1 1 4.90969592557e-05 42.65575695 26.32574812 27.40195032
1748 1 1 6.16360671151e-05 44.12664513 28.87340116 27.40195032
1749 1 1 3.7136506248e-05 42.65575695 31.42105421 27.40195032
1750 1 1 6.28358229772e-05 44.12664513 33.96870725 27.40195032
1751 1 1 5.65416277515e-05 42.65575695 36.51636030 27.40195032
1752 1 1 6.21462992654e-05 44.12664513 39.06401334 27.40195032
1753 1 1 5.49477770588e-05 45.59753330 21.23044203 27.40195032
1754 1 1 5.39488201883e-05 47.06842147 23.77809508 27.40195032
1755 1 1 6.3144571368e-05 45.59753330 26.32574812 27.40195032
1756 1 1 5.93718561616e-05 47.06842147 28.87340116 27.40195032
1757 1 1 6.44525255827e-05 45.59753330 31.42105421 27.40195032
1758 1 1 5.82459894877e-05 47.06842147 33.96870725 27.40195032
1759 1 1 6.12511095732e-05 45.59753330 36.51636030 27.40195032
1760 1 1 5.09157481937e-05 47.06842147 39.06401334 27.40195032
1761 1 1 4.50265674511e-05 48.53930964 21.23044203 27.40195032
1762 1 1 4.49031570505e-05 50.01019781 23.77809508 27.40195032
1763 1 1 5.14982967146e-05 48.53930964 26.32574812 27.40195032
1764 1 1 4.84410876186e-05 50.01019781 28.87340116 27.40195032
1765 1 1 5.3460444656e-05 48.53930964 31.42105421 27.40195032
1766 1 1 4.76713899701e-05 50.01019781 33.96870725 27.40195032
1767 1 1 4.96623977164e-05 48.53930964 36.51636030 27.40195032
1768 1 1 4.31447590658e-05 50.01019781 39.06401334 27.40195032
1769 1 1 4.06857954013e-05 51.48108598 21.23044203 27.40195032
1770 1 1 -0.000306156710912 35.30131610 23.77809508 27.40195032
1771 1 1 4.45944560295e-05 51.48108598 26.32574812 27.40195032
1772 1 1 6.79667503835e-05 35.30131610 28.87340116 27.40195032
1773 1 1 4.58115113707e-05 51.48108598 31.42105421 27.40195032
1774 1 1 -0.000126924128328 35.30131610 33.96870725 27.40195032
1775 1 1 4.34963097384e-05 51.48108598 36.51636030 27.40195032
1776 1 1 -0.000229084159725 35.30131610 39.06401334 27.40195032
1777 1 1 -2.09729446968e-06 38.24309244 22.07965971 29.80390065
1778 1 1 -2.09827730937e-06 39.71398061 24.62731276 29.80390065
1779 1 1 -2.15675072224e-06 38.24309244 27.17496580 29.80390065
1780 1 1 -1.30865739513e-06 39.71398061 29.72261885 29.80390065
1781 1 1 -1.72520415973e-06 38.24309244 32.27027189 29.80390065
1782 1 1 -7.07625645162e-07 39.71398061 34.81792493 29.80390065
1783 1 1 3.02673191096e-07 38.24309244 37.36557798 29.80390065
1784 1 1 -3.53657938935e-07 39.71398061 39.91323102 29.80390065
1785 1 1 -6.81665079814e-07 41.18486878 22.07965971 29.80390065
1786 1 1 -4.969505731e-07 42.65575695 24.62731276 29.80390065
1787 1 1 -1.01777729703e-06 41.18486878 27.17496580 29.80390065
1788 1 1 -6.28540635919e-07 42.65575695 29.72261885 29.80390065
1789 1 1 -1.15958218538e-06 41.18486878 32.27027189 29.80390065
1790 1 1 -5.71083016351e-07 42.65575695 34.81792493 29.80390065
1791 1 1 -3.54698950058e-07 41.18486878 37.36557798 29.80390065
1792 1 1 -2.85644681599e-07 42.65575695 39.91323102 29.80390065
1793 1 1 -1.24535360272e-07 44.12664513 22.07965971 29.80390065
1794 1 1 -1.0536365551e-07 45.59753330 24.62731276 29.80390065
1795 1 1 -2.77053016518e-07 44.12664513 27.17496580 29.80390065
1796 1 1 -2.01308350964e-07 45.59753330 29.72261885 29.80390065
1797 1 1 -4.27113829065e-07 44.12664513 32.27027189 29.80390065
1798 1 1 -2.34822333359e-07 45.59753330 34.81792493 29.80390065
1799 1 1 -2.86652241571e-07 44.12664513 37.36557798 29.80390065
1800 1 1 -1.55586549129e-07 45.59753330 39.91323102 29.80390065
1801 1 1 -6.94731151968e-08 47.06842147 22.07965971 29.80390065
1802 1 1 -8.34269568914e-08 48.53930964 24.62731276 29.80390065
1803 1 1 -1.0154456803e-07 47.06842147 27.17496580 29.80390065
1804 1 1 -1.00965078218e-07 48.53930964 29.72261885 29.80390065
1805 1 1 -1.47790522668e-07 47.06842147 32.27027189 29.80390065
1806 1 1 -1.07172068387e-07 48.53930964 34.81792493 29.80390065
1807 1 1 -1.34488670287e-07 47.06842147 37.36557798 29.80390065
1808 1 1 -9.12650647584e-08 48.53930964 39.91323102 29.80390065
1809 1 1 -8.74642265019e-08 50.01019781 22.07965971 29.80390065
1810 1 1 -9.47219112912e-08 51.48108598 24.62731276 29.80390065
1811 1 1 -9.31205600353e-08 50.01019781 27.17496580 29.80390065
1812 1 1 -9.42594904897e-08 51.48108598 29.72261885 29.80390065
1813 1 1 -9.37581300993e-08 50.01019781 32.27027189 29.80390065
1814 1 1 -8.66541166662e-08 51.48108598 34.81792493 29.80390065
1815 1 1 -8.70027812116e-08 50.01019781 37.36557798 29.80390065
1816 1 1 -7.82634023607e-08 51.48108598 39.91323102 29.80390065
1817 1 1 -2.15557240685e-06 35.30131610 22.07965971 29.80390065
1818 1 1 -3.935452508e-06 36.77220427 24.62731276 29.80390065
1819 1 1 8.03013174177e-08 35.30131610 27.17496580 29.80390065
1820 1 1 -1.80964643373e-07 36.77220427 29.72261885 29.80390065
1821 1 1 1.40444995606e-06 35.30131610 32.27027189 29.80390065
1822 1 1 5.08034112518e-07 36.77220427 34.81792493 29.80390065
1823 1 1 5.08748101328e-07 35.30131610 37.36557798 29.80390065
1824 1 1 -7.05994791207e-07 36.77220427 39.91323102 29.80390065
1825 1 1 -2.87054331722e-06 39.71398061 22.92887739 32.20585097
1826 1 1 -1.48527275205e-05 41.18486878 25.47653044 32.20585097
1827 1 1 0.000117863882895 39.71398061 28.02418348 32.20585097
1828 1 1 2.74215988417e-05 41.18486878 30.57183653 32.20585097
1829 1 1 0.000117606601407 39.71398061 33.11948957 32.20585097
1830 1 1 -1.47332104392e-05 41.18486878 35.66714262 32.20585097
1831 1 1 -2.29721798316e-06 39.71398061 38.21479566 32.20585097
1832 1 1 -6.02256941818e-05 41.18486878 20.38122435 32.20585097
1833 1 1 -6.07522515707e-05 42.65575695 22.92887739 32.20585097
1834 1 1 -6.29016099847e-05 44.12664513 25.47653044 32.20585097
1835 1 1 -4.04607131827e-05 42.65575695 28.02418348 32.20585097
1836 1 1 -5.99299486399e-05 44.12664513 30.57183653 32.20585097
1837 1 1 -4.06330429499e-05 42.65575695 33.11948957 32.20585097
1838 1 1 -6.30200644536e-05 44.12664513 35.66714262 32.20585097
1839 1 1 -6.08243820612e-05 42.65575695 38.21479566 32.20585097
1840 1 1 -5.7727892734e-05 44.12664513 20.38122435 32.20585097
1841 1 1 -5.75331492297e-05 45.59753330 22.92887739 32.20585097
1842 1 1 -5.54844307361e-05 47.06842147 25.47653044 32.20585097
1843 1 1 -6.30121385133e-05 45.59753330 28.02418348 32.20585097
1844 1 1 -5.8754850277e-05 47.06842147 30.57183653 32.20585097
1845 1 1 -6.3073276253e-05 45.59753330 33.11948957 32.20585097
1846 1 1 -5.55215415845e-05 47.06842147 35.66714262 32.20585097
1847 1 1 -5.76082324367e-05 45.59753330 38.21479566 32.20585097
1848 1 1 -4.68642926383e-05 47.06842147 20.38122435 32.20585097
1849 1 1 -4.66459520248e-05 48.53930964 22.92887739 32.20585097
1850 1 1 -4.56677819601e-05 50.01019781 25.47653044 32.20585097
1851 1 1 -5.19051895624e-05 48.53930964 28.02418348 32.20585097
1852 1 1 -4.78789035437e-05 50.01019781 30.57183653 32.20585097
1853 1 1 -5.1911142322e-05 48.53930964 33.11948957 32.20585097
1854 1 1 -4.56627877196e-05 50.01019781 35.66714262 32.20585097
1855 1 1 -4.66521825016e-05 48.53930964 38.21479566 32.20585097
1856 1 1 -4.05886036757e-05 50.01019781 20.38122435 32.20585097
1857 1 1 -4.14443303289e-05 51.48108598 22.92887739 32.20585097
1858 1 1 0.00028730836761 35.30131610 25.47653044 32.20585097
1859 1 1 -4.46186761046e-05 51.48108598 28.02418348 32.20585097
1860 1 1 -0.000134202613775 35.30131610 30.57183653 32.20585097
1861 1 1 -4.46129731787e-05 51.48108598 33.11948957 32.20585097
1862 1 1 0.00028874955871 35.30131610 35.66714262 32.20585097
1863 1 1 -4.14343575501e-05 51.48108598 38.21479566 32.20585097
1864 1 1 0.000118666660954 35.30131610 20.38122435 32.20585097
1865 1 1 0.000177268815609 36.77220427 22.92887739 32.20585097
1866 1 1 0.00017699725914 38.24309244 25.47653044 32.20585097
1867 1 1 0.000315423885329 36.77220427 28.02418348 32.20585097
1868 1 1 0.00027407429378 38.24309244 30.57183653 32.20585097
1869 1 1 0.00031523394278 36.77220427 33.11948957 32.20585097
1870 1 1 0.000178284648679 38.24309244 35.66714262 32.20585097
1871 1 1 0.000178556623075 36.77220427 38.21479566 32.20585097
1872 1 1 -1.40913194931e-05 38.24309244 20.38122435 32.20585097
1873 1 1 -0.00051280609956 41.18486878 23.77809508 34.60780130
1874 1 1 -0.00049880574906 42.65575695 26.32574812 34.60780130
1875 1 1 -0.000557572247621 41.18486878 28.87340116 34.60780130
1876 1 1 -0.000517976051156 42.65575695 31.42105421 34.60780130
1877 1 1 -0.00054863034782 41.18486878 33.96870725 34.60780130
1878 1 1 -0.000479783991772 42.65575695 36.51636030 34.60780130
1879 1 1 -0.000485426007409 41.18486878 39.06401334 34.60780130
1880 1 1 -0.000422864966176 42.65575695 21.23044203 34.60780130
1881 1 1 -0.000418722298179 44.12664513 23.77809508 34.60780130
1882 1 1 -0.000399517621421 45.59753330 26.32574812 34.60780130
1883 1 1 -0.000465952639303 44.12664513 28.87340116 34.60780130
1884 1 1 -0.000416901550524 45.59753330 31.42105421 34.60780130
1885 1 1 -0.000456251478709 44.12664513 33.96870725 34.60780130
1886 1 1 -0.000383232739826 45.59753330 36.51636030 34.60780130
1887 1 1 -0.000392969769421 44.12664513 39.06401334 34.60780130
1888 1 1 -0.000340675614422 45.59753330 21.23044203 34.60780130
1889 1 1 -0.000336337580115 47.06842147 23.77809508 34.60780130
1890 1 1 -0.000324950944248 48.53930964 26.32574812 34.60780130
1891 1 1 -0.000369561829376 47.06842147 28.87340116 34.60780130
1892 1 1 -0.000336154386077 48.53930964 31.42105421 34.60780130
1893 1 1 -0.000362388963526 47.06842147 33.96870725 34.60780130
1894 1 1 -0.00031459804742 48.53930964 36.51636030 34.60780130
1895 1 1 -0.00031935693421 47.06842147 39.06401334 34.60780130
1896 1 1 -0.000288156756072 48.53930964 21.23044203 34.60780130
1897 1 1 -0.000289851727045 50.01019781 23.77809508 34.60780130
1898 1 1 -0.000290538766311 51.48108598 26.32574812 34.60780130
1899 1 1 -0.000310860908063 50.01019781 28.87340116 34.60780130
1900 1 1 -0.000298203065206 51.48108598 31.42105421 34.60780130
1901 1 1 -0.000306317405144 50.01019781 33.96870725 34.60780130
1902 1 1 -0.00028339722107 51.48108598 36.51636030 34.60780130
1903 1 1 -0.000279026077547 50.01019781 39.06401334 34.60780130
1904 1 1 -0.000264794315063 51.48108598 21.23044203 34.60780130
1905 1 1 -0.000976838051595 35.30131610 23.77809508 34.60780130
1906 1 1 -0.000978265609894 36.77220427 26.32574812 34.60780130
1907 1 1 -0.00300227963219 35.30131610 28.87340116 34.60780130
1908 1 1 -0.00141130716785 36.77220427 31.42105421 34.60780130
1909 1 1 -0.0022721787027 35.30131610 33.96870725 34.60780130
1910 1 1 -0.000766959000842 36.77220427 36.51636030 34.60780130
1911 1 1 -0.000705593231383 35.30131610 39.06401334 34.60780130
1912 1 1 -0.000578585192098 36.77220427 21.23044203 34.60780130
1913 1 1 -0.000592349191617 38.24309244 23.77809508 34.60780130
1914 1 1 -0.000582667666208 39.71398061 26.32574812 34.60780130
1915 1 1 -0.000771689367426 38.24309244 28.87340116 34.60780130
1916 1 1 -0.00061522502263 39.71398061 31.42105421 34.60780130
1917 1 1 -0.00070881003359 38.24309244 33.96870725 34.60780130
1918 1 1 -0.000562263218668 39.71398061 36.51636030 34.60780130
1919 1 1 -0.000559962090563 38.24309244 39.06401334 34.60780130
1920 1 1 -0.000509927806565 39.71398061 21.23044203 34.60780130
1921 1 1 0.000599553007506 35.30131610 40.76244870 25.00000000
1922 1 1 0.00050264794379 36.77220427 43.31010174 25.00000000
1923 1 1 0.00045539743649 35.30131610 45.85775479 25.00000000
1924 1 1 0.000348494634691 36.77220427 48.40540783 25.00000000
1925 1 1 0.000303215892406 35.30131610 50.95306088 25.00000000
1926 1 1 0.000248993433939 36.77220427 53.50071392 25.00000000
1927 1 1 0.000230837858024 35.30131610 56.04836697 25.00000000
1928 1 1 0.000212703825366 36.77220427 58.59602001 25.00000000
1929 1 1 0.00052991551861 38.24309244 40.76244870 25.00000000
1930 1 1 0.000430290120582 39.71398061 43.31010174 25.00000000
1931 1 1 0.000394034009909 38.24309244 45.85775479 25.00000000
1932 1 1 0.00030345416593 39.71398061 48.40540783 25.00000000
1933 1 1 0.000274131453981 38.24309244 50.95306088 25.00000000
1934 1 1 0.000231802246674 39.71398061 53.50071392 25.00000000
1935 1 1 0.000219556258859 38.24309244 56.04836697 25.00000000
1936 1 1 0.000204178681281 39.71398061 58.59602001 25.00000000
1937 1 1 0.000451127926867 41.18486878 40.76244870 25.00000000
1938 1 1 0.000353874713648 42.65575695 43.31010174 25.00000000
1939 1 1 0.000331957241996 41.18486878 45.85775479 25.00000000
1940 1 1 0.000265920112211 42.65575695 48.40540783 25.00000000
1941 1 1 0.000247995146571 41.18486878 50.95306088 25.00000000
1942 1 1 0.000216801489212 42.65575695 53.50071392 25.00000000
1943 1 1 0.00020859395507 41.18486878 56.04836697 25.00000000
1944 1 1 0.000196123536869 42.65575695 58.59602001 25.00000000
1945 1 1 0.000364935222932 44.12664513 40.76244870 25.00000000
1946 1 1 0.000295116707604 45.59753330 43.31010174 25.00000000
1947 1 1 0.000282606323417 44.12664513 45.85775479 25.00000000
1948 1 1 0.000239088645561 45.59753330 48.40540783 25.00000000
1949 1 1 0.000227458562423 44.12664513 50.95306088 25.00000000
1950 1 1 0.000205101449997 45.59753330 53.50071392 25.00000000
1951 1 1 0.00019911977802 44.12664513 56.04836697 25.00000000
1952 1 1 0.000189387278373 45.59753330 58.59602001 25.00000000
1953 1 1 0.000301688215609 47.06842147 40.76244870 25.00000000
1954 1 1 0.000259800330999 48.53930964 43.31010174 25.00000000
1955 1 1 0.000250216789059 47.06842147 45.85775479 25.00000000
1956 1 1 0.000222475225738 48.53930964 48.40540783 25.00000000
1957 1 1 0.000213131681383 47.06842147 50.95306088 25.00000000
1958 1 1 0.000197158740011 48.53930964 53.50071392 25.00000000
1959 1 1 0.00019189818438 47.06842147 56.04836697 25.00000000
1960 1 1 0.000184579111858 48.53930964 58.59602001 25.00000000
1961 1 1 0.00026772307401 50.01019781 40.76244870 25.00000000
1962 1 1 0.000244040411053 51.48108598 43.31010174 25.00000000
1963 1 1 0.000232724130427 50.01019781 45.85775479 25.00000000
1964 1 1 0.000214618931964 51.48108598 48.40540783 25.00000000
1965 1 1 0.000204747026615 50.01019781 50.95306088 25.00000000
1966 1 1 0.000193151730608 51.48108598 53.50071392 25.00000000
1967 1 1 0.000187396406102 50.01019781 56.04836697 25.00000000
1968 1 1 0.000182083215873 51.48108598 58.59602001 25.00000000
1969 1 1 -6.00922689705e-06 36.77220427 41.61166638 27.40195032
1970 1 1 6.09394871074e-05 38.24309244 44.15931943 27.40195032
1971 1 1 6.16893952314e-05 36.77220427 46.70697247 27.40195032
1972 1 1 4.90651411917e-05 38.24309244 49.25462551 27.40195032
1973 1 1 4.30122900587e-05 36.77220427 51.80227856 27.40195032
1974 1 1 3.60052942034e-05 38.24309244 54.34993160 27.40195032
1975 1 1 3.42330287298e-05 36.77220427 56.89758465 27.40195032
1976 1 1 3.24072489084e-05 38.24309244 59.44523769 27.40195032
1977 1 1 5.5579795075e-05 39.71398061 41.61166638 27.40195032
1978 1 1 5.92947219411e-05 41.18486878 44.15931943 27.40195032
1979 1 1 5.50290438717e-05 39.71398061 46.70697247 27.40195032
1980 1 1 4.24516816025e-05 41.18486878 49.25462551 27.40195032
1981 1 1 3.88332425573e-05 39.71398061 51.80227856 27.40195032
1982 1 1 3.39243164234e-05 41.18486878 54.34993160 27.40195032
1983 1 1 3.28220287558e-05 39.71398061 56.89758465 27.40195032
1984 1 1 3.12939654529e-05 41.18486878 59.44523769 27.40195032
1985 1 1 6.14903783839e-05 42.65575695 41.61166638 27.40195032
1986 1 1 4.91713617355e-05 44.12664513 44.15931943 27.40195032
1987 1 1 4.61801110746e-05 42.65575695 46.70697247 27.40195032
1988 1 1 3.7640373036e-05 44.12664513 49.25462551 27.40195032
1989 1 1 3.55996679242e-05 42.65575695 51.80227856 27.40195032
1990 1 1 3.22804324792e-05 44.12664513 54.34993160 27.40195032
1991 1 1 3.15331509995e-05 42.65575695 56.89758465 27.40195032
1992 1 1 3.02836745478e-05 44.12664513 59.44523769 27.40195032
1993 1 1 5.08174207286e-05 45.59753330 41.61166638 27.40195032
1994 1 1 4.14335843234e-05 47.06842147 44.15931943 27.40195032
1995 1 1 3.97097448575e-05 45.59753330 46.70697247 27.40195032
1996 1 1 3.47695763749e-05 47.06842147 49.25462551 27.40195032
1997 1 1 3.34040900862e-05 45.59753330 51.80227856 27.40195032
1998 1 1 3.10928477181e-05 47.06842147 54.34993160 27.40195032
1999 1 1 3.04693341232e-05 45.59753330 56.89758465 27.40195032
2000 1 1 2.94812783015e-05 47.06842147 59.44523769 27.40195032
2001 1 1 4.25701292572e-05 48.53930964 41.61166638 27.40195032
2002 1 1 3.77018441721e-05 50.01019781 44.15931943 27.40195032
2003 1 1 3.62375776664e-05 48.53930964 46.70697247 27.40195032
2004 1 1 3.33192776193e-05 50.01019781 49.25462551 27.40195032
2005 1 1 3.20626270677e-05 48.53930964 51.80227856 27.40195032
2006 1 1 3.0365982038e-05 50.01019781 54.34993160 27.40195032
2007 1 1 2.97083497622e-05 48.53930964 56.89758465 27.40195032
2008 1 1 2.896666719e-05 50.01019781 59.44523769 27.40195032
2009 1 1 3.91728785451e-05 51.48108598 41.61166638 27.40195032
2010 1 1 3.54665066779e-05 35.30131610 44.15931943 27.40195032
2011 1 1 3.48382137945e-05 51.48108598 46.70697247 27.40195032
2012 1 1 5.58699982288e-05 35.30131610 49.25462551 27.40195032
2013 1 1 3.14197634188e-05 51.48108598 51.80227856 27.40195032
2014 1 1 3.83792229379e-05 35.30131610 54.34993160 27.40195032
2015 1 1 2.93105809669e-05 51.48108598 56.89758465 27.40195032
2016 1 1 3.34988150569e-05 35.30131610 59.44523769 27.40195032
2017 1 1 -5.68060762783e-07 38.24309244 42.46088406 29.80390065
2018 1 1 -2.2893157301e-07 39.71398061 45.00853711 29.80390065
2019 1 1 -1.38789742431e-07 38.24309244 47.55619015 29.80390065
2020 1 1 -7.86031554311e-08 39.71398061 50.10384320 29.80390065
2021 1 1 -7.43671481465e-08 38.24309244 52.65149624 29.80390065
2022 1 1 -6.682967633e-08 39.71398061 55.19914928 29.80390065
2023 1 1 -6.42263789681e-08 38.24309244 57.74680233 29.80390065
2024 1 1 -5.90931479138e-08 39.71398061 60.29445537 29.80390065
2025 1 1 -2.83773135824e-07 41.18486878 42.46088406 29.80390065
2026 1 1 -1.28211657738e-07 42.65575695 45.00853711 29.80390065
2027 1 1 -9.65093020325e-08 41.18486878 47.55619015 29.80390065
2028 1 1 -6.99928426416e-08 42.65575695 50.10384320 29.80390065
2029 1 1 -6.83949874836e-08 41.18486878 52.65149624 29.80390065
2030 1 1 -6.16695784138e-08 42.65575695 55.19914928 29.80390065
2031 1 1 -5.97455368825e-08 41.18486878 57.74680233 29.80390065
2032 1 1 -5.58543674018e-08 42.65575695 60.29445537 29.80390065
2033 1 1 -1.53533499481e-07 44.12664513 42.46088406 29.80390065
2034 1 1 -8.55830731392e-08 45.59753330 45.00853711 29.80390065
2035 1 1 -7.57208147213e-08 44.12664513 47.55619015 29.80390065
2036 1 1 -6.50336134119e-08 45.59753330 50.10384320 29.80390065
2037 1 1 -6.34097383679e-08 44.12664513 52.65149624 29.80390065
2038 1 1 -5.77046141008e-08 45.59753330 55.19914928 29.80390065
2039 1 1 -5.61629948739e-08 44.12664513 57.74680233 29.80390065
2040 1 1 -5.32964746763e-08 45.59753330 60.29445537 29.80390065
2041 1 1 -9.24055423448e-08 47.06842147 42.46088406 29.80390065
2042 1 1 -7.16759960314e-08 48.53930964 45.00853711 29.80390065
2043 1 1 -6.77720219888e-08 47.06842147 47.55619015 29.80390065
2044 1 1 -6.20308576288e-08 48.53930964 50.10384320 29.80390065
2045 1 1 -5.96815738854e-08 47.06842147 52.65149624 29.80390065
2046 1 1 -5.48958054959e-08 48.53930964 55.19914928 29.80390065
2047 1 1 -5.35219400794e-08 47.06842147 57.74680233 29.80390065
2048 1 1 -5.15449120414e-08 48.53930964 60.29445537 29.80390065
2049 1 1 -7.52906470685e-08 50.01019781 42.46088406 29.80390065
2050 1 1 -6.91558232597e-08 51.48108598 45.00853711 29.80390065
2051 1 1 -6.5180162227e-08 50.01019781 47.55619015 29.80390065
2052 1 1 -6.03824104587e-08 51.48108598 50.10384320 29.80390065
2053 1 1 -5.71508866899e-08 50.01019781 52.65149624 29.80390065
2054 1 1 -5.33934532418e-08 51.48108598 55.19914928 29.80390065
2055 1 1 -5.18708564523e-08 50.01019781 57.74680233 29.80390065
2056 1 1 -5.06579794196e-08 51.48108598 60.29445537 29.80390065
2057 1 1 -1.15689434064e-06 35.30131610 42.46088406 29.80390065
2058 1 1 -4.22142760585e-07 36.77220427 45.00853711 29.80390065
2059 1 1 -1.94322917452e-07 35.30131610 47.55619015 29.80390065
2060 1 1 -8.87728949756e-08 36.77220427 50.10384320 29.80390065
2061 1 1 -7.76691897271e-08 35.30131610 52.65149624 29.80390065
2062 1 1 -7.25906327264e-08 36.77220427 55.19914928 29.80390065
2063 1 1 -6.91102430889e-08 35.30131610 57.74680233 29.80390065
2064 1 1 -6.27441578063e-08 36.77220427 60.29445537 29.80390065
2065 1 1 -6.14534855275e-05 39.71398061 43.31010174 32.20585097
2066 1 1 -5.27056669889e-05 41.18486878 45.85775479 32.20585097
2067 1 1 -4.77463054365e-05 39.71398061 48.40540783 32.20585097
2068 1 1 -3.79259586709e-05 41.18486878 50.95306088 32.20585097
2069 1 1 -3.53635024923e-05 39.71398061 53.50071392 32.20585097
2070 1 1 -3.2088655366e-05 41.18486878 56.04836697 32.20585097
2071 1 1 -3.15420565704e-05 39.71398061 58.59602001 32.20585097
2072 1 1 -6.02980089484e-05 41.18486878 40.76244870 32.20585097
2073 1 1 -5.61899317421e-05 42.65575695 43.31010174 32.20585097
2074 1 1 -4.3836458088e-05 44.12664513 45.85775479 32.20585097
2075 1 1 -4.09498329911e-05 42.65575695 48.40540783 32.20585097
2076 1 1 -3.47179607614e-05 44.12664513 50.95306088 32.20585097
2077 1 1 -3.31937906899e-05 42.65575695 53.50071392 32.20585097
2078 1 1 -3.08163496472e-05 44.12664513 56.04836697 32.20585097
2079 1 1 -3.0441452258e-05 42.65575695 58.59602001 32.20585097
2080 1 1 -5.78180846332e-05 44.12664513 40.76244870 32.20585097
2081 1 1 -4.59455081879e-05 45.59753330 43.31010174 32.20585097
2082 1 1 -3.81456461281e-05 47.06842147 45.85775479 32.20585097
2083 1 1 -3.64570424867e-05 45.59753330 48.40540783 32.20585097
2084 1 1 -3.27228748472e-05 47.06842147 50.95306088 32.20585097
2085 1 1 -3.1614958436e-05 45.59753330 53.50071392 32.20585097
2086 1 1 -2.98462186471e-05 47.06842147 56.04836697 32.20585097
2087 1 1 -2.95085391149e-05 45.59753330 58.59602001 32.20585097
2088 1 1 -4.68835256045e-05 47.06842147 40.76244870 32.20585097
2089 1 1 -3.95464646736e-05 48.53930964 43.31010174 32.20585097
2090 1 1 -3.54779752709e-05 50.01019781 45.85775479 32.20585097
2091 1 1 -3.40383741587e-05 48.53930964 48.40540783 32.20585097
2092 1 1 -3.16428115007e-05 50.01019781 50.95306088 32.20585097
2093 1 1 -3.05774434537e-05 48.53930964 53.50071392 32.20585097
2094 1 1 -2.92341183081e-05 50.01019781 56.04836697 32.20585097
2095 1 1 -2.88325025669e-05 48.53930964 58.59602001 32.20585097
2096 1 1 -4.05814600914e-05 50.01019781 40.76244870 32.20585097
2097 1 1 -3.70223558581e-05 51.48108598 43.31010174 32.20585097
2098 1 1 -5.77660344107e-05 35.30131610 45.85775479 32.20585097
2099 1 1 -3.30185097668e-05 51.48108598 48.40540783 32.20585097
2100 1 1 -4.77028576217e-05 35.30131610 50.95306088 32.20585097
2101 1 1 -3.00562722255e-05 51.48108598 53.50071392 32.20585097
2102 1 1 -3.52067891761e-05 35.30131610 56.04836697 32.20585097
2103 1 1 -2.84776155969e-05 51.48108598 58.59602001 32.20585097
2104 1 1 0.000118409606879 35.30131610 40.76244870 32.20585097
2105 1 1 -3.91382318584e-05 36.77220427 43.31010174 32.20585097
2106 1 1 -6.05108451994e-05 38.24309244 45.85775479 32.20585097
2107 1 1 -5.5289956931e-05 36.77220427 48.40540783 32.20585097
2108 1 1 -4.2450396544e-05 38.24309244 50.95306088 32.20585097
2109 1 1 -3.80735629125e-05 36.77220427 53.50071392 32.20585097
2110 1 1 -3.35932371735e-05 38.24309244 56.04836697 32.20585097
2111 1 1 -3.26996372718e-05 36.77220427 58.59602001 32.20585097
2112 1 1 -1.39719381758e-05 38.24309244 40.76244870 32.20585097
2113 1 1 -0.000370022069013 41.18486878 44.15931943 34.60780130
2114 1 1 -0.000290520867538 42.65575695 46.70697247 34.60780130
2115 1 1 -0.000269811592035 41.18486878 49.25462551 34.60780130
2116 1 1 -0.000229040040546 42.65575695 51.80227856 34.60780130
2117 1 1 -0.000217676354704 41.18486878 54.34993160 34.60780130
2118 1 1 -0.000200258627921 42.65575695 56.89758465 34.60780130
2119 1 1 -0.000198229066601 41.18486878 59.44523769 34.60780130
2120 1 1 -0.000388563605765 42.65575695 41.61166638 34.60780130
2121 1 1 -0.000307418198216 44.12664513 44.15931943 34.60780130
2122 1 1 -0.000254915365828 45.59753330 46.70697247 34.60780130
2123 1 1 -0.000242083489958 44.12664513 49.25462551 34.60780130
2124 1 1 -0.000213891504815 45.59753330 51.80227856 34.60780130
2125 1 1 -0.000205856633706 44.12664513 54.34993160 34.60780130
2126 1 1 -0.000192558127869 45.59753330 56.89758465 34.60780130
2127 1 1 -0.000191092897901 44.12664513 59.44523769 34.60780130
2128 1 1 -0.000317400582844 45.59753330 41.61166638 34.60780130
2129 1 1 -0.000265774781065 47.06842147 44.15931943 34.60780130
2130 1 1 -0.00023338502286 48.53930964 46.70697247 34.60780130
2131 1 1 -0.00022334542017 47.06842147 49.25462551 34.60780130
2132 1 1 -0.000203903439812 48.53930964 51.80227856 34.60780130
2133 1 1 -0.00019706126252 47.06842147 54.34993160 34.60780130
2134 1 1 -0.000187118317021 48.53930964 56.89758465 34.60780130
2135 1 1 -0.000185510757914 47.06842147 59.44523769 34.60780130
2136 1 1 -0.000273698199433 48.53930964 41.61166638 34.60780130
2137 1 1 -0.000243600805994 50.01019781 44.15931943 34.60780130
2138 1 1 -0.000223446828949 51.48108598 46.70697247 34.60780130
2139 1 1 -0.000212695433238 50.01019781 49.25462551 34.60780130
2140 1 1 -0.000198954530215 51.48108598 51.80227856 34.60780130
2141 1 1 -0.000191662813169 50.01019781 54.34993160 34.60780130
2142 1 1 -0.000184310666691 51.48108598 56.89758465 34.60780130
2143 1 1 -0.000181974259889 50.01019781 59.44523769 34.60780130
2144 1 1 -0.000254320001259 51.48108598 41.61166638 34.60780130
2145 1 1 -0.000506889238671 35.30131610 44.15931943 34.60780130
2146 1 1 -0.000398285970581 36.77220427 46.70697247 34.60780130
2147 1 1 -0.000345720977841 35.30131610 49.25462551 34.60780130
2148 1 1 -0.000272908703453 36.77220427 51.80227856 34.60780130
2149 1 1 -0.000246726572054 35.30131610 54.34993160 34.60780130
2150 1 1 -0.000219696763782 36.77220427 56.89758465 34.60780130
2151 1 1 -0.000214092129387 35.30131610 59.44523769 34.60780130
2152 1 1 -0.000541805540626 36.77220427 41.61166638 34.60780130
2153 1 1 -0.000443570546188 38.24309244 44.15931943 34.60780130
2154 1 1 -0.000340451559958 39.71398061 46.70697247 34.60780130
2155 1 1 -0.000305800197029 38.24309244 49.25462551 34.60780130
2156 1 1 -0.000249147976262 39.71398061 51.80227856 34.60780130
2157 1 1 -0.000231770614299 38.24309244 54.34993160 34.60780130
2158 1 1 -0.000209608840275 39.71398061 56.89758465 34.60780130
2159 1 1 -0.000206203743803 38.24309244 59.44523769 34.60780130
2160 1 1 -0.000473378673562 39.71398061 41.61166638 34.60780130
2161 2 2 1 26.47598707 30.57183653 36.60780130
2162 3 2 -1 26.47598707 30.57183653 23.00000000
