LAMMPS (4 Jul 2026 - Development - patch_4Jul2026-542-g4e5eb25ab6-modified)
  using 1 OpenMP thread(s) per MPI task
# TIP4P-FQ liquid, FAITHFUL-RICK structure: lr_ewald=1 (INTRA-Slater + BARE-inter, his exact
# electrostatics per mdtpn.f) — the mu-gap root cause was lr_ewald=2's all-pair shielding.
# PREDICTION: mu -> ~2.63 (Rick 2.637). Stability rides XL (Rick's own stability = EL adiabaticity).
# Base: TRUE SLATER-OVERLAP kernel deck (`shield slater`): Rick's raw zetas,
# NO refit. Target: close the gauss-kernel port's -4% mu (2.53 vs Rick 2.637) — the deviation was
# the intermolecular J at intermediate r, exactly what the exact kernel fixes.
# Derived from in.tip4pfq_xl (KERNEL-REFIT gauss port); 256-molecule box built from Rick's own equilibrated
# mdtpn.dat config (build_box.py), vol=7660.31 A^3, rho=1.0 g/cc, fixed (NVT).
# Kernel: gaussian/pqeq erf(a_ij r)/r, fit EXACTLY to Rick's jrab() J_HH(1.5139)
# and J_OH(r_MH=0.8735) (see fit_j.py) -- the physically-operative rigid-body
# distances. Single `run` command (multi-run is a known samQEq calibration
# artifact); tail-window ave/time blocks report thermalized averages.
units           metal
atom_style      full
boundary        p p p
read_data       tip4pfq_liquid.data
Reading data file ...
  orthogonal box = (0 0 0) to (19.712825 19.712825 19.712825)
  2 by 2 by 4 MPI processor grid
  reading atoms ...
  1024 atoms
  scanning bonds ...
  2 = max bonds/atom
  scanning angles ...
  1 = max angles/atom
  orthogonal box = (0 0 0) to (19.712825 19.712825 19.712825)
  2 by 2 by 4 MPI processor grid
  reading bonds ...
  512 bonds
  reading angles ...
  256 angles
Finding 1-2 1-3 1-4 neighbors ...
  special bond factors lj:    0        0        0       
  special bond factors coul:  0        0        0       
     2 = max # of 1-2 neighbors
     1 = max # of 1-3 neighbors
     1 = max # of 1-4 neighbors
     2 = max # of special neighbors
  special bonds CPU = 0.001 seconds
  read_data CPU = 0.012 seconds

group           watO  type 1
256 atoms in group watO
group           watH  type 2
512 atoms in group watH
group           watM  type 3
256 atoms in group watM
group           fq    type 2 3
768 atoms in group fq

# LJ on O-O only (Table I): eps=0.2862 kcal/mol=0.012412 eV, sigma=3.159 A
pair_style      hybrid/overlay lj/cut 10.0 coul/long 10.0 coul/shield/intra 5.0 slater 2s 1 3
pair_coeff      1 1 lj/cut 0.012412 3.159
pair_coeff      1 2 lj/cut 0.0 1.0
pair_coeff      1 3 lj/cut 0.0 1.0
pair_coeff      2 2 lj/cut 0.0 1.0
pair_coeff      2 3 lj/cut 0.0 1.0
pair_coeff      3 3 lj/cut 0.0 1.0
pair_coeff      * * coul/long
pair_coeff      1 1 coul/shield/intra 3.0803    # zeta_O (2s), 1/Angstrom
pair_coeff      2 2 coul/shield/intra 1.7007    # zeta_H (1s)
pair_coeff      3 3 coul/shield/intra 3.0803    # zeta_M (borrows O's 2s form factor)
pair_coeff      1 2 coul/shield/intra 2.288813
pair_coeff      1 3 coul/shield/intra 3.080300
pair_coeff      2 3 coul/shield/intra 2.288813
# ^ FIX: hybrid/overlay contributes ZERO for unset sub-style cross pairs (no auto init_one
#   mixing, no warning) — the unset M-H pair hid a +3.2 eV/mol pe error (U_bind -82 naive / -13.6
#   'corrected' -> -9.90 = Rick EXACT once fixed). Cross values: sqrt-mixed (used by cbrt mode;
#   pqeq/slater kernels read type diagonals only). See ubind/DIAGNOSIS_UBIND.md.

special_bonds   lj/coul 1.0e-8 1.0e-8 1.0
Finding 1-2 1-3 1-4 neighbors ...
  special bond factors lj:    1e-08    1e-08    1       
  special bond factors coul:  1e-08    1e-08    1       
     2 = max # of 1-2 neighbors
     1 = max # of 1-3 neighbors
     2 = max # of special neighbors
  special bonds CPU = 0.001 seconds
kspace_style    pppm/samqeq 1.0e-5

neighbor        2.0 bin
neigh_modify    every 1 delay 0 check yes

fix             chg fq qeq/sam 1 0.0 10.0 1.0e-5 water4_liquid_slater_lr1.param
fix_modify      chg shield slater 2s 1 3
samqeq: lr-solve shielding = Slater J(r) (Rick JCP101,6141) (param 4th col = zeta (Slater exponent, 1/Angstrom)); routed through compute_H + add_fixed_charge_field + the legacy gas path (calc_Hval)
fix_modify      chg energy yes
fix_modify      chg xl 2.6e-6 1.0
samqeq: extended-Lagrangian charge dynamics ON (q_mass=2.6e-06 eV ps^2/e^2, q_tdamp=1 ps); pure friction (T_q=0); charges propagate by velocity-Verlet (no per-step solve)
# ROOT CAUSE (found via a dt-scan diagnostic, in.diag_dt.tmp/in.diag_dt2.tmp, logs
# log.diag_dt/log.diag_dt2): dt=0.5 fs (the task's suggested value) is NOT a stable
# integration step for this system -- the intramolecular M-H charge oscillator is very
# stiff (r_MH=0.87 A, eta_M/H~16/15 eV) and the rigid-body torque response amplifies any
# discretization error into a genuine near-critical SCF catastrophe within a few hundred
# steps (confirmed: NEITHER an offset-quartic wall NOR the rnd charge-freeze safeguard
# cured it at dt=0.5fs -- both only delayed/relocated the same blow-up, proof this is an
# INTEGRATION-timestep problem, not a kernel-fit or Hessian-singularity problem). At
# dt=0.1 and dt=0.2 fs the SAME deck (no stabilizers needed at all) is fully stable over
# the tested window with mu/qM/qH/T all physically sane and drifting toward the targets.
# Using dt=0.2 fs (4x smaller than the task's suggested 0.5 fs) here.

compute         qMpa watM property/atom q
compute         qMc  watM reduce ave c_qMpa
compute         qHpa watH property/atom q
compute         qHc  watH reduce ave c_qHpa
compute         dip all dipole/samqeq
variable        mu   equal c_dip
variable        qM   equal c_qMc
variable        qH   equal c_qHc
variable        pemol equal pe/256.0
variable        T equal temp
variable        P equal press

timestep        0.00025
velocity        all create 298.0 65491 mom yes rot yes dist gaussian
fix             rig all rigid/nvt/small molecule temp 298.0 298.0 0.02
Fix rigid/nvt/small setup ...
  create bodies CPU = 0.000 seconds
  256 rigid bodies with 1024 atoms
  0.87348128 = max distance from body owner to body atom
thermo_style    custom step temp v_mu
thermo          400
run             80000

CITE-CITE-CITE-CITE-CITE-CITE-CITE-CITE-CITE-CITE-CITE-CITE-CITE

Your simulation uses code contributions which should be cited:

- fix acks2/reaxff command: https://doi.org/10.1137/18M1224684

@Article{O'Hearn2020,
 author = {K. A. {O'Hearn} and A. Alperen and H. M. Aktulga},
 title = {Fast Solvers for Charge Distribution Models on Shared Memory Platforms},
 journal = {SIAM J.\ Sci.\ Comput.},
 year =    2020,
 volume =  42,
 number =  1,
 pages =   {1--22}
}

CITE-CITE-CITE-CITE-CITE-CITE-CITE-CITE-CITE-CITE-CITE-CITE-CITE

PPPM initialization ...
  using 12-bit tables for long-range coulomb
  G vector (1/distance) = 0.31499941
  grid = 20 20 20
  stencil order = 5
  estimated absolute RMS force accuracy = 0.0001309434
  estimated relative force accuracy = 9.0935157e-06
  using double precision FFTW3
  3d grid and FFT values/proc = 3468 500
samqeq: pair coul/shield/intra Slater-overlap J(r) tables built (6 unique type pairs, 2000 pts each, r in [0.02,5])
Generated 0 of 3 mixed pair_coeff terms from geometric mixing rule
WARNING: Bonds are defined but no bond style is set (src/force.cpp:198)
WARNING: Likewise 1-2 special neighbor interactions != 1.0 (src/force.cpp:200)
WARNING: Angles are defined but no angle style is set (src/force.cpp:203)
WARNING: Likewise 1-3 special neighbor interactions != 1.0 (src/force.cpp:205)
samqeq: E_self = sum(chi q + 1/2 eta qs^2) INCLUDED in pe/etotal (fix_modify chg energy yes; eselfref qs = q - q0 - redox_dp) -- pe + E_self is the energy the forces integrate
samqeq: Slater-overlap J(r) tables built (6 unique type pairs, 2000 pts each, r in [0.02,10])
Neighbor list info ...
  update: every = 1 steps, delay = 0 steps, check = yes
  max neighbors/atom: 2000, page size: 100000
  master list distance cutoff = 12
  ghost atom cutoff = 12
  binsize = 6, bins = 4 4 4
  5 neighbor lists, perpetual/occasional/extra = 5 0 0
  (1) pair lj/cut, perpetual, copy from (2)
      attributes: half, newton on, cut 12
      pair build: copy
      stencil: none
      bin: none
  (2) pair coul/long, perpetual, half/full from (5)
      attributes: half, newton on, cut 12
      pair build: halffull/newton
      stencil: none
      bin: none
  (3) pair coul/shield/intra, perpetual, copy from (1)
      attributes: half, newton on
      pair build: copy
      stencil: none
      bin: none
  (4) fix qeq/sam, perpetual, half/full from (5)
      attributes: half, newton off
      pair build: halffull/newtoff
      stencil: none
      bin: none
  (5) fix qeq/sam, perpetual
      attributes: full, newton on
      pair build: full/bin
      stencil: full/bin/3d
      bin: standard
Per MPI rank memory allocation (min/avg/max) = 20.69 | 20.97 | 21.15 Mbytes
   Step          Temp           v_mu     
WARNING: compute dipole/samqeq: molecule 22 has net charge -0.000001; its dipole is origin-dependent (src/SAMQEQ/compute_dipole_samqeq.cpp:165)
         0   309.65895      2.652567     
samqeq: calibrated grid reciprocal self-term recip_self=0.35523 +/- 0.00000 (raw, K=16 deterministic probes) = 5.1152 eV/e (subtracted so the QEq diagonal stays = eta)
       400   300.80525      2.6425572    
       800   287.94847      2.6455573    
      1200   277.02098      2.6586825    
      1600   296.63415      2.6354187    
      2000   301.7574       2.6370441    
      2400   287.95293      2.6389808    
      2800   309.9111       2.6396718    
      3200   304.29876      2.6305183    
      3600   288.39253      2.6245494    
      4000   288.13018      2.6362292    
      4400   292.79308      2.6403824    
      4800   310.86349      2.6343168    
      5200   279.59767      2.6220653    
      5600   295.19699      2.6151684    
      6000   281.59773      2.6036534    
      6400   310.702        2.6367359    
      6800   306.34186      2.6208639    
      7200   303.61341      2.6440771    
      7600   304.85865      2.625067     
      8000   335.34121      2.5986123    
      8400   314.09489      2.6200579    
      8800   308.62265      2.6340068    
      9200   309.60742      2.6385229    
      9600   305.70108      2.642496     
     10000   299.14171      2.6371348    
     10400   295.27714      2.631228     
     10800   283.8475       2.6501416    
     11200   308.94825      2.6610211    
     11600   300.69767      2.6341825    
     12000   298.45783      2.6227731    
     12400   277.64006      2.6211914    
     12800   307.87566      2.6142141    
     13200   302.89029      2.6148629    
     13600   286.17493      2.6291412    
     14000   307.16984      2.6195123    
     14400   300.03423      2.6309075    
     14800   301.25295      2.6363595    
     15200   298.06033      2.6359339    
     15600   285.07838      2.620221     
     16000   306.2042       2.6145516    
     16400   283.92016      2.6290444    
     16800   282.59636      2.630899     
     17200   287.18487      2.6298439    
     17600   316.52145      2.6346288    
     18000   289.82288      2.644011     
     18400   280.76004      2.6262703    
     18800   303.81562      2.6245507    
     19200   309.87723      2.605838     
     19600   292.0268       2.6232682    
     20000   321.46692      2.6251993    
     20400   279.85258      2.6377204    
     20800   281.29757      2.6376435    
     21200   294.19469      2.6147788    
     21600   294.04572      2.6332486    
     22000   302.61338      2.6241831    
     22400   276.17503      2.6251363    
     22800   313.33655      2.6391565    
     23200   281.81761      2.6211673    
     23600   290.74536      2.6136212    
     24000   298.6182       2.6170068    
     24400   302.093        2.6344243    
     24800   289.78979      2.6028338    
     25200   289.06248      2.5994446    
     25600   298.19593      2.6209326    
     26000   281.89675      2.6296913    
     26400   299.65452      2.6385566    
     26800   296.79472      2.6281796    
     27200   289.82352      2.61889      
     27600   309.06885      2.6246896    
     28000   303.86663      2.6084521    
     28400   307.616        2.6246038    
     28800   282.3403       2.609961     
     29200   300.50093      2.6320502    
     29600   294.61703      2.634096     
     30000   281.5067       2.6398043    
     30400   274.08835      2.6358699    
     30800   290.01455      2.6375946    
     31200   293.9198       2.6059618    
     31600   298.43571      2.6219477    
     32000   300.97484      2.6313292    
     32400   309.19927      2.6140576    
     32800   305.07704      2.625242     
     33200   295.76408      2.5995884    
     33600   308.22395      2.6118151    
     34000   288.19143      2.5829318    
     34400   294.2824       2.5846787    
     34800   289.95772      2.5951885    
     35200   307.39096      2.5870919    
     35600   318.61916      2.5834552    
     36000   295.34936      2.597883     
     36400   298.37078      2.6295215    
     36800   297.60379      2.6341687    
     37200   287.85714      2.6220541    
     37600   289.82314      2.6299373    
     38000   298.42692      2.6127599    
     38400   294.07614      2.6114105    
     38800   283.21209      2.6330076    
     39200   310.9005       2.6453142    
     39600   298.78922      2.6250767    
     40000   317.14812      2.631668     
     40400   298.40742      2.6420104    
     40800   313.96051      2.6465233    
     41200   290.60784      2.6461135    
     41600   292.77529      2.6225128    
     42000   293.11452      2.6200129    
     42400   292.39763      2.6404143    
     42800   312.99121      2.6439939    
     43200   297.43308      2.6319443    
     43600   289.57992      2.6478372    
     44000   290.60147      2.6510916    
     44400   281.48271      2.6608178    
     44800   284.45575      2.6561175    
     45200   290.23032      2.6409737    
     45600   299.1951       2.6487281    
     46000   289.26743      2.6298035    
     46400   289.81903      2.623281     
     46800   296.0686       2.6288171    
     47200   297.89488      2.6367491    
     47600   293.78043      2.6259794    
     48000   297.73702      2.6333666    
     48400   300.92628      2.6105948    
     48800   301.85608      2.6146632    
     49200   312.27779      2.6175551    
     49600   285.74625      2.6065708    
     50000   289.32216      2.6268849    
     50400   309.79524      2.6354417    
     50800   328.83618      2.6026503    
     51200   300.26225      2.611898     
     51600   293.07665      2.6198609    
     52000   281.08217      2.6159046    
     52400   288.7011       2.5937644    
     52800   299.20544      2.6263212    
     53200   291.3667       2.627117     
     53600   292.99995      2.6130252    
     54000   296.46427      2.6057277    
     54400   293.3692       2.6254064    
     54800   303.19762      2.6335153    
     55200   292.99122      2.6064527    
     55600   285.99106      2.6225507    
     56000   306.25604      2.6019482    
     56400   296.96691      2.5975367    
     56800   274.33844      2.595539     
     57200   298.29695      2.6003506    
     57600   295.2609       2.6056822    
     58000   302.6794       2.616888     
     58400   281.11542      2.62144      
     58800   297.08582      2.6338297    
     59200   307.94366      2.6275979    
     59600   299.68193      2.6233234    
     60000   294.38703      2.6375875    
     60400   294.62008      2.623083     
     60800   307.7244       2.6243387    
     61200   301.87058      2.6387367    
     61600   306.67137      2.626213     
     62000   291.13943      2.6151542    
     62400   295.37956      2.6475785    
     62800   281.51708      2.6358394    
     63200   324.29142      2.6333445    
     63600   292.45505      2.630374     
     64000   299.8075       2.632274     
     64400   300.76868      2.6230105    
     64800   312.28928      2.6543199    
     65200   305.62095      2.6427702    
     65600   319.34777      2.6264471    
     66000   313.68073      2.6083014    
     66400   290.91783      2.6411331    
     66800   308.73045      2.624554     
     67200   306.53088      2.6333494    
     67600   305.86236      2.6402944    
     68000   300.87716      2.6403456    
     68400   297.41987      2.6473452    
     68800   278.68953      2.6382063    
     69200   308.26279      2.6355499    
     69600   296.60376      2.6327559    
     70000   296.76745      2.618514     
     70400   305.63927      2.6140854    
     70800   308.14549      2.640272     
     71200   304.24616      2.635923     
     71600   284.53727      2.6179424    
     72000   310.89018      2.6191964    
     72400   300.97678      2.6270928    
     72800   322.53998      2.6332848    
     73200   293.11555      2.6341962    
     73600   299.48443      2.6397967    
     74000   299.04163      2.6402028    
     74400   301.34996      2.6147828    
     74800   288.98471      2.6327363    
     75200   295.43993      2.6277405    
     75600   302.1642       2.6107775    
     76000   288.14469      2.6071743    
     76400   302.07412      2.607396     
     76800   313.69108      2.6184863    
     77200   292.4203       2.624022     
     77600   308.35922      2.6342902    
     78000   280.6186       2.6143765    
     78400   293.30766      2.62406      
     78800   292.41261      2.6425755    
     79200   316.68406      2.63161      
     79600   300.94902      2.6162015    
     80000   276.46744      2.6369392    
Loop time of 311.205 on 16 procs for 80000 steps with 1024 atoms

Performance: 5.553 ns/day, 4.322 hours/ns, 257.065 timesteps/s, 263.234 katom-step/s
84.7% CPU use with 16 MPI tasks x 1 OpenMP threads

MPI task timing breakdown:
Section |  min time  |  avg time  |  max time  |%varavg| %total
---------------------------------------------------------------
Pair    | 56.639     | 59.838     | 64.428     |  22.5 | 19.23
Bond    | 0.004189   | 0.0046329  | 0.0051569  |   0.5 |  0.00
Kspace  | 53.881     | 58.345     | 61.123     |  21.2 | 18.75
Neigh   | 1.2128     | 1.2629     | 1.3527     |   2.7 |  0.41
Comm    | 19.832     | 20.036     | 20.196     |   2.1 |  6.44
Output  | 0.030013   | 0.030651   | 0.031887   |   0.2 |  0.01
Modify  | 169.39     | 169.61     | 169.76     |   0.9 | 54.50
Other   |            | 2.081      |            |       |  0.67

Nlocal:             64 ave          70 max          50 min
Histogram: 1 0 0 1 0 1 4 1 4 4
Nghost:        4375.88 ave        4440 max        4304 min
Histogram: 2 1 1 1 1 4 2 0 1 3
Neighs:        30908.9 ave       34863 max       23756 min
Histogram: 1 0 1 0 0 3 4 3 3 1
FullNghs:      61817.8 ave       68487 max       48270 min
Histogram: 1 0 0 1 1 1 4 4 1 3

Total # of neighbors = 989084
Ave neighs/atom = 965.90234
Ave special neighs/atom = 1.5
Neighbor list builds = 757
Dangerous builds = 0
unfix           rig
fix             rig all rigid/nvt/small molecule temp 298.0 298.0 0.02
Fix rigid/nvt/small setup ...
  create bodies CPU = 0.000 seconds
  256 rigid bodies with 1024 atoms
  0.87348128 = max distance from body owner to body atom
reset_timestep  0
run             400000
PPPM initialization ...
  using 12-bit tables for long-range coulomb
  G vector (1/distance) = 0.31494605
  grid = 20 20 20
  stencil order = 5
  estimated absolute RMS force accuracy = 0.00012969403
  estimated relative force accuracy = 9.0067519e-06
  using double precision FFTW3
  3d grid and FFT values/proc = 3468 500
samqeq: pair coul/shield/intra Slater-overlap J(r) tables built (6 unique type pairs, 2000 pts each, r in [0.02,5])
Generated 0 of 3 mixed pair_coeff terms from geometric mixing rule
WARNING: Bonds are defined but no bond style is set (src/force.cpp:198)
WARNING: Likewise 1-2 special neighbor interactions != 1.0 (src/force.cpp:200)
WARNING: Angles are defined but no angle style is set (src/force.cpp:203)
WARNING: Likewise 1-3 special neighbor interactions != 1.0 (src/force.cpp:205)
samqeq: E_self = sum(chi q + 1/2 eta qs^2) INCLUDED in pe/etotal (fix_modify chg energy yes; eselfref qs = q - q0 - redox_dp) -- pe + E_self is the energy the forces integrate
samqeq: Slater-overlap J(r) tables built (6 unique type pairs, 2000 pts each, r in [0.02,10])
Per MPI rank memory allocation (min/avg/max) = 20.58 | 20.97 | 21.15 Mbytes
   Step          Temp           v_mu     
         0   276.46744      2.6369392    
       400   290.47803      2.6380137    
       800   313.77332      2.6169268    
      1200   294.54178      2.6218286    
      1600   304.28576      2.6232705    
      2000   308.23599      2.6256434    
      2400   300.9856       2.6357267    
      2800   308.36782      2.6294675    
      3200   292.41906      2.6376423    
      3600   321.97059      2.6429493    
      4000   312.7013       2.6314613    
      4400   304.03063      2.6291192    
      4800   308.73728      2.6091251    
      5200   291.08357      2.6059678    
      5600   323.99737      2.6284659    
      6000   315.17096      2.6290825    
      6400   295.18734      2.6257919    
      6800   313.17529      2.6215344    
      7200   280.78427      2.6438286    
      7600   289.79962      2.6275724    
      8000   303.70008      2.6286442    
      8400   285.16175      2.6203593    
      8800   290.16928      2.6083641    
      9200   295.57535      2.6129142    
      9600   299.38303      2.6022202    
     10000   313.70847      2.6173927    
     10400   289.55325      2.6339       
     10800   287.54999      2.6460408    
     11200   290.72777      2.629378     
     11600   317.47018      2.650241     
     12000   343.21746      2.6543479    
     12400   307.58201      2.6232857    
     12800   297.276        2.6470938    
     13200   310.18074      2.6332237    
     13600   320.67037      2.6313488    
     14000   302.94631      2.6453363    
     14400   302.43713      2.6337404    
     14800   305.57052      2.6257856    
     15200   298.91755      2.6475301    
     15600   291.88965      2.6391662    
     16000   299.90877      2.6391353    
     16400   296.84042      2.6206045    
     16800   304.83631      2.6292404    
     17200   308.11412      2.6290798    
     17600   301.52527      2.6235579    
     18000   294.77833      2.6218064    
     18400   280.05277      2.6004141    
     18800   301.88281      2.5978677    
     19200   305.65096      2.6108136    
     19600   310.058        2.6271911    
     20000   313.37669      2.6091367    
     20400   294.65744      2.6225751    
     20800   294.03176      2.6383171    
     21200   302.66075      2.616257     
     21600   290.17531      2.6323607    
     22000   278.7671       2.6292365    
     22400   287.66734      2.6428878    
     22800   285.53701      2.628867     
     23200   294.77754      2.6381149    
     23600   304.49529      2.6186517    
     24000   289.78038      2.627835     
     24400   278.17768      2.6675322    
     24800   302.50195      2.6524968    
     25200   287.18544      2.6369951    
     25600   283.20052      2.6300349    
     26000   287.56645      2.6281906    
     26400   296.41796      2.6594696    
     26800   303.7637       2.6701242    
     27200   305.24529      2.6422038    
     27600   296.35538      2.6465525    
     28000   300.2106       2.6464414    
     28400   304.3515       2.6419571    
     28800   279.45714      2.6411605    
     29200   297.06116      2.6750928    
     29600   291.54039      2.6400284    
     30000   290.8787       2.6407394    
     30400   284.65176      2.6245059    
     30800   306.2576       2.6360072    
     31200   315.43662      2.6421272    
     31600   284.78829      2.6369469    
     32000   299.64734      2.630775     
     32400   292.07574      2.6262642    
     32800   318.46156      2.6441624    
     33200   307.14337      2.6544555    
     33600   292.09138      2.6457644    
     34000   292.56896      2.6506619    
     34400   307.58588      2.6293828    
     34800   304.97001      2.627691     
     35200   293.71643      2.6498663    
     35600   305.29149      2.6363218    
     36000   313.007        2.633599     
     36400   279.43835      2.6380237    
     36800   293.72645      2.6292475    
     37200   301.05489      2.6265998    
     37600   302.36528      2.6249711    
     38000   288.70442      2.6242044    
     38400   283.481        2.6275948    
     38800   293.94872      2.631709     
     39200   308.18623      2.6422561    
     39600   286.64384      2.6487119    
     40000   295.54064      2.6499647    
     40400   297.50588      2.6527022    
     40800   314.86553      2.6454205    
     41200   297.99154      2.6342695    
     41600   303.43557      2.6697295    
     42000   292.82765      2.6587133    
     42400   291.6044       2.640813     
     42800   312.50425      2.651748     
     43200   298.62286      2.6505817    
     43600   299.61012      2.6457209    
     44000   313.92541      2.6440457    
     44400   303.44856      2.657907     
     44800   308.14539      2.6694299    
     45200   297.94556      2.6638905    
     45600   282.50398      2.6665275    
     46000   286.02803      2.6597138    
     46400   304.98135      2.6532069    
     46800   305.84028      2.6401135    
     47200   289.52731      2.630144     
     47600   314.46263      2.637495     
     48000   301.52108      2.6272723    
     48400   300.78768      2.6169661    
     48800   293.98841      2.635252     
     49200   301.43339      2.6273647    
     49600   293.30383      2.625354     
     50000   302.08836      2.5988035    
     50400   310.01845      2.6195878    
     50800   303.2598       2.622125     
     51200   303.33278      2.6275807    
     51600   305.8931       2.6143032    
     52000   291.67088      2.6150058    
     52400   302.25971      2.5997528    
     52800   289.67061      2.6020911    
     53200   270.61379      2.62863      
     53600   296.83927      2.6113534    
     54000   287.618        2.6240616    
     54400   290.6786       2.6170699    
     54800   309.62195      2.61779      
     55200   296.21902      2.633825     
     55600   286.67582      2.6444375    
     56000   313.72932      2.6421468    
     56400   308.59708      2.6334735    
     56800   308.56412      2.6260613    
     57200   307.70016      2.6434193    
     57600   313.41805      2.6408716    
     58000   286.36527      2.6226101    
     58400   297.70723      2.6199877    
     58800   313.32636      2.6155439    
     59200   292.0119       2.6082985    
     59600   289.06771      2.6097586    
     60000   301.88701      2.5978215    
     60400   315.33868      2.6078747    
     60800   297.07744      2.6167778    
     61200   299.178        2.6164127    
     61600   314.5403       2.5976916    
     62000   299.7898       2.6051276    
     62400   275.19394      2.6091599    
     62800   308.5379       2.5965083    
     63200   298.32811      2.6086358    
     63600   283.49874      2.6050503    
     64000   314.80748      2.6081762    
     64400   305.03764      2.5940566    
     64800   294.74459      2.617017     
     65200   295.46542      2.6189577    
     65600   296.82432      2.5973804    
     66000   308.58454      2.5961625    
     66400   303.86755      2.5849141    
     66800   274.897        2.6142782    
     67200   291.90687      2.6154096    
     67600   299.00016      2.6131111    
     68000   322.26329      2.6309101    
     68400   309.42342      2.6386748    
     68800   292.92495      2.6137058    
     69200   319.48871      2.6296694    
     69600   291.59713      2.6470597    
     70000   302.55512      2.6527672    
     70400   286.65459      2.6295455    
     70800   284.38088      2.6331185    
     71200   298.0927       2.6278515    
     71600   294.30694      2.6230417    
     72000   268.23804      2.6194923    
     72400   297.58878      2.6294673    
     72800   289.40074      2.6347244    
     73200   300.99727      2.6152209    
     73600   299.31128      2.6387643    
     74000   296.87871      2.6045758    
     74400   292.33156      2.619582     
     74800   303.70854      2.6185817    
     75200   297.4445       2.6157542    
     75600   287.95237      2.592053     
     76000   292.76174      2.5788095    
     76400   287.59521      2.5909862    
     76800   310.89238      2.6108138    
     77200   279.5443       2.5962193    
     77600   306.57318      2.592711     
     78000   276.11531      2.6067949    
     78400   307.48622      2.6130188    
     78800   292.81495      2.6184191    
     79200   292.27121      2.6230883    
     79600   287.66491      2.6252716    
     80000   307.95059      2.6336965    
     80400   309.22804      2.6088316    
     80800   301.4782       2.6101252    
     81200   284.33104      2.607921     
     81600   303.24714      2.6056633    
     82000   277.83347      2.6076007    
     82400   306.32737      2.6022655    
     82800   303.73422      2.615898     
     83200   312.42678      2.625228     
     83600   314.96537      2.632833     
     84000   299.11587      2.6139315    
     84400   328.57635      2.6128863    
     84800   290.03804      2.6155657    
     85200   299.75223      2.6342862    
     85600   292.18998      2.6200003    
     86000   311.37127      2.6452564    
     86400   284.96224      2.6233184    
     86800   290.09563      2.6301491    
     87200   293.42288      2.6292144    
     87600   296.18398      2.6383134    
     88000   292.00373      2.6037573    
     88400   301.98284      2.6205603    
     88800   291.87165      2.6074315    
     89200   282.76862      2.6135177    
     89600   296.51784      2.6286732    
     90000   289.24011      2.608026     
     90400   282.51009      2.6028183    
     90800   298.86553      2.6168533    
     91200   292.92234      2.6271762    
     91600   287.95875      2.6070235    
     92000   298.77557      2.6118259    
     92400   306.32104      2.6283903    
     92800   279.36455      2.6211535    
     93200   283.3729       2.6042415    
     93600   292.0205       2.6160244    
     94000   290.64191      2.616554     
     94400   302.17086      2.6125868    
     94800   305.10761      2.6149387    
     95200   295.08245      2.6279423    
     95600   298.45258      2.6236327    
     96000   312.20311      2.6151829    
     96400   283.85835      2.6198343    
     96800   293.80569      2.6355573    
     97200   295.60336      2.6445016    
     97600   294.83921      2.6251342    
     98000   311.69509      2.6235937    
     98400   303.42047      2.6145118    
     98800   301.26368      2.6295147    
     99200   311.50574      2.6186182    
     99600   310.22768      2.6335118    
    100000   309.88749      2.654881     
    100400   308.1559       2.6396538    
    100800   285.84399      2.6314306    
    101200   278.65805      2.6227551    
    101600   292.08333      2.6309334    
    102000   314.42496      2.6642921    
    102400   318.43012      2.6439483    
    102800   307.82217      2.6610238    
    103200   302.30515      2.6506811    
    103600   295.9045       2.6436991    
    104000   291.53081      2.6696089    
    104400   292.9224       2.6569558    
    104800   302.80014      2.6340612    
    105200   306.78149      2.6290806    
    105600   318.40938      2.6384179    
    106000   301.07925      2.6475525    
    106400   282.13346      2.6382538    
    106800   307.58023      2.6337369    
    107200   313.04697      2.6481019    
    107600   308.36733      2.6255717    
    108000   295.3418       2.6014446    
    108400   298.16807      2.62266      
    108800   288.31303      2.6372675    
    109200   302.57172      2.6292826    
    109600   289.87872      2.6392861    
    110000   292.99818      2.6365898    
    110400   307.68944      2.6146084    
    110800   278.47093      2.6261166    
    111200   294.7577       2.6507533    
    111600   300.51002      2.6447334    
    112000   292.02658      2.608067     
    112400   302.72704      2.6144148    
    112800   289.26288      2.6477068    
    113200   294.40577      2.6601927    
    113600   284.65445      2.6256476    
    114000   289.86629      2.6191181    
    114400   300.74006      2.6397095    
    114800   295.46486      2.6060372    
    115200   288.87682      2.6048316    
    115600   285.15284      2.5841326    
    116000   298.6395       2.6189825    
    116400   301.70813      2.6183237    
    116800   299.066        2.6409883    
    117200   307.4293       2.6328318    
    117600   299.05014      2.6390553    
    118000   314.67195      2.6193213    
    118400   286.937        2.6114794    
    118800   296.08446      2.6414711    
    119200   280.64798      2.6075067    
    119600   319.16156      2.5975516    
    120000   284.44175      2.6099989    
    120400   318.96875      2.5959838    
    120800   301.88198      2.5896014    
    121200   309.4942       2.612427     
    121600   309.56453      2.6042999    
    122000   321.52371      2.6103899    
    122400   286.93513      2.6104463    
    122800   300.647        2.590584     
    123200   318.44355      2.6001584    
    123600   296.45346      2.6009102    
    124000   309.2614       2.612091     
    124400   318.62593      2.6137519    
    124800   292.1221       2.6118006    
    125200   284.3226       2.6355523    
    125600   294.7295       2.6138279    
    126000   298.07835      2.633762     
    126400   291.23191      2.6343013    
    126800   303.49952      2.6181275    
    127200   296.44684      2.6397313    
    127600   296.94664      2.6317869    
    128000   315.75227      2.6189461    
    128400   311.89358      2.6069214    
    128800   289.4715       2.6007391    
    129200   303.00892      2.6286396    
    129600   305.99683      2.6166451    
    130000   317.64529      2.6120849    
    130400   278.61762      2.5877746    
    130800   310.91351      2.6087657    
    131200   287.19439      2.6243779    
    131600   295.35453      2.6205409    
    132000   290.79221      2.624171     
    132400   299.53114      2.6153256    
    132800   299.61529      2.6089139    
    133200   288.41345      2.6039621    
    133600   281.30731      2.6029761    
    134000   277.60322      2.613545     
    134400   299.49323      2.6024776    
    134800   320.91448      2.6231812    
    135200   306.43737      2.627052     
    135600   312.89069      2.6540619    
    136000   306.51572      2.6312907    
    136400   303.95824      2.5901924    
    136800   297.49194      2.6073059    
    137200   291.12868      2.5901874    
    137600   292.06514      2.6029964    
    138000   292.99539      2.6303676    
    138400   310.74411      2.6331733    
    138800   308.66385      2.6306465    
    139200   309.34952      2.6025551    
    139600   290.45743      2.6442181    
    140000   293.62185      2.619031     
    140400   293.61522      2.6046965    
    140800   311.87686      2.5978238    
    141200   312.07081      2.6081434    
    141600   311.15665      2.6078811    
    142000   299.59302      2.6113842    
    142400   297.30906      2.6366183    
    142800   296.57028      2.6289869    
    143200   293.42397      2.6279897    
    143600   291.99556      2.6366415    
    144000   308.32413      2.6213975    
    144400   312.19988      2.6291457    
    144800   285.66055      2.6065145    
    145200   297.09593      2.6140319    
    145600   274.25423      2.6265891    
    146000   275.13863      2.6303324    
    146400   292.83672      2.6237005    
    146800   307.81987      2.6062633    
    147200   292.1537       2.6029948    
    147600   308.08069      2.5869511    
    148000   280.53247      2.5896028    
    148400   305.28673      2.6032979    
    148800   308.49022      2.5936985    
    149200   303.61419      2.5889806    
    149600   305.50429      2.5856568    
    150000   281.09985      2.57683      
    150400   294.45383      2.5783764    
    150800   304.53688      2.6116694    
    151200   299.27271      2.6022387    
    151600   313.56243      2.5817825    
    152000   324.34609      2.6005652    
    152400   270.7404       2.5865455    
    152800   293.53876      2.5954048    
    153200   314.13383      2.5979141    
    153600   300.94192      2.6110876    
    154000   301.2456       2.6022631    
    154400   307.73697      2.6166956    
    154800   298.04798      2.6401107    
    155200   288.84664      2.6097824    
    155600   309.81102      2.6142439    
    156000   316.36479      2.646076     
    156400   290.91172      2.6384332    
    156800   302.1084       2.6466672    
    157200   297.86344      2.6068104    
    157600   300.05443      2.6050235    
    158000   297.73272      2.619382     
    158400   288.57421      2.6241184    
    158800   273.38283      2.6097399    
    159200   296.36108      2.6237147    
    159600   298.41608      2.6175904    
    160000   295.36998      2.6091126    
    160400   289.70541      2.6113438    
    160800   300.47212      2.5951606    
    161200   289.10613      2.5856166    
    161600   307.40593      2.5948096    
    162000   285.89032      2.5813072    
    162400   311.45952      2.5872397    
    162800   285.29388      2.5834489    
    163200   304.02653      2.5842624    
    163600   290.78865      2.5905037    
    164000   297.90153      2.5901991    
    164400   284.60396      2.6066793    
    164800   300.37087      2.6180986    
    165200   289.95782      2.6207149    
    165600   302.44354      2.6270658    
    166000   317.1922       2.6249791    
    166400   291.28206      2.6382159    
    166800   296.33728      2.6441816    
    167200   290.65344      2.6472778    
    167600   301.27773      2.6405953    
    168000   304.03377      2.6147596    
    168400   287.88039      2.6367876    
    168800   297.47869      2.6340954    
    169200   290.62742      2.6448525    
    169600   301.18477      2.6074539    
    170000   289.35575      2.6237379    
    170400   295.80521      2.6425895    
    170800   293.96671      2.6386885    
    171200   282.47643      2.6198026    
    171600   306.29139      2.6190401    
    172000   301.65677      2.614903     
    172400   298.6692       2.634165     
    172800   304.56367      2.6212858    
    173200   300.99907      2.6141875    
    173600   288.70026      2.6292516    
    174000   287.46575      2.6350355    
    174400   301.56289      2.6224926    
    174800   294.66181      2.637046     
    175200   326.73598      2.6502218    
    175600   282.78739      2.6300515    
    176000   284.32781      2.6420766    
    176400   288.83307      2.6397517    
    176800   300.3134       2.642114     
    177200   303.85838      2.6245888    
    177600   301.4171       2.6409369    
    178000   286.88663      2.6458904    
    178400   292.51621      2.6388065    
    178800   288.72935      2.6365391    
    179200   294.53312      2.6189108    
    179600   281.86936      2.6455188    
    180000   322.61153      2.6341578    
    180400   311.82941      2.6441655    
    180800   297.34183      2.635195     
    181200   307.5688       2.649903     
    181600   300.73078      2.6422499    
    182000   315.49492      2.6150725    
    182400   307.8107       2.6113875    
    182800   304.76273      2.6360404    
    183200   308.3128       2.6322343    
    183600   314.71238      2.6279257    
    184000   308.84822      2.6430076    
    184400   271.06185      2.6193376    
    184800   280.8847       2.6137586    
    185200   300.08809      2.6224279    
    185600   290.57684      2.6259294    
    186000   293.56234      2.6108992    
    186400   310.12259      2.612962     
    186800   296.52522      2.6075526    
    187200   283.65303      2.5951247    
    187600   284.06469      2.598508     
    188000   299.76629      2.6105781    
    188400   303.03365      2.6360195    
    188800   308.81423      2.6110603    
    189200   303.09555      2.6145075    
    189600   306.76941      2.6105731    
    190000   308.72791      2.5952304    
    190400   286.76249      2.6067198    
    190800   300.35522      2.5941155    
    191200   312.89944      2.6153429    
    191600   298.42075      2.6282706    
    192000   283.76135      2.6140943    
    192400   292.14997      2.60802      
    192800   309.79325      2.631236     
    193200   304.87561      2.6341469    
    193600   293.29474      2.6383598    
    194000   306.40954      2.6378845    
    194400   293.92554      2.6423568    
    194800   292.68443      2.644893     
    195200   295.08092      2.6390564    
    195600   291.54462      2.6597576    
    196000   290.63476      2.6613751    
    196400   298.76004      2.6460418    
    196800   301.38848      2.6566637    
    197200   287.64296      2.6520121    
    197600   290.50577      2.64395      
    198000   311.45599      2.6572814    
    198400   295.34027      2.6616301    
    198800   293.85544      2.6593724    
    199200   299.44981      2.6624599    
    199600   294.66042      2.6701145    
    200000   311.55421      2.6371462    
    200400   310.88888      2.6516446    
    200800   311.43626      2.6628989    
    201200   308.0143       2.6439754    
    201600   301.31251      2.6209879    
    202000   312.25172      2.6431454    
    202400   315.75317      2.6451716    
    202800   289.36771      2.6470069    
    203200   296.96067      2.6524236    
    203600   282.92906      2.640126     
    204000   287.99171      2.6789061    
    204400   302.55836      2.6536146    
    204800   285.47874      2.6691933    
    205200   287.55353      2.6628144    
    205600   282.20892      2.6721229    
    206000   289.32388      2.6584908    
    206400   288.82231      2.6599534    
    206800   282.34999      2.6634916    
    207200   305.58285      2.6519824    
    207600   303.56045      2.6418218    
    208000   307.99468      2.6446824    
    208400   301.53685      2.6586024    
    208800   309.61886      2.6230062    
    209200   303.15896      2.644572     
    209600   317.28735      2.6705511    
    210000   301.56792      2.6595285    
    210400   309.65109      2.6534688    
    210800   295.91313      2.6512294    
    211200   299.10169      2.6464554    
    211600   297.15671      2.6405023    
    212000   279.8499       2.6156474    
    212400   303.84227      2.6161338    
    212800   313.21119      2.6086189    
    213200   320.6995       2.6338389    
    213600   302.54678      2.6539496    
    214000   283.5456       2.6271387    
    214400   295.61168      2.6128296    
    214800   288.60184      2.6157544    
    215200   301.87159      2.6065052    
    215600   301.88217      2.6178956    
    216000   299.55819      2.6440312    
    216400   305.38693      2.6525534    
    216800   300.91788      2.6201544    
    217200   302.21817      2.6399977    
    217600   294.62873      2.632201     
    218000   281.45968      2.627611     
    218400   290.40393      2.6162261    
    218800   303.45865      2.6260989    
    219200   283.03275      2.6313142    
    219600   295.47947      2.627497     
    220000   290.01051      2.6324493    
    220400   302.18255      2.6258641    
    220800   291.4107       2.6179983    
    221200   304.45271      2.624469     
    221600   295.10772      2.6338987    
    222000   300.22863      2.6575546    
    222400   305.41783      2.6362664    
    222800   304.24009      2.6373959    
    223200   306.77205      2.6342555    
    223600   303.76139      2.6332382    
    224000   286.08062      2.6224       
    224400   293.42804      2.6334067    
    224800   321.55614      2.6432985    
    225200   275.01642      2.6562278    
    225600   290.16365      2.648712     
    226000   300.19355      2.6609213    
    226400   293.2804       2.6270022    
    226800   296.45186      2.6235016    
    227200   295.92646      2.6571267    
    227600   295.0086       2.6559266    
    228000   308.31655      2.6536706    
    228400   308.61541      2.6464416    
    228800   289.91822      2.6308906    
    229200   319.35072      2.6357164    
    229600   293.13175      2.6616403    
    230000   297.92073      2.6669849    
    230400   288.62644      2.6586484    
    230800   293.43959      2.6521726    
    231200   313.86212      2.66178      
    231600   303.31715      2.6591799    
    232000   293.2955       2.6708231    
    232400   305.69271      2.6579385    
    232800   301.88554      2.6714871    
    233200   281.79766      2.6403796    
    233600   293.21882      2.6449876    
    234000   295.99771      2.6480671    
    234400   300.86368      2.6375501    
    234800   292.7903       2.6358162    
    235200   293.62802      2.631561     
    235600   301.36919      2.6387748    
    236000   310.7294       2.6407161    
    236400   305.04942      2.666136     
    236800   292.71271      2.6504714    
    237200   311.36323      2.6503903    
    237600   288.94932      2.6428231    
    238000   302.01989      2.643261     
    238400   296.62074      2.6497247    
    238800   302.96121      2.6498322    
    239200   303.82729      2.649899     
    239600   293.58081      2.6338354    
    240000   295.21826      2.6443648    
    240400   295.99814      2.6496693    
    240800   298.92095      2.6458357    
    241200   305.58152      2.6396355    
    241600   302.54797      2.6335567    
    242000   324.3062       2.6435469    
    242400   297.18616      2.6210562    
    242800   280.96499      2.6491387    
    243200   308.21772      2.6345668    
    243600   317.98055      2.6536292    
    244000   295.33602      2.6362155    
    244400   287.9701       2.6392069    
    244800   292.80161      2.6231582    
    245200   314.64823      2.6270718    
    245600   317.60605      2.629613     
    246000   291.1137       2.6505337    
    246400   296.41022      2.6319524    
    246800   298.04082      2.6177017    
    247200   287.36263      2.6217827    
    247600   291.43531      2.6360037    
    248000   295.44205      2.6368159    
    248400   310.46804      2.6240741    
    248800   288.08365      2.6158873    
    249200   296.74848      2.65797      
    249600   288.98185      2.6354012    
    250000   314.50522      2.6266793    
    250400   330.1134       2.6343525    
    250800   307.7904       2.6306715    
    251200   323.87009      2.6342025    
    251600   302.10321      2.6290608    
    252000   300.323        2.602082     
    252400   303.73425      2.6211936    
    252800   305.95245      2.6324574    
    253200   294.72307      2.6238388    
    253600   305.0418       2.6258312    
    254000   301.94254      2.6102403    
    254400   305.81752      2.6320163    
    254800   308.42558      2.6390414    
    255200   308.54244      2.6243052    
    255600   302.69114      2.6163935    
    256000   316.73158      2.6355469    
    256400   300.37582      2.6426001    
    256800   297.60451      2.6134104    
    257200   315.27126      2.6165713    
    257600   275.57525      2.6157445    
    258000   291.36694      2.6150897    
    258400   283.78575      2.6073172    
    258800   307.6638       2.6045745    
    259200   300.95127      2.6084685    
    259600   292.36521      2.6124639    
    260000   318.36657      2.6130202    
    260400   311.68399      2.6394644    
    260800   284.15187      2.6252114    
    261200   298.24395      2.5929466    
    261600   297.66364      2.6003008    
    262000   295.17167      2.6131732    
    262400   308.30226      2.605923     
    262800   300.8298       2.6280083    
    263200   313.37323      2.6503265    
    263600   272.65635      2.6320114    
    264000   303.07025      2.6198984    
    264400   297.9497       2.6239101    
    264800   292.02752      2.6191162    
    265200   288.48622      2.6182857    
    265600   290.61884      2.6348392    
    266000   290.68447      2.6230597    
    266400   303.29359      2.6307685    
    266800   296.0407       2.6273717    
    267200   302.65454      2.61856      
    267600   282.3737       2.6309713    
    268000   273.27149      2.623177     
    268400   306.2342       2.6031646    
    268800   302.56601      2.6194192    
    269200   299.09044      2.6201811    
    269600   286.7726       2.6272123    
    270000   299.78534      2.6213559    
    270400   306.04045      2.6054855    
    270800   289.00582      2.6028267    
    271200   304.2131       2.6257419    
    271600   298.39135      2.6249538    
    272000   292.05779      2.630252     
    272400   289.50286      2.625716     
    272800   296.62115      2.6318773    
    273200   301.03292      2.6054087    
    273600   301.32129      2.6182484    
    274000   280.72319      2.6316602    
    274400   315.2105       2.6146256    
    274800   306.18519      2.6054288    
    275200   307.04464      2.6228379    
    275600   303.96912      2.6117314    
    276000   293.89932      2.6239267    
    276400   278.07661      2.6290052    
    276800   298.76017      2.6300583    
    277200   286.43621      2.6484522    
    277600   304.38244      2.6275086    
    278000   299.3728       2.6226092    
    278400   294.82759      2.6089423    
    278800   274.17608      2.6235101    
    279200   287.17916      2.6274522    
    279600   293.65376      2.6182011    
    280000   281.43188      2.6177077    
    280400   306.50551      2.6273699    
    280800   306.60702      2.6325788    
    281200   295.66048      2.6423528    
    281600   313.20487      2.6261242    
    282000   304.3566       2.6369123    
    282400   307.81859      2.6404743    
    282800   295.97635      2.6460501    
    283200   302.75772      2.6309043    
    283600   303.97614      2.6508263    
    284000   295.92709      2.6423144    
    284400   272.69646      2.6369743    
    284800   309.63092      2.6234983    
    285200   308.07201      2.6296776    
    285600   289.41258      2.6447494    
    286000   288.98261      2.6387064    
    286400   297.1305       2.6373732    
    286800   318.53865      2.6574262    
    287200   277.9229       2.6672125    
    287600   300.61707      2.6531625    
    288000   290.12688      2.6516992    
    288400   310.27715      2.6786042    
    288800   315.16091      2.6841718    
    289200   312.15488      2.6534789    
    289600   311.64157      2.6457392    
    290000   306.36207      2.6413494    
    290400   280.51986      2.6571203    
    290800   304.5185       2.659603     
    291200   289.31318      2.6724761    
    291600   296.93932      2.6605062    
    292000   302.40093      2.6625064    
    292400   314.16084      2.6594131    
    292800   294.29378      2.6426794    
    293200   292.74463      2.6500232    
    293600   291.96911      2.6560342    
    294000   288.60843      2.6514571    
    294400   294.5832       2.6732955    
    294800   294.49864      2.6716189    
    295200   304.17614      2.6517068    
    295600   309.1819       2.6514633    
    296000   293.18239      2.6251108    
    296400   301.07517      2.6318444    
    296800   301.28588      2.6644859    
    297200   314.20111      2.6670611    
    297600   283.65468      2.6668944    
    298000   292.00618      2.6852145    
    298400   285.79727      2.656398     
    298800   295.73315      2.6571096    
    299200   298.77563      2.6374157    
    299600   302.30426      2.6558296    
    300000   296.76998      2.6399339    
    300400   294.3998       2.6564067    
    300800   282.40486      2.655775     
    301200   286.80893      2.6567789    
    301600   302.81603      2.6526443    
    302000   299.03621      2.645875     
    302400   288.96087      2.6526221    
    302800   305.31388      2.6502739    
    303200   284.98842      2.6329467    
    303600   276.34115      2.6593189    
    304000   289.24488      2.6553976    
    304400   295.51532      2.6111995    
    304800   285.6024       2.613087     
    305200   299.45107      2.6012232    
    305600   299.54207      2.615071     
    306000   295.16449      2.6197762    
    306400   287.40955      2.638838     
    306800   302.21627      2.6542008    
    307200   290.55287      2.6465264    
    307600   315.69531      2.6410719    
    308000   286.70129      2.6528103    
    308400   309.88876      2.6397743    
    308800   296.20122      2.6557621    
    309200   284.38014      2.6485609    
    309600   269.91278      2.6173072    
    310000   276.42981      2.6238861    
    310400   303.9939       2.6386665    
    310800   301.31436      2.643944     
    311200   292.67054      2.6434034    
    311600   289.03443      2.6557315    
    312000   299.95221      2.6507253    
    312400   311.52329      2.6391748    
    312800   301.5435       2.6327303    
    313200   288.47348      2.6489345    
    313600   299.62621      2.6453209    
    314000   300.11565      2.6485143    
    314400   281.26657      2.6395728    
    314800   292.65493      2.6386609    
    315200   279.57342      2.6109811    
    315600   303.12691      2.6146034    
    316000   285.85628      2.6300955    
    316400   305.01068      2.6413321    
    316800   306.8165       2.642644     
    317200   307.80887      2.6293842    
    317600   286.96268      2.637757     
    318000   317.81534      2.642899     
    318400   310.41981      2.623909     
    318800   283.9407       2.6357377    
    319200   302.10746      2.6268047    
    319600   301.78779      2.628275     
    320000   301.53447      2.6447812    
    320400   288.63413      2.6166575    
    320800   276.82114      2.644336     
    321200   302.14038      2.635282     
    321600   285.75702      2.6266341    
    322000   295.50114      2.6434892    
    322400   303.59193      2.6393325    
    322800   279.19896      2.6550102    
    323200   296.02466      2.6306081    
    323600   299.27207      2.6104006    
    324000   294.45085      2.6119528    
    324400   302.08603      2.6157479    
    324800   297.80846      2.6405536    
    325200   306.58469      2.6013049    
    325600   307.44601      2.6284889    
    326000   299.47396      2.6347501    
    326400   286.54651      2.6187475    
    326800   289.18597      2.6292437    
    327200   313.03487      2.6178512    
    327600   291.35932      2.6305675    
    328000   284.48695      2.6338135    
    328400   322.00269      2.6303805    
    328800   326.89583      2.6314227    
    329200   314.06951      2.6111168    
    329600   311.8357       2.6017775    
    330000   310.98141      2.6045614    
    330400   296.58037      2.603963     
    330800   301.10067      2.5958113    
    331200   280.77137      2.5779584    
    331600   303.96736      2.6106604    
    332000   285.57876      2.6011636    
    332400   287.63107      2.6064833    
    332800   295.81205      2.6067421    
    333200   296.01294      2.6203643    
    333600   312.18155      2.6122209    
    334000   309.25747      2.6139085    
    334400   306.65595      2.624325     
    334800   282.59525      2.6412216    
    335200   309.05117      2.6442078    
    335600   310.08673      2.6269098    
    336000   314.18032      2.6177829    
    336400   299.83184      2.6343603    
    336800   287.45962      2.6247298    
    337200   302.41539      2.6306736    
    337600   310.38493      2.6224675    
    338000   311.51078      2.616683     
    338400   296.66239      2.603302     
    338800   307.29718      2.6299658    
    339200   280.97746      2.6350384    
    339600   306.55956      2.6489515    
    340000   294.92132      2.6265283    
    340400   284.76802      2.6221911    
    340800   297.8451       2.6051841    
    341200   311.92615      2.5908254    
    341600   293.85318      2.5961317    
    342000   297.4864       2.6163616    
    342400   305.13558      2.6108236    
    342800   304.45993      2.6227444    
    343200   281.05663      2.6338033    
    343600   294.11762      2.6122975    
    344000   304.66262      2.607269     
    344400   296.98755      2.5922549    
    344800   295.09554      2.6063258    
    345200   299.12782      2.6131672    
    345600   292.06875      2.5813521    
    346000   294.33396      2.5995674    
    346400   306.39624      2.5986749    
    346800   300.47485      2.6008377    
    347200   313.74726      2.6068466    
    347600   303.90149      2.6127763    
    348000   299.56871      2.6341705    
    348400   290.39082      2.620492     
    348800   301.39005      2.6184096    
    349200   309.61055      2.6202191    
    349600   287.51405      2.6028607    
    350000   291.30132      2.5978504    
    350400   299.78346      2.6121276    
    350800   297.24873      2.6276266    
    351200   291.32609      2.633128     
    351600   274.97692      2.6299628    
    352000   326.0828       2.6333746    
    352400   290.99476      2.6264649    
    352800   294.00119      2.6280953    
    353200   298.66472      2.62563      
    353600   302.64054      2.6477242    
    354000   276.64372      2.6490312    
    354400   298.15285      2.622416     
    354800   291.27129      2.6057526    
    355200   294.43106      2.6243072    
    355600   290.26291      2.6238764    
    356000   294.60813      2.6135114    
    356400   290.64881      2.6208421    
    356800   303.35738      2.6369744    
    357200   287.28895      2.627377     
    357600   314.36539      2.6444228    
    358000   308.22985      2.6553857    
    358400   299.64896      2.6360216    
    358800   295.43661      2.6066019    
    359200   309.81401      2.6116984    
    359600   308.32964      2.6362211    
    360000   294.23014      2.6093129    
    360400   303.57178      2.628053     
    360800   298.48068      2.6249424    
    361200   297.55837      2.6102976    
    361600   301.85809      2.6230651    
    362000   300.71229      2.6172141    
    362400   305.89471      2.6289858    
    362800   314.44818      2.6554561    
    363200   316.60063      2.6384045    
    363600   308.7556       2.6113953    
    364000   322.91822      2.6130993    
    364400   287.47185      2.5953056    
    364800   300.1702       2.6049461    
    365200   302.85822      2.6140943    
    365600   303.60884      2.6109282    
    366000   299.29273      2.6109706    
    366400   283.21866      2.6094449    
    366800   300.73017      2.599965     
    367200   301.45803      2.613772     
    367600   300.58871      2.6112945    
WARNING: System is not charge neutral, net charge = -1.0000036e-05
For more information see https://docs.lammps.org/err0029 (src/kspace.cpp:329)
    368000   288.41635      2.6154024    
    368400   293.71211      2.6289389    
    368800   299.61904      2.6521177    
    369200   292.69542      2.6303141    
    369600   319.93229      2.6262585    
    370000   292.85464      2.6169293    
    370400   300.40836      2.6252815    
    370800   318.56712      2.6339604    
    371200   270.63811      2.6241938    
    371600   283.72192      2.6285078    
    372000   291.99378      2.6241499    
    372400   285.32297      2.6235825    
    372800   294.58584      2.6234356    
    373200   300.88609      2.6210957    
    373600   297.53578      2.6318624    
    374000   302.47412      2.6171235    
    374400   306.21583      2.6228143    
    374800   292.67062      2.6143864    
    375200   300.39891      2.6156459    
    375600   293.81448      2.6123946    
    376000   315.30132      2.605086     
    376400   298.1581       2.6224489    
    376800   279.98183      2.6258852    
    377200   283.51885      2.6070364    
    377600   307.20243      2.6252322    
    378000   303.79426      2.6049822    
    378400   315.02948      2.5988415    
    378800   296.42987      2.592487     
    379200   281.5675       2.5797695    
    379600   306.0943       2.5926175    
    380000   314.23556      2.6141466    
    380400   305.52753      2.5976137    
    380800   303.84021      2.5822627    
    381200   292.47008      2.6129052    
    381600   303.00769      2.6030237    
    382000   302.19035      2.6139847    
    382400   293.93174      2.6015687    
    382800   300.63482      2.5878253    
    383200   292.98108      2.5840913    
    383600   307.65335      2.6001267    
    384000   309.43437      2.6104374    
    384400   311.94868      2.6098378    
    384800   292.0503       2.603195     
    385200   300.65156      2.6018134    
    385600   304.54357      2.600932     
    386000   313.62554      2.6118125    
    386400   304.46716      2.6134226    
    386800   322.0477       2.6263265    
    387200   303.51799      2.639586     
    387600   299.09964      2.6201473    
    388000   310.76021      2.6098433    
    388400   292.94526      2.6001584    
    388800   297.48459      2.6030108    
    389200   294.28437      2.6201571    
    389600   308.08877      2.6160084    
    390000   317.12682      2.5981114    
    390400   287.51459      2.6125669    
    390800   294.43826      2.6092519    
    391200   314.57428      2.6017543    
    391600   318.10133      2.6107538    
    392000   295.21556      2.6240491    
    392400   279.16496      2.6125951    
    392800   310.47892      2.5959884    
    393200   299.63918      2.6144379    
    393600   328.3546       2.6166307    
    394000   318.24348      2.6201709    
    394400   307.1986       2.6229304    
    394800   305.84282      2.6030954    
    395200   294.06161      2.5919742    
    395600   287.43222      2.6070125    
    396000   281.85757      2.5973642    
    396400   295.35289      2.5940412    
    396800   301.32295      2.5836147    
    397200   297.25063      2.5913711    
    397600   295.36081      2.6012881    
    398000   291.72769      2.5970672    
    398400   277.64334      2.5897458    
    398800   292.25315      2.5852501    
    399200   292.55335      2.5914406    
    399600   293.88577      2.5917941    
    400000   295.73201      2.5880672    
Loop time of 1552.32 on 16 procs for 400000 steps with 1024 atoms

Performance: 5.566 ns/day, 4.312 hours/ns, 257.679 timesteps/s, 263.863 katom-step/s
84.5% CPU use with 16 MPI tasks x 1 OpenMP threads

MPI task timing breakdown:
Section |  min time  |  avg time  |  max time  |%varavg| %total
---------------------------------------------------------------
Pair    | 287.81     | 303.1      | 317.73     |  40.3 | 19.53
Bond    | 0.020874   | 0.023042   | 0.025285   |   0.9 |  0.00
Kspace  | 276.47     | 288.72     | 304.26     |  39.0 | 18.60
Neigh   | 5.9109     | 6.3499     | 6.6162     |   6.1 |  0.41
Comm    | 98.501     | 99.528     | 100.47     |   4.6 |  6.41
Output  | 0.15095    | 0.15346    | 0.15997    |   0.6 |  0.01
Modify  | 844.16     | 845.02     | 845.77     |   1.7 | 54.44
Other   |            | 9.427      |            |       |  0.61

Nlocal:             64 ave          73 max          55 min
Histogram: 1 2 1 2 2 2 1 3 0 2
Nghost:        4348.75 ave        4452 max        4232 min
Histogram: 1 1 1 2 3 2 1 1 2 2
Neighs:        30893.5 ave       35525 max       26241 min
Histogram: 2 1 1 1 2 3 3 1 0 2
FullNghs:        61787 ave       70977 max       52736 min
Histogram: 1 2 1 2 2 2 2 2 0 2

Total # of neighbors = 988592
Ave neighs/atom = 965.42188
Ave special neighs/atom = 1.5
Neighbor list builds = 3790
Dangerous builds = 0
print           "PORT_DONE" file done.txt screen no
Total wall time: 0:31:06
