ITEM: TIMESTEP
0
ITEM: NUMBER OF ATOMS
564
ITEM: BOX BOUNDS pp pp ff
0.0000000000000000e+00 1.7650658050000001e+01
0.0000000000000000e+00 2.0381224350000000e+01
0.0000000000000000e+00 6.0000000000000000e+01
ITEM: ATOMS id mol type q x y z
1 1 2 0 8.24512200 15.58107900 22.60780130
2 1 3 0.000917492782595 8.99930700 15.99494600 23.02750430
3 1 3 0.000915325311704 7.50380600 16.13955400 22.84187130
4 1 4 -0.00203932821034 8.24676900 15.70555000 22.69149230
5 1 2 0 15.94739500 18.39865100 22.69035230
6 1 3 0.000906122444065 16.71765600 18.46088800 22.12550130
7 1 3 0.000907179245956 15.55165300 17.55682700 22.46462430
8 1 4 -0.00204511469391 15.99533800 18.29885400 22.58914830
9 1 2 0 17.43363900 10.16011000 22.73132430
10 1 3 0.000905891346694 17.04728200 9.37132900 22.35081830
11 1 3 0.000910743412174 0.66633495 9.89504700 22.98756730
12 1 4 -0.00204481979234 17.49726000 10.02520600 22.71541730
13 1 2 0 1.34938300 4.55603100 22.80664330
14 1 3 0.000909184210073 2.25303400 4.29537500 22.62858430
15 1 3 0.000916334389019 1.36124800 4.85802700 23.71487830
16 1 4 -0.0020423162118 1.46658000 4.56132300 22.90011430
17 1 2 0 13.79454900 8.69815200 22.91890230
18 1 3 0.000911200839996 13.76817500 9.65498800 22.91982030
19 1 3 0.000915663796808 14.31482300 8.47167600 23.68978230
20 1 4 -0.00204229495834 13.85777400 8.79164700 23.01770230
21 1 2 0 2.45384200 11.13179700 23.00931330
22 1 3 0.000911052091192 3.34523300 10.88819200 23.25893330
23 1 3 0.00090500351601 2.56797500 11.78723500 22.32112330
24 1 4 -0.00204427351487 2.58256100 11.18451700 22.95317030
25 1 2 0 5.78675400 16.92692800 23.09641330
26 1 3 0.000915768759308 5.28323000 16.47580400 23.77404430
27 1 3 0.000906772080595 5.17677800 17.01724400 22.36429030
28 1 4 -0.00204155514784 5.64421300 16.88074000 23.08943730
29 1 2 0 9.01000400 19.57176400 23.18088730
30 1 3 0.000922026911072 8.78238800 19.25232600 24.05403330
31 1 3 0.000912893850063 8.18499100 19.55303200 22.69587630
32 1 4 -0.00203706815848 8.87525500 19.52847400 23.23057330
33 1 2 0 8.83043300 2.85815800 23.19435430
34 1 3 0.000916464202019 9.21769000 2.02205600 23.45357830
35 1 3 0.000914825662713 9.56648500 3.46996200 23.18191330
36 1 4 -0.0020389381378 8.97423000 2.82944500 23.22594530
37 1 2 0 6.02784200 0.12173500 23.20701130
38 1 3 0.000908265381086 5.47821600 0.33162200 22.45196730
39 1 3 0.000915740912787 5.79197900 19.60317635 23.43282430
40 1 4 -0.00204044146141 5.92729000 0.03342000 23.13926330
41 1 2 0 4.18397800 8.35952700 23.26490830
42 1 3 0.000912341900082 5.05229100 7.96143000 23.32642530
43 1 3 0.000905588995905 3.81527900 8.00719600 22.45487330
44 1 4 -0.00204340671914 4.24793400 8.26346300 23.16908830
45 1 2 0 0.45553800 19.51483400 23.37309230
46 1 3 0.000915425771406 0.12126100 20.35801600 23.67892930
47 1 3 0.000917794170323 0.15406600 18.88529700 24.02809630
48 1 4 -0.00203909580739 0.37415500 19.54218300 23.49609230
49 1 2 0 15.09732900 11.54517500 23.49740530
50 1 3 0.000917506544377 15.28848600 12.42944200 23.81007330
51 1 3 0.000913625562937 15.91183100 11.25434900 23.08723630
52 1 4 -0.00203870936512 15.22606500 11.62114200 23.48492330
53 1 2 0 10.74610700 16.76684700 23.56450830
54 1 3 0.000922611093833 10.79944800 17.51104700 24.16413530
55 1 3 0.000921846441382 11.09645100 16.02988700 24.06489030
56 1 4 -0.00203411288868 10.79778300 16.76777400 23.70532230
57 1 2 0 10.92097000 4.49939700 23.57670830
58 1 3 0.000914697255646 10.73334500 5.43784000 23.59550930
59 1 3 0.000908470963418 11.43992200 4.37428700 22.78218430
60 1 4 -0.0020410656629 10.96338400 4.60351300 23.47740630
61 1 2 0 11.20759600 7.43499100 23.63896930
62 1 3 0.000915049738813 12.08038100 7.79234200 23.47532730
63 1 3 0.00091822747775 10.71998500 8.16114200 24.02777930
64 1 4 -0.00203836715111 11.25690300 7.57369300 23.66779430
65 1 2 0 2.77487200 2.13963000 23.80555830
66 1 3 0.000918614704662 1.87563000 2.20241100 24.12751330
67 1 3 0.000918740788518 3.06142600 1.26344600 24.06328030
68 1 4 -0.00203630170759 2.69644000 2.03550400 23.87976330
69 1 2 0 6.66557400 7.03157500 23.85975330
70 1 3 0.00091998128244 7.12119900 7.12854900 24.69595530
71 1 3 0.000910287033789 7.35394200 7.11666000 23.20009930
72 1 4 -0.00203935014623 6.81201900 7.05488100 23.88235330
73 1 2 0 13.64690200 1.83257800 24.19527930
74 1 3 0.000921481811858 12.85765800 1.41328700 24.53809330
75 1 3 0.000922881183868 13.96923300 2.36706000 24.92099530
76 1 4 -0.00203381550358 13.58713200 1.84732400 24.33206430
77 1 2 0 5.00715200 4.70371400 24.22363830
78 1 3 0.000917906974206 5.69863400 5.36154900 24.15057330
79 1 3 0.000911790169687 4.71389900 4.56278300 23.32343130
80 1 4 -0.00203722551555 5.05813000 4.76988400 24.09904830
81 1 2 0 15.07740200 5.32894500 24.27709430
82 1 3 0.000917462739329 15.73547300 6.01263700 24.40255330
83 1 3 0.000911428348022 14.93436300 5.30425000 23.33096330
84 1 4 -0.00203747330371 15.14333200 5.41330500 24.17203830
85 1 2 0 1.93368600 15.47494700 24.31767830
86 1 3 0.000918226473663 2.65042100 14.86751800 24.50085330
87 1 3 0.000912104549852 2.23595500 15.98270500 23.56465230
88 1 4 -0.00203768039208 2.06413000 15.46218800 24.24473030
89 1 2 0 9.63670000 9.69834100 24.31854630
90 1 3 0.000917461748637 8.68003500 9.72351600 24.29875530
91 1 3 0.000913877961779 9.90754500 10.40837200 23.73654030
92 1 4 -0.00203713685918 9.54890600 9.79245600 24.24150930
93 1 2 0 4.31714800 14.06587000 24.39000730
94 1 3 0.000912290417401 4.78988600 13.85099400 23.58590530
95 1 3 0.000918890672764 4.04766500 13.21824400 24.74376130
96 1 4 -0.00203775658963 4.34316700 13.92985700 24.33235730
97 1 2 0 8.26061000 12.83181700 24.44569030
98 1 3 0.000922182637477 9.17832700 13.10211800 24.47678330
99 1 3 0.000923867412225 7.78734700 13.53820400 24.88531730
100 1 4 -0.00203275713598 8.31750600 12.95684500 24.50594830
101 1 2 0 3.49508600 18.95208400 24.47556130
102 1 3 0.000919014865562 2.58902400 18.66568000 24.36042530
103 1 3 0.000925607110074 3.69139100 18.76415800 25.39337430
104 1 4 -0.00203280629613 3.40422900 18.89136400 24.57831330
105 1 2 0 6.70188600 10.48890000 24.57235630
106 1 3 0.000912743244581 6.46010100 10.31878300 23.66195430
107 1 3 0.000919563885969 7.31296500 11.22413700 24.52500130
108 1 4 -0.0020363314465 6.74916000 10.56124200 24.44975230
109 1 2 0 15.29878900 14.08884200 24.76001430
110 1 3 0.00092208574406 14.60940900 14.74576100 24.85719830
111 1 3 0.000920008058146 16.08598800 14.51512300 25.09888730
112 1 4 -0.0020339196011 15.31131100 14.22750500 24.81583530
113 1 2 0 10.77183900 14.15511100 24.80595330
114 1 3 0.000926899533904 10.57829100 14.62850600 25.61506930
115 1 3 0.000924491266936 11.47870900 13.55459400 25.04248130
116 1 4 -0.00203038767676 10.83755000 14.13883800 24.93980830
117 1 2 0 16.91267600 2.62313000 24.96988530
118 1 3 0.000923780868618 16.99912700 3.50638200 25.32852730
119 1 3 0.000918124595515 16.30921700 2.72117700 24.23336830
120 1 4 -0.00203197362616 16.84649300 2.74874800 24.92151230
121 1 2 0 6.30170800 2.23170000 24.98602930
122 1 3 0.000922606251525 5.83233700 3.00106400 24.66353530
123 1 3 0.000921453820348 6.33270000 1.63767700 24.23608930
124 1 4 -0.0020307585478 6.24559000 2.25414600 24.84874530
125 1 2 0 11.01134000 1.83247200 25.20326530
126 1 3 0.000927451763906 10.71999300 2.01679600 26.09622330
127 1 3 0.000921761100005 11.10650300 2.69489800 24.79904030
128 1 4 -0.00203019842164 10.98622600 1.96646900 25.26582930
129 1 2 0 13.32813600 15.90542400 25.21628930
130 1 3 0.000924792140491 13.85549900 16.61335500 25.58636330
131 1 3 0.000926847596407 12.97239400 15.44774900 25.97800630
132 1 4 -0.00202999585101 13.35010600 15.93746000 25.36117230
133 1 2 0 12.52022500 12.01202700 25.25169830
134 1 3 0.000920774824811 13.16850400 11.76504100 24.59218030
135 1 3 0.000926246780001 12.46499600 11.25163700 25.83048030
136 1 4 -0.00203051381191 12.59614300 11.88307100 25.24136330
137 1 2 0 16.40840300 19.45741800 25.26426230
138 1 3 0.000921521776688 16.45952200 0.01605565 25.09025530
139 1 3 0.000919965248656 16.01683600 19.08778600 24.47288430
140 1 4 -0.00203225610605 16.36482200 19.53041400 25.14068130
141 1 2 0 8.47517700 18.06131700 25.42277330
142 1 3 0.000927868770716 9.37481800 18.02996000 25.74818930
143 1 3 0.000927865385427 8.14606800 17.17026200 25.54085130
144 1 4 -0.00202722088139 8.54821200 17.94323700 25.47954630
145 1 2 0 15.19334000 8.74581100 25.53532230
146 1 3 0.00092526587266 15.44104000 8.06498400 26.16090330
147 1 3 0.000923087262229 15.78328000 9.47463600 25.72772030
148 1 4 -0.00203119049616 15.30056800 8.75195500 25.64003330
149 1 2 0 0.84938300 5.70515300 25.53580530
150 1 3 0.000924476178539 1.03248100 6.59229700 25.84513430
151 1 3 0.000925286891115 1.58163000 5.18159800 25.86128430
152 1 4 -0.00203030546248 0.96655800 5.75169700 25.61706830
153 1 2 0 11.22479500 18.68220300 25.59883530
154 1 3 0.000924065136993 11.22328700 19.60210700 25.33424530
155 1 3 0.000926805622971 12.03922400 18.57516400 26.09024130
156 1 4 -0.00202894283564 11.32885800 18.78626000 25.62787030
157 1 2 0 0.41183400 11.55787700 25.60587830
158 1 3 0.000924506810133 0.64613800 10.64146400 25.75257830
159 1 3 0.000921617469716 1.16805100 11.92914000 25.15142030
160 1 4 -0.002030526254 0.53863300 11.48809100 25.56648230
161 1 2 0 8.12633200 4.17882000 25.81706730
162 1 3 0.000927319192694 8.77924900 3.69358300 26.32152430
163 1 3 0.000924746837222 7.91021400 3.60075600 25.08537830
164 1 4 -0.00202811912458 8.18224700 4.04270400 25.78797930
165 1 2 0 7.56908800 15.36448100 25.83811130
166 1 3 0.000929486567131 8.22538200 15.13923700 26.49748630
167 1 3 0.000928280514768 6.73050100 15.24906300 26.28496930
168 1 4 -0.00202675760635 7.54575200 15.32087200 25.97972230
169 1 2 0 0.99370900 8.71985900 25.85117430
170 1 3 0.000918811278918 0.75134800 8.66391400 24.92685630
171 1 3 0.00092507646574 1.94997400 8.76190300 25.84641530
172 1 4 -0.00203112038472 1.08509800 8.71807900 25.73224130
173 1 2 0 12.80925900 5.16015400 25.90682430
174 1 3 0.000922669953376 12.15851800 4.87924200 25.26350730
175 1 3 0.000923941678642 13.60881700 5.29227200 25.39742730
176 1 4 -0.00202971702418 12.82831000 5.14110600 25.75926230
177 1 2 0 8.66085300 7.03336900 26.04967530
178 1 3 0.000926477938079 8.59535500 6.07871800 26.07381730
179 1 3 0.000927199360051 9.58679200 7.21454900 26.21105330
180 1 4 -0.00202838931036 8.77100000 6.93435600 26.07342430
181 1 2 0 3.89553600 11.60235000 26.06317630
182 1 3 0.000926726422086 4.36255600 11.87078400 26.85442130
183 1 3 0.000925222017282 4.10647500 10.67404100 25.96328430
184 1 4 -0.0020290637518 3.98232300 11.51787800 26.15167730
185 1 2 0 3.62978500 8.71462200 26.07897430
186 1 3 0.000927428738272 4.19971700 8.10610000 26.54919830
187 1 3 0.000921824675466 3.81499100 8.55099900 25.15422730
188 1 4 -0.00202942905726 3.72645200 8.61577800 26.02079030
189 1 2 0 3.21464800 4.26027600 26.49332830
190 1 3 0.000928697226033 3.37191400 4.89379200 27.19343930
191 1 3 0.000925823030294 3.82220800 4.51447600 25.79871730
192 1 4 -0.00202666983449 3.31255500 4.37391400 26.49403230
193 1 2 0 14.18334800 18.39282300 26.57302230
194 1 3 0.000929534969391 14.05279500 18.70785100 27.46741930
195 1 3 0.000927247489857 14.96614200 18.85201600 26.26870830
196 1 4 -0.00202658822679 14.26684300 18.49193300 26.64856030
197 1 2 0 6.69366900 8.81958100 26.69397730
198 1 3 0.000926725553529 6.66206100 9.56283700 26.09164430
199 1 3 0.000927735118402 7.49209700 8.34957300 26.45348230
200 1 4 -0.00202665500113 6.79183100 8.85456000 26.58608530
201 1 2 0 9.63566200 11.01814000 26.78542030
202 1 3 0.000926414959132 9.80181200 10.80716900 25.86666130
203 1 3 0.000928443965732 8.84712900 11.56050100 26.76830830
204 1 4 -0.00202572057135 9.55599000 11.06056200 26.66561830
205 1 2 0 2.56207100 1.31779700 26.86136530
206 1 3 0.000928796735785 2.86473400 2.03251100 26.30117630
207 1 3 0.000932862867321 3.10342600 1.38371200 27.64801730
208 1 4 -0.00202388490493 2.67011600 1.41772700 26.89035530
209 1 2 0 1.35572600 16.76575200 26.97442730
210 1 3 0.000926629719629 0.76187300 16.19088100 27.45722630
211 1 3 0.000924838716351 1.52887500 16.29958600 26.15653930
212 1 4 -0.00202728256482 1.30187100 16.63248700 26.93153130
213 1 2 0 15.20294000 12.00841700 26.99576630
214 1 3 0.000927094935011 16.02440000 11.63625400 26.67493830
215 1 3 0.000927438116391 15.01914100 12.73415100 26.39930930
216 1 4 -0.00202576120253 15.28456800 12.05367800 26.87834230
217 1 2 0 14.20052200 2.94209600 26.99865430
218 1 3 0.000928329474765 13.94774800 3.86530700 27.00281030
219 1 3 0.000928127616459 14.89590700 2.88072000 27.65356130
220 1 4 -0.00202607926793 14.25718100 3.05242100 27.08302230
221 1 2 0 11.24978600 7.42906100 27.02862630
222 1 3 0.000926697531945 11.65519100 6.82977100 26.40194430
223 1 3 0.000929916520545 10.98777200 6.87013000 27.76018530
224 1 4 -0.00202610504031 11.26814200 7.28079500 27.04205230
225 1 2 0 4.12556900 17.85664100 27.04741530
226 1 3 0.00093060753926 4.62032600 17.03731100 27.03536130
227 1 3 0.000929571573667 3.20873000 17.58389200 27.01209730
228 1 4 -0.00202402058929 4.07153700 17.71684200 27.04135130
229 1 2 0 13.02757000 9.70643000 27.07282030
230 1 3 0.000929442829891 12.45232700 8.95602600 26.92375030
231 1 3 0.00092827647436 13.84320600 9.47563300 26.62818230
232 1 4 -0.00202511191322 13.05834300 9.58082500 26.99681930
233 1 2 0 5.09463500 15.28001200 27.15941430
234 1 3 0.000925420405234 4.68903500 14.99026100 26.34224530
235 1 3 0.000929676849043 5.01627300 14.52778700 27.74614230
236 1 4 -0.00202638195035 5.03268200 15.14662600 27.12991530
237 1 2 0 6.66157900 0.62793900 27.18777830
238 1 3 0.000929914670568 6.64215100 1.27150000 26.47948130
239 1 3 0.000929617734164 6.86266800 20.18023435 26.75341430
240 1 4 -0.00202385527308 6.68483400 0.60421000 27.04150430
241 1 2 0 9.88209000 14.93647000 27.29756330
242 1 3 0.00092880557598 9.67706800 14.14177100 27.79016230
243 1 3 0.000930992598195 10.37561600 15.47930100 27.91237830
244 1 4 -0.00202510075545 9.91902200 14.90422800 27.43932630
245 1 2 0 7.39681800 12.82525900 27.51775430
246 1 3 0.000928745211425 6.44357100 12.88146200 27.58404130
247 1 3 0.000928196097666 7.67311700 12.44228000 28.35035130
248 1 4 -0.00202563806285 7.31016100 12.78342800 27.63282230
249 1 2 0 10.32713300 2.90882100 27.55348030
250 1 3 0.000931009854097 9.59637700 2.71213200 28.13960530
251 1 3 0.000929059838031 10.47085900 3.84955300 27.65643630
252 1 4 -0.00202555214895 10.25198600 3.00406800 27.64169130
253 1 2 0 13.08636200 14.70248000 27.75652730
254 1 3 0.000928284917158 13.84954500 14.83373000 28.31916130
255 1 3 0.000931434168859 12.89162000 13.76821100 27.83034430
256 1 4 -0.00202518252229 13.15912900 14.59968400 27.83800030
257 1 2 0 15.86894400 6.99060100 27.75915330
258 1 3 0.000928374504479 15.29772500 7.08061000 28.52193630
259 1 3 0.000927924615256 16.66471700 7.46600900 27.99782430
260 1 4 -0.00202588361021 15.89769000 7.06298100 27.88735130
261 1 2 0 5.11344400 6.80445900 27.87901130
262 1 3 0.000930510905054 5.75585700 7.32598600 27.39781730
263 1 3 0.000932282690176 5.57738500 5.99710300 28.10074930
264 1 4 -0.00202297127577 5.25507000 6.76787000 27.84579730
265 1 2 0 0.21195400 1.70798400 27.89629830
266 1 3 0.000932581786478 1.01377200 1.56700700 27.39286430
267 1 3 0.000929621332205 17.34354205 0.91769200 27.74717830
268 1 4 -0.00202246311395 0.24814900 1.58877100 27.81276330
269 1 2 0 12.39997200 12.20247200 28.07804930
270 1 3 0.000932018222443 13.06349600 11.58825600 27.76387230
271 1 3 0.000930449865833 11.63854200 12.03851500 27.52165530
272 1 4 -0.00202298562783 12.38743900 12.10285700 27.96660630
273 1 2 0 12.13002900 1.09927700 28.33719430
274 1 3 0.000930575220692 12.99724300 1.38319500 28.04811930
275 1 3 0.000931986301321 11.53462500 1.77161700 28.00600730
276 1 4 -0.00202245728875 12.16482400 1.22169000 28.25779330
277 1 2 0 4.82940600 12.94086300 28.46305530
278 1 3 0.000927516017435 5.04059100 12.13789100 28.93936330
279 1 3 0.000929041339503 3.90801500 13.10414900 28.66457030
280 1 4 -0.0020266505446 4.73849100 12.85897500 28.54982430
281 1 2 0 6.39772100 4.46443500 28.63961930
282 1 3 0.000933576240583 7.00222600 3.77491800 28.91416330
283 1 3 0.000930459874354 6.37638800 4.39875300 27.68491330
284 1 4 -0.00202168459566 6.47237400 4.36776000 28.55255030
285 1 2 0 1.91486700 13.23845100 28.66041730
286 1 3 0.000928221978172 1.83367200 12.46438900 28.10322130
287 1 3 0.00092789118389 1.06628100 13.67554600 28.58912830
288 1 4 -0.00202535396474 1.79584400 13.19531500 28.57996430
289 1 2 0 9.81651600 18.75151400 28.70247830
290 1 3 0.000932532820981 10.30103900 17.98385500 29.00607130
291 1 3 0.000931443800255 10.40674300 19.17743600 28.08082230
292 1 4 -0.00202179072366 9.95409700 18.70776800 28.66176230
293 1 2 0 11.38663600 16.46598000 28.87761430
294 1 3 0.000930571974171 12.14939100 16.00750800 28.52513730
295 1 3 0.000929169563379 11.22185300 16.04443800 29.72104830
296 1 4 -0.00202450378928 11.46318300 16.35332800 28.94046230
297 1 2 0 4.50752500 1.14806100 28.94505830
298 1 3 0.000933940041926 5.27861900 1.26247800 28.38958030
299 1 3 0.000933186306649 4.52803900 0.22481600 29.19690830
300 1 4 -0.00202035531927 4.60886100 1.04452100 28.90619030
301 1 2 0 10.16258100 5.47986400 28.95691530
302 1 3 0.000930409841917 9.46082900 5.86992400 29.47809630
303 1 3 0.000929382251015 10.78444500 5.14588700 29.60342630
304 1 4 -0.00202421271291 10.15235400 5.48704300 29.10639430
305 1 2 0 8.19492700 2.24313000 29.08671030
306 1 3 0.000931865284247 7.92380100 1.55035300 28.48439430
307 1 3 0.000931297655778 8.54768800 1.77743200 29.84494430
308 1 4 -0.00202284972637 8.20537700 2.09483100 29.10667030
309 1 2 0 15.05156300 19.31191500 29.12141530
310 1 3 0.000929842087076 14.47225600 19.29359700 29.88318930
311 1 3 0.000929158916721 15.35830900 20.21744000 29.07490830
312 1 4 -0.00202403148093 15.01667200 19.42548800 29.21297830
313 1 2 0 2.52582400 9.94933400 29.33243830
314 1 3 0.000930218843297 2.51448200 10.63251900 30.00278330
315 1 3 0.000930285919137 3.45518100 9.79256400 29.16525330
316 1 4 -0.00202298256669 2.64334100 10.01672100 29.39684930
317 1 2 0 7.65495200 9.21183300 29.36535130
318 1 3 0.000930820535395 8.27486400 9.81540900 29.77478630
319 1 3 0.000931736217188 7.81334800 9.30574300 28.42603130
320 1 4 -0.00202184802511 7.75458500 9.30111900 29.29751930
321 1 2 0 7.30022100 17.67514900 29.50165530
322 1 3 0.000934303648276 8.09221800 18.08947200 29.15915230
323 1 3 0.000932101871058 7.51513200 16.74326100 29.54201330
324 1 4 -0.00202020008069 7.42911700 17.60889400 29.46297730
325 1 1 4.88521420834e-05 0.00000000 0.00000000 10.00000000
326 1 1 4.88351711615e-05 1.47088817 2.54765304 10.00000000
327 1 1 4.88209692138e-05 0.00000000 5.09530609 10.00000000
328 1 1 4.8800431058e-05 1.47088817 7.64295913 10.00000000
329 1 1 4.88070440581e-05 0.00000000 10.19061218 10.00000000
330 1 1 4.88113381727e-05 1.47088817 12.73826522 10.00000000
331 1 1 4.88362865131e-05 0.00000000 15.28591827 10.00000000
332 1 1 4.88450649088e-05 1.47088817 17.83357131 10.00000000
333 1 1 4.88483170993e-05 2.94177634 0.00000000 10.00000000
334 1 1 4.88376961965e-05 4.41266451 2.54765304 10.00000000
335 1 1 4.88126611371e-05 2.94177634 5.09530609 10.00000000
336 1 1 4.87977604109e-05 4.41266451 7.64295913 10.00000000
337 1 1 4.87961613746e-05 2.94177634 10.19061218 10.00000000
338 1 1 4.88152856438e-05 4.41266451 12.73826522 10.00000000
339 1 1 4.88306054874e-05 2.94177634 15.28591827 10.00000000
340 1 1 4.88548840688e-05 4.41266451 17.83357131 10.00000000
341 1 1 4.88650391869e-05 5.88355268 0.00000000 10.00000000
342 1 1 4.88539883913e-05 7.35444085 2.54765304 10.00000000
343 1 1 4.88191238533e-05 5.88355268 5.09530609 10.00000000
344 1 1 4.8811141416e-05 7.35444085 7.64295913 10.00000000
345 1 1 4.88056660901e-05 5.88355268 10.19061218 10.00000000
346 1 1 4.88391213159e-05 7.35444085 12.73826522 10.00000000
347 1 1 4.88518817756e-05 5.88355268 15.28591827 10.00000000
348 1 1 4.88818241651e-05 7.35444085 17.83357131 10.00000000
349 1 1 4.88860309364e-05 8.82532903 0.00000000 10.00000000
350 1 1 4.8866764012e-05 10.29621720 2.54765304 10.00000000
351 1 1 4.8834870301e-05 8.82532903 5.09530609 10.00000000
352 1 1 4.88274297597e-05 10.29621720 7.64295913 10.00000000
353 1 1 4.88265356205e-05 8.82532903 10.19061218 10.00000000
354 1 1 4.88579024695e-05 10.29621720 12.73826522 10.00000000
355 1 1 4.88786359871e-05 8.82532903 15.28591827 10.00000000
356 1 1 4.88979186745e-05 10.29621720 17.83357131 10.00000000
357 1 1 4.88888850758e-05 11.76710537 0.00000000 10.00000000
358 1 1 4.88627397286e-05 13.23799354 2.54765304 10.00000000
359 1 1 4.88428494899e-05 11.76710537 5.09530609 10.00000000
360 1 1 4.88296352115e-05 13.23799354 7.64295913 10.00000000
361 1 1 4.88372752e-05 11.76710537 10.19061218 10.00000000
362 1 1 4.88531046329e-05 13.23799354 12.73826522 10.00000000
363 1 1 4.88829879069e-05 11.76710537 15.28591827 10.00000000
364 1 1 4.88869011401e-05 13.23799354 17.83357131 10.00000000
365 1 1 4.88718350703e-05 14.70888171 0.00000000 10.00000000
366 1 1 4.88471214154e-05 16.17976988 2.54765304 10.00000000
367 1 1 4.88354529535e-05 14.70888171 5.09530609 10.00000000
368 1 1 4.8816054697e-05 16.17976988 7.64295913 10.00000000
369 1 1 4.88274335241e-05 14.70888171 10.19061218 10.00000000
370 1 1 4.8830303582e-05 16.17976988 12.73826522 10.00000000
371 1 1 4.88619506534e-05 14.70888171 15.28591827 10.00000000
372 1 1 4.88610709115e-05 16.17976988 17.83357131 10.00000000
373 1 1 5.24429891338e-05 1.47088817 0.84921768 12.40195032
374 1 1 5.24099304011e-05 2.94177634 3.39687073 12.40195032
375 1 1 5.23719798911e-05 1.47088817 5.94452377 12.40195032
376 1 1 5.23358964804e-05 2.94177634 8.49217681 12.40195032
377 1 1 5.23513656836e-05 1.47088817 11.03982986 12.40195032
378 1 1 5.23784065538e-05 2.94177634 13.58748290 12.40195032
379 1 1 5.24157823908e-05 1.47088817 16.13513595 12.40195032
380 1 1 5.24470673226e-05 2.94177634 18.68278899 12.40195032
381 1 1 5.24583885473e-05 4.41266451 0.84921768 12.40195032
382 1 1 5.24309408712e-05 5.88355268 3.39687073 12.40195032
383 1 1 5.23647204448e-05 4.41266451 5.94452377 12.40195032
384 1 1 5.23495953973e-05 5.88355268 8.49217681 12.40195032
385 1 1 5.23505579412e-05 4.41266451 11.03982986 12.40195032
386 1 1 5.24248644639e-05 5.88355268 13.58748290 12.40195032
387 1 1 5.24421427453e-05 4.41266451 16.13513595 12.40195032
388 1 1 5.25004327657e-05 5.88355268 18.68278899 12.40195032
389 1 1 5.25074914542e-05 7.35444085 0.84921768 12.40195032
390 1 1 5.24664691295e-05 8.82532903 3.39687073 12.40195032
391 1 1 5.23921832909e-05 7.35444085 5.94452377 12.40195032
392 1 1 5.23925311095e-05 8.82532903 8.49217681 12.40195032
393 1 1 5.23986856897e-05 7.35444085 11.03982986 12.40195032
394 1 1 5.24903965208e-05 8.82532903 13.58748290 12.40195032
395 1 1 5.25167682598e-05 7.35444085 16.13513595 12.40195032
396 1 1 5.25624887541e-05 8.82532903 18.68278899 12.40195032
397 1 1 5.25385105576e-05 10.29621720 0.84921768 12.40195032
398 1 1 5.24780457594e-05 11.76710537 3.39687073 12.40195032
399 1 1 5.24240001518e-05 10.29621720 5.94452377 12.40195032
400 1 1 5.24191173418e-05 11.76710537 8.49217681 12.40195032
401 1 1 5.24444108384e-05 10.29621720 11.03982986 12.40195032
402 1 1 5.25064211005e-05 11.76710537 13.58748290 12.40195032
403 1 1 5.25610312935e-05 10.29621720 16.13513595 12.40195032
404 1 1 5.2566284854e-05 11.76710537 18.68278899 12.40195032
405 1 1 5.25188691783e-05 13.23799354 0.84921768 12.40195032
406 1 1 5.24569906504e-05 14.70888171 3.39687073 12.40195032
407 1 1 5.2428432915e-05 13.23799354 5.94452377 12.40195032
408 1 1 5.24058091704e-05 14.70888171 8.49217681 12.40195032
409 1 1 5.24427548443e-05 13.23799354 11.03982986 12.40195032
410 1 1 5.24598474948e-05 14.70888171 13.58748290 12.40195032
411 1 1 5.25302059779e-05 13.23799354 16.13513595 12.40195032
412 1 1 5.25114452062e-05 14.70888171 18.68278899 12.40195032
413 1 1 5.24728843599e-05 16.17976988 0.84921768 12.40195032
414 1 1 5.24248099849e-05 0.00000000 3.39687073 12.40195032
415 1 1 5.24038792001e-05 16.17976988 5.94452377 12.40195032
416 1 1 5.23655415684e-05 0.00000000 8.49217681 12.40195032
417 1 1 5.23976956064e-05 16.17976988 11.03982986 12.40195032
418 1 1 5.23977125149e-05 0.00000000 13.58748290 12.40195032
419 1 1 5.24592101391e-05 16.17976988 16.13513595 12.40195032
420 1 1 5.24541252065e-05 0.00000000 18.68278899 12.40195032
421 1 1 5.87963113924e-05 2.94177634 1.69843536 14.80390065
422 1 1 5.87063283409e-05 4.41266451 4.24608841 14.80390065
423 1 1 5.86075743969e-05 2.94177634 6.79374145 14.80390065
424 1 1 5.85616183757e-05 4.41266451 9.34139450 14.80390065
425 1 1 5.85956989357e-05 2.94177634 11.88904754 14.80390065
426 1 1 5.87185689294e-05 4.41266451 14.43670058 14.80390065
427 1 1 5.87530250861e-05 2.94177634 16.98435363 14.80390065
428 1 1 5.88560197386e-05 4.41266451 19.53200667 14.80390065
429 1 1 5.88603332756e-05 5.88355268 1.69843536 14.80390065
430 1 1 5.87686828726e-05 7.35444085 4.24608841 14.80390065
431 1 1 5.86131363958e-05 5.88355268 6.79374145 14.80390065
432 1 1 5.86399079033e-05 7.35444085 9.34139450 14.80390065
433 1 1 5.86717129682e-05 5.88355268 11.88904754 14.80390065
434 1 1 5.89151897789e-05 7.35444085 14.43670058 14.80390065
435 1 1 5.89159027886e-05 5.88355268 16.98435363 14.80390065
436 1 1 5.90177258348e-05 7.35444085 19.53200667 14.80390065
437 1 1 5.89632316366e-05 8.82532903 1.69843536 14.80390065
438 1 1 5.88325890524e-05 10.29621720 4.24608841 14.80390065
439 1 1 5.86996875113e-05 8.82532903 6.79374145 14.80390065
440 1 1 5.87523286953e-05 10.29621720 9.34139450 14.80390065
441 1 1 5.88214493713e-05 8.82532903 11.88904754 14.80390065
442 1 1 5.90286077891e-05 10.29621720 14.43670058 14.80390065
443 1 1 5.91022281719e-05 8.82532903 16.98435363 14.80390065
444 1 1 5.91030112242e-05 10.29621720 19.53200667 14.80390065
445 1 1 5.89688169031e-05 11.76710537 1.69843536 14.80390065
446 1 1 5.8825213608e-05 13.23799354 4.24608841 14.80390065
447 1 1 5.87649475661e-05 11.76710537 6.79374145 14.80390065
448 1 1 5.87831919906e-05 13.23799354 9.34139450 14.80390065
449 1 1 5.8877181363e-05 11.76710537 11.88904754 14.80390065
450 1 1 5.8950523465e-05 13.23799354 14.43670058 14.80390065
451 1 1 5.90953823924e-05 11.76710537 16.98435363 14.80390065
452 1 1 5.90199317781e-05 13.23799354 19.53200667 14.80390065
453 1 1 5.88944054983e-05 14.70888171 1.69843536 14.80390065
454 1 1 5.87796590064e-05 16.17976988 4.24608841 14.80390065
455 1 1 5.87491078058e-05 14.70888171 6.79374145 14.80390065
456 1 1 5.87097826496e-05 16.17976988 9.34139450 14.80390065
457 1 1 5.88046090034e-05 14.70888171 11.88904754 14.80390065
458 1 1 5.87833484951e-05 16.17976988 14.43670058 14.80390065
459 1 1 5.89302560096e-05 14.70888171 16.98435363 14.80390065
460 1 1 5.88803132757e-05 16.17976988 19.53200667 14.80390065
461 1 1 5.88223188432e-05 0.00000000 1.69843536 14.80390065
462 1 1 5.87278620863e-05 1.47088817 4.24608841 14.80390065
463 1 1 5.86790089088e-05 0.00000000 6.79374145 14.80390065
464 1 1 5.86015313366e-05 1.47088817 9.34139450 14.80390065
465 1 1 5.86711819408e-05 0.00000000 11.88904754 14.80390065
466 1 1 5.86658435574e-05 1.47088817 14.43670058 14.80390065
467 1 1 5.87731765053e-05 0.00000000 16.98435363 14.80390065
468 1 1 5.88028045801e-05 1.47088817 19.53200667 14.80390065
469 1 1 6.84059833032e-05 4.41266451 2.54765304 17.20585097
470 1 1 6.81729912601e-05 5.88355268 5.09530609 17.20585097
471 1 1 6.79234273192e-05 4.41266451 7.64295913 17.20585097
472 1 1 6.79693895493e-05 5.88355268 10.19061218 17.20585097
473 1 1 6.80535524473e-05 4.41266451 12.73826522 17.20585097
474 1 1 6.85442477307e-05 5.88355268 15.28591827 17.20585097
475 1 1 6.84593630428e-05 4.41266451 17.83357131 17.20585097
476 1 1 6.86847452154e-05 5.88355268 0.00000000 17.20585097
477 1 1 6.85991130426e-05 7.35444085 2.54765304 17.20585097
478 1 1 6.83396280762e-05 8.82532903 5.09530609 17.20585097
479 1 1 6.80360500658e-05 7.35444085 7.64295913 17.20585097
480 1 1 6.82451975482e-05 8.82532903 10.19061218 17.20585097
481 1 1 6.84410542478e-05 7.35444085 12.73826522 17.20585097
482 1 1 6.90443396681e-05 8.82532903 15.28591827 17.20585097
483 1 1 6.89880045305e-05 7.35444085 17.83357131 17.20585097
484 1 1 6.90122096804e-05 8.82532903 0.00000000 17.20585097
485 1 1 6.87060382809e-05 10.29621720 2.54765304 17.20585097
486 1 1 6.84022208336e-05 11.76710537 5.09530609 17.20585097
487 1 1 6.82645626711e-05 10.29621720 7.64295913 17.20585097
488 1 1 6.84426970018e-05 11.76710537 10.19061218 17.20585097
489 1 1 6.87085074762e-05 10.29621720 12.73826522 17.20585097
490 1 1 6.89957501556e-05 11.76710537 15.28591827 17.20585097
491 1 1 6.92190604258e-05 10.29621720 17.83357131 17.20585097
492 1 1 6.89663971393e-05 11.76710537 0.00000000 17.20585097
493 1 1 6.85934714725e-05 13.23799354 2.54765304 17.20585097
494 1 1 6.83563194155e-05 14.70888171 5.09530609 17.20585097
495 1 1 6.83570517189e-05 13.23799354 7.64295913 17.20585097
496 1 1 6.84023584394e-05 14.70888171 10.19061218 17.20585097
497 1 1 6.86169606135e-05 13.23799354 12.73826522 17.20585097
498 1 1 6.85823630428e-05 14.70888171 15.28591827 17.20585097
499 1 1 6.89119390223e-05 13.23799354 17.83357131 17.20585097
500 1 1 6.86947748576e-05 14.70888171 0.00000000 17.20585097
501 1 1 6.84885081056e-05 16.17976988 2.54765304 17.20585097
502 1 1 6.8290815314e-05 0.00000000 5.09530609 17.20585097
503 1 1 6.8254958716e-05 16.17976988 7.64295913 17.20585097
504 1 1 6.81645054553e-05 0.00000000 10.19061218 17.20585097
505 1 1 6.83311847973e-05 16.17976988 12.73826522 17.20585097
506 1 1 6.82009711278e-05 0.00000000 15.28591827 17.20585097
507 1 1 6.84950738625e-05 16.17976988 17.83357131 17.20585097
508 1 1 6.84886186097e-05 0.00000000 0.00000000 17.20585097
509 1 1 6.84193176939e-05 1.47088817 2.54765304 17.20585097
510 1 1 6.81699838977e-05 2.94177634 5.09530609 17.20585097
511 1 1 6.80592011785e-05 1.47088817 7.64295913 17.20585097
512 1 1 6.79303817407e-05 2.94177634 10.19061218 17.20585097
513 1 1 6.80430682492e-05 1.47088817 12.73826522 17.20585097
514 1 1 6.81205900465e-05 2.94177634 15.28591827 17.20585097
515 1 1 6.8277991366e-05 1.47088817 17.83357131 17.20585097
516 1 1 6.84417490294e-05 2.94177634 0.00000000 17.20585097
517 1 1 8.13129034746e-05 5.88355268 3.39687073 19.60780130
518 1 1 8.08092932868e-05 7.35444085 5.94452377 19.60780130
519 1 1 8.03380709639e-05 5.88355268 8.49217681 19.60780130
520 1 1 8.07945711584e-05 7.35444085 11.03982986 19.60780130
521 1 1 8.11256410125e-05 5.88355268 13.58748290 19.60780130
522 1 1 8.24351104568e-05 7.35444085 16.13513595 19.60780130
523 1 1 8.19760098584e-05 5.88355268 18.68278899 19.60780130
524 1 1 8.21496932726e-05 7.35444085 0.84921768 19.60780130
525 1 1 8.16434251778e-05 8.82532903 3.39687073 19.60780130
526 1 1 8.11183308445e-05 10.29621720 5.94452377 19.60780130
527 1 1 8.07418605812e-05 8.82532903 8.49217681 19.60780130
528 1 1 8.13223857106e-05 10.29621720 11.03982986 19.60780130
529 1 1 8.20662791246e-05 8.82532903 13.58748290 19.60780130
530 1 1 8.28933535514e-05 10.29621720 16.13513595 19.60780130
531 1 1 8.28627324078e-05 8.82532903 18.68278899 19.60780130
532 1 1 8.23316007637e-05 10.29621720 0.84921768 19.60780130
533 1 1 8.15082475342e-05 11.76710537 3.39687073 19.60780130
534 1 1 8.11260381698e-05 13.23799354 5.94452377 19.60780130
535 1 1 8.11906545437e-05 11.76710537 8.49217681 19.60780130
536 1 1 8.14704793563e-05 13.23799354 11.03982986 19.60780130
537 1 1 8.20248154502e-05 11.76710537 13.58748290 19.60780130
538 1 1 8.20687292729e-05 13.23799354 16.13513595 19.60780130
539 1 1 8.25862537729e-05 11.76710537 18.68278899 19.60780130
540 1 1 8.18732598681e-05 13.23799354 0.84921768 19.60780130
541 1 1 8.12875460661e-05 14.70888171 3.39687073 19.60780130
542 1 1 8.10075741283e-05 16.17976988 5.94452377 19.60780130
543 1 1 8.11984736755e-05 14.70888171 8.49217681 19.60780130
544 1 1 8.11964002023e-05 16.17976988 11.03982986 19.60780130
545 1 1 8.14353664602e-05 14.70888171 13.58748290 19.60780130
546 1 1 8.11356475781e-05 16.17976988 16.13513595 19.60780130
547 1 1 8.17735121142e-05 14.70888171 18.68278899 19.60780130
548 1 1 8.15489231447e-05 16.17976988 0.84921768 19.60780130
549 1 1 8.13206484377e-05 0.00000000 3.39687073 19.60780130
550 1 1 8.08587550586e-05 1.47088817 5.94452377 19.60780130
551 1 1 8.084175716e-05 0.00000000 8.49217681 19.60780130
552 1 1 8.06408735437e-05 1.47088817 11.03982986 19.60780130
553 1 1 8.07807560527e-05 0.00000000 13.58748290 19.60780130
554 1 1 8.06563899578e-05 1.47088817 16.13513595 19.60780130
555 1 1 8.12412219093e-05 0.00000000 18.68278899 19.60780130
556 1 1 8.14471514245e-05 1.47088817 0.84921768 19.60780130
557 1 1 8.12326046769e-05 2.94177634 3.39687073 19.60780130
558 1 1 8.06305728951e-05 4.41266451 5.94452377 19.60780130
559 1 1 8.04300817488e-05 2.94177634 8.49217681 19.60780130
560 1 1 8.03661807392e-05 4.41266451 11.03982986 19.60780130
561 1 1 8.04624179941e-05 2.94177634 13.58748290 19.60780130
562 1 1 8.11114307082e-05 4.41266451 16.13513595 19.60780130
563 1 1 8.11951184877e-05 2.94177634 18.68278899 19.60780130
564 1 1 8.15623500352e-05 4.41266451 0.84921768 19.60780130
