# conductor demonstration, experiment I: arm qeq, eta_Au 0.05 eV (generated by run_exp1.py)
units           metal
atom_style      full
boundary        p p f
read_data       /home/tpascal/manuscripts_todo/ms_alphasigma_split/cpc/conductor_demo/data.exp1
group           au   type 1
group           watO type 2
group           fq   type 1 3 4

pair_style      hybrid/overlay lj/cut 12.0 coul/long 12.0 coul/shield/intra 12.0 all gaussian
pair_coeff      * * lj/cut 0.0 1.0
pair_coeff      2 2 lj/cut 0.012412 3.159
pair_coeff      * * coul/long
pair_coeff      1 1 coul/shield/intra 1.618
pair_coeff      2 2 coul/shield/intra 0.315328
pair_coeff      3 3 coul/shield/intra 0.404355
pair_coeff      4 4 coul/shield/intra 0.315328
special_bonds   lj/coul 1.0e-8 1.0e-8 1.0
kspace_style    pppm/samqeq 1.0e-6
kspace_modify   slab 3.0 mesh 24 28 80 gewald 0.35
neighbor        2.0 bin
set             group all mol 1   # ONE global neutrality constraint
fix             chg fq qeq/sam 1 0.0 10.0 1.0e-8 param
fix_modify      chg shield gaussian
fix_modify      chg energy yes

fix_modify      chg ridge eig 1000.0 200   # diagnostic: prints the Lanczos lambda_min
run             0
write_dump      all custom charges.dump id mol type q x y z modify sort id format line "%d %d %d %.12g %.8f %.8f %.8f"
variable        peval equal pe
print           "${peval}" file pe.txt screen no
