ITEM: TIMESTEP
0
ITEM: NUMBER OF ATOMS
21
ITEM: BOX BOUNDS pp pp pp
3.5000000000000000e+01 4.8000000000000000e+01
3.5000000000000000e+01 4.8000000000000000e+01
3.5000000000000000e+01 4.8000000000000000e+01
ITEM: ATOMS id type q
1 1 0.0375152218731423
2 4 -0.310859746172137
3 1 0.0367344177172626
4 4 -0.310008230535013
5 1 0.036600927377441
6 4 -0.311126300458629
7 4 0.526467615008793
8 4 0.525043489716509
9 4 0.526092800842021
10 3 -0.31123051148206
11 3 -0.309961506841636
12 3 -0.309581142034719
13 3 -0.309340348953856
14 3 -0.310273829316083
15 3 -0.309876010124505
16 2 0.221589601560918
17 2 0.146227185680902
18 2 0.146088011514735
19 2 0.221455715769378
20 2 0.146376861009942
21 2 0.222065777847592
