ITEM: TIMESTEP
0
ITEM: NUMBER OF ATOMS
240
ITEM: BOX BOUNDS pp pp ff
0.0000000000000000e+00 1.7650658050000001e+01
0.0000000000000000e+00 2.0381224350000000e+01
0.0000000000000000e+00 6.0000000000000000e+01
ITEM: ATOMS id type q
1 1 -0.0417832636073
2 1 -0.0417831429642
3 1 -0.0417830910954
4 1 -0.0417831916353
5 1 -0.0417832624129
6 1 -0.0417831429402
7 1 -0.041783092253
8 1 -0.0417831932991
9 1 -0.0417832636518
10 1 -0.041783143028
11 1 -0.0417830911399
12 1 -0.0417831916991
13 1 -0.0417832624575
14 1 -0.041783143004
15 1 -0.0417830922975
16 1 -0.0417831933629
17 1 -0.0417832637197
18 1 -0.0417831430803
19 1 -0.0417830912078
20 1 -0.0417831917514
21 1 -0.0417832625253
22 1 -0.0417831430563
23 1 -0.0417830923654
24 1 -0.0417831934152
25 1 -0.0417832637393
26 1 -0.0417831430606
27 1 -0.0417830912274
28 1 -0.0417831917317
29 1 -0.041783262545
30 1 -0.0417831430366
31 1 -0.041783092385
32 1 -0.0417831933956
33 1 -0.041783263687
34 1 -0.0417831429928
35 1 -0.0417830911751
36 1 -0.0417831916639
37 1 -0.0417832624927
38 1 -0.0417831429688
39 1 -0.0417830923327
40 1 -0.0417831933277
41 1 -0.0417832636232
42 1 -0.0417831429482
43 1 -0.0417830911113
44 1 -0.0417831916193
45 1 -0.0417832624289
46 1 -0.0417831429243
47 1 -0.0417830922689
48 1 -0.0417831932832
49 1 0.0251950696178
50 1 0.0251952054769
51 1 0.025195170788
52 1 0.0251950511335
53 1 0.0251950706382
54 1 0.0251952049334
55 1 0.0251951689989
56 1 0.0251950491472
57 1 0.0251950695801
58 1 0.0251952054356
59 1 0.0251951707503
60 1 0.0251950510922
61 1 0.0251950706005
62 1 0.0251952048921
63 1 0.0251951689613
64 1 0.0251950491059
65 1 0.0251950695474
66 1 0.025195205423
67 1 0.0251951707176
68 1 0.0251950510797
69 1 0.0251950705677
70 1 0.0251952048795
71 1 0.0251951689285
72 1 0.0251950490933
73 1 0.0251950695599
74 1 0.0251952054558
75 1 0.0251951707301
76 1 0.0251950511124
77 1 0.0251950705803
78 1 0.0251952049122
79 1 0.0251951689411
80 1 0.025195049126
81 1 0.0251950696012
82 1 0.0251952054935
83 1 0.0251951707715
84 1 0.0251950511501
85 1 0.0251950706216
86 1 0.0251952049499
87 1 0.0251951689824
88 1 0.0251950491637
89 1 0.0251950696258
90 1 0.0251952055014
91 1 0.025195170796
92 1 0.0251950511581
93 1 0.0251950706461
94 1 0.0251952049579
95 1 0.0251951690069
96 1 0.0251950491717
97 1 -0.000304568791667
98 1 -0.000304510779888
99 1 -0.000304569442538
100 1 -0.000304626677107
101 1 -0.000304568318628
102 1 -0.000304511920673
103 1 -0.000304571531351
104 1 -0.000304628493131
105 1 -0.000304568792289
106 1 -0.000304510780275
107 1 -0.000304569443159
108 1 -0.000304626677495
109 1 -0.00030456831925
110 1 -0.000304511921061
111 1 -0.000304571531972
112 1 -0.000304628493518
113 1 -0.000304568792409
114 1 -0.000304510780156
115 1 -0.000304569443279
116 1 -0.000304626677375
117 1 -0.00030456831937
118 1 -0.000304511920942
119 1 -0.000304571532093
120 1 -0.000304628493398
121 1 -0.000304568792022
122 1 -0.000304510779535
123 1 -0.000304569442893
124 1 -0.000304626676754
125 1 -0.000304568318983
126 1 -0.000304511920321
127 1 -0.000304571531706
128 1 -0.000304628492778
129 1 -0.000304568791336
130 1 -0.000304510779001
131 1 -0.000304569442206
132 1 -0.00030462667622
133 1 -0.000304568318296
134 1 -0.000304511919787
135 1 -0.000304571531019
136 1 -0.000304628492243
137 1 -0.000304568791134
138 1 -0.000304510779201
139 1 -0.000304569442004
140 1 -0.000304626676421
141 1 -0.000304568318095
142 1 -0.000304511919987
143 1 -0.000304571530817
144 1 -0.000304628492444
145 1 -0.0245892246443
146 1 -0.024589205815
147 1 -0.0245893239386
148 1 -0.0245893575701
149 1 -0.0245892247888
150 1 -0.0245892072552
151 1 -0.0245893258396
152 1 -0.024589358815
153 1 -0.0245892246134
154 1 -0.0245892058033
155 1 -0.0245893239077
156 1 -0.0245893575583
157 1 -0.0245892247579
158 1 -0.0245892072434
159 1 -0.0245893258088
160 1 -0.0245893588032
161 1 -0.0245892246252
162 1 -0.0245892058341
163 1 -0.0245893239195
164 1 -0.0245893575892
165 1 -0.0245892247697
166 1 -0.0245892072742
167 1 -0.0245893258206
168 1 -0.024589358834
169 1 -0.0245892246644
170 1 -0.02458920587
171 1 -0.0245893239587
172 1 -0.0245893576251
173 1 -0.0245892248089
174 1 -0.0245892073102
175 1 -0.0245893258598
176 1 -0.02458935887
177 1 -0.0245892246878
178 1 -0.0245892058776
179 1 -0.0245893239821
180 1 -0.0245893576327
181 1 -0.0245892248323
182 1 -0.0245892073177
183 1 -0.0245893258831
184 1 -0.0245893588776
185 1 -0.0245892246802
186 1 -0.0245892058543
187 1 -0.0245893239745
188 1 -0.0245893576093
189 1 -0.0245892248247
190 1 -0.0245892072944
191 1 -0.0245893258756
192 1 -0.0245893588542
193 1 0.0414819865326
194 1 0.0414819165721
195 1 0.041481817855
196 1 0.0414818686084
197 1 0.0414819860149
198 1 0.0414819152403
199 1 0.0414818164842
200 1 0.0414818680066
201 1 0.0414819865524
202 1 0.0414819165523
203 1 0.0414818178748
204 1 0.0414818685886
205 1 0.0414819860347
206 1 0.0414819152204
207 1 0.041481816504
208 1 0.0414818679868
209 1 0.0414819865
210 1 0.0414819164849
211 1 0.0414818178224
212 1 0.0414818685213
213 1 0.0414819859823
214 1 0.0414819151531
215 1 0.0414818164516
216 1 0.0414818679195
217 1 0.0414819864372
218 1 0.0414819164414
219 1 0.0414818177596
220 1 0.0414818684777
221 1 0.0414819859195
222 1 0.0414819151095
223 1 0.0414818163888
224 1 0.0414818678759
225 1 0.0414819864216
226 1 0.0414819164569
227 1 0.0414818177441
228 1 0.0414818684932
229 1 0.0414819859039
230 1 0.0414819151251
231 1 0.0414818163733
232 1 0.0414818678914
233 1 0.0414819864652
234 1 0.0414819165197
235 1 0.0414818177876
236 1 0.041481868556
237 1 0.0414819859475
238 1 0.0414819151878
239 1 0.0414818164169
240 1 0.0414818679542
