ITEM: TIMESTEP
0
ITEM: NUMBER OF ATOMS
192
ITEM: BOX BOUNDS pp pp pp
0.0000000000000000e+00 1.2400000000000000e+01
0.0000000000000000e+00 1.2400000000000000e+01
0.0000000000000000e+00 1.2400000000000000e+01
ITEM: ATOMS id type q x y z
1 1 -0.968573 3.09162 8.98509 4.59609
2 2 0.535952 2.56042 9.74454 4.22051
3 2 0.432621 2.51552 8.16942 4.64908
4 1 -0.923544 12.394 10.5577 9.57505
5 2 0.448414 0.582973 11.2688 9.95894
6 2 0.475131 11.455 10.897 9.51884
7 1 -0.99 10.9383 6.70696 3.7177
8 2 0.449099 10.235 6.19133 3.22842
9 2 0.540901 11.2206 7.49181 3.16605
10 1 -0.971189 6.3079 11.8395 2.52407
11 2 0.517891 5.49903 11.771 3.10807
12 2 0.453298 6.44979 10.9715 2.04809
13 1 -0.975494 3.71899 7.22687 10.0381
14 2 0.460981 3.84128 6.94944 9.08512
15 2 0.514513 2.75158 7.41331 10.2094
16 1 -0.975225 11.0203 9.8765 0.0975353
17 2 0.514946 10.2614 10.3475 12.0478
18 2 0.46028 10.9694 8.89765 12.2994
19 1 -1.15648 9.07694 5.39987 1.98468
20 2 0.558248 8.92965 6.38187 2.10294
21 2 0.598229 8.2834 4.89966 2.33122
22 1 -1.00458 6.80703 3.95789 2.7589
23 2 0.504891 6.3617 4.1522 3.63293
24 2 0.499686 6.17008 3.47093 2.16125
25 1 -1.16707 2.21022 8.12018 1.50203
26 2 0.643317 2.76087 8.90513 1.78603
27 2 0.52375 1.25599 8.27161 1.75993
28 1 -0.902042 7.58113 6.11707 11.3864
29 2 0.418971 8.01121 6.83935 10.8448
30 2 0.483071 6.82489 6.50239 11.9152
31 1 -1.04161 3.72435 10.4544 1.85954
32 2 0.49131 4.60655 10.3995 1.39186
33 2 0.550303 3.57299 11.3906 2.17694
34 1 -0.960513 4.20583 2.94167 0.766704
35 2 0.510257 3.9597 3.80986 1.19759
36 2 0.450257 3.95791 2.96807 12.1983
37 1 -1.01455 2.77999 11.58 9.28584
38 2 0.499324 2.85198 11.0817 10.1498
39 2 0.515225 2.20618 12.3889 9.41439
40 1 -0.929089 4.03046 3.41715 9.5949
41 2 0.439056 3.16906 2.94074 9.77104
42 2 0.490034 3.84509 4.27442 9.11456
43 1 -1.02817 12.282 1.09017 2.04799
44 2 0.558358 12.3494 2.08622 2.10592
45 2 0.469808 0.765385 0.711828 1.77151
46 1 -0.945426 12.0904 8.61357 5.75556
47 2 0.507288 12.0727 7.93329 5.02282
48 2 0.438138 11.3433 9.26501 5.62371
49 1 -0.875961 1.48306 5.05002 8.96166
50 2 0.371955 0.611923 5.54072 8.9799
51 2 0.504007 2.04678 5.39927 8.21317
52 1 -0.930452 11.0842 1.08616 4.8315
53 2 0.462989 10.0968 1.22783 4.90284
54 2 0.467464 11.3325 0.947046 3.87288
55 1 -1.12889 2.63833 5.40762 1.562
56 2 0.538004 1.90134 4.90413 1.11105
57 2 0.590891 2.4655 6.38972 1.48712
58 1 -0.980528 9.84253 12.278 1.97136
59 2 0.428056 9.44881 12.0735 1.07516
60 2 0.552471 10.7649 0.246095 1.85409
61 1 -1.13942 3.00563 0.867321 2.38946
62 2 0.52661 3.32642 1.32796 1.56187
63 2 0.612811 2.899 1.53752 3.12394
64 1 -1.0649 2.86423 2.44679 4.64837
65 2 0.541515 2.0302 2.37248 5.19507
66 2 0.523383 3.66198 2.32771 5.23949
67 1 -1.042 4.84846 1.87888 6.60953
68 2 0.485226 4.62576 2.19594 7.53142
69 2 0.556772 5.64545 2.37767 6.26893
70 1 -0.878905 7.68262 3.39534 9.64551
71 2 0.454857 7.75217 3.97782 10.4554
72 2 0.424048 6.80402 3.55417 9.19514
73 1 -0.896073 6.85227 0.0917479 9.41521
74 2 0.395415 5.9295 0.257524 9.06733
75 2 0.500659 7.52254 0.460831 8.77138
76 1 -0.929671 1.78033 11.247 11.8772
77 2 0.49424 2.60803 11.4711 12.3917
78 2 0.435431 0.989537 11.2767 0.088557
79 1 -1.00916 4.74494 9.80308 7.21976
80 2 0.498868 4.23959 9.01215 6.87471
81 2 0.510294 4.19061 10.2817 7.9007
82 1 -0.946345 9.34899 10.3202 4.02136
83 2 0.549708 9.68628 11.0076 3.37816
84 2 0.396637 8.55318 10.6809 4.50776
85 1 -0.922358 11.822 3.98032 2.57554
86 2 0.45593 11.0144 3.88862 1.99299
87 2 0.466428 11.9887 4.94808 2.76444
88 1 -0.806811 4.94351 12.1763 11.6274
89 2 0.446877 5.81404 11.7445 11.3914
90 2 0.359934 4.74435 0.504892 10.972
91 1 -1.10323 12.1236 9.06357 2.66601
92 2 0.559922 0.261189 9.83609 3.00403
93 2 0.543306 11.5644 9.35997 1.89177
94 1 -1.0606 1.35924 1.62575 9.38529
95 2 0.516159 1.41187 2.19404 8.56414
96 2 0.544442 0.482036 1.77826 9.84055
97 1 -0.901501 10.8858 6.65907 0.168598
98 2 0.487539 10.0209 6.26561 0.480271
99 2 0.413962 11.4112 5.96333 12.0788
100 1 -1.06066 1.38905 11.1202 3.7789
101 2 0.496907 0.941373 11.2301 4.66633
102 2 0.563755 1.98793 11.9027 3.60853
103 1 -1.05464 3.78869 5.50353 7.28645
104 2 0.536301 3.32292 5.7901 6.44922
105 2 0.518334 4.73607 5.82304 7.26691
106 1 -0.888309 10.3149 11.0886 7.71869
107 2 0.503318 9.54963 10.8954 7.10472
108 2 0.384991 10.9039 11.7848 7.30833
109 1 -0.879369 10.676 4.41096 9.88528
110 2 0.439079 10.7645 3.75621 9.13462
111 2 0.440289 9.93924 4.12056 10.4959
112 1 -0.939903 4.42911 11.8395 4.83509
113 2 0.474559 4.54787 11.1093 5.50794
114 2 0.465344 4.63905 0.320632 5.25882
115 1 -0.972555 10.9594 8.09255 9.41274
116 2 0.500425 11.4567 7.96422 10.2707
117 2 0.47213 11.4676 8.72069 8.82356
118 1 -1.01102 7.5527 9.86898 6.93613
119 2 0.4656 7.72821 8.95335 6.57445
120 2 0.545424 6.59619 9.9377 7.21964
121 1 -0.985216 8.34948 8.07669 2.29918
122 2 0.446684 7.35823 8.09231 2.16806
123 2 0.538532 8.61515 8.81359 2.92079
124 1 -1.02681 7.17018 3.34779 5.94699
125 2 0.437917 6.80476 4.2517 6.1693
126 2 0.588889 8.14386 3.42535 5.73266
127 1 -0.949201 4.30315 5.15414 4.08045
128 2 0.450825 3.87693 4.36141 4.51624
129 2 0.498376 3.77456 5.41471 3.27255
130 1 -1.09283 9.50984 3.10975 0.399386
131 2 0.546758 8.7434 2.50157 0.192738
132 2 0.546074 9.1869 3.87612 0.95472
133 1 -0.900458 1.43633 6.16287 5.81967
134 2 0.469647 0.954178 6.8506 6.36241
135 2 0.430811 0.873541 5.33928 5.74913
136 1 -0.985855 6.23308 9.73456 0.209215
137 2 0.549447 5.76513 8.85593 0.304273
138 2 0.436409 6.97 9.64893 11.9387
139 1 -0.966865 8.00722 1.42263 3.94465
140 2 0.502032 7.59413 0.705542 3.38327
141 2 0.464833 7.77963 2.31809 3.56208
142 1 -0.974149 11.3665 1.80403 11.2244
143 2 0.537057 10.9679 2.36239 11.952
144 2 0.437092 10.7441 1.05385 11.001
145 1 -0.955573 0.627441 2.5427 6.64279
146 2 0.519353 0.53021 1.56366 6.46381
147 2 0.43622 12.1322 2.98375 6.57897
148 1 -0.928118 0.919223 3.91424 11.9558
149 2 0.471986 0.190937 3.2601 11.7516
150 2 0.456132 1.14559 4.4298 11.1294
151 1 -0.966003 8.10269 8.74297 9.90356
152 2 0.517097 8.99048 8.34543 9.67161
153 2 0.448906 7.89671 9.49015 9.27166
154 1 -0.934926 5.76018 8.13007 4.26141
155 2 0.42732 5.34633 7.25741 4.0022
156 2 0.507606 5.04735 8.82713 4.33873
157 1 -0.954133 7.00521 1.67668 0.327658
158 2 0.475533 6.9728 0.868307 0.915444
159 2 0.478601 6.086 1.88125 12.3912
160 1 -0.959843 9.04851 11.4232 11.4244
161 2 0.450641 8.83329 10.6655 10.8083
162 2 0.509202 8.36339 12.1439 11.3184
163 1 -0.905964 1.04809 11.9675 6.84914
164 2 0.396933 0.321556 11.2999 7.01198
165 2 0.509032 1.69614 11.9472 7.61047
166 1 -0.87365 1.73318 8.48054 8.02694
167 2 0.457414 1.19796 8.80602 8.80643
168 2 0.416236 1.48978 9.00704 7.21234
169 1 -0.925181 6.53901 6.38972 7.59705
170 2 0.41117 6.41736 6.74251 8.52482
171 2 0.514011 7.46561 6.59422 7.28149
172 1 -0.895424 9.98912 1.954 8.33147
173 2 0.458544 9.49108 1.22285 7.86522
174 2 0.43688 9.33996 2.63112 8.67802
175 1 -0.929804 8.4808 7.00071 5.5307
176 2 0.472181 9.18692 6.46067 5.07271
177 2 0.457623 7.94782 7.50024 4.84776
178 1 -0.995246 7.9188 0.354066 6.70139
179 2 0.46307 7.44772 11.9002 6.4802
180 2 0.532176 7.78019 1.01253 5.96165
181 1 -0.994588 1.0771 8.41961 11.175
182 2 0.51146 0.962309 9.41292 11.1622
183 2 0.483128 1.46041 8.13963 12.0551
184 1 -0.932479 11.0241 5.92689 7.37051
185 2 0.462237 10.8539 6.9021 7.22911
186 2 0.470242 11.169 5.75155 8.3443
187 1 -1.08874 5.15623 7.16421 0.14634
188 2 0.603627 4.7031 7.13499 11.6554
189 2 0.485111 4.61578 6.64989 0.812213
190 1 -0.955643 9.98085 3.88845 5.24482
191 2 0.47906 10.7688 3.44936 4.8131
192 2 0.476583 10.2987 4.55414 5.91998
