ITEM: TIMESTEP
0
ITEM: NUMBER OF ATOMS
192
ITEM: BOX BOUNDS pp pp pp
0.0000000000000000e+00 1.2400000000000000e+01
0.0000000000000000e+00 1.2400000000000000e+01
0.0000000000000000e+00 1.2400000000000000e+01
ITEM: ATOMS id type q x y z
1 1 -0.940665 3.17519 8.45107 6.5059
2 2 0.535788 3.93231 8.85678 5.99387
3 2 0.404877 3.08016 7.48815 6.25342
4 1 -0.882003 0.450276 0.0749062 9.42927
5 2 0.499559 1.31717 0.524233 9.64517
6 2 0.382444 0.0153 12.1659 10.275
7 1 -0.849603 9.32653 7.11535 1.69183
8 2 0.421241 8.49379 6.67403 2.02615
9 2 0.428362 10.1255 6.61023 2.01814
10 1 -0.959544 6.51877 0.0985616 0.824499
11 2 0.53012 6.10835 12.0929 0.00777659
12 2 0.429424 7.30835 11.9536 1.10654
13 1 -0.841187 3.25547 7.40578 12.1467
14 2 0.419398 3.06914 6.57149 11.6278
15 2 0.421788 3.63324 8.10117 11.5354
16 1 -0.818397 11.8433 9.56819 1.26047
17 2 0.387845 0.084261 9.27695 0.550322
18 2 0.430552 12.1758 10.4106 1.6845
19 1 -0.977704 7.11354 5.3326 2.97571
20 2 0.532539 6.2162 5.69909 3.22161
21 2 0.445165 7.1691 4.3733 3.25256
22 1 -1.00517 4.78817 3.34036 3.06875
23 2 0.509726 5.02559 3.10163 4.01037
24 2 0.495442 4.07493 4.04128 3.07228
25 1 -0.868824 1.41832 6.34329 2.37611
26 2 0.449112 1.78152 6.07898 1.48267
27 2 0.419712 1.33374 7.33873 2.42034
28 1 -0.887975 6.11367 6.05453 12.3679
29 2 0.45167 6.04129 5.33827 0.66199
30 2 0.436305 5.81351 5.69433 11.4846
31 1 -0.983639 4.75163 9.52002 1.96977
32 2 0.426445 5.1347 8.76699 1.43479
33 2 0.557194 3.95942 9.89932 1.49171
34 1 -0.878451 2.8475 4.46338 0.374881
35 2 0.435609 2.0708 4.30493 12.1653
36 2 0.442842 3.70026 4.33339 12.269
37 1 -0.921103 3.24963 9.9923 9.46594
38 2 0.463615 4.02591 10.5567 9.74674
39 2 0.457488 3.33152 9.77275 8.49378
40 1 -0.999398 4.36126 4.55421 10.2447
41 2 0.569603 4.6182 5.4096 9.79491
42 2 0.429794 5.04185 3.85134 10.0379
43 1 -0.87614 0.716494 12.1185 2.49165
44 2 0.453034 0.117625 0.44449 2.82983
45 2 0.423106 1.66857 12.3536 2.68729
46 1 -0.886648 12.2768 7.78547 5.56378
47 2 0.475999 0.72781 7.36002 5.87174
48 2 0.410649 12.0481 8.54873 6.16801
49 1 -0.969634 2.26407 5.43122 5.9735
50 2 0.528361 2.93202 4.68771 5.94137
51 2 0.441273 1.34518 5.05979 5.84049
52 1 -0.926043 10.2269 11.9044 6.14589
53 2 0.449608 10.3867 11.4376 7.01568
54 2 0.476436 10.8116 11.5041 5.44034
55 1 -0.915723 12.1308 2.53497 0.741511
56 2 0.495792 11.4847 3.29394 0.660532
57 2 0.419931 11.6268 1.6789 0.85588
58 1 -0.828346 10.1853 12.1497 1.48184
59 2 0.447908 9.55844 11.3782 1.59129
60 2 0.380438 10.8316 11.952 0.744827
61 1 -1.03748 3.70177 0.615939 1.9097
62 2 0.505276 4.00336 1.48363 2.30487
63 2 0.532206 4.31847 12.2847 2.20114
64 1 -0.897491 2.12626 1.10412 5.01531
65 2 0.425706 2.39666 0.49648 4.26854
66 2 0.471785 2.09305 2.04662 4.68276
67 1 -1.10489 4.38968 3.45714 6.02796
68 2 0.429503 3.91565 2.60865 6.26326
69 2 0.675384 5.20585 3.55209 6.59791
70 1 -1.05467 7.40426 3.55995 10.1657
71 2 0.514503 6.7939 3.48692 10.9544
72 2 0.540167 8.33379 3.31293 10.4395
73 1 -0.829366 7.56756 0.593514 8.43395
74 2 0.418519 7.62092 1.17311 9.24711
75 2 0.410846 6.97981 1.02906 7.75214
76 1 -1.07173 2.03917 0.848254 12.0218
77 2 0.584907 2.68572 0.851245 0.384655
78 2 0.486823 1.48096 1.6773 12.0547
79 1 -0.947065 3.84716 11.7612 7.03836
80 2 0.500904 3.03966 11.2182 6.80799
81 2 0.446161 3.62703 12.3839 7.78929
82 1 -0.966235 8.03496 11.0219 4.15065
83 2 0.48187 8.48389 11.5979 4.8338
84 2 0.484365 8.12575 10.0613 4.41305
85 1 -0.821827 11.042 2.07728 4.04261
86 2 0.419803 10.7483 3.00518 3.81296
87 2 0.402025 10.9539 1.93411 5.02838
88 1 -1.00392 5.60584 11.3953 10.6401
89 2 0.465562 6.04096 11.4016 9.73975
90 2 0.538354 5.99911 10.6624 11.1953
91 1 -0.853768 10.9065 9.73673 3.99481
92 2 0.445834 10.7063 8.76173 4.09129
93 2 0.407933 10.7115 10.0259 3.05759
94 1 -0.927856 3.62432 1.08229 9.66157
95 2 0.4859 3.22984 1.36539 10.5358
96 2 0.441957 4.40043 0.473907 9.82749
97 1 -0.754417 12.3213 5.99574 11.7437
98 2 0.367409 11.7978 5.15276 11.6198
99 2 0.387009 11.6933 6.7587 11.8967
100 1 -0.758375 1.7902 9.63774 3.61328
101 2 0.41872 0.856379 9.39885 3.87957
102 2 0.339655 1.77676 10.0937 2.72336
103 1 -0.964413 5.35925 6.95571 8.94266
104 2 0.483792 5.46034 6.6208 8.00585
105 2 0.48062 5.82968 7.83325 9.03553
106 1 -0.843725 10.1593 9.36655 7.73929
107 2 0.465942 10.6801 9.19663 8.57586
108 2 0.377783 10.743 9.20259 6.94409
109 1 -0.850002 12.1555 5.34752 8.35271
110 2 0.405099 0.437772 6.05511 8.53648
111 2 0.444903 0.147974 4.44805 8.54483
112 1 -0.906874 5.00984 12.1492 4.52094
113 2 0.497521 4.64872 12.3684 5.42733
114 2 0.409353 5.77276 0.3601 4.30938
115 1 -0.941472 12.3961 8.23666 9.55535
116 2 0.529939 0.59754 7.43907 9.50953
117 2 0.411533 0.526551 9.03888 9.82932
118 1 -0.843764 6.82753 9.98769 7.9919
119 2 0.434968 7.76931 9.65244 7.96631
120 2 0.408796 6.78327 10.8903 7.56383
121 1 -1.08043 8.1001 10.1035 1.35927
122 2 0.543716 8.45718 9.1703 1.4001
123 2 0.536711 7.86961 10.4129 2.28185
124 1 -1.13827 6.48309 4.06716 7.5597
125 2 0.607562 6.90629 3.88092 8.44639
126 2 0.530705 6.93025 4.85477 7.13577
127 1 -0.938038 5.41033 6.42682 5.78153
128 2 0.499181 5.24173 7.28322 5.29352
129 2 0.438857 4.807 5.71448 5.42296
130 1 -0.877086 9.44786 3.88816 1.32363
131 2 0.42343 8.79471 4.6051 1.56735
132 2 0.453656 9.09632 3.00116 1.62306
133 1 -0.96138 1.48413 3.35463 3.11733
134 2 0.495123 1.68201 4.24584 2.70919
135 2 0.466257 0.861965 2.84613 2.52206
136 1 -0.97753 6.15563 8.82903 11.814
137 2 0.437304 7.03416 9.11312 12.1981
138 2 0.540225 6.01662 7.8537 11.9855
139 1 -0.991762 8.10356 1.66581 2.66094
140 2 0.482077 8.95493 1.21398 2.92742
141 2 0.509685 7.51774 1.01492 2.17806
142 1 -0.89524 9.92954 2.05801 10.8865
143 2 0.403886 10.795 2.20978 10.4091
144 2 0.491354 9.80201 1.07846 11.0421
145 1 -0.912772 0.499908 2.72697 6.87279
146 2 0.469487 11.9059 2.62092 6.84495
147 2 0.443285 0.924605 2.04634 6.27581
148 1 -0.871605 1.40693 3.47194 9.92077
149 2 0.444343 2.3195 3.75988 10.2111
150 2 0.427262 1.44771 3.13274 8.98094
151 1 -0.858766 9.66939 8.21008 10.6447
152 2 0.422522 10.6416 8.15951 10.4161
153 2 0.436245 9.18559 7.44833 10.2138
154 1 -1.1289 5.15497 9.23568 4.70853
155 2 0.524339 5.46738 10.1189 5.05828
156 2 0.604563 4.95688 9.31521 3.73157
157 1 -0.989761 6.23335 2.99576 0.483031
158 2 0.497863 6.67623 2.1094 0.617994
159 2 0.491897 5.80711 3.28916 1.33875
160 1 -0.900863 9.16288 11.5116 10.9636
161 2 0.464421 8.95522 10.8406 11.6753
162 2 0.436442 9.07779 11.0814 10.0649
163 1 -0.849478 0.753309 10.9819 6.97435
164 2 0.469897 0.602163 11.46 7.83957
165 2 0.37958 0.714842 11.6374 6.22015
166 1 -0.973903 2.30529 6.71498 8.75703
167 2 0.502606 2.77488 7.5828 8.59457
168 2 0.471297 2.4066 6.12596 7.95528
169 1 -0.872786 9.04296 5.8916 8.33276
170 2 0.43562 8.93679 5.75134 7.34835
171 2 0.437166 9.97553 5.65409 8.60464
172 1 -0.878065 10.01 2.46252 7.30121
173 2 0.463016 9.66786 1.53155 7.1738
174 2 0.415049 9.72497 2.80269 8.19734
175 1 -0.843241 8.51938 8.21319 5.04473
176 2 0.417494 7.80519 8.43806 5.70758
177 2 0.425747 8.76151 7.24675 5.13058
178 1 -0.885478 7.24187 1.98099 5.2901
179 2 0.421242 7.71294 2.56052 5.95511
180 2 0.464235 7.81273 1.87622 4.47576
181 1 -0.934942 2.53855 10.503 0.0617129
182 2 0.451302 2.53988 10.1561 11.5238
183 2 0.483641 1.99332 11.3401 0.106722
184 1 -0.969408 11.2498 5.45366 3.96086
185 2 0.50277 11.5568 6.29242 4.4106
186 2 0.466638 12.0447 4.91263 3.68617
187 1 -0.923199 4.4776 6.38614 2.61944
188 2 0.474381 4.26855 6.15963 1.66813
189 2 0.448818 4.41969 7.3763 2.74681
190 1 -0.969231 8.57098 5.35549 5.43856
191 2 0.465881 7.86281 5.64621 4.79515
192 2 0.503351 9.46101 5.36837 4.98285
