ITEM: TIMESTEP
0
ITEM: NUMBER OF ATOMS
192
ITEM: BOX BOUNDS pp pp pp
0.0000000000000000e+00 1.2400000000000000e+01
0.0000000000000000e+00 1.2400000000000000e+01
0.0000000000000000e+00 1.2400000000000000e+01
ITEM: ATOMS id type q x y z
1 1 -0.945224 5.91922 7.1308 6.03783
2 2 0.4655 5.06064 7.58677 5.80346
3 2 0.479724 6.68793 7.72299 5.79616
4 1 -0.989738 1.30413 11.9994 8.70573
5 2 0.550841 0.955514 12.3954 9.55519
6 2 0.438896 1.49361 11.0273 8.84432
7 1 -0.971073 10.7872 6.65171 3.88852
8 2 0.552296 11.5079 6.9603 4.50922
9 2 0.418777 10.3894 7.4411 3.42089
10 1 -0.947287 5.74843 11.6425 0.765383
11 2 0.455503 6.01313 10.8189 0.2637
12 2 0.491783 6.43321 11.84 1.46685
13 1 -1.01435 4.68834 8.00295 12.1799
14 2 0.494728 4.87593 8.6761 11.4646
15 2 0.519618 4.38282 7.14782 11.761
16 1 -1.04739 11.6339 10.7774 12.13
17 2 0.528948 12.1602 9.96541 12.3822
18 2 0.518442 12.0151 11.5784 0.191643
19 1 -0.81812 6.15766 6.91075 2.27994
20 2 0.398164 7.06461 7.18392 2.6006
21 2 0.419956 6.08339 7.08886 1.29873
22 1 -1.06422 3.7914 2.84136 5.18255
23 2 0.597681 4.64423 3.36154 5.13673
24 2 0.466541 3.22941 3.18806 5.93353
25 1 -0.960556 1.7593 6.87448 1.94252
26 2 0.47713 2.3621 6.43265 1.27812
27 2 0.483425 1.06311 7.40549 1.45946
28 1 -0.940772 5.61593 4.66726 12.3149
29 2 0.506217 4.62092 4.71911 12.2297
30 2 0.434555 5.85404 4.24507 0.789548
31 1 -1.08066 4.01479 9.43505 2.13327
32 2 0.592331 4.44068 8.79171 1.49709
33 2 0.488325 4.01013 10.3497 1.72914
34 1 -1.01874 2.93466 5.23122 11.9952
35 2 0.459466 2.83135 4.79057 0.486964
36 2 0.559274 2.7195 4.57484 11.2721
37 1 -0.939591 2.95786 9.17094 9.44406
38 2 0.422599 3.91138 8.87896 9.36957
39 2 0.516992 2.36878 8.36729 9.52857
40 1 -0.959709 4.36791 4.27691 9.22597
41 2 0.451289 3.72631 4.37941 8.4658
42 2 0.50842 4.72999 5.17384 9.47981
43 1 -0.953185 11.4191 0.997212 1.24703
44 2 0.482004 10.9879 1.8553 0.968299
45 2 0.471181 11.5757 1.00826 2.23463
46 1 -0.931828 2.78202 9.22489 5.19125
47 2 0.474695 3.12462 9.15541 4.25434
48 2 0.457134 2.78661 10.183 5.47766
49 1 -1.02635 2.54152 5.26732 6.98545
50 2 0.440421 1.7316 4.69027 7.09054
51 2 0.585929 2.62852 5.54885 6.02985
52 1 -0.964957 10.7796 0.819734 6.94791
53 2 0.531624 10.3053 0.505067 7.77012
54 2 0.433333 11.3496 0.0808 6.58849
55 1 -0.771309 0.612008 3.70828 1.08333
56 2 0.36317 12.1183 3.66043 1.52938
57 2 0.408139 1.33287 3.63766 1.77281
58 1 -0.938299 8.30619 0.0698 1.97402
59 2 0.458928 9.11395 12.2419 2.51774
60 2 0.479371 8.58835 0.328604 1.05023
61 1 -0.967723 2.4377 12.1847 1.33719
62 2 0.441968 1.84331 11.7093 1.98575
63 2 0.525754 3.19036 0.2194 1.8317
64 1 -0.96634 0.930169 1.55177 4.00692
65 2 0.43291 1.54457 1.43216 4.7868
66 2 0.53343 0.848718 2.52521 3.79296
67 1 -0.963899 3.91988 1.31973 8.4329
68 2 0.520135 4.19371 2.01397 9.09853
69 2 0.443765 3.45513 0.57049 8.90475
70 1 -0.895063 7.66479 1.84079 11.702
71 2 0.460515 6.98545 2.54076 11.4817
72 2 0.434548 7.52828 1.04596 11.1107
73 1 -0.884698 7.03055 0.583107 8.69329
74 2 0.474052 6.08316 0.839293 8.50138
75 2 0.410645 7.48811 0.334504 7.83956
76 1 -1.04864 1.13601 0.99093 11.3527
77 2 0.568383 1.77504 0.685672 12.0587
78 2 0.480253 0.234249 1.13647 11.7596
79 1 -0.910871 5.1172 10.3805 7.40322
80 2 0.413389 4.15022 10.1258 7.3952
81 2 0.497482 5.44243 10.4841 6.46327
82 1 -0.903838 8.21449 11.1203 5.18534
83 2 0.473243 8.14537 11.8104 4.46497
84 2 0.430595 8.68171 10.3114 4.82833
85 1 -0.884916 10.6265 0.493783 4.07359
86 2 0.407475 11.5206 0.0466141 4.1011
87 2 0.477441 10.3694 0.781872 4.99603
88 1 -0.869664 5.93295 10.244 10.4091
89 2 0.46098 5.47556 10.3132 9.52252
90 2 0.408683 6.63426 10.9535 10.4786
91 1 -0.937187 10.7955 9.5454 2.999
92 2 0.493893 11.7145 9.79755 3.30225
93 2 0.443293 10.6517 9.87126 2.06458
94 1 -0.864428 4.59302 1.54043 11.6894
95 2 0.486295 4.79329 0.655837 12.1106
96 2 0.378133 4.64054 2.25858 12.3837
97 1 -0.799708 11.2879 7.71007 0.286025
98 2 0.416752 10.7691 6.94082 0.658987
99 2 0.382956 11.8036 7.40704 11.8847
100 1 -0.918705 0.838651 11.0547 3.70983
101 2 0.421442 0.593088 10.6943 4.60975
102 2 0.497263 1.10521 12.0146 3.79654
103 1 -1.00072 5.43803 7.01509 9.15108
104 2 0.541846 6.38668 7.26776 9.34144
105 2 0.45887 5.27407 7.05399 8.16538
106 1 -0.870083 11.1362 10.1222 6.62075
107 2 0.483618 11.1296 9.93435 7.60293
108 2 0.386464 10.2577 9.85516 6.22444
109 1 -0.888662 11.1422 4.83422 10.9509
110 2 0.424694 10.6942 4.4701 10.1344
111 2 0.463968 12.1242 4.65233 10.9015
112 1 -1.05804 4.08709 0.61172 3.35493
113 2 0.519268 4.23934 12.2936 4.034
114 2 0.538774 3.61002 1.37939 3.78282
115 1 -0.861163 11.6429 8.49904 9.32797
116 2 0.473081 12.3825 7.86693 9.0968
117 2 0.388082 11.8717 8.98566 10.1711
118 1 -0.955266 8.31716 9.98828 7.8021
119 2 0.504424 8.44194 10.5324 6.9724
120 2 0.450841 7.65073 10.4367 8.39772
121 1 -0.842904 8.83571 9.91593 0.0446
122 2 0.401057 8.65441 8.93728 0.1414
123 2 0.441847 9.82332 10.0717 0.0255
124 1 -0.801145 7.35371 3.90256 9.27824
125 2 0.373406 7.42529 2.97767 8.90481
126 2 0.427739 6.43135 4.04689 9.63661
127 1 -1.08174 5.82759 4.55432 4.54705
128 2 0.484096 6.73383 4.3913 4.15699
129 2 0.597644 5.82762 5.4258 5.03748
130 1 -1.00358 9.89307 3.56267 0.803804
131 2 0.482323 9.02257 3.3446 0.362577
132 2 0.521258 10.1968 4.46961 0.51185
133 1 -0.985725 0.519313 4.49355 3.73149
134 2 0.470544 12.3306 4.60203 4.53249
135 2 0.515181 0.426419 5.29354 3.13871
136 1 -0.929337 8.08551 6.23597 12.1305
137 2 0.461667 8.10347 6.58983 11.1953
138 2 0.46767 7.29372 5.63595 12.2447
139 1 -0.972786 5.94989 2.43551 2.10842
140 2 0.468808 6.87263 2.06964 1.98718
141 2 0.503978 5.33995 1.70585 2.41759
142 1 -0.780565 10.6001 1.88203 10.0016
143 2 0.386486 10.2782 2.27061 10.8649
144 2 0.394079 9.97862 1.15435 9.71128
145 1 -0.949667 1.27039 2.64966 7.19176
146 2 0.484383 1.94044 2.01593 7.57833
147 2 0.465284 0.438748 2.14936 6.95078
148 1 -1.00609 1.35146 3.66169 10.0267
149 2 0.567874 1.30017 2.73762 10.4055
150 2 0.43822 1.40637 3.61063 9.02954
151 1 -0.965465 8.25404 7.39562 9.27356
152 2 0.446414 9.03001 6.79467 9.08189
153 2 0.519051 8.32878 8.22392 8.71828
154 1 -0.985701 5.43542 10.1714 4.42939
155 2 0.443635 6.43383 10.1161 4.41786
156 2 0.542066 5.06238 9.61867 3.68414
157 1 -0.972839 3.46174 3.95914 2.339
158 2 0.518626 4.39256 3.62442 2.4858
159 2 0.454213 2.97881 3.99574 3.21389
160 1 -0.954445 10.2381 11.3379 9.45134
161 2 0.510468 10.6174 11.2404 10.3715
162 2 0.443978 9.84055 10.4675 9.16073
163 1 -0.984623 2.73139 12.131 5.95282
164 2 0.50366 2.25795 11.9504 6.81495
165 2 0.480963 3.50968 0.336113 6.12029
166 1 -1.02881 1.5144 6.74303 9.21557
167 2 0.44641 1.01063 6.17443 9.86589
168 2 0.582395 1.85467 6.17272 8.46793
169 1 -0.912128 8.66605 6.13876 6.22574
170 2 0.479188 8.96114 5.26055 5.84935
171 2 0.43294 8.14558 5.98357 7.0654
172 1 -0.857069 10.4636 3.69557 6.19362
173 2 0.445 10.7956 2.88898 6.68266
174 2 0.412068 9.9832 3.40859 5.36482
175 1 -0.97172 8.28178 8.23575 4.24489
176 2 0.410667 8.99157 8.64137 3.66896
177 2 0.561053 8.67229 7.4829 4.77473
178 1 -0.752445 6.8338 1.64148 5.50664
179 2 0.393129 6.93902 2.6103 5.28232
180 2 0.359316 6.2112 1.21336 4.85158
181 1 -0.945913 1.60871 9.29016 0.470035
182 2 0.516984 2.22524 9.27414 1.25721
183 2 0.428928 2.13217 9.48496 12.0406
184 1 -0.974552 0.468171 7.55803 5.58318
185 2 0.450554 0.23259 8.19351 6.31848
186 2 0.523998 1.35501 7.81024 5.196
187 1 -0.986749 3.41682 6.24564 4.28593
188 2 0.495374 2.76098 6.69159 3.67682
189 2 0.491375 4.05098 5.69265 3.74552
190 1 -0.934976 9.20374 4.02782 3.63291
191 2 0.479302 9.99032 4.6429 3.57836
192 2 0.455674 9.22984 3.38462 2.86766
