ITEM: TIMESTEP
0
ITEM: NUMBER OF ATOMS
192
ITEM: BOX BOUNDS pp pp pp
0.0000000000000000e+00 1.2400000000000000e+01
0.0000000000000000e+00 1.2400000000000000e+01
0.0000000000000000e+00 1.2400000000000000e+01
ITEM: ATOMS id type q x y z
1 1 -1.01774 6.69561 6.81929 5.70157
2 2 0.438137 6.84033 7.70466 5.25976
3 2 0.579604 7.5147 6.56569 6.21613
4 1 -0.975273 0.553317 11.0812 8.3413
5 2 0.49666 0.972393 10.9927 9.24493
6 2 0.478613 11.958 11.1014 8.43598
7 1 -0.998182 9.60718 5.60229 2.91955
8 2 0.537791 10.1446 5.72444 2.08514
9 2 0.46039 10.2231 5.4976 3.7004
10 1 -0.953162 4.84121 10.103 0.195841
11 2 0.533088 5.0644 9.18539 12.2669
12 2 0.420074 5.65737 10.5222 0.593499
13 1 -0.961378 5.16851 7.40547 11.3777
14 2 0.453985 4.50818 7.53715 10.6383
15 2 0.507393 5.73982 6.60975 11.1766
16 1 -0.953853 0.442418 11.7701 11.2959
17 2 0.506056 1.3737 11.8618 11.6485
18 2 0.447797 12.3153 0.186978 11.5301
19 1 -0.841795 5.06481 7.12646 1.95276
20 2 0.444823 5.94023 6.88469 1.53419
21 2 0.396972 4.75206 8.00362 1.58837
22 1 -0.936503 5.1087 2.44754 4.84504
23 2 0.480265 4.37136 2.476 5.51997
24 2 0.456238 4.89203 3.06447 4.08843
25 1 -0.840948 0.514982 5.23967 2.91371
26 2 0.397201 12.3213 6.03809 3.01374
27 2 0.443748 1.26683 5.45916 2.29198
28 1 -1.00449 8.24382 4.72899 10.3386
29 2 0.513362 8.49756 4.25437 9.49575
30 2 0.491126 7.85478 4.07364 10.986
31 1 -0.943382 2.8422 8.76936 3.7363
32 2 0.493524 2.47897 8.68607 2.80833
33 2 0.449858 2.20316 9.29426 4.29853
34 1 -0.930173 3.99783 4.28417 2.76478
35 2 0.485567 3.81367 5.26705 2.77231
36 2 0.444606 4.94252 4.12422 2.47846
37 1 -0.842997 2.97825 9.23349 10.0059
38 2 0.41094 3.15791 10.063 10.5348
39 2 0.432057 3.42135 9.30538 9.11231
40 1 -0.883995 5.06547 4.18441 11.7179
41 2 0.413001 4.28052 4.66095 12.1138
42 2 0.470994 5.61765 3.78599 0.0502413
43 1 -1.00429 10.1134 3.40567 0.694586
44 2 0.478106 9.80383 3.32779 1.64228
45 2 0.526182 9.56987 2.79808 0.1154
46 1 -0.859968 3.22998 9.68697 6.99957
47 2 0.38779 2.48038 9.57833 7.65249
48 2 0.472178 3.79608 8.86263 7.0018
49 1 -0.923698 2.90436 4.70274 9.58212
50 2 0.409628 2.53158 4.04199 8.93063
51 2 0.51407 3.90046 4.6187 9.60905
52 1 -0.944043 10.6587 0.728674 7.05165
53 2 0.480887 10.3242 12.3444 6.52918
54 2 0.463156 11.4122 1.16186 6.55702
55 1 -1.04247 0.574351 3.13467 0.0983281
56 2 0.544068 12.0888 3.24676 0.549089
57 2 0.498398 1.20453 2.66209 0.714409
58 1 -0.835677 6.71439 12.1369 2.68654
59 2 0.441481 7.10648 12.0491 3.60228
60 2 0.394196 5.86898 11.6054 2.63359
61 1 -1.00089 2.81299 12.0297 0.442367
62 2 0.460496 2.39112 12.1136 1.34514
63 2 0.54039 3.63667 11.4667 0.510322
64 1 -0.937031 11.893 1.88442 4.36419
65 2 0.463429 0.25471 1.25135 4.50234
66 2 0.473602 12.2279 2.82524 4.41619
67 1 -0.990192 3.49427 2.05515 7.72372
68 2 0.452395 3.07748 2.37508 8.57457
69 2 0.537797 2.82213 1.53257 7.19919
70 1 -0.922446 8.31743 1.61865 11.5319
71 2 0.450165 7.4924 1.21341 11.1381
72 2 0.472282 9.12353 1.24992 11.069
73 1 -1.01912 6.18752 1.6477 8.67716
74 2 0.485867 6.10222 0.958263 9.39648
75 2 0.533257 5.43601 1.54435 8.02558
76 1 -0.896338 2.36052 1.76489 10.5844
77 2 0.406702 2.1666 0.960413 11.1459
78 2 0.489636 2.02732 2.58465 11.0502
79 1 -0.854566 6.04355 11.4814 6.7006
80 2 0.410055 5.30353 10.8688 6.42304
81 2 0.444511 6.67238 10.9922 7.30493
82 1 -0.924569 9.69722 11.1569 4.79364
83 2 0.535288 9.72478 10.4109 4.12829
84 2 0.389282 8.75303 11.3077 5.08652
85 1 -1.01713 9.6711 1.36965 2.75342
86 2 0.521513 10.6003 1.31352 3.11865
87 2 0.49562 9.03422 0.942936 3.39552
88 1 -0.837512 6.48501 10.2399 9.97996
89 2 0.458401 6.33168 9.3532 9.54378
90 2 0.379111 6.39869 10.143 10.9715
91 1 -0.912345 10.1861 11.6842 0.915776
92 2 0.539757 10.0181 0.139173 1.40647
93 2 0.372588 9.32619 11.3433 0.535958
94 1 -0.919054 5.18784 0.970511 11.2127
95 2 0.487543 4.46449 1.50435 10.7748
96 2 0.431511 5.29668 1.27091 12.1603
97 1 -0.816997 11.4325 9.07151 11.5157
98 2 0.533584 11.611 10.0513 11.425
99 2 0.283413 10.8597 8.91004 12.3193
100 1 -0.861442 0.438077 11.1934 2.42349
101 2 0.418494 0.961897 10.4571 1.99512
102 2 0.442948 11.9234 11.2296 2.02091
103 1 -0.964214 4.91948 7.52673 8.02625
104 2 0.440516 5.677 7.78492 7.42666
105 2 0.523698 4.90284 6.53258 8.13308
106 1 -0.915769 0.120544 9.82415 5.42487
107 2 0.464143 11.704 10.2638 5.05081
108 2 0.451625 0.380995 10.2758 6.27822
109 1 -0.851466 11.2554 4.76292 10.1051
110 2 0.482583 11.0216 3.79798 10.2244
111 2 0.368883 10.9793 5.06231 9.19176
112 1 -0.878666 3.64934 11.6358 4.28801
113 2 0.457877 3.75426 10.6432 4.22746
114 2 0.420789 4.35937 12.0103 4.88434
115 1 -0.897168 10.8525 8.70017 8.24539
116 2 0.521136 11.7519 8.26321 8.2361
117 2 0.376032 10.2356 8.18057 8.8365
118 1 -0.884643 7.79159 9.10478 7.52981
119 2 0.382306 8.3075 8.97884 6.68247
120 2 0.502337 8.32907 8.76391 8.30112
121 1 -0.821074 7.7474 8.94989 0.595923
122 2 0.453727 7.87679 7.96929 0.448674
123 2 0.367347 8.23155 9.46042 12.2853
124 1 -1.00911 8.81853 2.94382 8.03406
125 2 0.526596 7.92113 2.50343 8.00675
126 2 0.482519 9.52781 2.2678 7.83423
127 1 -0.933214 5.63185 4.80184 8.83798
128 2 0.416212 5.86625 4.45624 7.92934
129 2 0.517002 6.2157 4.36431 9.52186
130 1 -1.00703 10.8495 6.26029 0.283892
131 2 0.579775 10.8936 5.4487 12.1013
132 2 0.427254 11.0412 7.07465 12.1361
133 1 -1.00127 1.78436 3.83264 5.02221
134 2 0.501984 2.6675 4.30172 5.02669
135 2 0.499289 1.23258 4.16814 4.25867
136 1 -0.904541 7.42979 5.74981 0.606391
137 2 0.462258 7.33823 5.30083 1.49523
138 2 0.442283 8.37795 5.68352 0.295551
139 1 -0.962879 6.11608 2.45262 1.62149
140 2 0.455961 6.47312 3.08006 2.31348
141 2 0.506919 6.35049 1.51299 1.87081
142 1 -0.881521 11.0221 1.71182 10.1316
143 2 0.430962 11.9811 1.95499 10.2769
144 2 0.45056 10.9675 0.917578 9.5265
145 1 -0.816386 0.575204 3.05646 7.56892
146 2 0.316561 0.0538748 2.2051 7.51059
147 2 0.499825 0.82691 3.35689 6.64893
148 1 -0.922012 2.28919 5.73085 0.131591
149 2 0.485698 1.58994 5.02822 12.3998
150 2 0.436314 2.77188 5.8865 11.6697
151 1 -0.945747 8.70478 7.56432 10.0093
152 2 0.379275 9.53569 7.80853 10.5093
153 2 0.566472 8.60891 6.56916 9.98804
154 1 -0.879591 6.36566 9.09054 3.82365
155 2 0.42623 7.08369 9.08326 3.12767
156 2 0.453361 5.77096 8.29658 3.69736
157 1 -0.884544 1.97099 1.86365 2.36259
158 2 0.404617 1.91321 1.02625 2.90612
159 2 0.479927 2.78192 2.38199 2.63409
160 1 -0.82328 9.14948 11.6687 9.59251
161 2 0.45745 8.27426 11.2271 9.78988
162 2 0.36583 9.21544 11.8547 8.61216
163 1 -1.01486 1.77756 0.256061 6.34232
164 2 0.517801 1.55286 12.0892 7.13489
165 2 0.497058 2.10593 12.0739 5.59848
166 1 -0.950678 0.633012 7.10954 9.03954
167 2 0.45866 1.08234 7.56748 9.80662
168 2 0.492018 0.803869 6.12565 9.09228
169 1 -1.01528 9.30989 6.43837 6.42549
170 2 0.571756 9.80869 5.61465 6.15586
171 2 0.443523 9.95097 7.10917 6.79838
172 1 -0.968027 9.91328 3.87642 5.4446
173 2 0.481292 9.65554 3.41106 6.29137
174 2 0.486735 9.8123 3.24687 4.67422
175 1 -0.886236 9.67401 8.87321 3.11477
176 2 0.429421 10.0173 8.81855 2.17712
177 2 0.456815 9.56764 7.95042 3.48512
178 1 -0.932967 7.74772 1.05897 5.20832
179 2 0.542714 6.88161 1.55882 5.20899
180 2 0.390253 7.82309 0.521563 6.04828
181 1 -0.935504 1.78181 8.67831 1.0435
182 2 0.473606 1.40244 7.76531 0.893478
183 2 0.461897 2.31952 8.95108 0.24571
184 1 -0.863121 0.25451 6.97587 5.4593
185 2 0.390385 0.621828 6.64149 6.32721
186 2 0.472736 0.25075 7.97586 5.46208
187 1 -0.883717 3.81076 6.23428 5.33943
188 2 0.450565 3.62254 6.90844 4.62523
189 2 0.433152 4.70728 6.41747 5.7428
190 1 -1.02209 6.81523 4.69162 3.32141
191 2 0.538226 7.67266 5.19843 3.41061
192 2 0.483863 6.30103 4.75326 4.17687
