ITEM: TIMESTEP
0
ITEM: NUMBER OF ATOMS
192
ITEM: BOX BOUNDS pp pp pp
0.0000000000000000e+00 1.2400000000000000e+01
0.0000000000000000e+00 1.2400000000000000e+01
0.0000000000000000e+00 1.2400000000000000e+01
ITEM: ATOMS id type q x y z
1 1 -0.881475 5.93347 7.38508 4.62833
2 2 0.461344 5.70426 6.41466 4.55249
3 2 0.420131 6.65549 7.6092 3.97375
4 1 -0.857498 0.781684 1.23671 8.53948
5 2 0.426395 0.369838 0.852444 9.36575
6 2 0.431103 0.08163 1.71575 8.0099
7 1 -0.870989 9.04727 7.83439 4.56372
8 2 0.441988 8.94089 7.17568 5.30857
9 2 0.429001 9.74373 7.5063 3.92552
10 1 -0.953941 4.66524 10.7301 0.622307
11 2 0.46678 4.94831 11.0259 1.53467
12 2 0.487161 3.82452 11.2057 0.363587
13 1 -0.956025 4.43267 5.00785 10.7565
14 2 0.461204 3.75562 5.72854 10.6075
15 2 0.494821 4.08607 4.14407 10.3908
16 1 -0.854001 0.364463 1.46923 11.6653
17 2 0.41595 0.250722 0.607455 12.1597
18 2 0.438051 0.1661 2.23393 12.2784
19 1 -0.898582 2.73705 6.35765 1.18416
20 2 0.420246 2.94118 6.71676 2.09487
21 2 0.478336 2.61106 7.11773 0.546664
22 1 -0.879802 4.84632 2.19323 6.33966
23 2 0.399328 4.3037 1.55992 6.89147
24 2 0.480474 4.85714 3.09207 6.77781
25 1 -0.96642 1.24871 4.85796 3.33362
26 2 0.430956 1.31055 5.2538 2.41738
27 2 0.535464 0.294467 4.85709 3.63264
28 1 -0.923474 7.40983 5.81814 9.81131
29 2 0.421977 8.10491 5.2019 10.1816
30 2 0.501497 6.50204 5.49785 10.0821
31 1 -0.975943 2.99366 9.12912 3.2683
32 2 0.542695 2.2324 9.02792 2.6278
33 2 0.433249 3.82747 9.35078 2.7627
34 1 -0.897954 4.25734 4.47055 3.58671
35 2 0.484667 3.2747 4.64839 3.53399
36 2 0.413287 4.61134 4.28069 2.67093
37 1 -0.959656 2.72313 8.75462 11.2321
38 2 0.506054 2.95859 8.28384 10.3818
39 2 0.453602 3.37767 9.49248 11.3969
40 1 -0.943903 6.1355 4.12807 0.585868
41 2 0.465718 5.4253 4.24829 12.2922
42 2 0.478185 6.66803 3.30734 0.378949
43 1 -0.891011 10.4545 3.09383 0.540696
44 2 0.398619 11.2958 3.52979 0.860475
45 2 0.492391 9.97229 2.6897 1.31794
46 1 -0.987231 3.85947 11.3194 7.71214
47 2 0.453792 4.50883 10.618 7.41831
48 2 0.533438 3.04358 10.8812 8.08944
49 1 -0.877284 1.20001 4.83174 10.6669
50 2 0.4094 1.5469 3.91394 10.4737
51 2 0.467885 1.23486 5.00076 11.6519
52 1 -0.974834 8.93831 12.2574 6.48963
53 2 0.519394 9.09059 11.2848 6.31431
54 2 0.455441 9.81722 0.333974 6.51054
55 1 -1.10724 0.685005 2.07686 2.08032
56 2 0.524167 12.3882 1.36677 1.97938
57 2 0.583072 0.746423 2.34954 3.04047
58 1 -0.949741 5.71251 10.8455 3.36161
59 2 0.517228 5.79772 11.8407 3.41008
60 2 0.432513 5.52255 10.4824 4.27378
61 1 -0.900139 2.06353 11.8399 1.23938
62 2 0.424642 2.02916 0.39988 1.51721
63 2 0.475497 1.21441 11.3847 1.50734
64 1 -0.942497 11.4355 1.3706 5.44876
65 2 0.450091 11.4808 0.504603 4.95076
66 2 0.492406 12.3581 1.73994 5.55979
67 1 -0.95375 3.11746 2.8222 9.26278
68 2 0.467896 3.50478 1.92232 9.06229
69 2 0.485855 2.11962 2.77274 9.21971
70 1 -0.776049 6.79974 2.48141 10.1515
71 2 0.420105 6.3644 2.35131 9.26065
72 2 0.355944 6.67035 1.66118 10.7087
73 1 -1.039 6.54599 12.3306 8.342
74 2 0.511947 5.56451 12.2068 8.1957
75 2 0.527054 7.01482 12.3498 7.45892
76 1 -0.801282 4.10642 0.629346 11.2794
77 2 0.444985 3.23791 0.825182 11.7347
78 2 0.356297 4.61805 1.47986 11.1574
79 1 -0.898574 5.97479 9.59458 6.61412
80 2 0.44499 6.64781 9.4893 7.34622
81 2 0.453584 6.26246 9.06245 5.81782
82 1 -0.894762 8.78535 10.8935 3.26633
83 2 0.444641 8.52732 11.8553 3.35826
84 2 0.450121 8.01625 10.3147 3.5373
85 1 -0.880376 9.32412 2.34775 3.11275
86 2 0.468286 9.74725 2.95607 3.78424
87 2 0.412089 8.40977 2.09053 3.42552
88 1 -0.97322 6.48378 8.95232 9.64711
89 2 0.508492 7.05552 8.21221 10.0012
90 2 0.464728 6.74996 9.81452 10.0781
91 1 -0.989023 9.52529 11.363 0.0032
92 2 0.570723 8.67916 11.5666 11.9106
93 2 0.4183 10.2261 11.0674 11.7539
94 1 -1.11913 7.03676 11.5044 11.205
95 2 0.542141 6.91402 11.7347 10.2396
96 2 0.57699 6.17597 11.6467 11.6936
97 1 -0.935221 11.4626 8.8873 11.4825
98 2 0.422443 12.1983 8.26353 11.2185
99 2 0.512779 11.3394 9.57795 10.7699
100 1 -1.07471 11.4724 11.9749 1.80019
101 2 0.50323 11.5211 11.5053 2.68173
102 2 0.571484 10.6211 11.7277 1.33745
103 1 -1.02758 3.82527 7.65899 8.83302
104 2 0.517517 4.62357 8.23394 9.01233
105 2 0.510068 3.67615 7.59398 7.84634
106 1 -0.894741 12.196 10.7496 4.36397
107 2 0.481365 12.161 10.2331 5.21952
108 2 0.413377 0.515499 10.3763 3.77837
109 1 -0.876866 10.6129 4.53827 9.94209
110 2 0.448966 10.2328 3.69896 10.3308
111 2 0.4279 11.6059 4.54035 10.0602
112 1 -0.877032 3.1606 11.7856 4.52543
113 2 0.402131 3.87091 12.2278 3.97781
114 2 0.474901 3.28693 10.794 4.49724
115 1 -0.868167 1.47517 9.99652 8.61984
116 2 0.393016 0.807767 10.228 9.32763
117 2 0.475152 1.57611 9.00292 8.56909
118 1 -0.95093 9.62539 9.58722 6.99396
119 2 0.437462 9.2398 9.03093 6.25785
120 2 0.513468 9.57933 9.07978 7.85441
121 1 -0.884931 8.22354 8.50014 11.8059
122 2 0.351726 8.92331 9.09091 12.2075
123 2 0.533205 7.52464 8.29743 0.0918
124 1 -0.820097 8.63127 3.18574 6.9663
125 2 0.363101 8.71055 4.11879 7.31721
126 2 0.456996 9.52326 2.73589 7.01095
127 1 -0.871755 5.55027 4.78872 7.33963
128 2 0.406236 5.06559 5.43862 6.75421
129 2 0.465519 6.30184 5.25586 7.80539
130 1 -0.827962 11.9171 5.65014 0.588796
131 2 0.397695 11.4938 5.82125 12.0991
132 2 0.430267 11.3493 6.04728 1.30988
133 1 -0.943695 2.12553 4.76946 7.17054
134 2 0.48349 2.59036 5.57805 6.80982
135 2 0.460205 2.79787 4.15462 7.58278
136 1 -0.914358 8.60093 5.71031 2.21156
137 2 0.422395 8.63504 6.33575 1.43203
138 2 0.491962 7.67044 5.35949 2.31698
139 1 -0.848576 7.46836 1.49268 0.591931
140 2 0.433976 7.75592 1.35879 1.54029
141 2 0.4146 7.84657 0.76266 0.0226904
142 1 -0.86552 9.79326 1.41176 9.66938
143 2 0.464058 8.88042 1.44343 9.26229
144 2 0.401462 9.72486 1.57206 10.6541
145 1 -0.948812 11.89 3.6991 6.92127
146 2 0.425159 11.8237 3.54635 5.93523
147 2 0.523654 0.340143 4.18384 7.12705
148 1 -0.951483 3.12656 3.18265 0.842058
149 2 0.453556 2.91241 4.15501 0.748982
150 2 0.497927 2.36064 2.7132 1.28137
151 1 -1.05567 9.88612 7.73903 9.33676
152 2 0.546931 9.30629 6.94816 9.53253
153 2 0.508736 10.0318 8.26164 10.1768
154 1 -0.912909 6.33004 7.26607 0.978393
155 2 0.497769 5.90901 6.45117 0.580036
156 2 0.415141 5.62048 7.938 1.19059
157 1 -0.869326 4.89685 1.33357 2.39716
158 2 0.403406 5.57017 1.31689 1.658
159 2 0.46592 4.16781 1.97906 2.16946
160 1 -1.01992 11.1421 10.9808 9.60522
161 2 0.500737 10.6511 11.8272 9.81128
162 2 0.519187 11.3616 10.9517 8.63004
163 1 -1.0438 1.72884 1.84877 4.69325
164 2 0.460736 2.37272 2.51883 5.06264
165 2 0.583062 2.1454 0.93988 4.71344
166 1 -0.970004 0.237774 7.35169 8.57643
167 2 0.486112 0.801057 6.60372 8.9275
168 2 0.483891 11.7099 7.26923 8.94003
169 1 -0.915699 9.95871 5.99153 6.72433
170 2 0.442994 10.4256 6.52114 7.43255
171 2 0.472706 10.1171 5.01628 6.87851
172 1 -1.01006 10.9893 5.08364 3.98823
173 2 0.44866 10.9328 5.65051 4.8101
174 2 0.561402 10.179 5.23541 3.42224
175 1 -0.938101 10.1885 8.85005 1.85524
176 2 0.542265 9.68661 9.5798 2.31957
177 2 0.395836 10.0925 8.95698 0.865609
178 1 -1.00819 6.88931 0.913621 4.63789
179 2 0.521184 6.19891 1.58297 4.91235
180 2 0.487006 7.63658 0.913896 5.30242
181 1 -1.00377 0.813594 9.02316 1.37233
182 2 0.517236 12.2504 8.98347 1.63819
183 2 0.486532 0.881269 9.18516 0.387864
184 1 -0.844453 0.0544864 8.07531 5.81425
185 2 0.362866 11.5227 8.17954 5.4664
186 2 0.481587 0.0317 7.58966 6.6881
187 1 -0.98155 2.85559 7.55059 5.88881
188 2 0.46328 1.93919 7.27789 5.5958
189 2 0.51827 3.2365 8.20004 5.23069
190 1 -0.854385 7.17783 4.43802 4.67635
191 2 0.409866 6.40596 4.00636 4.20955
192 2 0.444519 7.37396 3.94371 5.52322
