ITEM: TIMESTEP
0
ITEM: NUMBER OF ATOMS
192
ITEM: BOX BOUNDS pp pp pp
0.0000000000000000e+00 1.2400000000000000e+01
0.0000000000000000e+00 1.2400000000000000e+01
0.0000000000000000e+00 1.2400000000000000e+01
ITEM: ATOMS id type q x y z
1 1 -0.97651 6.31367 6.79293 4.00666
2 2 0.5174 7.13108 6.4904 3.51644
3 2 0.45911 6.57346 7.13084 4.91128
4 1 -0.903505 11.7192 2.25651 9.86406
5 2 0.464666 11.8535 1.54039 10.549
6 2 0.438839 10.9362 2.02348 9.28726
7 1 -0.835842 8.31805 9.20369 4.04969
8 2 0.424649 8.69067 8.35996 4.43607
9 2 0.411193 9.03615 9.8986 4.0119
10 1 -0.993601 4.93314 11.3841 11.7471
11 2 0.461725 4.88299 10.6364 0.00931755
12 2 0.531876 4.42457 12.1719 12.0947
13 1 -0.883997 3.34018 5.48195 10.1889
14 2 0.391621 3.51984 4.63815 9.68323
15 2 0.492376 2.4227 5.81343 9.96904
16 1 -0.947507 0.194422 12.1825 11.49
17 2 0.488612 11.8571 12.1774 12.1655
18 2 0.458894 12.233 11.905 10.5999
19 1 -0.981529 0.884235 6.07528 12.3874
20 2 0.461016 0.239862 6.77088 12.0697
21 2 0.520514 0.671403 5.2003 11.9525
22 1 -0.88895 5.65603 1.36664 5.64235
23 2 0.394052 5.21636 1.55896 6.51967
24 2 0.494898 6.12307 2.18856 5.31628
25 1 -1.02565 2.03325 6.27255 2.63356
26 2 0.575186 1.76541 6.26232 1.67015
27 2 0.450468 2.01684 5.33992 2.99403
28 1 -0.868744 6.16724 6.43086 10.3492
29 2 0.38416 6.82317 5.76271 10.7004
30 2 0.484585 5.24168 6.16036 10.6141
31 1 -0.908153 4.68213 9.98215 4.93549
32 2 0.524499 3.79301 9.83144 4.50334
33 2 0.383654 5.37716 10.118 4.22946
34 1 -0.937626 4.96921 4.20197 3.51484
35 2 0.450002 5.0175 5.18191 3.32146
36 2 0.487624 4.43223 3.74796 2.80383
37 1 -0.922182 3.62066 8.57012 11.3236
38 2 0.447662 3.97683 8.20678 10.4627
39 2 0.474519 2.62402 8.4887 11.3328
40 1 -1.00769 3.52074 4.12461 0.800498
41 2 0.496664 2.55153 3.96916 0.60954
42 2 0.511027 3.78083 5.03669 0.483519
43 1 -0.850247 10.4848 2.11682 0.485829
44 2 0.391403 9.83855 1.47873 0.904358
45 2 0.458844 10.9655 2.62232 1.20235
46 1 -1.13637 6.2501 12.3176 9.32186
47 2 0.589228 6.25053 11.6911 8.54245
48 2 0.547145 5.66379 11.9508 10.0441
49 1 -0.927289 0.338506 4.89674 9.73151
50 2 0.529169 12.3006 4.00609 9.85383
51 2 0.39812 12.0579 5.62092 9.84278
52 1 -0.905847 9.32467 11.6067 6.53673
53 2 0.471067 9.86793 12.3859 6.22417
54 2 0.434781 9.86602 10.7697 6.45738
55 1 -1.09499 12.0265 3.37506 2.71291
56 2 0.504309 11.258 3.13283 3.30513
57 2 0.590684 0.477483 3.33043 3.23615
58 1 -0.870374 6.05551 9.83685 1.94477
59 2 0.432041 6.22921 10.5984 2.56918
60 2 0.438333 6.30027 8.97659 2.39203
61 1 -1.04997 2.24172 11.3368 0.779179
62 2 0.600434 1.70138 11.9235 0.176028
63 2 0.449533 2.79958 10.7161 0.228262
64 1 -0.925737 11.1956 1.16361 5.53849
65 2 0.426083 11.9024 0.463391 5.63896
66 2 0.499654 11.1348 1.4407 4.57957
67 1 -1.02725 3.12157 2.37065 8.97726
68 2 0.484184 2.42725 3.0522 9.20832
69 2 0.543062 3.89861 2.82193 8.53843
70 1 -0.902124 6.61537 3.35421 12.0009
71 2 0.490834 6.56484 2.98193 11.0742
72 2 0.41129 6.01657 2.82795 0.20467
73 1 -1.22326 7.00822 2.56784 9.20278
74 2 0.654845 6.74281 1.60379 9.19016
75 2 0.568411 7.90831 2.67135 8.77953
76 1 -0.942455 3.51369 1.40281 11.8894
77 2 0.466913 3.87204 2.0684 0.144036
78 2 0.475542 3.64133 1.74787 10.9595
79 1 -1.07309 6.63443 10.5905 7.1099
80 2 0.559541 7.49259 10.983 6.77903
81 2 0.513546 6.04872 10.3654 6.33125
82 1 -0.879897 10.0198 11.7031 3.35494
83 2 0.420223 10.0155 11.4763 2.38101
84 2 0.459673 10.9552 11.6518 3.70501
85 1 -0.931781 9.25629 2.55328 3.24204
86 2 0.400251 8.62505 2.12718 2.59398
87 2 0.53153 8.75321 2.84188 4.05667
88 1 -0.965755 6.72091 7.45646 7.34333
89 2 0.469573 6.77652 7.26317 8.3229
90 2 0.496182 7.03607 8.3894 7.16924
91 1 -0.983452 9.8364 10.9346 0.20365
92 2 0.51096 9.24359 10.3102 0.712255
93 2 0.472491 9.71505 10.7844 11.6225
94 1 -0.781066 7.05297 9.73743 10.929
95 2 0.32942 7.40496 10.6651 10.8041
96 2 0.451647 6.0739 9.77648 11.1288
97 1 -0.934632 0.612819 9.09152 10.8393
98 2 0.4666 12.1853 8.60622 11.1215
99 2 0.468031 0.402766 9.68469 10.0621
100 1 -0.881006 0.453613 0.221983 3.04546
101 2 0.448753 0.971039 0.805027 3.67183
102 2 0.432253 1.07434 11.9747 2.60301
103 1 -0.911878 4.0284 8.67196 7.99274
104 2 0.455278 4.19727 9.47027 7.41465
105 2 0.4566 4.66659 7.94206 7.74784
106 1 -0.886514 0.214629 10.1762 5.15851
107 2 0.433273 0.827897 10.9655 5.18787
108 2 0.45324 0.47033 9.58365 4.39464
109 1 -0.966917 9.1044 4.3272 10.1221
110 2 0.487358 9.77954 3.68002 10.4761
111 2 0.479559 8.20136 4.09946 10.4863
112 1 -0.93665 2.47305 12.2184 5.34979
113 2 0.474083 3.31079 0.347134 5.2134
114 2 0.462568 2.35697 12.0231 6.32365
115 1 -1.03232 2.6866 12.0613 8.21556
116 2 0.56597 2.83311 0.648778 8.15734
117 2 0.466351 3.37303 11.6575 8.82039
118 1 -0.772295 10.2608 8.66624 7.61952
119 2 0.368153 10.3228 8.40989 8.58411
120 2 0.404142 11.1494 8.53152 7.181
121 1 -0.872546 8.63739 8.1682 0.505646
122 2 0.414861 8.22073 8.0031 12.0117
123 2 0.457685 8.57356 7.33928 1.06137
124 1 -0.947504 9.11363 2.32402 7.34155
125 2 0.497004 8.76945 3.22752 7.08615
126 2 0.4505 9.54483 1.89497 6.54783
127 1 -0.991929 5.06445 4.16844 7.95027
128 2 0.438066 5.17951 5.1441 7.76359
129 2 0.553863 5.87029 3.82389 8.43183
130 1 -0.834385 10.6375 5.92269 1.81447
131 2 0.406726 9.77128 5.43836 1.93701
132 2 0.427659 11.3959 5.27664 1.90152
133 1 -0.975691 2.1649 4.79128 6.61859
134 2 0.520323 2.89113 5.44414 6.40324
135 2 0.455367 1.43041 5.2597 7.10962
136 1 -0.959019 7.14958 5.4638 1.41464
137 2 0.48897 6.19786 5.76718 1.46152
138 2 0.470049 7.17967 4.50085 1.14664
139 1 -0.757524 7.45176 0.436481 0.397974
140 2 0.390672 7.65916 12.0058 0.914633
141 2 0.366852 7.97851 0.440602 11.948
142 1 -0.857575 9.56998 12.1382 9.8125
143 2 0.424123 8.66606 11.7396 9.6574
144 2 0.433452 10.0932 12.1195 8.96049
145 1 -0.813315 11.0582 4.00495 5.93552
146 2 0.387413 11.779 4.64425 5.66763
147 2 0.425902 11.4626 3.11384 6.14138
148 1 -0.919923 0.858839 3.09908 0.0113
149 2 0.460108 0.293472 3.26179 0.819928
150 2 0.459815 0.831313 2.12771 12.1753
151 1 -0.963021 10.7855 7.0801 11.0485
152 2 0.435858 10.1082 6.62822 10.4679
153 2 0.527163 10.4562 7.09825 11.9926
154 1 -0.950829 4.65246 6.84821 1.03288
155 2 0.501493 4.90051 7.44171 0.267221
156 2 0.449335 4.17788 7.38492 1.73053
157 1 -0.860402 3.80723 0.999063 2.82433
158 2 0.42366 4.80143 0.907492 2.88074
159 2 0.436742 3.44705 0.328949 2.17532
160 1 -0.989291 0.1461 10.7149 8.44269
161 2 0.525594 0.952433 11.2966 8.54985
162 2 0.463697 0.1735 10.2686 7.54827
163 1 -1.10035 1.86115 3.09071 4.30199
164 2 0.584263 2.02316 3.72753 5.05579
165 2 0.516082 2.67442 2.52585 4.1622
166 1 -0.864289 1.28063 7.63495 8.11745
167 2 0.473689 2.2623 7.72255 7.94818
168 2 0.3906 1.01949 8.22792 8.87916
169 1 -1.00705 8.31631 5.14261 7.40017
170 2 0.488575 8.22628 6.11941 7.20585
171 2 0.518475 8.71248 5.01886 8.30997
172 1 -0.937674 9.33201 6.34407 4.8095
173 2 0.459605 9.3776 5.62478 5.50272
174 2 0.47807 10.244 6.72915 4.66823
175 1 -0.788144 12.2076 9.3723 1.3866
176 2 0.372119 0.703132 9.54862 0.978084
177 2 0.416025 11.5401 10.0199 1.01893
178 1 -0.916622 6.92922 12.3708 3.19353
179 2 0.466907 7.92088 12.3252 3.31411
180 2 0.449715 6.51868 0.432455 3.97987
181 1 -0.897809 2.57562 9.33106 3.00136
182 2 0.443131 2.15242 8.62146 2.43801
183 2 0.454677 2.47835 10.2177 2.5493
184 1 -0.860383 0.0275197 7.05187 4.55972
185 2 0.388724 0.692348 7.45347 5.18959
186 2 0.471658 0.410516 7.03642 3.6361
187 1 -0.953486 3.52699 6.80762 5.12975
188 2 0.459884 2.84893 6.89427 4.39987
189 2 0.493602 4.44551 6.81923 4.73452
190 1 -1.05802 7.36355 3.87057 5.01727
191 2 0.537258 6.65408 4.20936 4.39931
192 2 0.520761 7.53419 4.54841 5.73241
