ITEM: TIMESTEP
0
ITEM: NUMBER OF ATOMS
192
ITEM: BOX BOUNDS pp pp pp
0.0000000000000000e+00 1.2400000000000000e+01
0.0000000000000000e+00 1.2400000000000000e+01
0.0000000000000000e+00 1.2400000000000000e+01
ITEM: ATOMS id type q x y z
1 1 -0.978389 6.45627 8.91339 6.29189
2 2 0.433133 6.03336 9.78379 6.54398
3 2 0.545256 6.233 8.22272 6.97975
4 1 -0.897687 10.5407 3.66486 8.32145
5 2 0.405655 10.9436 2.87491 8.78365
6 2 0.492032 10.7942 3.65021 7.35422
7 1 -0.917186 8.81775 10.9606 3.7352
8 2 0.452567 8.64222 10.0083 3.98478
9 2 0.464619 9.48496 10.9926 2.99102
10 1 -0.986104 6.95656 1.13249 0.0298
11 2 0.495293 6.89497 0.904751 11.4581
12 2 0.490811 6.25424 1.80631 0.259451
13 1 -0.967145 0.922501 5.12951 10.1392
14 2 0.469294 0.685254 4.5783 10.9392
15 2 0.497851 0.312134 5.91984 10.0861
16 1 -0.808209 10.0784 0.790787 11.3436
17 2 0.343919 10.7657 0.380854 10.744
18 2 0.464291 9.27685 1.04887 10.8043
19 1 -0.848649 1.55996 6.81684 0.293509
20 2 0.457706 1.7458 5.94583 0.748286
21 2 0.390943 0.630027 7.11414 0.509933
22 1 -0.859348 7.11978 12.1321 6.52499
23 2 0.439365 6.39839 0.0141186 5.8925
24 2 0.419983 8.00665 12.1908 6.06671
25 1 -0.869451 4.00144 5.52145 1.28711
26 2 0.482303 3.60511 6.24032 1.8582
27 2 0.387149 4.83821 5.1794 1.71468
28 1 -1.00474 7.73033 3.80971 10.4991
29 2 0.539815 8.07274 4.69038 10.1717
30 2 0.464921 6.74977 3.74374 10.3142
31 1 -0.868572 3.20028 9.3089 6.24089
32 2 0.40764 2.76531 10.155 5.93267
33 2 0.460932 3.94021 9.52712 6.87719
34 1 -0.987795 4.71073 7.04916 4.18723
35 2 0.46662 5.14366 7.64113 4.86705
36 2 0.521175 4.54618 7.56904 3.34899
37 1 -0.954786 4.35102 8.60686 11.146
38 2 0.412914 3.83095 7.84788 11.5377
39 2 0.541873 5.27396 8.29624 10.9186
40 1 -0.855389 4.65494 4.98656 10.8616
41 2 0.357076 3.80014 5.04891 10.3464
42 2 0.498313 4.4619 5.07123 11.8392
43 1 -0.914268 10.8867 3.94805 11.662
44 2 0.506795 10.107 3.44553 11.2884
45 2 0.407473 10.6907 4.92851 11.6443
46 1 -0.93274 4.76906 10.0907 8.62936
47 2 0.399107 4.08574 10.0577 9.35874
48 2 0.533632 5.6648 10.3011 9.02102
49 1 -0.828109 11.8918 0.837936 8.50823
50 2 0.461596 0.420853 1.18038 8.64844
51 2 0.366514 11.5646 0.407819 9.34961
52 1 -0.955919 10.1138 11.8091 6.45536
53 2 0.499235 9.81279 0.27859 6.06363
54 2 0.456684 10.2509 11.9169 7.44006
55 1 -0.882335 3.20876 3.95333 4.06024
56 2 0.434447 3.16993 4.9502 3.9913
57 2 0.447888 2.31546 3.56814 3.82862
58 1 -0.808882 6.62703 10.3328 0.171326
59 2 0.433014 5.63147 10.2387 0.172879
60 2 0.375869 6.8939 11.062 0.801392
61 1 -0.997838 1.06956 10.4191 11.7066
62 2 0.483819 1.90499 10.7022 11.2355
63 2 0.514019 0.273834 10.6814 11.1607
64 1 -0.899872 1.01327 2.52949 5.35845
65 2 0.434808 1.59854 2.69158 6.15292
66 2 0.465065 0.377925 3.2942 5.2509
67 1 -0.950429 3.04373 2.12052 7.84771
68 2 0.47534 3.26222 1.6746 6.97971
69 2 0.475089 3.86368 2.56313 8.21074
70 1 -0.800646 4.86238 0.490473 10.3557
71 2 0.398971 4.01258 12.3759 10.4701
72 2 0.401675 4.65664 1.46803 10.3104
73 1 -0.98874 8.00107 1.19693 9.165
74 2 0.466307 7.70441 1.00955 8.22858
75 2 0.522432 8.19736 2.17251 9.26357
76 1 -0.759234 1.27836 1.66248 11.2445
77 2 0.381607 0.709282 1.16059 11.8959
78 2 0.377627 1.41126 2.59859 11.5702
79 1 -0.933229 5.4454 6.75752 8.10175
80 2 0.4847 4.5675 6.29471 7.97882
81 2 0.448528 5.49358 7.14144 9.02386
82 1 -0.880209 9.66055 9.95316 0.653764
83 2 0.438974 8.69803 9.68411 0.619562
84 2 0.441235 9.81937 10.7053 0.0141
85 1 -1.00129 9.92942 1.92067 5.06139
86 2 0.4903 10.9008 1.86784 4.82972
87 2 0.51099 9.38238 1.81197 4.23136
88 1 -1.00795 8.95145 6.03211 9.40223
89 2 0.495956 9.79432 5.49628 9.35255
90 2 0.51199 8.87754 6.61309 8.59168
91 1 -1.0307 7.10217 8.17393 10.242
92 2 0.527611 7.39412 9.0257 9.807
93 2 0.503084 7.82405 7.48807 10.1499
94 1 -0.893266 8.00046 7.50959 0.937973
95 2 0.448339 7.37653 8.23143 0.638536
96 2 0.444926 8.26215 7.66887 1.88989
97 1 -0.969727 11.1986 10.6199 9.92959
98 2 0.50166 11.6262 10.5917 9.02606
99 2 0.468067 10.4755 9.93094 9.97783
100 1 -0.879379 1.52973 1.37569 2.23691
101 2 0.455117 1.20186 2.18504 1.74961
102 2 0.424262 0.88009 1.13481 2.95799
103 1 -0.840358 2.14166 8.18791 9.10847
104 2 0.416196 2.11536 7.24022 8.79034
105 2 0.424163 2.86265 8.28954 9.79393
106 1 -0.892969 11.8443 11.8119 4.26844
107 2 0.502628 11.269 11.6217 5.06397
108 2 0.390341 12.2518 10.9597 3.94035
109 1 -0.96395 11.6066 7.58089 11.0809
110 2 0.479147 12.3208 8.26185 11.243
111 2 0.484803 11.3784 7.56236 10.1075
112 1 -0.92206 2.18263 12.213 5.91891
113 2 0.413195 2.96857 12.1962 5.30083
114 2 0.508865 1.5565 0.54201 5.64219
115 1 -0.86284 2.28292 11.6011 9.22876
116 2 0.382227 2.75864 10.7685 8.94511
117 2 0.480613 2.56761 12.3625 8.64636
118 1 -0.919354 9.33053 9.15802 7.5729
119 2 0.464102 10.0482 9.67132 7.10235
120 2 0.455252 8.44848 9.34582 7.14078
121 1 -1.05259 0.976546 5.8537 3.08246
122 2 0.538065 0.223368 6.4993 2.95626
123 2 0.514526 1.34069 5.94341 4.00947
124 1 -1.05009 7.48188 3.08105 5.99808
125 2 0.522508 7.03574 3.33003 5.13844
126 2 0.527579 8.44549 2.87615 5.8264
127 1 -0.970723 5.74547 3.34696 8.30046
128 2 0.56549 6.25545 3.25534 7.44516
129 2 0.405233 5.6465 4.31583 8.5274
130 1 -0.971877 9.46973 4.95515 3.24523
131 2 0.456371 10.0517 5.5348 2.67485
132 2 0.515505 8.82873 4.45268 2.66501
133 1 -1.05858 2.92532 5.35806 8.1731
134 2 0.473724 3.23194 4.43074 7.95843
135 2 0.584857 2.27154 5.32635 8.92912
136 1 -0.950024 7.58665 4.53474 0.949608
137 2 0.482119 7.85572 5.48866 0.81681
138 2 0.467905 7.10761 4.20705 0.13527
139 1 -0.907685 9.16674 1.74377 1.91832
140 2 0.401391 10.0172 1.74368 1.39227
141 2 0.506294 8.39537 1.57413 1.30496
142 1 -1.00195 7.47483 10.836 9.16703
143 2 0.544928 7.15277 11.7324 9.47148
144 2 0.457021 7.83105 10.9085 8.23545
145 1 -1.00089 11.5403 4.77723 5.74211
146 2 0.510568 10.9266 4.991 4.98207
147 2 0.490322 12.3774 5.31755 5.6567
148 1 -1.04858 0.829759 3.89991 1.03946
149 2 0.545141 0.799792 4.59253 1.76014
150 2 0.50344 12.3519 3.87841 0.561084
151 1 -0.965807 10.8807 6.94014 1.48923
152 2 0.469025 10.1892 7.59731 1.78912
153 2 0.496781 11.1704 7.16255 0.558299
154 1 -1.01904 3.24708 8.31081 2.23893
155 2 0.497617 2.55505 8.09264 1.55081
156 2 0.521427 3.34821 9.30335 2.30695
157 1 -0.862503 4.49454 2.31041 1.12985
158 2 0.40874 4.73344 2.35929 2.09967
159 2 0.453763 3.49942 2.31172 1.03121
160 1 -0.980976 0.130738 9.94873 7.33496
161 2 0.515738 0.826363 9.41042 7.81071
162 2 0.465238 0.508604 10.8424 7.093
163 1 -0.921069 4.64086 1.66889 5.14959
164 2 0.510908 4.35652 2.55111 4.77429
165 2 0.410162 5.5193 1.40476 4.75136
166 1 -0.923927 11.664 7.07027 8.20935
167 2 0.47565 11.4439 6.24964 7.68197
168 2 0.448277 11.0176 7.79776 7.9792
169 1 -0.785191 8.29363 6.14206 6.33851
170 2 0.352257 8.77722 5.98877 5.47674
171 2 0.432934 7.46264 5.5861 6.35789
172 1 -0.936855 8.3182 8.15964 3.76257
173 2 0.48039 8.58653 7.339 4.2671
174 2 0.456464 7.63011 8.66248 4.28572
175 1 -0.965053 0.250271 9.67335 1.88491
176 2 0.414211 11.6548 9.70046 1.79378
177 2 0.550842 0.671403 10.0099 1.04267
178 1 -0.877333 6.49868 0.102807 3.01969
179 2 0.465857 7.27039 12.0533 3.46963
180 2 0.411477 6.69224 0.199409 2.04336
181 1 -0.821295 3.58002 11.3479 2.68818
182 2 0.380412 2.84486 11.612 3.31252
183 2 0.440884 3.86599 12.1436 2.15437
184 1 -0.834484 11.7349 8.12217 4.45285
185 2 0.417422 11.9547 8.46912 5.36463
186 2 0.417062 12.2844 8.60514 3.77105
187 1 -1.04106 1.44669 6.59086 5.88774
188 2 0.504051 1.98218 6.0801 6.56033
189 2 0.537011 1.80095 7.52343 5.81828
190 1 -0.952579 6.2794 4.53363 3.92305
191 2 0.439887 6.48186 4.57255 2.94453
192 2 0.512693 5.71576 5.31921 4.17834
