ITEM: TIMESTEP
0
ITEM: NUMBER OF ATOMS
192
ITEM: BOX BOUNDS pp pp pp
0.0000000000000000e+00 1.2400000000000000e+01
0.0000000000000000e+00 1.2400000000000000e+01
0.0000000000000000e+00 1.2400000000000000e+01
ITEM: ATOMS id type q x y z
1 1 -0.950086 6.55939 7.19665 7.36546
2 2 0.487408 5.89272 7.82201 6.9599
3 2 0.462678 7.38758 7.70272 7.6063
4 1 -0.850083 8.68778 4.1704 7.68075
5 2 0.419251 9.03846 5.10586 7.7248
6 2 0.430832 9.33717 3.59397 7.18474
7 1 -1.03851 9.06905 0.202657 2.93567
8 2 0.549344 9.46974 0.839192 2.27668
9 2 0.489164 9.44629 0.382132 3.84424
10 1 -0.931709 6.57903 1.62296 0.729954
11 2 0.413464 7.4028 1.08831 0.918504
12 2 0.518245 6.75754 2.25574 12.3765
13 1 -0.975102 12.0227 3.4709 7.65267
14 2 0.461707 0.0827354 3.07764 6.85661
15 2 0.513394 11.968 4.46403 7.54921
16 1 -0.920295 9.32331 0.133123 11.5588
17 2 0.483006 9.82186 0.181342 10.6932
18 2 0.437289 9.60187 0.892592 12.1466
19 1 -1.03325 2.2564 5.66281 10.2272
20 2 0.558058 2.791 5.66374 11.0723
21 2 0.475189 1.92437 4.73753 10.0438
22 1 -1.00266 5.66739 10.6084 8.1541
23 2 0.499627 5.25998 10.7457 7.25124
24 2 0.503032 5.00715 10.154 8.75211
25 1 -1.08021 3.17086 6.00525 0.471335
26 2 0.520045 3.72055 5.21558 0.743856
27 2 0.560166 2.58515 6.2825 1.23296
28 1 -1.12469 6.86252 3.32484 10.7181
29 2 0.501738 7.83859 3.54212 10.727
30 2 0.622948 6.34378 4.13242 10.4375
31 1 -0.884158 2.33798 11.3519 5.4621
32 2 0.462864 3.2099 11.7417 5.75843
33 2 0.421295 2.50766 10.5264 4.92376
34 1 -0.95645 4.57146 5.49368 4.08882
35 2 0.509658 3.69878 5.91487 4.33587
36 2 0.446792 4.64011 4.59293 4.51769
37 1 -1.06142 5.31273 7.76855 11.6331
38 2 0.540358 4.73831 7.00893 11.9381
39 2 0.521065 6.14932 7.79447 12.1803
40 1 -1.00985 2.62726 2.40143 9.75331
41 2 0.527521 2.41518 2.49749 8.78078
42 2 0.482328 3.32572 1.69605 9.87409
43 1 -1.11508 9.86912 3.05267 11.323
44 2 0.540229 10.5272 2.50481 10.8064
45 2 0.574853 9.9104 4.00263 11.0133
46 1 -1.11734 3.8611 9.32496 9.88234
47 2 0.665116 4.49031 8.88135 10.5206
48 2 0.452224 3.1755 9.84169 10.3951
49 1 -0.997204 11.9404 1.54897 9.80741
50 2 0.576844 12.0835 2.07116 8.96667
51 2 0.42036 0.011248 0.66952 9.73781
52 1 -0.905085 8.71265 11.2044 7.25556
53 2 0.397693 7.88188 10.6834 7.05962
54 2 0.507392 8.51037 11.9122 7.93238
55 1 -0.946446 3.24427 2.57248 4.36204
56 2 0.514061 2.47737 3.20218 4.23812
57 2 0.432384 3.13528 1.78979 3.74924
58 1 -0.812147 5.4211 10.7181 0.118674
59 2 0.436095 5.91545 10.2384 11.7938
60 2 0.376052 5.80955 11.6317 0.238795
61 1 -0.888474 2.22127 9.32892 0.42399
62 2 0.484221 3.17834 9.61621 0.385394
63 2 0.404253 1.62895 10.1281 0.32148
64 1 -0.963252 0.886667 4.21232 4.3136
65 2 0.499693 1.23749 5.02622 3.85046
66 2 0.463559 12.3156 4.10111 4.10232
67 1 -0.947474 1.85762 1.49941 6.89045
68 2 0.480357 1.15004 0.79959 6.79258
69 2 0.467117 2.42696 1.51504 6.06849
70 1 -0.925676 4.99038 0.481028 9.99374
71 2 0.490947 5.31891 12.2822 9.26338
72 2 0.434729 5.76733 0.945322 10.4189
73 1 -0.971409 7.69335 1.04076 8.83696
74 2 0.504177 7.55326 1.70274 9.57328
75 2 0.467232 7.28624 1.38987 7.99293
76 1 -0.984341 2.90553 12.1153 11.9171
77 2 0.515112 2.46724 12.1121 11.0183
78 2 0.469229 3.88772 12.2687 11.8085
79 1 -1.011 5.59555 5.49364 9.50739
80 2 0.565363 5.86148 6.17181 8.82228
81 2 0.445641 4.60628 5.35239 9.47011
82 1 -0.895425 12.2635 11.8507 0.689265
83 2 0.432427 0.573757 0.0833582 0.380744
84 2 0.462998 11.8453 11.4068 12.2967
85 1 -1.00711 10.3608 4.49905 4.18433
86 2 0.550708 10.5463 5.41223 4.54721
87 2 0.456402 9.55849 4.53384 3.5884
88 1 -1.06765 9.7288 5.71772 10.8011
89 2 0.511302 10.3179 6.19749 10.1509
90 2 0.556344 9.04126 6.35032 11.1576
91 1 -0.946031 8.35848 8.03427 12.2184
92 2 0.491 8.12479 8.73177 11.541
93 2 0.455031 9.13159 8.34978 0.36868
94 1 -1.04188 9.45556 9.67425 2.33834
95 2 0.564898 9.06228 9.34188 3.19559
96 2 0.476984 9.41518 10.6732 2.31829
97 1 -0.845056 11.2833 10.6088 10.4781
98 2 0.422857 10.8982 10.4791 9.56441
99 2 0.422199 11.5421 9.72146 10.8598
100 1 -0.963626 1.6687 2.69106 0.067786
101 2 0.428337 0.744558 3.01545 0.269609
102 2 0.535289 1.83166 2.74077 11.4824
103 1 -1.07004 2.29884 7.63478 8.13431
104 2 0.576584 2.3607 6.86085 8.76456
105 2 0.493459 2.98719 8.31829 8.37718
106 1 -0.950112 0.357153 0.270231 3.52591
107 2 0.49264 0.100606 0.384501 2.56615
108 2 0.457471 1.34703 0.375448 3.62115
109 1 -0.897365 12.2178 7.66509 10.5468
110 2 0.478623 0.741937 7.47741 10.2139
111 2 0.418742 12.196 7.56857 11.5419
112 1 -0.942739 11.7925 0.117758 6.71911
113 2 0.451515 11.915 0.101197 5.72677
114 2 0.491224 10.8205 0.0289976 6.93658
115 1 -0.863707 1.85096 11.4772 9.24021
116 2 0.404254 2.68099 10.9922 8.96496
117 2 0.459453 1.47328 11.9648 8.45306
118 1 -0.886695 9.17365 8.23572 8.91136
119 2 0.440868 8.73478 9.00733 9.37181
120 2 0.445827 10.0164 8.54571 8.47118
121 1 -1.02194 1.25028 6.36171 2.42666
122 2 0.531157 0.867704 7.28 2.32479
123 2 0.490784 0.831904 5.74994 1.75531
124 1 -0.861747 9.63288 1.95126 5.49381
125 2 0.366481 8.68783 1.90425 5.17027
126 2 0.495265 10.0465 2.80997 5.19121
127 1 -0.952034 5.82668 2.89921 7.31533
128 2 0.463625 6.74497 3.17792 7.03414
129 2 0.488409 5.46083 3.56484 7.96579
130 1 -0.913348 9.06057 6.52948 2.44375
131 2 0.436502 8.32625 5.98738 2.85229
132 2 0.476846 8.81536 6.76848 1.5042
133 1 -0.865851 3.26776 4.50271 7.29621
134 2 0.407791 3.649 3.73485 6.78137
135 2 0.45806 2.53198 4.92596 6.76755
136 1 -0.824005 6.47275 5.50745 1.14667
137 2 0.428622 5.84523 5.62747 1.91596
138 2 0.395382 6.29135 4.63017 0.702266
139 1 -0.969107 10.3355 2.45794 1.87733
140 2 0.492727 10.2074 2.72117 0.921151
141 2 0.47638 10.8333 3.17989 2.35797
142 1 -1.01863 7.59434 10.4702 10.5637
143 2 0.534967 8.07351 11.1026 11.1724
144 2 0.483664 7.03291 10.989 9.91905
145 1 -1.06857 11.2776 7.30694 4.19009
146 2 0.484139 10.8907 7.04521 3.30589
147 2 0.584431 11.2567 8.30254 4.28152
148 1 -0.907486 11.7255 4.93071 0.867009
149 2 0.426583 11.2861 5.53929 1.52772
150 2 0.480903 11.24 4.98002 12.3942
151 1 -0.976421 11.8615 8.38572 1.31818
152 2 0.572856 11.2261 9.09769 1.6171
153 2 0.403565 0.250404 8.80876 0.872492
154 1 -0.893434 5.18478 9.09162 5.36286
155 2 0.388631 6.00604 8.82545 4.8582
156 2 0.504804 4.37854 8.94105 4.79075
157 1 -0.982627 4.1933 3.41473 1.26593
158 2 0.433304 4.9123 2.73655 1.11391
159 2 0.549323 3.30955 3.02856 1.00161
160 1 -0.916004 11.8571 9.15792 7.66806
161 2 0.482024 0.260569 8.85569 8.18095
162 2 0.43398 12.1094 9.92026 7.07209
163 1 -0.98132 5.00783 0.330365 5.87029
164 2 0.527676 5.11409 1.20635 6.34078
165 2 0.453644 5.16805 0.456232 4.89126
166 1 -0.932213 11.277 6.14164 7.02347
167 2 0.497695 11.5536 6.49676 6.13052
168 2 0.434518 11.2716 6.88606 7.69116
169 1 -0.934182 7.54838 5.83437 4.95117
170 2 0.489916 7.23655 5.84484 5.90126
171 2 0.444266 6.75728 5.78873 4.34118
172 1 -0.933548 8.60499 8.84578 4.84393
173 2 0.423144 8.6955 9.23448 5.76084
174 2 0.510404 8.36963 7.87644 4.91454
175 1 -0.905394 3.29692 9.59204 3.10324
176 2 0.439469 3.79736 10.4397 2.92714
177 2 0.465925 2.5795 9.47952 2.41575
178 1 -0.872869 6.22669 11.694 3.17874
179 2 0.385725 6.08626 10.8951 3.7636
180 2 0.487145 7.19075 11.7519 2.91945
181 1 -0.969507 3.28213 0.369151 2.33857
182 2 0.523962 3.10141 0.212352 1.36761
183 2 0.445545 4.26855 0.43976 2.48688
184 1 -0.914635 11.779 9.99686 4.50948
185 2 0.532046 12.3523 10.7868 4.29185
186 2 0.382589 11.154 10.2334 5.25342
187 1 -0.962659 2.20281 6.66523 5.46972
188 2 0.428628 1.4993 6.9686 4.82703
189 2 0.534031 2.15271 7.21569 6.30307
190 1 -0.768213 6.65863 2.78161 3.77696
191 2 0.361381 7.19734 2.00403 3.45267
192 2 0.406832 6.02812 3.07344 3.05773
