ITEM: TIMESTEP
0
ITEM: NUMBER OF ATOMS
192
ITEM: BOX BOUNDS pp pp pp
0.0000000000000000e+00 1.2400000000000000e+01
0.0000000000000000e+00 1.2400000000000000e+01
0.0000000000000000e+00 1.2400000000000000e+01
ITEM: ATOMS id type q x y z
1 1 -1.07892 0.0566807 4.17416 3.35216
2 2 0.60436 11.5484 4.39048 3.71032
3 2 0.474563 0.710395 4.86443 3.66231
4 1 -0.945264 9.08869 3.48563 10.155
5 2 0.487817 10.0754 3.43783 9.99965
6 2 0.457447 8.80707 2.72887 10.7449
7 1 -0.99065 10.5084 0.468727 7.99869
8 2 0.494672 11.0297 1.28227 7.74091
9 2 0.495978 10.9683 12.0531 7.64764
10 1 -0.999204 5.32332 11.5518 0.464012
11 2 0.523972 6.01742 11.4541 1.17724
12 2 0.475232 4.48163 11.9131 0.865232
13 1 -0.961182 9.55272 4.23959 3.9342
14 2 0.484428 8.89035 4.58474 3.26926
15 2 0.476754 9.0826 3.66919 4.60773
16 1 -1.03795 10.8511 11.6105 10.8782
17 2 0.499742 11.7954 11.7569 11.1727
18 2 0.538205 10.6962 12.0805 10.0093
19 1 -0.947056 3.67563 3.17666 9.52824
20 2 0.449073 4.48234 3.50695 9.0382
21 2 0.497983 3.92765 2.39183 10.0944
22 1 -0.815952 5.09641 10.2692 6.27859
23 2 0.402658 4.55381 11.0541 5.97946
24 2 0.413294 4.49551 9.58934 6.69893
25 1 -0.940744 4.20725 8.68425 12.3802
26 2 0.439879 3.39449 8.36758 0.469278
27 2 0.500865 4.77336 9.23337 0.595054
28 1 -0.921093 8.38125 0.0854833 0.140729
29 2 0.445207 9.04427 12.1358 11.8788
30 2 0.475886 8.03757 11.7304 0.699028
31 1 -0.810733 5.30108 0.652622 4.03189
32 2 0.477672 5.06897 1.50603 3.56518
33 2 0.33306 5.43316 0.831165 5.00692
34 1 -0.942358 2.61735 6.75234 3.87505
35 2 0.439203 2.30468 6.0586 4.52387
36 2 0.503155 3.46603 7.16258 4.20889
37 1 -0.923961 4.05267 9.30137 3.3569
38 2 0.432307 4.63592 9.39717 4.16353
39 2 0.491654 3.5712 10.1617 3.18961
40 1 -0.989915 5.40954 0.838129 10.6017
41 2 0.451312 6.15 0.680152 9.94839
42 2 0.538603 5.48953 0.190316 11.3593
43 1 -1.00129 9.9271 5.85934 11.8599
44 2 0.496607 9.81164 4.89513 11.6212
45 2 0.504679 9.40342 6.42536 11.2232
46 1 -0.91605 2.30306 7.61709 10.1534
47 2 0.434737 3.04475 7.62493 10.8241
48 2 0.481313 1.90489 8.53193 10.086
49 1 -1.07448 1.19267 0.76718 10.1547
50 2 0.610056 0.528972 1.51475 10.1803
51 2 0.46442 1.78885 0.823151 10.9556
52 1 -0.801757 8.0069 9.00043 7.3482
53 2 0.399453 7.25246 8.47925 6.94921
54 2 0.402304 8.2709 8.58974 8.22092
55 1 -0.879338 4.74496 5.91977 1.8389
56 2 0.461219 3.82155 5.57452 2.00662
57 2 0.418119 4.8079 6.86806 2.15
58 1 -1.06465 8.26113 7.51776 10.169
59 2 0.5425 7.42032 7.02276 10.3881
60 2 0.522153 8.09381 8.50185 10.2288
61 1 -0.995617 1.37607 8.73756 1.69079
62 2 0.468327 0.619224 8.08994 1.60253
63 2 0.52729 1.96075 8.46486 2.45484
64 1 -0.857499 0.461833 1.35354 4.26867
65 2 0.46452 0.393503 2.28271 3.9054
66 2 0.392979 0.784505 1.38832 5.21455
67 1 -1.02751 1.91627 0.765216 7.22467
68 2 0.621871 1.68399 0.565724 8.17664
69 2 0.405643 1.88232 1.75311 7.07325
70 1 -0.848993 4.84768 1.15088 6.96095
71 2 0.469201 4.45922 2.02571 6.67148
72 2 0.379792 4.12244 0.464166 7.01039
73 1 -0.931833 7.91283 0.887101 8.88858
74 2 0.389671 7.27117 1.04512 8.13804
75 2 0.542162 8.84028 1.10699 8.58611
76 1 -0.863876 7.38882 10.3825 10.54
77 2 0.405711 6.51062 10.1261 10.1362
78 2 0.458164 7.47756 11.3785 10.5403
79 1 -1.00273 8.22112 8.29131 0.926607
80 2 0.546568 8.88996 8.64866 0.274716
81 2 0.456159 8.3006 7.29558 0.973666
82 1 -0.899102 10.1975 2.74859 0.583317
83 2 0.421355 10.6052 3.06439 1.44008
84 2 0.477747 10.0649 1.75819 0.622429
85 1 -0.901413 7.73972 5.45584 1.72184
86 2 0.477657 6.8053 5.11079 1.63358
87 2 0.423756 8.23267 5.3062 0.864748
88 1 -0.973293 5.21851 7.81284 8.48408
89 2 0.474953 5.27751 7.24769 9.30696
90 2 0.498341 5.14538 8.77535 8.74528
91 1 -0.876458 8.91146 4.99754 7.02863
92 2 0.468566 8.67826 4.70735 7.95675
93 2 0.407892 8.07245 5.14906 6.50603
94 1 -0.806486 9.90991 0.456045 3.28087
95 2 0.410593 9.2215 12.1533 3.46054
96 2 0.395893 10.1013 0.958485 4.12403
97 1 -1.11056 10.414 9.02101 11.7797
98 2 0.531493 10.4152 8.46934 10.9457
99 2 0.579064 10.3592 9.98992 11.5385
100 1 -0.94896 1.08355 4.76331 9.29046
101 2 0.458745 1.45426 5.63864 9.6009
102 2 0.490216 1.7898 4.05876 9.35992
103 1 -1.10211 4.89766 6.60256 5.74445
104 2 0.566974 5.77647 6.86726 5.34741
105 2 0.535132 4.85653 6.90715 6.69605
106 1 -0.965014 12.3847 0.122856 1.41996
107 2 0.490443 12.2656 0.597489 2.29206
108 2 0.474571 11.734 11.7658 1.36097
109 1 -0.858718 1.28779 10.3352 11.2097
110 2 0.426655 1.3808 11.3028 10.975
111 2 0.432063 1.44887 10.2128 12.1891
112 1 -0.857552 0.229908 10.4212 8.10099
113 2 0.403942 12.2985 9.74681 8.7608
114 2 0.453611 0.0873039 10.0775 7.17282
115 1 -0.903265 4.28928 10.4155 9.49239
116 2 0.476296 3.73058 10.4738 10.3197
117 2 0.42697 4.57856 11.3333 9.22022
118 1 -0.934416 11.0881 6.79455 6.24292
119 2 0.454352 11.0786 7.59242 5.64016
120 2 0.480064 10.2797 6.23326 6.06568
121 1 -0.87982 11.8704 10.1417 5.47119
122 2 0.42715 11.3854 10.5108 4.67833
123 2 0.45267 0.449007 10.3253 5.37849
124 1 -0.860269 7.58604 2.32208 5.32188
125 2 0.416981 7.65999 1.33872 5.48784
126 2 0.443288 6.72888 2.66192 5.70889
127 1 -1.09279 5.6843 6.3474 11.1083
128 2 0.529404 5.20565 7.06998 11.607
129 2 0.563386 5.67635 5.50688 11.65
130 1 -0.785703 10.9468 6.67333 2.18194
131 2 0.385935 10.0542 7.11094 2.07333
132 2 0.399768 11.0104 5.88844 1.56557
133 1 -0.921936 1.59929 5.09713 6.10092
134 2 0.497737 1.2522 5.11196 7.03864
135 2 0.424198 2.57696 4.88717 6.11065
136 1 -1.00835 7.13738 7.08269 4.11777
137 2 0.553342 7.89731 7.72052 3.99253
138 2 0.455005 6.85218 6.72525 3.22844
139 1 -0.961827 5.64515 3.50185 12.1772
140 2 0.42865 6.57683 3.26448 0.0522167
141 2 0.533177 5.15136 2.67093 11.9208
142 1 -1.02007 7.58566 10.737 2.25083
143 2 0.464558 7.92941 10.7357 3.18989
144 2 0.55551 7.7452 9.84108 1.83625
145 1 -1.10716 0.911398 3.79521 0.796305
146 2 0.542366 0.703947 3.7603 1.77393
147 2 0.564795 0.791522 4.73048 0.463289
148 1 -1.00408 0.284012 6.2162 11.9435
149 2 0.515939 11.743 6.5116 12.1084
150 2 0.488137 0.633632 6.66161 11.1193
151 1 -1.02384 11.3464 9.93548 2.10063
152 2 0.502848 10.9114 9.53484 1.29421
153 2 0.52099 12.3047 9.65235 2.13775
154 1 -0.945246 9.49703 8.81483 4.14269
155 2 0.442669 9.27156 9.50015 4.83515
156 2 0.502577 10.1387 9.20611 3.48299
157 1 -0.983884 2.83064 1.80788 0.0834239
158 2 0.455779 2.40909 1.12067 0.675062
159 2 0.528105 2.40988 2.6987 0.254922
160 1 -0.91544 2.09952 8.67946 6.44931
161 2 0.472587 1.88953 7.84846 5.93419
162 2 0.442852 2.06464 8.4821 7.42902
163 1 -1.00243 4.58489 3.78966 5.2929
164 2 0.523352 4.83293 4.7443 5.45762
165 2 0.479082 4.56053 3.61671 4.30826
166 1 -1.10533 11.8195 2.80407 10.7043
167 2 0.588848 11.7751 2.89961 11.6988
168 2 0.516484 12.0322 3.69058 10.2935
169 1 -0.866447 6.33926 4.1419 8.91613
170 2 0.459691 6.87213 3.63354 9.5926
171 2 0.406755 5.8907 4.91778 9.35977
172 1 -0.988038 8.09746 11.4079 5.12703
173 2 0.518283 8.12544 11.0326 6.05351
174 2 0.469755 7.14573 11.5307 4.84575
175 1 -1.0334 2.52397 11.34 5.38134
176 2 0.535711 2.55619 12.1519 5.96428
177 2 0.497684 2.4809 10.5207 5.95303
178 1 -0.877925 7.481 2.19134 2.09099
179 2 0.47655 7.79186 1.31496 1.72312
180 2 0.401376 7.95727 2.38016 2.94978
181 1 -0.955356 2.64209 12.1215 2.64116
182 2 0.530582 2.54355 12.1457 3.636
183 2 0.424774 1.74441 11.9908 2.22035
184 1 -0.931683 10.9884 7.51247 9.07592
185 2 0.416093 10.0992 7.11359 9.30026
186 2 0.51559 11.1359 7.4637 8.08806
187 1 -0.867601 11.6467 3.34427 6.81101
188 2 0.474849 10.9488 4.05706 6.74099
189 2 0.392752 0.0987665 3.67072 6.40192
190 1 -0.926529 4.24909 2.99168 2.40738
191 2 0.481084 3.68628 2.8182 1.5992
192 2 0.445445 5.08705 3.46448 2.1348
