ITEM: TIMESTEP
0
ITEM: NUMBER OF ATOMS
192
ITEM: BOX BOUNDS pp pp pp
0.0000000000000000e+00 1.2400000000000000e+01
0.0000000000000000e+00 1.2400000000000000e+01
0.0000000000000000e+00 1.2400000000000000e+01
ITEM: ATOMS id type q x y z
1 1 -1.02498 10.7581 4.90779 6.89776
2 2 0.493586 10.8716 4.6108 5.94965
3 2 0.531391 9.8983 5.41022 6.98901
4 1 -0.829413 11.289 3.95824 10.4467
5 2 0.374711 12.1232 3.41747 10.5549
6 2 0.454702 10.6259 3.44316 9.9035
7 1 -0.927878 8.80936 2.92424 8.94899
8 2 0.437285 7.93158 2.45248 8.86566
9 2 0.490593 8.87707 3.62949 8.24327
10 1 -0.999596 6.33833 10.6702 1.46516
11 2 0.451194 6.61237 11.4884 0.959821
12 2 0.548402 6.98661 10.5047 2.20836
13 1 -0.836763 0.913875 4.75395 2.00246
14 2 0.424328 12.3873 4.55269 2.32006
15 2 0.412435 1.2676 3.97192 1.48933
16 1 -0.88263 10.9223 0.759618 8.09065
17 2 0.429025 10.4159 1.52364 8.49041
18 2 0.453605 11.5445 1.10368 7.3874
19 1 -0.944008 4.98842 0.716316 11.2934
20 2 0.416682 5.7129 1.15941 11.8214
21 2 0.527327 5.39668 0.115409 10.6062
22 1 -1.06141 1.60508 9.63106 3.78302
23 2 0.577405 1.54377 8.7737 4.29408
24 2 0.484005 2.53567 9.99148 3.84705
25 1 -0.986316 8.49124 10.0867 11.3036
26 2 0.533107 9.33305 9.59398 11.524
27 2 0.453209 7.77204 9.43134 11.0729
28 1 -0.91247 2.46471 0.788723 9.81465
29 2 0.399494 2.27012 12.3843 9.25341
30 2 0.512976 3.17946 0.56735 10.4781
31 1 -0.949256 6.51452 0.160681 6.10357
32 2 0.443448 7.27755 0.571635 5.60466
33 2 0.505807 5.71628 0.103668 5.50393
34 1 -0.904847 0.433538 7.19188 5.18147
35 2 0.462722 11.9022 7.3522 5.50849
36 2 0.442125 0.616496 6.20889 5.16512
37 1 -1.06225 3.71214 11.7511 2.40955
38 2 0.508774 2.89513 11.3418 2.00341
39 2 0.553475 4.52083 11.4566 1.90034
40 1 -0.99806 5.55893 2.47327 7.87765
41 2 0.532983 5.8713 2.25315 6.95354
42 2 0.465077 4.56776 2.35233 7.93213
43 1 -0.843062 9.85032 1.35766 1.20657
44 2 0.348431 9.09966 1.03523 1.78325
45 2 0.494631 9.73148 1.00686 0.277693
46 1 -1.0687 4.48417 6.57773 10.7142
47 2 0.543788 4.08374 6.75814 9.8158
48 2 0.524914 5.09621 7.32835 10.9632
49 1 -0.823757 2.54984 3.08089 7.667
50 2 0.373775 2.37541 2.09768 7.72055
51 2 0.449982 1.6929 3.57914 7.7989
52 1 -0.790569 5.99009 8.21129 7.88718
53 2 0.407052 5.5885 7.31159 7.71607
54 2 0.383516 5.41139 8.71866 8.52568
55 1 -0.84188 6.74439 1.24177 1.93247
56 2 0.42399 7.27887 1.64619 1.19032
57 2 0.41789 6.50314 1.95132 2.59454
58 1 -0.948494 7.7725 6.61018 11.3561
59 2 0.434172 7.31943 7.12085 12.0869
60 2 0.514322 7.08494 6.14382 10.7996
61 1 -0.901669 2.05632 10.3677 0.487837
62 2 0.456232 1.07421 10.556 0.484222
63 2 0.445437 2.30903 9.89915 12.0413
64 1 -0.975058 1.12917 0.570475 5.69704
65 2 0.457502 2.07236 0.786299 5.94968
66 2 0.517555 1.0068 0.710873 4.71454
67 1 -1.08988 0.711897 5.45675 8.39807
68 2 0.652398 12.2424 5.31682 7.92434
69 2 0.437483 0.737133 4.89125 9.22244
70 1 -0.948144 11.8952 10.6845 2.33018
71 2 0.539381 0.350656 10.3786 2.74803
72 2 0.408763 11.5162 9.94831 1.76948
73 1 -1.14948 3.87848 0.649381 5.03935
74 2 0.579743 3.52469 0.175133 4.23317
75 2 0.56974 4.21687 1.55201 4.77334
76 1 -1.00726 6.35466 11.6589 9.2887
77 2 0.494681 6.4514 12.1499 8.42293
78 2 0.51258 6.92482 10.8376 9.2716
79 1 -0.945405 9.93691 5.61028 0.714034
80 2 0.480318 10.6008 5.5453 12.3691
81 2 0.465087 9.19811 6.22992 0.449013
82 1 -1.00707 1.99656 3.27178 11.1624
83 2 0.503105 2.01887 2.5803 11.8844
84 2 0.503966 2.24088 2.84998 10.2892
85 1 -0.941196 7.4869 7.29212 4.90062
86 2 0.456828 7.31683 8.18208 5.32378
87 2 0.484368 7.95024 6.69483 5.55526
88 1 -0.84657 4.55188 4.37089 0.596033
89 2 0.424223 5.48693 4.19087 0.90144
90 2 0.422347 4.57339 4.94089 12.1747
91 1 -0.894381 6.40557 4.47324 9.96398
92 2 0.375987 5.6682 4.59815 10.6278
93 2 0.518394 6.10666 3.84156 9.24869
94 1 -0.835207 8.65344 10.9073 3.34658
95 2 0.407351 9.29995 11.6502 3.52005
96 2 0.427856 9.14983 10.0415 3.28294
97 1 -0.931511 9.11478 0.470851 10.9502
98 2 0.50945 8.9025 11.9012 10.829
99 2 0.422061 9.11952 0.924947 10.0592
100 1 -1.0614 1.73397 6.02414 11.4232
101 2 0.498731 2.71009 6.17976 11.2716
102 2 0.562667 1.54691 5.04188 11.4093
103 1 -0.979079 5.09131 5.20809 6.93999
104 2 0.473385 5.07787 4.24838 7.22067
105 2 0.505693 4.16263 5.57763 6.97149
106 1 -0.783081 11.8196 12.1473 11.7087
107 2 0.376639 10.8755 12.0563 12.0256
108 2 0.406441 11.8956 11.7865 10.7792
109 1 -0.967413 3.31887 9.78394 9.97918
110 2 0.497277 2.53418 9.1688 9.90246
111 2 0.470137 3.60649 10.0728 9.06604
112 1 -0.913597 11.0354 10.5403 9.08051
113 2 0.516468 10.8278 11.3578 8.54339
114 2 0.397129 10.1884 10.0458 9.27593
115 1 -0.916827 3.85151 11.0683 7.49049
116 2 0.411628 4.69379 11.0792 8.02943
117 2 0.505199 3.87308 11.8128 6.82317
118 1 -1.01728 10.468 8.45302 6.24427
119 2 0.533006 10.8006 9.3464 5.94217
120 2 0.484271 10.4791 8.41366 7.24343
121 1 -1.00372 11.2621 11.0484 5.32092
122 2 0.453531 11.1198 10.8982 4.34256
123 2 0.550191 12.2264 11.252 5.49018
124 1 -1.01573 7.93195 5.67921 7.35542
125 2 0.550565 6.96493 5.58136 7.12027
126 2 0.465164 8.06592 6.52642 7.86951
127 1 -0.868827 6.54932 5.14198 3.30885
128 2 0.365473 6.80764 5.31403 2.35823
129 2 0.503354 6.70616 5.96719 3.85147
130 1 -0.97542 0.639172 7.72986 1.59558
131 2 0.507401 0.952251 7.15283 0.84124
132 2 0.468019 1.40262 8.28052 1.93311
133 1 -1.12047 2.88364 6.94923 8.08308
134 2 0.494565 2.64917 7.59727 7.35845
135 2 0.625903 2.11441 6.32918 8.23748
136 1 -0.833635 4.37704 7.92681 1.62097
137 2 0.459985 5.21568 8.43892 1.43537
138 2 0.37365 4.046 7.51102 0.773891
139 1 -0.95238 7.66078 3.61572 0.179666
140 2 0.464236 8.47756 3.99114 0.617771
141 2 0.488143 7.62914 3.91099 11.6248
142 1 -0.900096 7.58341 7.99069 1.75962
143 2 0.426614 8.36971 8.48124 1.384
144 2 0.473482 7.85819 7.50706 2.59064
145 1 -0.922574 2.94041 6.19404 3.67626
146 2 0.443452 3.33479 7.02305 3.27976
147 2 0.479122 2.13951 5.91865 3.14454
148 1 -0.860505 10.1884 4.65772 3.53321
149 2 0.498666 10.1429 5.0662 2.62158
150 2 0.361839 9.84378 3.71973 3.49578
151 1 -1.00482 10.8584 8.69967 12.239
152 2 0.501394 11.5885 8.76735 11.559
153 2 0.503427 11.198 8.2164 0.645864
154 1 -0.944364 10.4005 8.1748 3.06967
155 2 0.501654 11.3692 8.01164 2.88262
156 2 0.44271 10.2378 8.12193 4.05492
157 1 -0.988051 2.72871 2.01309 1.48905
158 2 0.465895 3.31633 2.76546 1.19129
159 2 0.522156 3.23203 1.1514 1.4245
160 1 -0.776012 4.20828 8.64325 5.26442
161 2 0.394063 4.78506 8.49723 6.06817
162 2 0.381949 4.50086 8.03237 4.52874
163 1 -0.855645 1.1789 4.19127 5.11924
164 2 0.44079 1.85172 4.80441 4.70527
165 2 0.414855 1.34846 3.25462 4.81276
166 1 -0.880071 9.77883 7.46111 9.16455
167 2 0.481968 9.13802 7.13947 9.86162
168 2 0.398103 10.6889 7.55764 9.56754
169 1 -0.937425 4.12646 3.1902 3.65932
170 2 0.517248 4.27663 4.16988 3.79225
171 2 0.420178 3.82272 3.0238 2.7212
172 1 -0.820442 8.34373 10.3054 7.38668
173 2 0.404488 8.91937 9.62892 6.92727
174 2 0.415954 8.26157 11.1191 6.81122
175 1 -0.819649 1.06943 9.65646 7.22528
176 2 0.399847 0.723528 10.1243 8.03859
177 2 0.419802 1.75599 10.2295 6.77778
178 1 -0.882175 7.37407 2.96502 5.29883
179 2 0.407373 8.33492 2.81749 5.53336
180 2 0.474802 7.30789 3.66843 4.59112
181 1 -1.05713 5.76284 9.14881 11.39
182 2 0.544333 5.04431 9.80376 11.1559
183 2 0.512794 6.22596 9.44628 12.2249
184 1 -0.989797 0.613274 8.28146 10.0215
185 2 0.457175 0.398173 8.28395 9.04492
186 2 0.532622 0.85913 7.35494 10.3063
187 1 -0.882366 10.1789 1.41238 4.91645
188 2 0.419322 10.9057 1.9686 4.51339
189 2 0.463044 10.5378 0.506107 5.13985
190 1 -1.01496 0.36858 1.24229 2.93709
191 2 0.516748 1.11841 1.26112 2.27572
192 2 0.498212 11.9342 0.925318 2.48611
