ITEM: TIMESTEP
0
ITEM: NUMBER OF ATOMS
192
ITEM: BOX BOUNDS pp pp pp
0.0000000000000000e+00 1.2400000000000000e+01
0.0000000000000000e+00 1.2400000000000000e+01
0.0000000000000000e+00 1.2400000000000000e+01
ITEM: ATOMS id type q x y z
1 1 -0.892647 10.2775 5.35254 7.08126
2 2 0.452676 10.5018 6.07126 6.42312
3 2 0.439972 9.42314 5.58223 7.54739
4 1 -0.844339 9.66383 2.70038 9.47898
5 2 0.452588 9.76189 2.85124 10.4627
6 2 0.391751 10.1331 3.42991 8.98144
7 1 -0.888579 7.03611 3.8697 7.15836
8 2 0.475695 7.54497 3.5838 7.97035
9 2 0.412883 7.29298 4.80534 6.91629
10 1 -0.847456 6.79674 11.482 1.05144
11 2 0.405232 7.66899 10.9935 1.02792
12 2 0.442224 6.40767 11.514 0.130786
13 1 -0.892651 0.359805 2.80415 1.90982
14 2 0.447205 0.924768 3.13498 1.15393
15 2 0.445446 12.3125 3.57941 2.35581
16 1 -0.897817 12.1314 2.93936 6.96945
17 2 0.42922 11.3833 3.60295 6.96841
18 2 0.468598 0.0647014 2.81132 6.03536
19 1 -0.920303 6.70207 2.30799 0.28854
20 2 0.458939 6.23366 3.13464 0.600394
21 2 0.461365 6.73613 2.30108 11.6891
22 1 -0.969156 1.32128 8.87913 3.5209
23 2 0.538012 2.14126 9.28447 3.11675
24 2 0.431144 0.566085 9.53255 3.46882
25 1 -1.01665 8.25694 9.17077 9.49817
26 2 0.491794 7.56199 8.46378 9.36699
27 2 0.524851 7.92347 10.0385 9.12949
28 1 -0.922652 3.62477 0.672333 8.84785
29 2 0.417788 4.0069 0.758301 9.76796
30 2 0.504865 2.62614 0.678487 8.89973
31 1 -1.02377 7.79778 11.3498 7.45354
32 2 0.611077 7.97931 12.2939 7.17843
33 2 0.412696 6.81912 11.1612 7.37205
34 1 -0.947971 1.4585 6.76455 6.6601
35 2 0.497575 1.49169 6.68835 7.65664
36 2 0.450396 0.525485 6.9819 6.3733
37 1 -1.02585 3.6025 10.0661 2.13258
38 2 0.502222 3.98914 10.1979 1.21981
39 2 0.523629 3.66687 10.9203 2.64841
40 1 -0.886227 5.27903 0.833046 6.54012
41 2 0.354929 5.10982 1.69174 6.05638
42 2 0.531298 4.57424 0.69836 7.23665
43 1 -0.957796 8.46154 3.43274 2.46098
44 2 0.41828 9.29057 3.66192 2.97105
45 2 0.539516 8.00669 2.65561 2.89593
46 1 -0.99873 3.46869 6.32481 10.845
47 2 0.539309 2.90115 6.88834 10.2448
48 2 0.459421 3.59653 6.79325 11.7192
49 1 -1.03953 3.37415 3.9598 8.86044
50 2 0.604622 2.4981 3.56582 9.13852
51 2 0.434909 3.62869 4.68857 9.49613
52 1 -0.91487 5.48645 8.76439 8.58147
53 2 0.418557 5.51707 9.53566 7.94569
54 2 0.496314 4.77356 8.12432 8.29494
55 1 -1.00657 6.78979 0.984976 3.33992
56 2 0.528016 6.62006 0.517643 2.47228
57 2 0.478549 6.04543 0.785456 3.97719
58 1 -0.853576 6.57587 5.80212 10.0155
59 2 0.444887 5.73759 6.13958 9.58723
60 2 0.408689 6.45948 5.78555 11.0086
61 1 -0.91915 1.49671 11.1377 12.3992
62 2 0.499831 1.25584 11.238 11.4338
63 2 0.419319 1.8784 10.2266 0.1546
64 1 -0.971018 1.87108 1.27811 5.46366
65 2 0.495082 2.23918 0.436322 5.8585
66 2 0.475935 1.48497 1.08243 4.5622
67 1 -0.895943 0.943749 5.78713 9.35957
68 2 0.491371 0.968158 5.34313 10.2553
69 2 0.404572 0.0618094 5.609 8.92315
70 1 -0.878728 11.1406 10.4097 1.79522
71 2 0.37059 10.3766 9.93411 2.23122
72 2 0.508138 11.2731 10.0507 0.871363
73 1 -0.999098 4.09789 0.168763 3.78082
74 2 0.526789 4.11319 0.411755 2.81091
75 2 0.472309 3.75606 0.943229 4.31314
76 1 -0.968056 6.212 12.1026 10.4547
77 2 0.516882 7.18404 12.2089 10.6641
78 2 0.451174 5.96022 0.3265 9.71486
79 1 -0.86871 11.834 5.11494 12.3552
80 2 0.41926 10.8846 4.95296 12.086
81 2 0.44945 11.8694 5.35117 0.926208
82 1 -1.01113 0.912301 2.69087 9.68072
83 2 0.508626 0.292727 2.51372 10.4454
84 2 0.502508 0.379221 2.84995 8.84974
85 1 -0.988646 7.19776 8.63327 4.21618
86 2 0.525716 7.44704 7.67513 4.35702
87 2 0.46293 6.67378 8.72031 3.36891
88 1 -0.940267 5.34644 4.61104 1.72981
89 2 0.459772 5.40032 4.2379 2.65602
90 2 0.480495 4.76967 5.42795 1.73258
91 1 -0.95182 5.85564 2.97808 9.94463
92 2 0.505569 4.97059 3.01805 9.48083
93 2 0.446251 6.35892 3.82559 9.776
94 1 -0.955695 8.53782 11.2247 4.31478
95 2 0.467693 7.91824 11.9249 3.96006
96 2 0.488002 8.04022 10.3644 4.42534
97 1 -0.927493 9.00076 12.3088 10.8179
98 2 0.378589 8.90152 0.794337 11.2718
99 2 0.548904 9.66018 12.3893 10.0705
100 1 -0.867502 2.68335 3.39655 12.3426
101 2 0.440346 3.12765 4.00223 0.602714
102 2 0.427155 2.98128 3.63504 11.4183
103 1 -1.09104 4.53289 6.25522 7.54314
104 2 0.529268 4.0948 6.6042 6.71471
105 2 0.56177 4.10826 5.38854 7.80497
106 1 -0.886301 12.129 1.10775 11.7852
107 2 0.435136 12.3497 1.79515 0.0771285
108 2 0.451165 12.2628 0.193916 12.1686
109 1 -1.0417 0.8242 11.4741 9.56191
110 2 0.540422 0.0281 12.0785 9.53148
111 2 0.501283 1.04921 11.1723 8.63547
112 1 -0.997045 10.6862 0.242978 8.49021
113 2 0.540829 10.222 1.12287 8.38887
114 2 0.456216 10.7814 12.211 7.59334
115 1 -0.913338 1.67035 10.7737 6.79014
116 2 0.415696 2.02263 9.86901 7.02998
117 2 0.497642 0.841488 10.6734 6.23973
118 1 -0.99561 11.3484 7.4725 4.91845
119 2 0.48766 10.7866 8.24949 5.20269
120 2 0.50795 12.1442 7.80415 4.41192
121 1 -0.9183 11.6313 10.9187 5.15887
122 2 0.418473 11.9853 11.6615 4.59063
123 2 0.499827 10.6811 10.7321 4.90958
124 1 -0.89416 7.49737 6.65029 7.28082
125 2 0.335212 7.50659 6.67529 6.28117
126 2 0.558948 6.55305 6.58863 7.60402
127 1 -0.903125 7.68287 5.78013 4.06519
128 2 0.368202 7.38583 5.26958 4.87211
129 2 0.534922 7.71408 5.16712 3.27573
130 1 -0.85498 1.43084 5.81129 2.47364
131 2 0.489795 1.53034 5.20973 3.26625
132 2 0.365184 1.39875 6.76288 2.77932
133 1 -0.971668 2.28049 8.73359 9.4335
134 2 0.436426 2.23155 9.69617 9.70005
135 2 0.535243 1.41892 8.46231 9.00442
136 1 -0.946758 3.72117 7.26855 1.30504
137 2 0.464815 2.79397 7.40395 0.955812
138 2 0.481943 3.98302 8.05232 1.8682
139 1 -0.974472 8.94941 4.31776 12.1286
140 2 0.514446 8.5743 3.51488 0.191905
141 2 0.460027 8.89862 5.10863 0.3384
142 1 -0.979955 6.58727 7.89767 0.883933
143 2 0.574278 5.93683 8.36612 0.286032
144 2 0.405677 6.28007 6.95893 1.04015
145 1 -0.93616 4.02544 7.12512 4.79574
146 2 0.48178 3.02869 7.19129 4.8416
147 2 0.45438 4.42239 8.04227 4.83127
148 1 -0.863565 10.8406 5.37338 2.94063
149 2 0.388483 10.0026 5.54697 2.42331
150 2 0.475081 10.7805 5.82144 3.83262
151 1 -0.993796 10.6789 9.51818 11.3339
152 2 0.465567 11.3542 9.99607 10.7722
153 2 0.528229 9.83103 9.40899 10.815
154 1 -0.934818 9.36569 7.13955 0.785271
155 2 0.498477 8.44509 7.49239 0.952601
156 2 0.436342 9.94022 7.86945 0.41493
157 1 -1.00769 4.03044 1.13191 1.13861
158 2 0.52309 3.3324 1.72938 0.743932
159 2 0.484595 4.93689 1.51356 0.957763
160 1 -0.889115 5.02695 10.0014 5.58872
161 2 0.481968 5.11918 10.9554 5.30339
162 2 0.407148 5.81394 9.47816 5.26184
163 1 -0.93526 1.55884 4.10815 4.96102
164 2 0.504275 1.78838 3.19397 5.29508
165 2 0.430984 1.83162 4.78949 5.64026
166 1 -0.932767 10.0427 6.80661 9.75659
167 2 0.477562 9.44764 7.59713 9.61174
168 2 0.455204 9.54063 6.09777 10.252
169 1 -0.841393 5.03056 3.73694 4.80773
170 2 0.413504 4.74944 4.69658 4.799
171 2 0.427889 5.48657 3.53105 5.67357
172 1 -0.971507 9.61327 9.24709 6.71201
173 2 0.392986 9.08439 8.39852 6.69754
174 2 0.578521 9.0673 9.97306 7.13022
175 1 -1.01503 11.9759 8.52325 8.52454
176 2 0.488127 11.3753 8.91231 7.82604
177 2 0.526898 11.4946 7.79238 9.0085
178 1 -0.961818 8.62541 1.5558 6.54253
179 2 0.491795 9.16679 1.5756 5.70198
180 2 0.470023 7.97514 2.31549 6.53816
181 1 -1.00976 4.9391 9.48012 11.5201
182 2 0.527769 4.53046 9.1816 10.6576
183 2 0.481989 5.51138 10.2839 11.3573
184 1 -0.824893 0.798133 7.96987 12.3874
185 2 0.372184 0.735172 7.5285 0.882504
186 2 0.45271 12.3098 7.92509 11.9304
187 1 -0.879953 10.5363 1.58477 4.12587
188 2 0.476119 11.3111 1.64424 3.49648
189 2 0.403834 10.0914 0.695026 4.02374
190 1 -0.928548 0.97753 12.2289 2.86896
191 2 0.492381 1.63184 12.14 2.11798
192 2 0.436167 0.123475 11.7705 2.62297
