ITEM: TIMESTEP
0
ITEM: NUMBER OF ATOMS
192
ITEM: BOX BOUNDS pp pp pp
0.0000000000000000e+00 1.2400000000000000e+01
0.0000000000000000e+00 1.2400000000000000e+01
0.0000000000000000e+00 1.2400000000000000e+01
ITEM: ATOMS id type q x y z
1 1 -0.937949 9.71094 6.95087 2.64324
2 2 0.499146 9.87352 7.90466 2.39053
3 2 0.438803 9.27396 6.47382 1.8807
4 1 -0.862877 9.02278 2.16549 8.94236
5 2 0.393646 9.54985 3.00479 8.80908
6 2 0.469231 9.01851 1.63626 8.09389
7 1 -0.960497 6.04107 2.07507 8.00806
8 2 0.460531 6.91696 2.37427 7.62949
9 2 0.499966 5.77158 1.21126 7.58236
10 1 -1.01003 11.1327 12.1802 12.0066
11 2 0.482505 11.9976 11.6952 11.8776
12 2 0.527525 11.1011 0.16591 0.528695
13 1 -0.960722 1.14574 12.0818 3.88985
14 2 0.531145 1.25313 11.1125 4.11095
15 2 0.429577 0.905847 12.1788 2.92391
16 1 -1.11972 10.6267 4.77007 4.47893
17 2 0.605401 11.1267 4.33513 3.73009
18 2 0.514318 10.1697 5.59284 4.14101
19 1 -0.81902 8.54987 4.86004 0.544344
20 2 0.423427 8.56347 3.95243 0.12474
21 2 0.395593 8.16662 4.79559 1.46574
22 1 -0.861875 3.48013 8.87784 0.580567
23 2 0.437938 2.49173 8.88136 0.732448
24 2 0.423937 3.93136 9.39131 1.31046
25 1 -0.811486 9.78928 8.78016 10.1997
26 2 0.373746 8.91861 8.48499 9.80621
27 2 0.43774 9.74834 9.75827 10.4037
28 1 -0.91291 10.4923 11.6413 8.95411
29 2 0.448574 9.64483 12.1663 8.87605
30 2 0.464336 10.7845 11.6202 9.91025
31 1 -0.813905 3.16003 8.59722 9.09906
32 2 0.418322 2.34606 8.02799 9.21494
33 2 0.395583 3.0952 9.39701 9.69583
34 1 -0.911055 3.26575 6.37105 6.58965
35 2 0.476936 3.82585 7.16252 6.34497
36 2 0.434119 3.64998 5.92846 7.39989
37 1 -0.941839 8.30288 10.9674 0.139178
38 2 0.477438 8.93558 11.7267 12.3867
39 2 0.464401 7.40035 11.3278 0.374875
40 1 -0.904738 2.58435 1.33201 8.0168
41 2 0.468889 2.67434 0.516398 7.44524
42 2 0.435849 2.11894 1.09228 8.86882
43 1 -1.00682 8.31624 4.77413 6.07494
44 2 0.491424 8.53387 5.47341 6.75585
45 2 0.515394 9.02285 4.7665 5.36738
46 1 -0.986143 5.36745 5.82175 1.18206
47 2 0.451769 4.61635 5.36613 1.65983
48 2 0.534374 5.07839 6.05675 0.25404
49 1 -0.831544 3.6874 2.6836 11.3189
50 2 0.439862 4.52764 2.70028 10.7769
51 2 0.391682 3.13795 3.4918 11.107
52 1 -0.775216 5.46949 8.38038 6.63526
53 2 0.366194 6.0257 8.79968 7.35277
54 2 0.409022 6.05503 8.12554 5.86571
55 1 -0.95462 8.46709 1.48105 2.99651
56 2 0.460947 7.83003 1.08797 3.65956
57 2 0.493673 8.12637 1.31912 2.07039
58 1 -0.981864 4.16837 6.27658 11.1547
59 2 0.551406 3.24579 6.6077 11.3527
60 2 0.430457 4.42684 6.545 10.2267
61 1 -0.935056 0.597594 7.72929 8.04543
62 2 0.428313 0.235191 7.00331 8.6299
63 2 0.506743 0.481621 7.47363 7.08564
64 1 -0.822748 0.273165 9.73324 11.0451
65 2 0.425124 0.791565 9.44503 11.8502
66 2 0.397624 0.00181024 8.92818 10.5176
67 1 -0.982455 1.61492 4.00276 9.64347
68 2 0.467758 2.2888 3.36136 9.27673
69 2 0.514697 0.955191 4.23753 8.92957
70 1 -0.968196 0.629045 8.80037 1.58319
71 2 0.445469 1.05519 9.13789 2.42253
72 2 0.522727 12.0442 8.97022 1.61778
73 1 -0.858466 4.70742 1.2522 4.39454
74 2 0.415299 3.86436 0.916662 4.81485
75 2 0.443167 4.72342 2.25141 4.43124
76 1 -0.96408 5.55074 11.7524 0.253462
77 2 0.444459 5.58912 0.327403 0.472454
78 2 0.519621 4.68114 11.5455 12.2052
79 1 -1.06575 12.0462 3.83858 6.92974
80 2 0.523393 11.4676 4.27762 6.2423
81 2 0.542358 12.3849 2.96778 6.57342
82 1 -0.83501 11.5163 3.027 11.5235
83 2 0.410836 12.3734 3.36934 11.9085
84 2 0.424174 11.2524 3.59258 10.7421
85 1 -1.00474 5.70724 11.681 7.13754
86 2 0.562543 4.71646 11.5655 7.0666
87 2 0.442201 6.09564 11.7968 6.22335
88 1 -0.952762 6.90614 8.49167 1.48812
89 2 0.467332 7.21035 9.14244 0.79245
90 2 0.48543 6.62795 7.63827 1.04731
91 1 -0.93755 6.33187 3.3618 10.7956
92 2 0.444899 6.69499 2.72466 11.4755
93 2 0.492651 6.41323 2.95869 9.88409
94 1 -0.982283 11.0264 1.00178 2.31274
95 2 0.422717 11.5577 1.84712 2.36915
96 2 0.559566 10.1308 1.14217 2.73475
97 1 -0.961012 8.90001 1.567 11.9398
98 2 0.508624 9.89736 1.55695 12.0121
99 2 0.452388 8.63404 1.45822 10.982
100 1 -0.904962 1.50652 3.15783 0.96835
101 2 0.467146 2.3558 3.31679 0.46489
102 2 0.437815 1.15483 4.02855 1.3121
103 1 -0.802514 2.04183 3.22524 5.15429
104 2 0.389033 1.34324 2.7107 4.65707
105 2 0.413481 2.14553 2.8444 6.0731
106 1 -0.916702 11.1099 3.88377 1.9437
107 2 0.401437 11.9516 3.63721 1.46329
108 2 0.515265 10.4984 4.36782 1.31778
109 1 -1.04748 0.0670822 10.3785 7.22771
110 2 0.54939 0.15901 9.56515 7.80215
111 2 0.498089 11.8829 11.0472 7.68772
112 1 -1.00468 8.3845 10.0724 7.30933
113 2 0.447926 7.45615 10.3439 7.05546
114 2 0.556749 8.65149 10.5436 8.14997
115 1 -1.09336 2.82063 11.1025 6.62611
116 2 0.515611 2.9424 10.4623 5.8676
117 2 0.577746 1.8651 11.0922 6.92084
118 1 -0.945124 7.76241 8.67746 4.5815
119 2 0.499578 7.58838 8.69266 3.59687
120 2 0.445546 8.38553 7.92598 4.7983
121 1 -1.11211 1.73375 9.38315 4.42959
122 2 0.563863 1.09098 8.71492 4.80419
123 2 0.548245 2.60207 8.93163 4.22423
124 1 -0.899739 4.76885 4.77938 8.49688
125 2 0.465052 4.58924 3.90336 8.04929
126 2 0.434686 5.2152 4.6186 9.37717
127 1 -1.01922 10.232 9.91997 2.31096
128 2 0.548504 10.2361 10.261 3.25099
129 2 0.47072 9.38819 10.2054 1.85646
130 1 -1.06057 3.73092 4.55207 3.1883
131 2 0.44793 2.99185 3.88563 3.28654
132 2 0.612641 4.32134 4.51634 3.9946
133 1 -1.0091 0.336133 6.87429 5.23852
134 2 0.546076 0.0673696 6.1138 4.6474
135 2 0.463021 1.2318 6.68373 5.64036
136 1 -1.00098 7.13675 11.6323 4.42075
137 2 0.461226 6.20965 11.884 4.14298
138 2 0.539758 7.20473 10.6372 4.49233
139 1 -0.910103 10.9283 6.28676 11.9715
140 2 0.462897 10.8011 7.24927 11.7319
141 2 0.447206 10.434 5.71264 11.3188
142 1 -1.00172 10.9664 5.44652 9.03409
143 2 0.495047 11.2165 4.81996 8.29594
144 2 0.506673 10.2371 6.0553 8.7218
145 1 -0.904536 4.22231 7.78983 3.81442
146 2 0.43586 4.86472 8.52436 3.59584
147 2 0.468676 4.49981 6.95293 3.34262
148 1 -0.933981 1.12642 5.70385 2.78019
149 2 0.463006 1.01882 6.64481 2.4592
150 2 0.470975 2.09572 5.45805 2.77315
151 1 -1.00602 7.56767 11.4356 9.55109
152 2 0.536622 7.16716 11.0768 10.3942
153 2 0.469397 6.83907 11.7585 8.94702
154 1 -1.00037 10.3174 10.6141 5.17692
155 2 0.513629 9.6509 10.291 5.84885
156 2 0.486745 11.2419 10.4177 5.50347
157 1 -0.861789 6.04246 2.36744 1.33908
158 2 0.434175 5.9287 2.86535 2.19882
159 2 0.427614 5.75785 2.94894 0.576939
160 1 -0.878289 4.44796 10.7673 2.95272
161 2 0.442346 5.05972 11.2429 2.32063
162 2 0.435943 3.66938 11.3561 3.16964
163 1 -0.959824 0.761438 0.918273 10.3467
164 2 0.479521 0.650875 1.85527 10.6781
165 2 0.480303 12.2674 0.544089 10.1005
166 1 -0.876894 7.41664 6.15136 9.68319
167 2 0.479446 7.31106 5.56891 10.4892
168 2 0.397448 6.62887 6.03062 9.07916
169 1 -1.04397 5.5922 4.38807 5.1513
170 2 0.552036 6.55616 4.16337 5.29378
171 2 0.49193 5.27488 4.98007 5.89214
172 1 -0.837573 5.95527 9.08511 10.7168
173 2 0.447483 5.29146 9.02829 11.4625
174 2 0.39009 5.52339 8.79384 9.86314
175 1 -0.9794 9.22239 7.17908 7.61624
176 2 0.447441 8.81007 7.06504 8.52011
177 2 0.531959 8.9301 8.05135 7.22416
178 1 -0.958892 8.45573 1.27689 6.13443
179 2 0.429635 8.72845 2.03658 5.5441
180 2 0.529256 8.28491 0.465288 5.57574
181 1 -0.818848 3.10719 11.7471 10.2131
182 2 0.342798 3.51393 11.8643 9.30713
183 2 0.47605 2.37319 0.0147 10.3379
184 1 -0.978646 1.30594 6.07817 11.5443
185 2 0.512778 0.340366 6.27821 11.7106
186 2 0.465868 1.38304 5.27426 10.9546
187 1 -0.939007 11.9059 1.3157 5.73537
188 2 0.543013 11.9959 0.719846 4.93732
189 2 0.395993 10.963 1.28819 6.06732
190 1 -0.784597 2.14058 0.172707 1.02779
191 2 0.402927 1.40169 0.545412 0.466419
192 2 0.38167 2.63731 0.92222 1.46539
