ITEM: TIMESTEP
0
ITEM: NUMBER OF ATOMS
192
ITEM: BOX BOUNDS pp pp pp
0.0000000000000000e+00 1.2400000000000000e+01
0.0000000000000000e+00 1.2400000000000000e+01
0.0000000000000000e+00 1.2400000000000000e+01
ITEM: ATOMS id type q x y z
1 1 -0.872183 7.3418 7.83271 4.26117
2 2 0.502517 7.87696 8.03374 3.44068
3 2 0.369666 7.95975 7.63038 5.02091
4 1 -0.830692 0.980639 2.22377 9.85665
5 2 0.40591 0.185807 2.36205 10.4475
6 2 0.424782 1.30664 3.10866 9.52394
7 1 -0.809146 6.03508 3.9848 8.82015
8 2 0.426482 5.15673 4.28062 9.19566
9 2 0.382664 6.60486 4.78536 8.63456
10 1 -0.995797 11.5587 10.976 1.8383
11 2 0.572688 12.0617 11.8259 1.68085
12 2 0.423109 12.0138 10.2257 1.3588
13 1 -0.953138 2.73981 10.5222 3.60737
14 2 0.442171 2.15374 10.3917 2.80768
15 2 0.510966 3.69374 10.3674 3.35035
16 1 -0.88458 9.26065 4.69841 5.89101
17 2 0.436647 9.64339 5.56478 6.2118
18 2 0.447933 9.95975 3.98532 5.94364
19 1 -0.899968 10.5487 6.63044 1.391
20 2 0.423879 10.0528 7.1401 2.09407
21 2 0.476089 10.8486 7.25862 0.673051
22 1 -0.855008 3.50106 6.37792 2.65861
23 2 0.402111 2.62586 6.80129 2.42456
24 2 0.452898 4.21796 7.07509 2.66322
25 1 -0.950917 7.64992 9.23618 11.3822
26 2 0.530463 6.93287 9.75712 11.8453
27 2 0.420455 7.59005 8.27487 11.6511
28 1 -1.00081 10.3252 12.2887 8.88578
29 2 0.509369 10.1517 0.0589 9.8558
30 2 0.49144 10.5362 11.3207 8.74972
31 1 -0.956229 1.79155 7.99489 8.96106
32 2 0.476846 2.58095 7.4109 8.77184
33 2 0.479384 1.91488 8.44598 9.84499
34 1 -1.03762 11.1346 4.79531 3.49092
35 2 0.564468 11.2389 5.27235 2.61824
36 2 0.473155 11.0909 5.46399 4.23319
37 1 -0.849902 9.86876 12.1148 11.7897
38 2 0.494679 10.343 11.4404 12.3556
39 2 0.355223 9.91213 0.610646 12.232
40 1 -0.842538 2.8599 1.50377 5.62233
41 2 0.473409 2.94913 0.533866 5.84891
42 2 0.369129 3.64235 1.79027 5.06943
43 1 -0.959752 6.94716 6.62078 7.33588
44 2 0.48939 7.05304 7.58613 7.57438
45 2 0.470362 7.84862 6.21118 7.19589
46 1 -0.992094 7.43672 6.42948 12.3585
47 2 0.473644 7.13458 6.18975 0.88112
48 2 0.51845 8.05618 5.72287 12.0165
49 1 -0.968021 4.11866 0.85936 9.54893
50 2 0.460626 3.22362 0.844391 9.1032
51 2 0.507395 4.8363 0.906995 8.85414
52 1 -0.923645 4.43501 6.77893 8.88171
53 2 0.487745 4.91778 6.57817 8.02928
54 2 0.4359 4.98286 7.40615 9.4353
55 1 -1.02205 8.24966 2.81853 1.05087
56 2 0.496804 8.08222 3.61492 1.63202
57 2 0.525242 7.39714 2.54637 0.604615
58 1 -0.863132 3.9294 4.8765 11.1946
59 2 0.426573 4.28526 5.7389 11.5547
60 2 0.436559 3.43016 5.05039 10.3458
61 1 -0.95034 11.0984 9.66203 7.7902
62 2 0.464853 10.7664 8.72003 7.83928
63 2 0.485487 11.9355 9.69242 7.24389
64 1 -0.921638 0.662059 10.6507 10.8307
65 2 0.541132 0.596809 11.4413 11.4395
66 2 0.380506 1.03821 9.87267 11.3339
67 1 -0.88983 2.76958 4.02464 8.12922
68 2 0.413311 2.82292 3.08156 7.80095
69 2 0.47652 2.77011 4.6498 7.34872
70 1 -0.860095 1.16882 8.07191 2.81437
71 2 0.452129 0.447472 7.62544 3.34383
72 2 0.407966 1.76674 8.58388 3.43113
73 1 -0.922429 6.49363 1.81648 3.29533
74 2 0.486443 6.90483 2.23105 4.10715
75 2 0.435986 7.05415 2.0256 2.49402
76 1 -0.965644 5.92369 2.29257 11.8315
77 2 0.462551 5.80329 1.37804 11.4453
78 2 0.503094 5.30199 2.9307 11.3773
79 1 -0.893053 11.7991 3.57163 7.25348
80 2 0.412962 11.7587 3.45275 8.24557
81 2 0.480092 11.7326 2.67889 6.80781
82 1 -0.944244 12.3874 5.85315 10.8759
83 2 0.455635 0.36473 6.58792 10.3123
84 2 0.488609 0.270903 5.98275 11.8261
85 1 -0.982273 6.31257 0.862461 7.79438
86 2 0.461943 6.08482 1.7022 7.30146
87 2 0.520329 7.30648 0.771758 7.8569
88 1 -0.967086 5.07947 9.07351 2.37673
89 2 0.484693 5.05408 9.18173 1.38293
90 2 0.482393 5.98777 9.31871 2.71565
91 1 -0.974648 11.2129 2.97983 12.385
92 2 0.502943 10.2232 3.09191 0.0738813
93 2 0.471705 11.6351 3.8699 12.2131
94 1 -0.880376 8.74132 12.08 2.48722
95 2 0.455781 9.1712 0.527312 2.17528
96 2 0.424595 9.18225 11.7735 3.33079
97 1 -1.15846 0.240266 0.520446 0.173144
98 2 0.557182 12.0294 1.3088 0.0997569
99 2 0.601277 1.18345 0.837626 0.272194
100 1 -1.08746 2.75879 1.52087 0.0797
101 2 0.563168 2.93643 2.17469 0.815227
102 2 0.524296 2.90181 1.96637 11.5959
103 1 -0.848446 0.91851 0.552776 3.38304
104 2 0.38807 1.26688 1.47044 3.19188
105 2 0.460376 1.62218 0.0204 3.85362
106 1 -1.00431 10.2481 1.94132 4.01284
107 2 0.482281 11.0401 1.34901 3.86473
108 2 0.522032 10.4568 2.86412 3.68899
109 1 -1.0112 11.5832 0.335152 6.47351
110 2 0.517427 11.0408 0.243617 7.30862
111 2 0.493773 12.2199 11.9672 6.4037
112 1 -0.848996 7.98974 10.687 6.88276
113 2 0.480048 8.97466 10.8317 6.7878
114 2 0.368948 7.64987 10.1778 6.09205
115 1 -0.840487 4.28073 11.1091 6.99041
116 2 0.457452 5.059 11.7287 6.88852
117 2 0.383035 4.59165 10.164 6.8896
118 1 -0.948385 7.7956 5.08599 2.85743
119 2 0.473294 8.55679 4.85823 3.46465
120 2 0.475091 7.00291 5.35665 3.40368
121 1 -0.934862 1.01449 10.4784 5.95137
122 2 0.423505 1.362 9.82503 5.27881
123 2 0.511357 1.78204 10.8981 6.43587
124 1 -1.03565 2.97576 5.83641 5.67262
125 2 0.527696 3.37574 6.73477 5.85416
126 2 0.50795 2.76656 5.75543 4.6981
127 1 -0.912879 8.731 9.19685 2.10239
128 2 0.386804 8.93826 8.56327 1.35699
129 2 0.526075 8.95921 10.1289 1.82083
130 1 -0.946172 1.55204 3.80396 4.1584
131 2 0.480113 0.56848 3.8985 4.31225
132 2 0.466059 1.94094 3.19665 4.85117
133 1 -0.993267 0.319736 6.6568 6.82014
134 2 0.51872 1.02542 7.1627 7.3162
135 2 0.474548 0.484559 5.67504 6.91494
136 1 -0.841752 6.29458 11.4034 4.35181
137 2 0.493587 6.60894 12.2388 3.90105
138 2 0.348166 6.70836 11.3386 5.25989
139 1 -0.935611 10.504 8.92292 11.8454
140 2 0.47039 9.57553 8.70384 11.5456
141 2 0.465222 11.0227 9.29787 11.077
142 1 -1.02101 10.0603 6.72239 8.11552
143 2 0.462436 10.9926 6.48461 7.84323
144 2 0.558572 9.91004 6.4477 9.06524
145 1 -0.959364 4.43761 8.13825 5.47032
146 2 0.479801 5.3831 7.84282 5.60732
147 2 0.479563 4.40987 8.85435 4.77287
148 1 -0.874356 1.10115 4.89604 1.18338
149 2 0.442003 1.19242 4.82524 2.17669
150 2 0.432353 1.97314 5.18506 0.788271
151 1 -0.902051 8.90283 2.76392 10.5294
152 2 0.446838 8.96503 1.81959 10.8525
153 2 0.455213 7.9471 3.05795 10.541
154 1 -0.999786 10.8209 7.5107 4.57273
155 2 0.528948 10.7248 8.47654 4.33205
156 2 0.470838 11.2915 7.43135 5.45152
157 1 -0.903637 3.72653 2.87755 2.5535
158 2 0.454802 4.51763 2.51889 3.04901
159 2 0.448835 3.12627 3.36208 3.18984
160 1 -0.888103 6.15431 11.401 0.601411
161 2 0.42887 5.3869 12.0179 0.776382
162 2 0.459233 6.90457 11.6168 1.22638
163 1 -0.92652 1.44919 12.0569 8.26072
164 2 0.457686 0.860135 0.437066 8.47125
165 2 0.468834 1.13686 11.256 8.7716
166 1 -1.03088 9.46959 5.51389 10.5426
167 2 0.494951 10.312 5.56966 11.0786
168 2 0.535926 9.31509 4.56657 10.262
169 1 -0.838156 5.63853 4.20646 5.38211
170 2 0.423877 4.67263 4.46441 5.40468
171 2 0.414279 6.16467 4.83411 5.9559
172 1 -0.968734 4.98805 8.0872 11.5897
173 2 0.520927 4.86458 8.65622 10.7767
174 2 0.447807 5.91766 7.71881 11.6007
175 1 -0.989927 6.49736 9.02222 8.796
176 2 0.477339 7.15108 8.80624 9.52126
177 2 0.512588 6.8128 9.82588 8.29138
178 1 -0.943581 8.20067 1.92261 5.85025
179 2 0.425169 8.16568 2.91791 5.94056
180 2 0.518412 9.01492 1.66345 5.33078
181 1 -0.997788 3.86118 10.0742 9.92197
182 2 0.469582 3.53127 9.8159 9.01399
183 2 0.528206 4.2006 11.0146 9.89824
184 1 -0.935314 2.08395 7.92318 12.1321
185 2 0.453324 1.92077 8.3098 0.639838
186 2 0.48199 3.03458 8.08454 11.8671
187 1 -0.955916 10.4087 10.4171 4.59269
188 2 0.496641 10.6848 10.646 3.65918
189 2 0.459275 10.6389 11.1747 5.20354
190 1 -0.92242 2.89647 10.8302 0.441022
191 2 0.456674 3.16336 10.5799 11.9104
192 2 0.465746 2.84328 11.8259 0.516176
