ITEM: TIMESTEP
0
ITEM: NUMBER OF ATOMS
192
ITEM: BOX BOUNDS pp pp pp
0.0000000000000000e+00 1.2400000000000000e+01
0.0000000000000000e+00 1.2400000000000000e+01
0.0000000000000000e+00 1.2400000000000000e+01
ITEM: ATOMS id type q x y z
1 1 -0.875607 6.9069 9.2906 4.67791
2 2 0.398253 6.58279 9.52805 5.59365
3 2 0.477354 6.48843 9.90283 4.00704
4 1 -0.844783 0.908358 0.415533 9.28374
5 2 0.42006 1.07372 1.39827 9.20078
6 2 0.424722 0.705261 0.190977 10.2368
7 1 -0.957385 4.86782 5.25946 10.7918
8 2 0.455782 4.23302 6.03144 10.8247
9 2 0.501604 5.79271 5.57945 10.9972
10 1 -1.01791 0.059593 9.84312 2.16448
11 2 0.476328 0.534981 10.4287 1.50791
12 2 0.541582 12.3042 8.94323 1.75701
13 1 -0.862129 1.72614 6.73593 2.92578
14 2 0.427594 1.47313 5.79807 2.68827
15 2 0.434535 2.46304 6.7214 3.60163
16 1 -0.938537 9.98129 5.44503 7.64858
17 2 0.50214 9.77098 6.23155 7.06791
18 2 0.436397 9.16021 4.88567 7.76237
19 1 -0.986613 10.5531 6.52567 3.79935
20 2 0.496145 11.4854 6.51907 4.16114
21 2 0.490468 10.5511 6.94344 2.89079
22 1 -0.887032 4.51255 5.30623 2.51955
23 2 0.432829 4.44482 6.28824 2.69582
24 2 0.454203 5.41782 5.09543 2.15071
25 1 -0.950265 7.09715 9.51613 10.0879
26 2 0.431428 7.92205 9.54622 10.6524
27 2 0.518837 6.6934 8.60253 10.1361
28 1 -0.952701 9.32068 2.00522 10.6893
29 2 0.498499 10.2054 2.43771 10.8633
30 2 0.454202 9.46492 1.07325 10.3567
31 1 -1.12368 2.76118 7.924 8.75027
32 2 0.541597 2.37028 8.57513 8.09971
33 2 0.582079 2.97614 8.39558 9.6055
34 1 -1.11643 11.586 3.27983 4.48248
35 2 0.549864 11.9425 4.09031 4.9473
36 2 0.56657 10.603 3.20489 4.64992
37 1 -1.05897 11.8982 11.8978 11.7815
38 2 0.504874 11.143 11.78 11.1367
39 2 0.554091 0.0752347 11.0812 11.7719
40 1 -0.95311 3.4502 0.551449 3.75037
41 2 0.50693 2.61086 1.09218 3.80635
42 2 0.446179 4.22939 1.16001 3.60029
43 1 -0.912893 8.09011 6.2057 10.3474
44 2 0.478625 8.81054 5.52144 10.4603
45 2 0.434268 8.07566 6.52098 9.39848
46 1 -0.915567 7.09308 4.40005 0.761977
47 2 0.433144 7.72865 4.37666 12.3903
48 2 0.482423 7.07413 3.50397 1.20548
49 1 -1.00892 2.92807 0.93919 6.98184
50 2 0.422321 2.60583 0.338919 7.71385
51 2 0.586604 2.18605 1.09886 6.33076
52 1 -0.855459 5.78259 7.26094 8.33906
53 2 0.387917 6.11974 6.93283 7.45663
54 2 0.467542 4.78548 7.33113 8.30975
55 1 -0.846258 9.39489 3.14547 2.342
56 2 0.44565 8.47806 3.30801 2.70672
57 2 0.400608 10.0404 3.77931 2.76816
58 1 -0.883495 2.46678 3.42349 10.8194
59 2 0.443972 2.39603 2.98286 11.7143
60 2 0.439523 3.40538 3.73704 10.6755
61 1 -0.893061 8.21019 10.273 7.40002
62 2 0.411505 8.71492 9.47336 7.07476
63 2 0.481556 7.77893 10.061 8.27698
64 1 -0.88831 9.77052 8.95621 11.7865
65 2 0.436893 10.33 8.59244 11.0418
66 2 0.451416 10.0807 9.87863 12.0166
67 1 -1.04677 1.14779 5.63403 8.70292
68 2 0.488931 1.39793 4.96568 9.40345
69 2 0.557835 1.89575 6.28681 8.58279
70 1 -0.785641 3.40597 7.07078 5.427
71 2 0.3967 2.83042 6.6457 6.12561
72 2 0.388941 3.11584 8.01745 5.28684
73 1 -0.931335 6.22428 2.07973 2.53204
74 2 0.46991 6.38166 1.91876 3.50637
75 2 0.461425 6.28476 1.21298 2.03696
76 1 -1.00263 6.25603 2.5073 10.7864
77 2 0.529749 7.21153 2.57594 10.4995
78 2 0.47288 5.82704 3.40917 10.7353
79 1 -0.991117 12.0918 3.25823 7.5693
80 2 0.508016 11.3905 3.82602 8.00043
81 2 0.483101 0.558153 3.75719 7.54817
82 1 -1.02478 11.5298 7.41911 0.964077
83 2 0.496115 10.6732 7.79581 0.611588
84 2 0.528662 12.2178 7.41954 0.23831
85 1 -0.931864 5.50491 2.04644 5.67393
86 2 0.557404 4.60609 1.70172 5.94465
87 2 0.374459 6.15595 1.90096 6.41889
88 1 -0.923769 6.09556 7.58521 12.2027
89 2 0.463241 6.11818 8.07126 0.676368
90 2 0.460528 6.88784 6.97847 12.1382
91 1 -0.989626 12.0457 2.39163 11.9497
92 2 0.545592 12.2266 1.42073 12.1067
93 2 0.444034 0.279407 2.94108 0.0942225
94 1 -0.95197 9.19729 0.569722 1.02315
95 2 0.503319 9.41788 1.50448 1.30168
96 2 0.448651 8.77946 0.582402 0.114716
97 1 -0.798105 0.576388 1.09336 2.36073
98 2 0.393008 0.479963 1.72745 3.12797
99 2 0.405097 12.0807 0.933534 1.94578
100 1 -0.896866 4.30968 12.1771 9.871
101 2 0.452044 4.25977 0.769985 9.76243
102 2 0.444823 3.38626 11.7936 9.85786
103 1 -0.829473 2.76732 11.9461 0.776858
104 2 0.444365 2.49074 12.2105 1.70077
105 2 0.385108 3.28708 0.290981 0.358518
106 1 -1.06451 0.833322 1.19947 5.26799
107 2 0.583892 0.342581 2.0522 5.08905
108 2 0.480622 0.188763 0.43501 5.25554
109 1 -1.03282 2.52957 10.2056 4.10642
110 2 0.506313 1.79073 10.2633 3.43501
111 2 0.526505 3.22161 10.8976 3.90083
112 1 -0.900147 7.84782 0.257462 4.54901
113 2 0.417031 7.61963 12.239 5.4281
114 2 0.483116 7.51578 12.0756 3.80662
115 1 -0.896098 2.31364 10.0735 6.92598
116 2 0.394753 1.46218 10.5975 6.94563
117 2 0.501345 2.63663 9.99754 5.98262
118 1 -0.802086 7.67042 6.16046 3.40257
119 2 0.416899 8.64564 6.36648 3.48325
120 2 0.385187 7.44869 5.96629 2.44699
121 1 -0.915262 11.5969 9.24799 6.70898
122 2 0.46416 10.8861 8.88892 6.10412
123 2 0.451102 11.6717 10.2374 6.58479
124 1 -0.839881 3.92974 4.69104 7.89283
125 2 0.381339 4.1046 4.913 8.85208
126 2 0.458541 4.67123 5.05134 7.3268
127 1 -0.882994 9.5576 10.3761 2.30178
128 2 0.457942 9.41355 11.3302 2.03948
129 2 0.425052 10.5383 10.1822 2.32878
130 1 -0.89564 2.68827 3.75262 4.2861
131 2 0.421499 2.4439 4.16874 5.16196
132 2 0.474142 3.51817 4.1839 3.93217
133 1 -0.925347 0.33624 5.7645 5.70384
134 2 0.53948 0.0879139 5.81426 6.67124
135 2 0.385867 0.560735 6.67993 5.3698
136 1 -0.971994 6.38928 11.2102 2.3776
137 2 0.432484 7.32797 11.1095 2.04786
138 2 0.539511 5.84297 11.6858 1.6881
139 1 -1.00922 9.6963 11.4802 9.90626
140 2 0.449998 8.76617 11.1605 9.7255
141 2 0.559223 10.0991 11.8294 9.06019
142 1 -1.09834 12.132 8.2869 9.48714
143 2 0.555639 11.8673 8.66236 8.5989
144 2 0.542701 12.3739 7.32223 9.38259
145 1 -0.791752 5.13613 11.3804 6.47727
146 2 0.411498 4.38641 11.5736 5.84434
147 2 0.380254 5.22916 12.1369 7.12464
148 1 -0.869025 0.378522 4.23783 1.68564
149 2 0.451719 0.580156 3.53851 2.37142
150 2 0.417306 11.9163 4.68994 1.91411
151 1 -0.894457 7.7693 3.4125 8.35965
152 2 0.460618 8.32989 2.59076 8.46204
153 2 0.433839 6.80476 3.15369 8.30778
154 1 -1.03649 9.11588 7.59407 6.0422
155 2 0.528679 9.36742 7.13494 5.19018
156 2 0.507812 8.31554 8.17273 5.88532
157 1 -0.868132 3.15699 2.74575 1.14153
158 2 0.417767 2.57451 3.24176 1.7855
159 2 0.450366 4.05822 3.17767 1.10639
160 1 -1.01717 5.69129 0.274688 0.102256
161 2 0.429659 5.08529 12.0039 12.0747
162 2 0.587511 5.82613 1.04613 11.8804
163 1 -0.953292 10.689 0.870305 7.79744
164 2 0.368655 10.2036 0.765819 6.92937
165 2 0.584637 11.3864 1.5811 7.70596
166 1 -0.843215 10.3219 4.70273 11.6906
167 2 0.488209 10.8709 3.9466 12.0467
168 2 0.355006 10.3472 5.46604 12.3361
169 1 -0.934793 6.0641 4.8583 5.84993
170 2 0.472173 5.95952 3.93087 5.49085
171 2 0.462621 6.48307 5.44031 5.15299
172 1 -1.05305 3.8493 9.22319 10.861
173 2 0.544303 4.48382 8.59306 11.3086
174 2 0.508751 4.26161 10.1329 10.8126
175 1 -0.912396 6.82697 0.402365 8.49375
176 2 0.413395 7.25897 12.1794 7.84158
177 2 0.499001 6.10888 12.3172 8.99266
178 1 -0.919399 8.8124 3.17207 5.42986
179 2 0.466713 8.30954 3.65214 6.14865
180 2 0.452686 8.49843 2.22396 5.37967
181 1 -1.1221 0.950186 9.51542 11.5795
182 2 0.537578 1.92442 9.31557 11.4749
183 2 0.584525 0.4444 9.11867 10.8135
184 1 -0.856074 1.80372 6.50442 12.3158
185 2 0.418508 1.57889 5.53447 12.2228
186 2 0.437566 2.06118 6.69763 0.862622
187 1 -0.898451 10.8713 11.4582 4.71676
188 2 0.437593 11.3018 11.1175 3.8809
189 2 0.460858 9.88225 11.518 4.58183
190 1 -0.797557 3.95096 8.68187 1.90666
191 2 0.378422 3.25272 8.69966 1.19101
192 2 0.419135 3.52069 8.83625 2.79607
