ITEM: TIMESTEP
0
ITEM: NUMBER OF ATOMS
192
ITEM: BOX BOUNDS pp pp pp
0.0000000000000000e+00 1.2400000000000000e+01
0.0000000000000000e+00 1.2400000000000000e+01
0.0000000000000000e+00 1.2400000000000000e+01
ITEM: ATOMS id type q x y z
1 1 -0.949493 6.09225 8.3707 4.681
2 2 0.452982 6.01192 9.11215 5.34719
3 2 0.496511 5.18051 8.09978 4.37223
4 1 -0.903677 1.68622 12.2977 9.76394
5 2 0.411546 1.8432 11.6427 9.02476
6 2 0.492132 1.96806 11.8926 10.6337
7 1 -0.994047 4.93143 5.08864 10.1609
8 2 0.523889 4.77778 5.29306 9.19417
9 2 0.470157 5.77089 4.55418 10.2593
10 1 -1.02405 11.0038 10.1374 3.19604
11 2 0.517951 11.0621 10.3894 2.23006
12 2 0.506103 11.7417 10.5838 3.70213
13 1 -0.912909 0.901303 7.7642 2.67349
14 2 0.424619 1.43922 8.59563 2.81266
15 2 0.48829 0.956119 7.19097 3.49105
16 1 -0.990321 10.4354 5.34457 6.89302
17 2 0.477395 9.91567 6.18508 7.04613
18 2 0.512927 10.8275 5.03275 7.75849
19 1 -0.910668 9.76493 6.86256 3.43272
20 2 0.451131 9.80353 7.73814 2.9512
21 2 0.459537 10.2669 6.93376 4.29469
22 1 -1.05197 3.75549 5.47689 2.77591
23 2 0.51341 3.9864 6.34656 3.21222
24 2 0.538563 3.19231 4.93163 3.39681
25 1 -0.807233 7.37768 10.287 9.96553
26 2 0.409964 7.03823 9.35644 9.828
27 2 0.397269 6.73974 10.9386 9.5551
28 1 -0.814722 10.4663 3.99915 9.46537
29 2 0.388871 9.94962 3.409 10.0856
30 2 0.425851 10.9915 4.66335 9.99738
31 1 -0.882326 1.90414 6.95708 8.45267
32 2 0.48083 2.17891 6.24728 7.80406
33 2 0.401496 1.16798 7.50491 8.05524
34 1 -0.912447 11.2417 4.20158 4.49891
35 2 0.377145 11.1604 4.73049 3.65412
36 2 0.535302 10.7777 4.68532 5.24099
37 1 -1.06375 11.068 0.265205 10.7215
38 2 0.538305 10.0826 0.359664 10.8636
39 2 0.525448 11.2362 12.1929 9.85628
40 1 -1.08744 5.17093 1.13738 4.17124
41 2 0.576937 5.7854 1.04906 3.38726
42 2 0.510503 5.66887 0.921163 5.01107
43 1 -0.902595 8.26305 6.25006 10.0962
44 2 0.424678 8.96314 6.9242 10.3316
45 2 0.477917 8.13879 5.61766 10.8608
46 1 -0.885046 6.00525 2.73655 1.8309
47 2 0.424102 6.50397 3.5903 1.98053
48 2 0.460943 5.0286 2.93218 1.74213
49 1 -0.807132 3.06066 1.79505 6.98729
50 2 0.428424 2.51265 1.02109 7.30458
51 2 0.378709 3.89504 1.4566 6.55225
52 1 -0.867554 5.19872 7.21909 7.76988
53 2 0.466436 4.47505 6.60665 7.45173
54 2 0.401118 4.85412 7.77922 8.52321
55 1 -0.864669 9.97435 2.60132 1.13396
56 2 0.447853 10.6092 3.31422 0.836055
57 2 0.416815 10.4655 1.73516 1.2267
58 1 -0.939567 2.61417 2.83256 10.4894
59 2 0.468013 2.60207 2.19154 9.722
60 2 0.471554 3.41703 3.42429 10.4169
61 1 -0.956065 8.36361 7.85092 7.06467
62 2 0.489678 7.50997 8.11322 6.61468
63 2 0.466387 8.20012 7.72706 8.04341
64 1 -0.927485 7.24204 9.71659 1.66703
65 2 0.531674 6.55934 9.22245 2.20531
66 2 0.395811 8.14139 9.30294 1.80868
67 1 -1.03833 0.692703 5.28865 10.6848
68 2 0.50768 1.3516 4.9613 11.3621
69 2 0.530646 0.982914 6.18217 10.3421
70 1 -0.956182 3.25992 7.64768 5.02901
71 2 0.402795 3.75389 8.11311 5.76344
72 2 0.553387 2.46911 7.16898 5.4104
73 1 -0.758455 8.67056 2.77801 4.16347
74 2 0.354816 7.81447 2.83828 3.65016
75 2 0.403639 9.43115 2.64278 3.52848
76 1 -0.863315 7.9197 3.70857 11.8064
77 2 0.460341 8.29265 3.64654 0.332154
78 2 0.402974 8.38074 3.0459 11.2162
79 1 -0.913017 0.709783 3.95864 7.9515
80 2 0.42768 0.736875 2.95993 7.99448
81 2 0.485337 0.812523 4.33483 8.87233
82 1 -1.09616 11.0515 8.21722 0.859382
83 2 0.561668 11.1284 9.21229 0.796731
84 2 0.534489 11.679 7.87786 1.56012
85 1 -1.08771 6.48016 1.24566 6.85646
86 2 0.558291 5.84244 1.22245 7.62638
87 2 0.529414 6.64123 2.19469 6.58554
88 1 -0.901107 5.59576 8.14875 11.4505
89 2 0.438814 6.29024 8.48216 12.0881
90 2 0.462293 5.74385 7.1754 11.2754
91 1 -1.04515 0.263326 2.40474 12.2359
92 2 0.517133 12.1264 1.72758 11.7327
93 2 0.528018 0.974869 2.77603 11.6393
94 1 -0.841406 8.60265 11.7355 12.3904
95 2 0.434754 7.83096 11.9266 11.7838
96 2 0.406652 8.35962 10.9937 0.615388
97 1 -0.891537 0.16884 1.23521 3.02381
98 2 0.42939 0.0355124 1.73592 3.8791
99 2 0.462147 0.268168 1.88427 2.26958
100 1 -1.0736 5.09588 0.228163 9.16458
101 2 0.543623 4.72112 11.7174 9.33799
102 2 0.529975 5.30528 0.67373 10.035
103 1 -0.908687 1.94155 11.9122 0.37521
104 2 0.477938 2.60366 11.9764 1.12187
105 2 0.430749 1.3531 0.320731 0.381071
106 1 -0.96504 0.468943 11.371 4.87163
107 2 0.489412 0.472348 11.7887 5.78023
108 2 0.475629 0.680942 12.066 4.18452
109 1 -0.907763 3.54782 11.4151 3.4613
110 2 0.387519 2.69866 11.307 3.97827
111 2 0.520244 4.04009 12.2197 3.79342
112 1 -1.03395 6.76231 10.8201 6.5405
113 2 0.481247 7.70433 10.6339 6.2613
114 2 0.552704 6.6574 11.7964 6.7296
115 1 -0.842304 0.95829 9.85192 7.69125
116 2 0.433907 12.3644 9.87231 7.80009
117 2 0.408397 1.20957 10.3082 6.83763
118 1 -0.854919 7.96339 5.77378 1.34295
119 2 0.40833 8.26838 5.96311 2.2763
120 2 0.446589 8.75734 5.58788 0.764078
121 1 -1.01826 10.8526 8.40505 5.93272
122 2 0.542324 10.1254 8.3773 6.61854
123 2 0.475938 10.7168 9.19486 5.33459
124 1 -1.08369 3.51651 4.79456 7.21847
125 2 0.611933 4.09809 4.42314 6.49471
126 2 0.471756 2.77499 4.15237 7.41275
127 1 -1.13305 11.5946 10.8875 0.510617
128 2 0.59264 11.2115 11.1948 12.0395
129 2 0.540407 0.148197 11.1809 0.577482
130 1 -0.94168 2.02839 3.93326 4.65838
131 2 0.481761 1.18808 4.1054 4.14433
132 2 0.459919 1.80385 3.48579 5.52403
133 1 -1.05138 0.670747 6.62531 5.75626
134 2 0.547163 12.3544 7.3204 5.81736
135 2 0.504214 0.320116 5.75418 6.10005
136 1 -0.90709 7.59678 12.3228 3.02288
137 2 0.403409 8.31518 0.539128 2.70031
138 2 0.50368 7.44479 11.604 2.34445
139 1 -0.932371 10.572 11.0918 8.35658
140 2 0.451926 9.76311 10.6636 8.75967
141 2 0.480445 10.3017 11.6284 7.55723
142 1 -0.801805 10.6695 8.33757 10.0284
143 2 0.390706 11.6172 8.18009 9.75095
144 2 0.411099 10.6527 8.91555 10.8443
145 1 -0.800918 3.90567 10.7221 6.33669
146 2 0.461223 4.80077 10.4392 6.68128
147 2 0.339696 4.02296 11.2372 5.4876
148 1 -0.914464 0.875004 4.5841 1.95425
149 2 0.41754 12.3994 4.53872 1.47332
150 2 0.496924 1.47501 5.23795 1.4933
151 1 -0.912884 7.31501 4.50355 7.87062
152 2 0.470773 7.24279 4.82787 6.92743
153 2 0.442111 7.86837 5.14483 8.40218
154 1 -0.905682 7.42664 5.84697 5.0044
155 2 0.424416 8.15338 5.8803 4.3183
156 2 0.481266 7.031 6.75864 5.11547
157 1 -0.888836 3.00733 2.41887 1.68436
158 2 0.473117 2.19087 2.88046 1.33746
159 2 0.415719 3.18647 2.71796 2.62163
160 1 -0.944457 4.99247 1.09024 11.8137
161 2 0.475876 5.63293 1.50595 0.0594774
162 2 0.468581 4.06309 1.15602 12.1769
163 1 -1.00423 0.206221 1.074 7.42752
164 2 0.544441 11.7595 1.6037 7.377
165 2 0.459785 0.405318 0.854028 8.38249
166 1 -1.03391 10.7096 5.62816 0.141802
167 2 0.436445 11.3648 5.33343 11.8462
168 2 0.597464 10.8479 6.59849 0.340116
169 1 -0.98085 5.1781 3.76735 5.30212
170 2 0.497882 4.84532 2.97406 4.79227
171 2 0.482968 5.67241 4.3779 4.68334
172 1 -0.95484 3.81797 10.0084 9.77284
173 2 0.499816 4.04336 9.35141 10.4922
174 2 0.455023 2.90509 9.81125 9.41538
175 1 -0.897008 8.46801 1.45449 9.82054
176 2 0.425072 7.58747 1.11565 9.48912
177 2 0.471936 8.85431 2.0891 9.15117
178 1 -0.968907 9.93232 2.08861 7.21336
179 2 0.501476 9.83516 3.08133 7.28457
180 2 0.467431 9.48203 1.76854 6.37981
181 1 -0.880976 1.93076 8.26285 11.9325
182 2 0.520982 2.47963 7.50196 12.2786
183 2 0.359994 1.31629 8.58523 0.252619
184 1 -1.14272 3.00072 5.79505 0.146197
185 2 0.609253 3.45425 5.60477 1.01689
186 2 0.533467 3.62855 5.59784 11.7932
187 1 -0.946359 9.39924 11.4429 5.23786
188 2 0.46958 10.0834 11.049 4.62399
189 2 0.476779 8.78616 12.0366 4.71669
190 1 -0.848509 4.26534 8.77101 1.64796
191 2 0.431918 4.1426 8.82438 0.656954
192 2 0.416591 3.98339 9.6347 2.06576
