ITEM: TIMESTEP
0
ITEM: NUMBER OF ATOMS
192
ITEM: BOX BOUNDS pp pp pp
0.0000000000000000e+00 1.2400000000000000e+01
0.0000000000000000e+00 1.2400000000000000e+01
0.0000000000000000e+00 1.2400000000000000e+01
ITEM: ATOMS id type q x y z
1 1 -0.999951 6.34699 9.47894 4.56279
2 2 0.487797 6.48318 10.4643 4.4603
3 2 0.512154 5.39796 9.24935 4.34684
4 1 -1.01257 0.569214 12.0968 10.0456
5 2 0.512452 0.533365 0.326706 9.26975
6 2 0.500118 0.943319 11.2193 9.74559
7 1 -1.07452 6.04204 2.4186 9.76884
8 2 0.481342 5.91949 3.40247 9.89911
9 2 0.593181 5.94603 2.1963 8.7986
10 1 -0.88945 8.86649 9.41498 2.89224
11 2 0.479456 9.00497 8.49688 3.26361
12 2 0.409995 8.07493 9.83732 3.33392
13 1 -1.05502 0.334886 9.67576 3.9072
14 2 0.613339 0.225192 9.11438 4.72746
15 2 0.441682 0.909549 9.19235 3.24683
16 1 -0.890008 9.98781 5.708 6.83428
17 2 0.479068 10.693 5.61474 7.53718
18 2 0.41094 9.39135 6.47808 7.06057
19 1 -0.966749 10.4768 7.16586 4.03177
20 2 0.50668 9.96752 6.33549 4.25789
21 2 0.460069 11.3485 6.91762 3.60918
22 1 -0.93985 6.95015 6.63267 2.72797
23 2 0.509798 6.88929 7.51207 2.25579
24 2 0.430052 6.17481 6.53498 3.35192
25 1 -0.867606 7.35845 7.73535 11.2171
26 2 0.444128 6.83663 8.27388 11.8787
27 2 0.423478 8.13052 8.27564 10.8824
28 1 -0.920401 8.73709 2.46901 11.7889
29 2 0.500444 8.14372 3.15961 12.2024
30 2 0.419956 8.26767 2.0476 11.0129
31 1 -0.812208 3.89627 7.81803 11.2489
32 2 0.39095 3.26874 7.72519 10.4758
33 2 0.421258 4.29131 6.92553 11.4666
34 1 -1.065 11.9757 3.53912 3.05383
35 2 0.556584 11.9954 3.05477 2.17917
36 2 0.508418 11.1112 4.03411 3.14132
37 1 -0.882441 11.4367 2.27049 9.39439
38 2 0.543285 10.5413 2.68055 9.22098
39 2 0.339156 11.3761 1.65875 10.1831
40 1 -0.987737 6.84154 12.2749 3.63859
41 2 0.532584 5.88046 0.132871 3.53978
42 2 0.455153 7.38708 0.350839 2.94878
43 1 -0.956956 5.98339 5.36384 9.55524
44 2 0.419083 5.92218 5.50147 8.56665
45 2 0.537873 6.28963 6.21006 9.99128
46 1 -0.796304 6.41282 3.31159 3.23515
47 2 0.380233 6.60108 2.3563 3.00716
48 2 0.41607 5.42733 3.43976 3.34645
49 1 -0.822768 3.2289 2.99133 5.72992
50 2 0.390158 2.43656 2.84094 6.32119
51 2 0.432609 3.32335 2.2227 5.09723
52 1 -0.833578 4.84579 8.38819 7.3401
53 2 0.444994 5.39097 9.2208 7.43779
54 2 0.388584 5.41443 7.6605 6.95654
55 1 -1.05732 11.2495 11.8603 12.1272
56 2 0.568445 11.9671 11.7858 11.4347
57 2 0.488872 10.3589 11.6956 11.7034
58 1 -0.997998 1.61915 3.39723 8.28369
59 2 0.451061 0.937187 3.09517 7.61758
60 2 0.546937 1.9479 2.60954 8.80473
61 1 -0.95015 8.13966 8.4052 6.55491
62 2 0.416021 8.38205 8.97327 7.34139
63 2 0.53413 7.48807 8.89656 5.97698
64 1 -1.05011 2.76327 8.38141 1.93541
65 2 0.554526 2.52947 7.41166 1.86518
66 2 0.495582 3.12691 8.70085 1.06035
67 1 -1.07747 0.871933 4.57593 10.7927
68 2 0.507194 1.12482 5.53692 10.6807
69 2 0.570277 0.73102 4.16133 9.89367
70 1 -0.943612 1.88659 9.3623 8.82661
71 2 0.447941 1.65061 9.15765 7.87664
72 2 0.495671 2.57589 10.0864 8.85029
73 1 -1.02919 8.4522 2.78067 5.98179
74 2 0.520584 8.94215 1.91318 5.89572
75 2 0.50861 8.44094 3.24637 5.09691
76 1 -0.944062 8.01366 12.1809 10.3083
77 2 0.42069 7.33992 0.495508 10.1201
78 2 0.523372 7.76437 11.701 11.1495
79 1 -0.88246 0.92729 5.82221 4.28225
80 2 0.383777 1.69204 5.6317 4.89777
81 2 0.498683 0.56658 4.9617 3.92251
82 1 -0.797819 10.8615 5.49196 0.792228
83 2 0.406208 11.2458 6.25973 0.279558
84 2 0.391611 9.86603 5.49235 0.696759
85 1 -1.00876 5.81304 1.9335 7.03198
86 2 0.521171 5.07446 1.56193 6.46945
87 2 0.487593 6.61114 2.11433 6.45723
88 1 -0.977024 6.14392 9.16474 1.2097
89 2 0.543964 5.35894 9.68266 0.869727
90 2 0.43306 6.96818 9.72709 1.1437
91 1 -0.953288 2.0788 0.514434 0.180143
92 2 0.513384 1.38474 0.510452 11.8602
93 2 0.439903 1.77191 1.093 0.935844
94 1 -0.827881 12.3084 9.26319 0.928578
95 2 0.395024 12.0799 9.1464 1.89509
96 2 0.432857 11.9205 10.1227 0.595837
97 1 -0.940967 9.3915 1.60875 2.07589
98 2 0.511352 9.6444 1.83862 1.1361
99 2 0.429615 10.1614 1.1578 2.52746
100 1 -0.93669 3.24785 1.21711 9.29164
101 2 0.496801 3.35057 0.237096 9.12127
102 2 0.439889 3.97255 1.52613 9.90754
103 1 -1.04377 4.27318 11.0495 0.495408
104 2 0.451881 5.03813 11.5396 0.913425
105 2 0.591894 3.53757 11.6945 0.288103
106 1 -0.922479 1.05173 1.0292 4.16488
107 2 0.476001 0.616771 1.92947 4.18283
108 2 0.446478 0.444648 0.374612 3.71436
109 1 -1.00192 4.11244 0.904409 3.24891
110 2 0.514806 3.58584 1.55747 2.70466
111 2 0.487114 3.68882 0.000692389 3.18687
112 1 -0.912718 6.40956 11.0993 7.56814
113 2 0.475774 5.74709 11.3301 6.85546
114 2 0.436944 6.64214 11.9225 8.08616
115 1 -0.872331 1.01314 12.2346 7.00484
116 2 0.456272 1.06952 0.159198 6.06065
117 2 0.416059 0.0862578 12.3779 7.35178
118 1 -0.91071 6.9692 4.678 0.414494
119 2 0.456997 6.31127 4.36488 1.09939
120 2 0.453713 7.04914 5.67377 0.459828
121 1 -1.01441 11.6779 8.43233 6.10373
122 2 0.580489 10.9987 7.89345 5.60548
123 2 0.433921 11.2137 9.12069 6.66111
124 1 -0.895855 3.43206 5.67485 7.07732
125 2 0.498795 3.20064 4.70886 7.19274
126 2 0.39706 4.08766 5.94702 7.78168
127 1 -1.10946 11.1863 11.7816 2.85911
128 2 0.49457 11.2591 11.9107 1.87014
129 2 0.614886 11.7929 11.0393 3.14388
130 1 -0.929591 2.55897 8.10362 5.52348
131 2 0.508517 3.25039 7.77194 6.1653
132 2 0.421074 1.87203 7.39195 5.37637
133 1 -0.808053 0.690858 6.01678 7.81723
134 2 0.393677 0.537537 6.82567 7.24962
135 2 0.414376 1.51011 5.53825 7.50126
136 1 -0.974748 8.31316 11.1598 0.585067
137 2 0.470748 8.71874 11.9335 1.0718
138 2 0.504 8.79302 10.3193 0.836472
139 1 -0.814701 10.1059 9.05873 10.9842
140 2 0.460071 10.9077 8.46114 10.9744
141 2 0.35463 9.66049 9.03365 10.0892
142 1 -0.838196 9.81417 5.79371 9.84313
143 2 0.381152 10.5329 5.59494 10.5094
144 2 0.457043 9.36862 4.94139 9.56919
145 1 -0.965187 3.92458 12.0546 5.97681
146 2 0.456704 3.00032 12.3188 6.25233
147 2 0.508483 3.87294 11.3859 5.23506
148 1 -0.878241 1.5588 5.73976 1.41264
149 2 0.416982 1.07086 5.48268 2.24681
150 2 0.461259 1.22123 5.19235 0.646873
151 1 -0.89763 6.91598 5.73495 6.20719
152 2 0.462573 7.45443 6.5771 6.17794
153 2 0.435057 7.48324 4.96617 5.91189
154 1 -1.02504 9.22019 4.6997 3.55684
155 2 0.476006 9.11938 3.9584 2.89327
156 2 0.549034 8.46542 5.34704 3.45069
157 1 -0.926212 3.02325 3.24746 2.15597
158 2 0.418921 3.19045 3.51873 3.10384
159 2 0.507291 2.56393 3.9924 1.67212
160 1 -0.846666 5.39464 1.44471 0.277875
161 2 0.403061 4.52511 1.72919 0.681617
162 2 0.443605 5.58595 2.00324 11.8707
163 1 -0.822917 11.4966 2.83611 5.82515
164 2 0.4561 10.9223 3.6245 6.04552
165 2 0.366817 11.1405 2.3822 5.00834
166 1 -0.990309 12.1274 2.62182 0.266399
167 2 0.555558 0.0950815 3.4316 12.2091
168 2 0.434751 11.5827 2.09095 12.0172
169 1 -0.812487 4.24693 5.6431 3.68102
170 2 0.402371 3.5882 6.37379 3.86037
171 2 0.410116 4.8469 5.53327 4.47347
172 1 -0.959051 4.13649 10.9042 9.77611
173 2 0.443458 4.97454 10.5618 9.35129
174 2 0.515594 4.14498 10.6873 10.7523
175 1 -0.846202 10.1965 11.2097 8.53707
176 2 0.369703 10.0637 11.4914 7.58679
177 2 0.476499 9.46151 11.5849 9.1018
178 1 -1.03164 8.9442 3.41781 8.77741
179 2 0.448097 8.11474 3.65684 9.28226
180 2 0.58354 8.71881 3.27741 7.8133
181 1 -0.952564 0.572002 7.49231 10.7213
182 2 0.455674 0.723862 8.11182 11.4914
183 2 0.49689 0.962457 7.89046 9.89119
184 1 -0.792251 3.72469 4.65956 11.3568
185 2 0.384856 4.54079 4.41698 10.8322
186 2 0.407395 2.93334 4.69161 10.7463
187 1 -0.980965 9.49914 12.3657 5.06962
188 2 0.556477 9.96333 12.0775 4.23208
189 2 0.424488 8.51611 12.2071 4.97736
190 1 -1.14099 3.49157 10.2066 3.84649
191 2 0.500387 3.01611 9.84836 4.65001
192 2 0.640603 3.19287 9.70807 3.03267
