ITEM: TIMESTEP
0
ITEM: NUMBER OF ATOMS
192
ITEM: BOX BOUNDS pp pp pp
0.0000000000000000e+00 1.2400000000000000e+01
0.0000000000000000e+00 1.2400000000000000e+01
0.0000000000000000e+00 1.2400000000000000e+01
ITEM: ATOMS id type q x y z
1 1 -0.971439 5.10701 8.13225 3.53191
2 2 0.46737 5.42532 9.00883 3.89288
3 2 0.504069 4.16073 8.22337 3.22165
4 1 -0.884286 1.11526 10.0137 10.3189
5 2 0.427945 1.26014 10.9656 10.5889
6 2 0.456341 1.67015 9.80764 9.5129
7 1 -0.866647 5.05949 0.511127 9.60345
8 2 0.426362 5.39498 12.2459 10.2705
9 2 0.440285 5.83215 0.894628 9.09756
10 1 -0.937876 9.28034 10.0789 4.47063
11 2 0.458866 9.94598 10.0459 3.72509
12 2 0.47901 8.79876 9.20429 4.5265
13 1 -1.04305 3.06825 9.19962 5.31252
14 2 0.530727 2.33091 9.3598 5.96878
15 2 0.512321 3.36903 8.24796 5.37479
16 1 -0.891192 8.68955 5.19868 6.53343
17 2 0.417964 8.90263 5.62255 5.65313
18 2 0.473228 9.50307 5.21077 7.11484
19 1 -0.951177 10.2704 7.24757 4.88766
20 2 0.421076 10.4417 7.4347 5.85494
21 2 0.5301 11.1308 7.0108 4.43647
22 1 -0.894345 7.83481 6.97569 12.0281
23 2 0.452953 7.34664 7.62889 0.20691
24 2 0.441392 7.6718 6.04739 12.3623
25 1 -0.991027 6.25887 8.96624 10.1998
26 2 0.496526 6.69959 8.18521 10.6422
27 2 0.494501 5.73729 9.48322 10.8785
28 1 -0.878702 8.92292 4.3807 1.22351
29 2 0.448816 9.53702 4.44385 2.01021
30 2 0.429886 9.46134 4.36136 0.381052
31 1 -0.847344 3.68413 7.14201 11.6774
32 2 0.442799 3.89504 7.26383 10.7075
33 2 0.404546 4.20183 6.36528 12.0361
34 1 -0.862121 11.0019 4.20852 3.24185
35 2 0.411414 11.6325 4.98227 3.30222
36 2 0.450707 11.3283 3.56574 2.54884
37 1 -0.917139 0.0503944 2.88191 9.90558
38 2 0.483757 12.2746 1.99792 9.47238
39 2 0.433382 1.01573 3.11975 9.79806
40 1 -0.957612 6.10582 12.3297 2.20034
41 2 0.52178 5.6711 11.8784 2.97964
42 2 0.435832 7.09452 12.3668 2.34562
43 1 -0.94806 6.38817 2.68294 7.85135
44 2 0.489869 6.94683 2.89791 8.65241
45 2 0.458191 6.85499 1.99641 7.29389
46 1 -0.906858 7.01347 3.00214 3.13144
47 2 0.42068 7.85849 3.37518 3.51458
48 2 0.486179 7.09646 2.94226 2.13669
49 1 -0.919546 3.10097 4.22848 3.34074
50 2 0.473688 2.77662 4.85935 2.6359
51 2 0.445858 4.05194 4.44055 3.56587
52 1 -0.854527 6.84883 8.4412 5.84765
53 2 0.395597 6.13802 8.00681 5.29443
54 2 0.458931 6.42944 9.10166 6.47046
55 1 -0.856141 11.132 12.0803 11.3111
56 2 0.405497 11.9175 0.0317437 10.8017
57 2 0.450644 11.0324 11.1008 11.1361
58 1 -1.13247 3.25933 2.25243 7.26101
59 2 0.563406 4.24772 2.36148 7.36679
60 2 0.569069 3.00195 1.31219 7.48397
61 1 -0.904047 8.52801 7.22877 8.72539
62 2 0.446189 8.28811 6.43903 9.28998
63 2 0.457858 7.94022 7.25126 7.91669
64 1 -0.942113 2.60046 8.07024 1.87599
65 2 0.470416 2.2626 8.96205 2.17687
66 2 0.471697 3.09846 8.17552 1.01523
67 1 -0.934071 11.0617 4.97781 11.497
68 2 0.477258 11.9139 5.45902 11.7023
69 2 0.456813 11.2708 4.07496 11.1213
70 1 -0.901698 3.66485 9.28067 8.77823
71 2 0.41752 3.25933 8.39085 8.56898
72 2 0.484178 4.64168 9.16739 8.95983
73 1 -0.986963 9.60563 2.22728 5.84508
74 2 0.480277 9.16881 3.06143 6.1818
75 2 0.506686 10.5873 2.38488 5.73827
76 1 -0.971051 7.83512 11.5545 10.456
77 2 0.47992 8.49488 12.0373 9.8801
78 2 0.491131 8.19563 10.6519 10.6911
79 1 -1.08099 1.61014 4.10973 6.13637
80 2 0.622054 2.28822 3.50503 6.55417
81 2 0.458938 1.53694 3.90456 5.16039
82 1 -0.826555 10.8762 7.30323 1.06324
83 2 0.417791 10.0503 6.84835 1.39639
84 2 0.408765 11.3454 6.70705 0.411752
85 1 -0.874246 6.89223 0.660685 5.80509
86 2 0.43101 7.88828 0.749124 5.79644
87 2 0.443236 6.50875 1.13285 5.01136
88 1 -0.935368 7.37941 8.89292 1.6298
89 2 0.417573 6.61099 9.44149 1.95935
90 2 0.517795 8.0162 9.47857 1.12828
91 1 -0.99802 2.05963 0.592058 10.5051
92 2 0.518046 3.03014 0.696913 10.288
93 2 0.479974 1.8753 0.984555 11.4062
94 1 -0.873924 12.2505 9.77488 3.27806
95 2 0.425383 11.8929 9.47157 2.39485
96 2 0.448541 0.332366 10.6434 3.16207
97 1 -0.87073 7.50564 1.57253 12.3341
98 2 0.395537 6.54432 1.84786 12.3406
99 2 0.475194 7.61369 0.752472 11.7721
100 1 -0.889335 5.32795 3.80509 11.932
101 2 0.429367 5.01747 2.99687 0.0323
102 2 0.459968 5.26469 4.60844 0.124103
103 1 -0.934215 2.17352 11.0754 2.17029
104 2 0.395524 1.71547 11.3268 1.31768
105 2 0.538691 2.38804 11.9024 2.68994
106 1 -0.804174 0.222193 1.31336 5.16167
107 2 0.398908 1.05654 0.961655 4.7372
108 2 0.405266 0.121452 0.919495 6.07531
109 1 -0.953911 2.85524 1.26267 3.67693
110 2 0.513994 2.68206 2.2469 3.71308
111 2 0.439917 3.33476 0.977884 4.50697
112 1 -0.915316 6.35445 10.763 7.7786
113 2 0.435425 7.17545 11.3278 7.69493
114 2 0.479891 6.40605 10.2222 8.61815
115 1 -0.93584 12.3308 0.180063 8.18443
116 2 0.454611 0.834282 12.3012 8.50992
117 2 0.481229 11.8164 11.7724 7.8962
118 1 -0.855795 8.37803 3.66367 9.96367
119 2 0.407096 9.12228 4.27575 10.231
120 2 0.448699 8.25095 2.96576 10.6685
121 1 -1.01133 0.672849 9.70738 6.70466
122 2 0.437092 12.3325 9.93741 6.07305
123 2 0.574235 0.41928 8.89843 7.23505
124 1 -0.983362 2.42467 6.57712 8.63733
125 2 0.506764 2.82138 6.81368 7.75039
126 2 0.476598 2.61735 5.61775 8.84346
127 1 -0.973718 10.8861 1.94253 1.33242
128 2 0.51473 10.3121 1.58235 2.06782
129 2 0.458987 10.3694 1.94336 0.476258
130 1 -1.08192 3.42514 6.50979 5.93959
131 2 0.561007 4.30696 6.03821 5.94187
132 2 0.520915 2.71896 5.89447 5.58931
133 1 -0.97106 12.0108 7.46902 8.1393
134 2 0.527702 0.10111 7.28977 8.99223
135 2 0.443358 11.4643 6.6682 7.89433
136 1 -0.903362 9.22902 11.1032 0.884026
137 2 0.459715 9.85162 11.0969 0.101514
138 2 0.443648 9.26661 11.9961 1.33271
139 1 -0.969278 9.84031 9.32154 10.7725
140 2 0.495434 9.47773 8.8076 9.99509
141 2 0.473845 10.0078 8.69748 11.5357
142 1 -0.858088 5.96008 5.61126 7.66029
143 2 0.461192 6.65185 5.45659 6.95493
144 2 0.396897 5.36253 4.81182 7.72213
145 1 -0.913498 3.25336 11.7882 6.86353
146 2 0.512711 3.57989 11.1398 7.55125
147 2 0.400787 2.52111 11.3664 6.32882
148 1 -0.888789 0.833024 7.12082 4.03672
149 2 0.49744 0.705037 8.03455 3.65108
150 2 0.39135 1.81059 6.92068 4.10246
151 1 -0.955479 5.56609 4.79665 4.87558
152 2 0.474647 6.25768 5.5071 4.74532
153 2 0.480832 5.66314 4.10225 4.16256
154 1 -0.992104 7.79871 6.4738 3.63974
155 2 0.50376 8.5531 6.7737 4.22365
156 2 0.488344 7.30179 7.27259 3.3006
157 1 -0.899615 1.7585 4.9218 0.453564
158 2 0.476966 1.98118 5.8965 0.434308
159 2 0.422648 1.93127 4.52254 11.9531
160 1 -1.00649 4.03829 1.34145 0.63552
161 2 0.475438 4.70614 1.15873 1.35704
162 2 0.531053 3.18558 1.66589 1.04496
163 1 -1.01957 11.5146 4.3909 7.21556
164 2 0.417848 11.6364 4.08657 8.16032
165 2 0.60172 12.3855 4.32333 6.72875
166 1 -0.988078 1.26386 1.91443 0.954646
167 2 0.475796 1.09043 2.8795 0.758238
168 2 0.512282 0.397098 1.45052 1.13773
169 1 -0.993363 5.66721 5.63859 1.8349
170 2 0.473039 5.25512 6.42259 2.29915
171 2 0.520324 6.56086 5.44375 2.23916
172 1 -0.873863 4.91142 10.6273 0.119311
173 2 0.469936 5.3358 11.5304 0.186004
174 2 0.403927 4.25714 10.5105 0.866487
175 1 -0.873212 9.87429 10.3783 7.51079
176 2 0.451845 9.76692 10.2599 6.52364
177 2 0.421367 9.79976 9.48963 7.9632
178 1 -0.856884 9.18897 1.19517 8.70913
179 2 0.422912 9.21235 2.13591 8.37078
180 2 0.433972 9.96973 0.689443 8.34217
181 1 -0.971528 0.727895 7.04076 11.004
182 2 0.469115 1.62743 6.79862 10.6403
183 2 0.502414 0.668916 8.03292 11.1141
184 1 -0.962595 3.11507 3.79444 9.98506
185 2 0.538254 3.94176 3.47513 10.4483
186 2 0.424341 2.91978 3.20046 9.20464
187 1 -0.984331 9.45519 0.412079 3.47607
188 2 0.502102 9.08341 12.0409 3.99283
189 2 0.482229 9.54547 1.20478 4.07897
190 1 -1.0785 5.34524 10.9462 4.65626
191 2 0.564004 5.84886 11.2415 5.46816
192 2 0.514493 4.59773 10.3408 4.92956
