ITEM: TIMESTEP
0
ITEM: NUMBER OF ATOMS
192
ITEM: BOX BOUNDS pp pp pp
0.0000000000000000e+00 1.2400000000000000e+01
0.0000000000000000e+00 1.2400000000000000e+01
0.0000000000000000e+00 1.2400000000000000e+01
ITEM: ATOMS id type q x y z
1 1 -0.894663 4.11825 7.56253 3.22205
2 2 0.450914 4.94122 7.10994 3.56541
3 2 0.443749 3.67977 6.98152 2.53636
4 1 -0.870013 0.952465 9.60983 12.0615
5 2 0.400764 1.83103 9.35361 0.0646
6 2 0.469249 0.877568 10.6066 12.0313
7 1 -0.857914 4.13888 11.5518 10.2076
8 2 0.413066 4.96365 12.058 9.95565
9 2 0.444847 4.23896 10.5948 9.93533
10 1 -1.02442 8.33475 11.5067 5.11262
11 2 0.539008 7.60233 10.8273 5.15674
12 2 0.485415 8.22612 12.0608 4.2873
13 1 -1.05125 2.42049 10.2389 4.90243
14 2 0.553034 1.76576 10.1744 4.14932
15 2 0.49822 2.40108 9.3924 5.43447
16 1 -0.777669 6.45393 4.79421 7.19395
17 2 0.428202 6.40293 4.51619 6.23473
18 2 0.349467 6.87491 5.6991 7.2568
19 1 -0.940473 11.086 9.3772 6.24602
20 2 0.465185 10.1377 9.15614 6.01828
21 2 0.475288 11.6502 8.55634 6.1572
22 1 -0.971399 7.92587 6.31613 0.4554
23 2 0.532692 8.07742 6.92136 1.2369
24 2 0.438707 8.77476 5.8348 0.237001
25 1 -0.870684 6.6329 7.47294 9.18339
26 2 0.426811 6.93245 6.57404 9.50316
27 2 0.443872 7.43163 8.02387 8.94147
28 1 -1.01292 8.87417 3.21912 0.835653
29 2 0.497383 8.1991 3.57271 1.48316
30 2 0.515539 9.54143 2.65651 1.32374
31 1 -1.04973 5.12252 7.39096 12.3364
32 2 0.520842 5.10921 8.08155 11.6133
33 2 0.528891 5.8921 6.76948 12.1897
34 1 -0.970343 0.947681 6.35921 2.76742
35 2 0.510033 1.1281 6.51455 1.79617
36 2 0.46031 0.336118 5.57489 2.87158
37 1 -0.821023 11.2467 2.21868 9.82063
38 2 0.442162 11.7016 1.54136 9.2424
39 2 0.378861 10.8219 1.75949 10.6008
40 1 -0.944027 7.6889 0.402871 2.46988
41 2 0.511485 6.74249 0.0867476 2.53613
42 2 0.432541 7.91904 0.567299 1.51071
43 1 -1.08619 6.24251 1.52058 9.34515
44 2 0.544689 6.93506 1.15343 8.72419
45 2 0.541502 5.45622 1.83991 8.81622
46 1 -0.822959 5.42717 2.90281 4.24177
47 2 0.446575 6.12069 3.62214 4.20181
48 2 0.376383 4.96347 2.83739 3.35819
49 1 -0.827631 3.2265 4.27444 2.02071
50 2 0.381052 3.7762 3.68145 1.43232
51 2 0.446579 2.94378 5.08438 1.50683
52 1 -1.03727 8.91109 7.0579 5.72552
53 2 0.485803 8.17429 7.7183 5.58058
54 2 0.551466 9.08422 6.96142 6.70568
55 1 -0.888749 10.4891 11.7589 11.0697
56 2 0.406015 10.2774 0.310482 11.2926
57 2 0.482734 11.3128 11.7244 10.5037
58 1 -0.962724 3.67787 2.35916 7.94684
59 2 0.500052 2.9889 2.68122 8.59614
60 2 0.462673 3.31301 1.5843 7.43063
61 1 -0.951178 9.79609 6.28021 8.39848
62 2 0.461825 10.2023 6.94874 9.02146
63 2 0.489352 9.67075 5.41138 8.87748
64 1 -0.970931 0.472335 9.36542 2.81535
65 2 0.494872 0.172898 9.90282 2.02697
66 2 0.476059 0.424939 8.39173 2.59245
67 1 -0.918379 11.5539 4.95267 12.2259
68 2 0.433209 11.9574 5.54555 11.529
69 2 0.48517 11.0244 5.50633 0.46863
70 1 -0.885336 3.95892 8.31837 9.90628
71 2 0.416282 2.99125 8.424 9.67725
72 2 0.469054 4.4549 7.97605 9.10826
73 1 -0.93985 10.2056 2.94316 6.70125
74 2 0.467212 9.60267 2.35085 7.2357
75 2 0.472639 10.2339 3.85222 7.11695
76 1 -0.944553 8.17524 9.95981 9.31594
77 2 0.445671 7.30451 9.82049 9.78756
78 2 0.498882 8.56346 10.8409 9.58618
79 1 -0.887269 3.03026 4.74824 4.99151
80 2 0.448896 3.41093 3.83362 4.85522
81 2 0.438374 2.798 5.14814 4.10487
82 1 -1.00832 10.8018 7.48179 0.915871
83 2 0.513321 10.4439 8.39917 0.741631
84 2 0.494995 10.5465 7.19418 1.83898
85 1 -0.89364 5.6026 0.0674948 6.2768
86 2 0.460551 4.70348 12.3707 6.70367
87 2 0.43309 5.70339 0.995688 5.9186
88 1 -0.841984 7.28093 8.77488 2.23937
89 2 0.409668 7.10811 9.34553 1.43657
90 2 0.432316 7.15651 9.3197 3.06865
91 1 -0.928485 1.29366 12.3795 10.8789
92 2 0.493829 2.10224 11.8391 10.6463
93 2 0.434656 1.5482 0.94341 10.9572
94 1 -0.913632 10.0251 10.3112 0.986816
95 2 0.502691 10.3948 10.7915 0.191457
96 2 0.410941 9.11631 10.6697 1.20003
97 1 -1.02993 7.58433 0.861695 11.8169
98 2 0.550127 6.974 1.21198 11.1064
99 2 0.4798 7.8809 1.61569 0.003
100 1 -0.949968 4.50932 2.13162 12.2291
101 2 0.437424 4.31021 1.85366 11.2894
102 2 0.512544 4.90333 1.36006 0.328562
103 1 -0.905726 1.18311 12.1417 1.68203
104 2 0.472417 1.66107 0.031207 2.51132
105 2 0.433309 1.20166 0.482589 1.01069
106 1 -0.879984 11.6606 3.56984 3.30486
107 2 0.451761 11.8451 3.13825 4.18785
108 2 0.428222 11.0488 2.98686 2.77027
109 1 -0.988353 2.53236 0.578451 4.24093
110 2 0.505772 1.89632 1.17702 4.72794
111 2 0.482581 2.63204 12.1192 4.74271
112 1 -0.928884 7.29245 9.08798 6.67581
113 2 0.429312 6.332 8.84912 6.81894
114 2 0.499572 7.6238 9.61867 7.45593
115 1 -0.92109 0.575047 2.0761 5.81998
116 2 0.492168 0.165503 2.80112 6.37372
117 2 0.428922 12.3204 1.32764 5.71381
118 1 -0.958647 9.10778 4.10559 10.263
119 2 0.488069 10.0066 3.68397 10.1431
120 2 0.470578 8.80293 3.97805 11.2068
121 1 -0.931449 11.189 12.1568 4.18287
122 2 0.45755 11.7413 11.3313 4.06612
123 2 0.473899 10.3758 11.9401 4.72304
124 1 -1.04447 3.61154 5.39975 8.47715
125 2 0.516503 4.55835 5.59033 8.73646
126 2 0.527968 3.57076 4.53547 7.97578
127 1 -1.00127 10.6922 1.04756 1.56507
128 2 0.527316 10.504 0.440921 2.33745
129 2 0.473958 11.6285 0.900483 1.2462
130 1 -0.887218 3.68579 7.8089 6.2825
131 2 0.433905 4.13048 7.92624 5.39454
132 2 0.453313 3.71366 6.8442 6.54438
133 1 -0.83299 1.42745 9.21039 7.66107
134 2 0.389207 0.786654 9.02111 8.40508
135 2 0.443783 1.10521 8.7695 6.82334
136 1 -0.916958 6.59503 10.6573 12.0278
137 2 0.400199 5.68181 10.65 0.0352144
138 2 0.516759 6.90696 11.6019 11.9258
139 1 -0.90694 11.1589 8.81624 10.1123
140 2 0.433301 10.3305 9.34829 10.2873
141 2 0.473639 11.7533 8.85091 10.9157
142 1 -0.845339 5.92138 4.51785 10.8057
143 2 0.425153 6.85964 4.47854 10.462
144 2 0.420187 5.59266 3.59046 10.9843
145 1 -0.924834 2.97559 12.0115 7.36556
146 2 0.404729 2.17725 12.2795 7.90485
147 2 0.520105 2.74438 11.2214 6.79784
148 1 -0.986709 0.847423 7.22138 5.69134
149 2 0.508452 0.590043 7.19807 4.72531
150 2 0.478257 1.81196 6.97473 5.78537
151 1 -0.964749 6.52425 5.69729 4.02236
152 2 0.458091 7.41668 6.13404 4.13557
153 2 0.506658 6.53421 5.12654 3.2013
154 1 -1.01042 9.79926 6.08711 3.1728
155 2 0.552294 9.66993 6.385 4.11861
156 2 0.458125 10.2451 5.19205 3.16324
157 1 -1.09847 2.4985 6.76217 0.446911
158 2 0.528012 1.94018 6.57007 12.0398
159 2 0.570454 3.46679 6.70295 0.204191
160 1 -1.03504 4.88498 12.3384 1.84822
161 2 0.490512 4.29938 0.326123 2.56008
162 2 0.544531 4.68683 11.3634 1.74802
163 1 -0.792716 0.12154 4.88646 7.61139
164 2 0.399908 0.269168 5.7015 8.17167
165 2 0.392807 0.870542 4.79269 6.95549
166 1 -0.98931 0.995116 2.49701 0.527444
167 2 0.522534 0.371492 3.24641 0.30499
168 2 0.466777 1.63188 2.79338 1.23927
169 1 -0.976303 6.24386 4.29138 1.6605
170 2 0.435954 5.59869 3.67374 1.21074
171 2 0.54035 6.48751 5.03229 1.03465
172 1 -0.941589 3.72606 9.8089 1.0374
173 2 0.504364 4.30403 9.02924 0.796415
174 2 0.437225 2.81938 9.48194 1.30393
175 1 -0.894225 11.544 11.9207 7.77322
176 2 0.339014 12.3788 12.332 7.40723
177 2 0.55521 11.3485 11.0712 7.28328
178 1 -0.983315 8.61309 0.429928 7.66983
179 2 0.444659 9.60474 0.329094 7.58937
180 2 0.538656 8.1653 12.3154 6.93859
181 1 -0.955974 1.48457 6.26775 10.03
182 2 0.595036 2.25835 5.97219 9.46976
183 2 0.360938 1.00845 7.01817 9.57158
184 1 -0.964265 1.7749 2.65096 9.96698
185 2 0.494867 0.87254 2.96496 9.67175
186 2 0.469399 1.81692 2.64953 10.9661
187 1 -0.852163 8.60823 3.2671 4.11083
188 2 0.405092 8.16551 2.37477 4.02267
189 2 0.447071 9.34961 3.2068 4.77919
190 1 -0.946425 5.65359 10.2445 4.11351
191 2 0.481816 5.04377 10.7659 4.71041
192 2 0.46461 5.12924 9.54089 3.63392
