ITEM: TIMESTEP
0
ITEM: NUMBER OF ATOMS
192
ITEM: BOX BOUNDS pp pp pp
0.0000000000000000e+00 1.2400000000000000e+01
0.0000000000000000e+00 1.2400000000000000e+01
0.0000000000000000e+00 1.2400000000000000e+01
ITEM: ATOMS id type q x y z
1 1 -0.913022 4.46134 8.2587 4.70234
2 2 0.462456 4.55845 7.41854 4.16878
3 2 0.450566 3.566 8.66618 4.52248
4 1 -0.902188 1.37502 9.84008 0.931514
5 2 0.411362 1.2746 9.51783 12.3902
6 2 0.490826 0.999234 10.7635 1.0096
7 1 -1.04832 2.84523 0.119693 11.0686
8 2 0.581991 3.35364 0.298901 10.2263
9 2 0.466324 2.26612 11.7141 10.9434
10 1 -0.904057 8.00618 0.950116 3.84306
11 2 0.419572 7.73641 12.3897 3.91264
12 2 0.484486 7.31184 1.45509 3.33033
13 1 -0.999597 3.55482 10.0571 7.33888
14 2 0.572726 3.00052 9.25014 7.5429
15 2 0.426871 3.81561 10.0469 6.37353
16 1 -0.928705 7.11014 2.66362 6.48537
17 2 0.48473 7.22082 3.07161 7.39162
18 2 0.443975 7.82849 1.98424 6.33567
19 1 -0.851074 9.43469 8.63551 5.17985
20 2 0.446352 9.99982 8.36417 4.40075
21 2 0.404722 8.7387 7.93697 5.34614
22 1 -0.873805 7.22176 6.80387 0.311381
23 2 0.431284 6.64784 7.42958 12.1831
24 2 0.442521 7.53929 6.06284 12.1197
25 1 -0.995623 9.618 6.11248 10.9916
26 2 0.506945 9.60451 5.21985 10.541
27 2 0.488679 9.43492 6.82864 10.3181
28 1 -0.971744 8.54822 3.14071 12.0753
29 2 0.475952 8.29325 3.61257 0.519317
30 2 0.495792 9.54188 3.16684 11.9659
31 1 -0.851923 5.17978 8.22436 10.6155
32 2 0.451319 4.59149 9.02306 10.489
33 2 0.400604 6.09479 8.42559 10.2658
34 1 -1.07875 1.70979 7.93362 3.36644
35 2 0.514558 1.84676 8.45198 2.52232
36 2 0.56419 1.22408 7.08403 3.16079
37 1 -0.933343 9.7918 1.16114 7.64753
38 2 0.515694 10.1227 0.511903 6.96271
39 2 0.417649 8.81955 1.00006 7.81721
40 1 -0.98015 6.40444 2.46642 1.819
41 2 0.467058 5.43754 2.47688 2.07397
42 2 0.513092 6.82189 3.34292 2.05875
43 1 -0.89888 6.83466 0.816859 9.15824
44 2 0.366242 6.65965 1.66491 9.65843
45 2 0.532638 5.96642 0.421092 8.85903
46 1 -0.946048 4.72026 4.05833 5.77162
47 2 0.55684 5.53236 3.74379 6.26309
48 2 0.389208 4.41346 3.34372 5.14296
49 1 -0.908444 2.74741 4.6344 2.64159
50 2 0.435324 2.41529 4.18256 1.81362
51 2 0.47312 1.96901 4.91851 3.20139
52 1 -0.884113 9.7091 4.61426 6.45574
53 2 0.438214 8.74641 4.45036 6.2404
54 2 0.445899 9.87044 4.42728 7.42477
55 1 -0.967524 9.56178 12.2976 11.176
56 2 0.486585 9.08727 0.233507 11.9896
57 2 0.48094 10.2692 0.552014 10.9087
58 1 -0.995508 3.66665 2.79713 8.31684
59 2 0.453274 2.74499 2.99207 7.98136
60 2 0.542234 4.02647 3.60163 8.7894
61 1 -0.845023 11.5222 6.78596 7.76509
62 2 0.458659 10.5223 6.78539 7.75241
63 2 0.386365 11.847 7.47594 8.41197
64 1 -0.939416 11.855 10.2616 3.27253
65 2 0.477119 11.3582 10.3075 2.4059
66 2 0.462296 0.435984 10.1926 3.09111
67 1 -1.01341 11.3369 2.72185 12.1773
68 2 0.522875 11.8755 2.28341 11.4578
69 2 0.490538 11.8483 3.49515 0.152194
70 1 -0.889476 2.27064 9.76722 10.1534
71 2 0.435932 2.6077 10.2397 9.33905
72 2 0.453544 1.97617 8.8443 9.90541
73 1 -0.943786 10.5838 3.05884 3.9844
74 2 0.467462 10.401 3.00945 4.9663
75 2 0.476324 11.4522 2.60535 3.7838
76 1 -1.00551 7.99586 10.1206 9.85998
77 2 0.460709 7.21268 10.7422 9.84373
78 2 0.544805 8.76858 10.5697 10.3086
79 1 -1.06429 2.47708 5.66082 5.61059
80 2 0.616112 3.36031 5.20768 5.48987
81 2 0.448179 2.4942 6.55108 5.15546
82 1 -1.0544 12.0538 5.5329 0.25442
83 2 0.560848 11.2307 5.87426 12.2005
84 2 0.493551 0.420435 5.55136 12.0126
85 1 -0.984974 5.34219 12.2425 5.69499
86 2 0.544187 6.11618 11.8002 6.14804
87 2 0.440787 5.07027 0.652505 6.21463
88 1 -0.965959 7.20616 10.1155 1.06178
89 2 0.446271 7.19643 10.979 0.557566
90 2 0.519688 7.1284 10.3006 2.04142
91 1 -1.024 12.2076 1.03891 9.78178
92 2 0.581984 12.2394 0.181134 9.26873
93 2 0.442017 0.447706 1.69263 9.37814
94 1 -0.924396 10.0754 9.79454 0.392375
95 2 0.433448 10.5282 10.5245 12.2804
96 2 0.490948 9.0966 9.9894 0.455518
97 1 -0.977862 6.59924 0.271735 12.2297
98 2 0.445888 6.48744 0.645284 11.3089
99 2 0.531974 6.83731 1.00907 0.461902
100 1 -0.921718 2.7693 2.9379 12.2103
101 2 0.396676 2.1219 3.56202 11.7728
102 2 0.525042 2.58506 2.00208 11.9098
103 1 -0.942971 0.0332657 12.2262 0.773039
104 2 0.553621 11.6204 0.405662 0.713976
105 2 0.38935 0.767692 0.225182 0.224019
106 1 -1.00657 12.3691 5.66237 3.08836
107 2 0.464493 12.0543 4.88856 3.638
108 2 0.54208 12.079 5.53727 2.13958
109 1 -0.808567 2.56946 11.4894 4.33549
110 2 0.402811 2.05042 11.9262 5.07019
111 2 0.405756 3.51637 11.3579 4.6289
112 1 -0.948188 8.33692 7.46598 8.67614
113 2 0.497505 7.5946 7.37217 8.0127
114 2 0.450683 8.32996 8.3912 9.05553
115 1 -0.887494 1.20211 1.47873 6.68832
116 2 0.517633 0.726412 2.3559 6.62281
117 2 0.369862 0.716833 0.794857 6.14349
118 1 -0.989502 10.2878 3.68055 9.30831
119 2 0.552479 10.1455 2.77891 8.8999
120 2 0.437024 11.264 3.82165 9.47294
121 1 -0.941954 10.6558 12.104 5.14658
122 2 0.511866 11.1207 11.36 4.66661
123 2 0.430089 9.88356 0.0237299 4.5976
124 1 -0.921574 7.10499 4.02201 9.20051
125 2 0.44819 7.79646 3.71027 9.85219
126 2 0.473384 6.25031 4.20844 9.68504
127 1 -0.979021 9.76774 1.00035 1.42965
128 2 0.502046 9.38688 1.1176 2.34682
129 2 0.476975 9.96621 1.89705 1.03399
130 1 -1.06389 5.86084 6.91371 7.16016
131 2 0.46402 5.37308 7.76504 6.96694
132 2 0.599867 6.32369 6.59924 6.33138
133 1 -1.06869 2.27167 7.67049 7.89568
134 2 0.524314 1.49625 7.69822 7.26483
135 2 0.54438 2.749 6.7971 7.79897
136 1 -0.874829 4.27922 10.4477 0.450706
137 2 0.430318 3.76388 11.0996 12.2944
138 2 0.444512 5.25296 10.6718 0.410422
139 1 -0.856078 11.1825 8.78543 10.0443
140 2 0.445451 10.2957 8.84842 10.5023
141 2 0.410627 11.8205 8.27629 10.622
142 1 -0.914118 5.20815 3.96698 11.3597
143 2 0.376749 6.10819 3.71085 11.7123
144 2 0.537369 4.49736 3.57213 11.9419
145 1 -1.20765 4.23229 0.161869 8.66058
146 2 0.579569 3.97707 11.8293 8.02951
147 2 0.62808 3.82452 1.02228 8.35494
148 1 -0.942087 0.555637 9.27921 5.75003
149 2 0.421091 11.988 9.51978 5.67429
150 2 0.520996 0.887299 8.94941 4.86615
151 1 -1.02223 7.34325 6.13933 4.8109
152 2 0.436996 8.24686 6.04931 4.39209
153 2 0.585233 6.65001 6.21709 4.09441
154 1 -0.937757 9.5024 7.26624 2.35003
155 2 0.456917 10.1756 7.90746 1.98169
156 2 0.480841 8.67066 7.30132 1.79598
157 1 -1.01495 1.83613 6.39698 11.0312
158 2 0.502791 2.47792 6.45151 10.2663
159 2 0.512161 2.29091 6.69661 11.8699
160 1 -0.834061 3.46685 0.85317 2.02136
161 2 0.400536 2.73613 0.479137 2.59247
162 2 0.433525 3.75086 0.16698 1.35167
163 1 -1.17076 0.427314 4.22586 6.71082
164 2 0.542877 11.9217 4.64973 6.72704
165 2 0.627882 1.09629 4.88203 6.36165
166 1 -0.838139 0.936685 2.0219 2.99972
167 2 0.438367 1.92307 2.11612 3.1345
168 2 0.399772 0.762792 1.49065 2.17054
169 1 -1.03256 5.49125 5.85618 2.83974
170 2 0.475671 5.96926 5.77741 1.96492
171 2 0.556889 4.51957 5.66037 2.70746
172 1 -0.87744 4.17219 7.50898 0.899872
173 2 0.381898 5.02566 7.27687 0.433258
174 2 0.495542 4.17312 8.48164 1.1321
175 1 -0.929893 12.1423 11.0027 8.21992
176 2 0.476386 11.8325 10.1945 8.72069
177 2 0.453507 0.0269274 10.7357 7.29924
178 1 -0.950745 7.76396 10.9266 6.79643
179 2 0.449806 7.96664 10.6722 7.74204
180 2 0.500939 8.37752 10.4334 6.17972
181 1 -1.04399 4.19765 5.70486 9.00398
182 2 0.44411 4.39304 6.12565 9.88985
183 2 0.59988 4.91177 5.95638 8.35071
184 1 -0.963016 1.04813 3.85145 9.52594
185 2 0.521885 0.949131 3.94136 8.53492
186 2 0.441131 1.15554 4.75815 9.93382
187 1 -1.06652 8.52383 4.27062 2.29255
188 2 0.55583 8.87033 3.80473 3.10673
189 2 0.510694 8.93076 5.18204 2.23149
190 1 -0.94651 6.46821 10.3637 3.75926
191 2 0.467697 5.95369 11.1255 4.15277
192 2 0.478813 5.89772 9.54236 3.75635
