ITEM: TIMESTEP
0
ITEM: NUMBER OF ATOMS
192
ITEM: BOX BOUNDS pp pp pp
0.0000000000000000e+00 1.2400000000000000e+01
0.0000000000000000e+00 1.2400000000000000e+01
0.0000000000000000e+00 1.2400000000000000e+01
ITEM: ATOMS id type q x y z
1 1 -0.756274 3.9848 9.93917 5.7553
2 2 0.410426 4.21569 10.7073 5.15813
3 2 0.345848 3.71856 9.15237 5.19847
4 1 -0.891824 1.07654 10.1806 2.45425
5 2 0.474608 0.1558 9.82892 2.2851
6 2 0.417216 1.11982 11.1434 2.1876
7 1 -0.917565 3.87965 12.044 11.6007
8 2 0.510803 4.00197 12.2072 10.6217
9 2 0.406762 2.94243 11.7412 11.7736
10 1 -0.883007 7.53606 1.41737 3.59951
11 2 0.371156 8.35238 1.77224 4.05525
12 2 0.511852 6.9411 0.980364 4.27408
13 1 -1.01197 5.23228 8.73144 9.46743
14 2 0.506369 5.4374 7.96097 8.86385
15 2 0.505599 4.94794 9.51791 8.91914
16 1 -0.968091 6.42898 3.08095 6.08529
17 2 0.495569 6.50233 3.14859 7.0803
18 2 0.472522 6.37311 3.99867 5.69201
19 1 -0.968758 9.60281 9.16945 7.04262
20 2 0.468796 9.62897 8.80443 6.11198
21 2 0.499962 10.3915 9.76658 7.18876
22 1 -0.939718 5.39228 5.58972 11.3346
23 2 0.492347 6.35508 5.59232 11.6048
24 2 0.447371 5.0143 6.50964 11.439
25 1 -1.00575 8.21747 5.81128 11.8366
26 2 0.483196 8.64587 4.91779 11.9713
27 2 0.522559 8.43967 6.15318 10.9235
28 1 -0.994078 9.06925 3.03154 11.0416
29 2 0.491058 8.99135 2.67576 11.9729
30 2 0.503021 10.0123 2.93171 10.7244
31 1 -0.974327 6.78917 9.08003 11.6632
32 2 0.396731 6.83181 10.0577 11.8691
33 2 0.577595 6.10867 8.91936 10.9483
34 1 -0.967601 1.89817 7.72652 3.83068
35 2 0.451336 1.51022 8.64527 3.75712
36 2 0.516264 2.07246 7.36399 2.91515
37 1 -0.820189 9.52109 0.507441 7.69398
38 2 0.42943 9.76203 0.0196971 6.85489
39 2 0.390759 8.78071 1.15219 7.50387
40 1 -0.765163 6.43421 4.06493 2.11242
41 2 0.359376 6.44952 4.24261 1.12845
42 2 0.405787 7.31277 4.32649 2.51208
43 1 -0.9458 7.14011 0.671737 10.0164
44 2 0.470554 8.13999 0.682322 10.0276
45 2 0.475247 6.79232 1.29586 10.7161
46 1 -0.869891 3.82525 3.30091 4.78545
47 2 0.431872 3.91225 3.22583 3.79208
48 2 0.438019 4.69304 3.05244 5.2158
49 1 -1.00543 2.56283 6.16286 1.40707
50 2 0.468221 2.71709 5.2283 1.08644
51 2 0.537209 2.57196 6.78863 0.627119
52 1 -0.824838 9.36748 4.02946 7.1943
53 2 0.420697 9.06453 4.46837 8.04023
54 2 0.40414 9.17475 4.63105 6.41909
55 1 -0.922398 9.6357 0.1525 11.5828
56 2 0.488056 9.23041 0.936787 12.0525
57 2 0.434343 10.5856 0.358944 11.348
58 1 -1.12781 2.06273 1.60724 7.23778
59 2 0.586361 1.75327 1.25048 6.35633
60 2 0.541446 1.88772 2.59093 7.27925
61 1 -0.85801 11.5268 6.44583 6.80069
62 2 0.422156 0.0473 6.72429 6.52666
63 2 0.435854 10.8549 7.05438 6.3785
64 1 -0.948161 11.497 0.266614 2.3182
65 2 0.468032 10.9722 11.8206 2.41224
66 2 0.480129 12.1562 0.168814 1.57264
67 1 -0.965435 12.1481 3.54991 0.32392
68 2 0.462921 0.244585 3.05571 12.0103
69 2 0.502515 12.0291 4.50364 0.047783
70 1 -1.00759 1.78411 9.92486 10.5269
71 2 0.473921 0.99776 9.36483 10.7877
72 2 0.533664 1.50674 10.584 9.82785
73 1 -1.00341 10.6058 2.16456 4.96137
74 2 0.46133 10.5582 2.65097 5.8338
75 2 0.542078 10.7426 1.18857 5.1309
76 1 -1.03696 8.94578 10.1202 10.3011
77 2 0.493301 8.1276 9.62512 10.5934
78 2 0.543664 8.98561 11.0035 10.7683
79 1 -1.02669 3.56629 6.00005 5.8386
80 2 0.51632 3.85642 5.09126 5.53872
81 2 0.510371 3.20927 6.51091 5.05657
82 1 -0.921186 11.6398 6.37954 12.0542
83 2 0.390769 10.804 6.92836 12.0642
84 2 0.530417 11.9714 6.29435 11.1146
85 1 -1.00347 5.80028 0.1767 5.73663
86 2 0.568481 6.00881 11.7832 6.30831
87 2 0.434993 5.72493 0.991297 6.31175
88 1 -1.03482 9.03163 10.9297 2.89983
89 2 0.486721 8.58728 11.1791 2.03941
90 2 0.548103 8.5442 10.1624 3.31652
91 1 -1.08318 0.71266 12.1604 8.78814
92 2 0.603841 1.34836 0.388709 8.33966
93 2 0.479343 12.2109 0.187915 8.85212
94 1 -0.876675 10.8548 9.33466 1.07919
95 2 0.406119 10.7999 8.82866 0.218399
96 2 0.470556 9.94626 9.38691 1.49367
97 1 -0.952542 6.461 11.8892 0.721319
98 2 0.487893 5.96408 12.0308 12.2652
99 2 0.464649 6.37244 0.302301 1.29662
100 1 -0.95311 2.04977 2.48239 10.8632
101 2 0.449028 2.53609 2.6575 11.7192
102 2 0.504082 2.61829 2.76925 10.0921
103 1 -0.945762 0.707244 0.0167719 12.3304
104 2 0.521596 1.05593 0.575414 11.5779
105 2 0.424166 0.56863 11.4787 12.0128
106 1 -0.920133 11.6626 5.5207 2.44363
107 2 0.492062 0.0299 4.88062 2.40292
108 2 0.428072 11.8419 6.29498 1.83672
109 1 -0.883666 3.92333 0.157932 3.43925
110 2 0.4167 2.97098 0.258986 3.72703
111 2 0.466967 4.52758 0.486014 4.16537
112 1 -0.911734 8.6569 7.15678 9.25046
113 2 0.406781 7.69432 7.10968 8.98357
114 2 0.504952 9.08537 7.94816 8.81443
115 1 -0.95653 1.13513 0 5.0259
116 2 0.475532 0.373522 0.292711 4.44772
117 2 0.480998 0.964935 11.4718 5.35676
118 1 -0.888431 11.4789 2.72137 9.16357
119 2 0.418189 11.0947 2.59906 8.24844
120 2 0.470242 11.962 3.59579 9.20814
121 1 -1.07454 10.4771 11.7455 5.25339
122 2 0.479512 10.7062 10.9453 5.80755
123 2 0.595023 9.865 11.4728 4.51114
124 1 -1.0607 6.62354 3.74624 8.92068
125 2 0.516261 6.52935 4.73147 9.06374
126 2 0.544442 7.02577 3.32809 9.73515
127 1 -1.07369 9.20307 2.07631 1.35082
128 2 0.558574 8.48504 2.02199 2.0447
129 2 0.51512 10.0879 1.87287 1.77008
130 1 -1.07751 5.77179 6.31366 7.7023
131 2 0.505827 4.78317 6.23658 7.57305
132 2 0.57168 6.21769 6.41112 6.81254
133 1 -0.986563 1.84259 7.79716 7.34356
134 2 0.527805 2.35321 7.41071 8.11163
135 2 0.458758 2.42837 7.82378 6.53352
136 1 -1.00857 4.62441 9.71029 2.04002
137 2 0.536624 5.30338 10.3638 1.7055
138 2 0.471949 3.75682 10.1821 2.19723
139 1 -0.949304 11.5134 8.88355 9.99267
140 2 0.545243 10.6352 9.36025 10.0322
141 2 0.40406 11.5865 8.39093 9.12549
142 1 -0.904861 5.35145 2.48588 11.49
143 2 0.422242 5.02246 3.14769 10.8164
144 2 0.48262 4.65254 2.34936 12.1921
145 1 -0.883646 4.11537 0.246804 8.87975
146 2 0.403739 5.08719 0.468943 8.80075
147 2 0.479907 3.57067 0.993212 8.49742
148 1 -0.884137 10.7492 8.13269 4.19813
149 2 0.412289 11.6627 7.77208 4.00951
150 2 0.471848 10.1358 7.89765 3.44414
151 1 -1.042 7.11672 5.88761 5.0939
152 2 0.547493 7.96275 5.50942 4.71813
153 2 0.494506 6.5419 6.2242 4.34805
154 1 -0.945779 8.34388 7.90729 1.7699
155 2 0.465572 7.6029 8.43521 1.35486
156 2 0.480207 8.54588 7.11105 1.19963
157 1 -0.999741 3.32736 6.36483 9.41413
158 2 0.51275 4.06192 5.68628 9.41196
159 2 0.486991 3.46835 7.0063 10.1682
160 1 -0.937741 2.93209 2.80537 1.14708
161 2 0.47501 2.00915 3.12346 1.36389
162 2 0.462731 3.23271 2.1545 1.84422
163 1 -0.889232 1.22285 4.39346 6.49657
164 2 0.461124 1.88634 5.13408 6.60264
165 2 0.428108 0.586072 4.61942 5.75937
166 1 -0.920531 0.49859 3.07615 3.08993
167 2 0.454187 0.1176 2.55469 3.85341
168 2 0.466345 12.3244 2.95051 2.28093
169 1 -0.942517 4.87634 6.97854 2.98326
170 2 0.439326 4.87441 7.97736 2.93475
171 2 0.503191 4.18258 6.61333 2.36252
172 1 -1.07952 3.58541 8.14433 12.0925
173 2 0.530536 3.94962 8.66402 0.465321
174 2 0.548982 3.15361 8.7707 11.4435
175 1 -1.08559 12.3114 10.0861 6.98908
176 2 0.55082 0.342673 10.8235 7.50898
177 2 0.534772 0.498905 9.27707 7.00815
178 1 -0.975008 6.93194 10.7384 7.57052
179 2 0.455256 6.89844 11.3078 8.39184
180 2 0.519752 7.76112 10.1796 7.58593
181 1 -0.949028 3.90255 3.33751 8.80539
182 2 0.519522 4.90079 3.37998 8.76374
183 2 0.429505 3.5471 2.99169 7.93702
184 1 -0.994769 0.308969 5.64134 9.35172
185 2 0.513754 12.2038 5.77756 8.49952
186 2 0.481016 1.21342 6.06075 9.27378
187 1 -1.04063 9.14834 4.32129 3.72148
188 2 0.506985 9.41843 3.41251 4.03956
189 2 0.53365 9.87564 4.7051 3.15251
190 1 -0.868512 7.28316 9.03345 4.15653
191 2 0.414976 6.62319 9.43145 4.79375
192 2 0.453536 6.85195 8.28313 3.65545
