ITEM: TIMESTEP
0
ITEM: NUMBER OF ATOMS
192
ITEM: BOX BOUNDS pp pp pp
0.0000000000000000e+00 1.2400000000000000e+01
0.0000000000000000e+00 1.2400000000000000e+01
0.0000000000000000e+00 1.2400000000000000e+01
ITEM: ATOMS id type q x y z
1 1 -0.816631 2.76377 9.07972 5.06605
2 2 0.461067 2.34199 8.17327 5.08752
3 2 0.355564 2.22258 9.68546 4.48278
4 1 -1.03812 0.332973 9.61297 1.14982
5 2 0.509128 0.0307833 10.5487 0.968092
6 2 0.52899 11.947 9.05439 1.41482
7 1 -0.904343 4.94273 0.00576081 0.0992018
8 2 0.430423 4.25822 11.8665 0.589797
9 2 0.47392 5.85661 12.0659 0.321321
10 1 -0.843834 8.5319 1.55632 4.10079
11 2 0.439271 8.39608 0.603249 4.37138
12 2 0.404564 7.96798 2.14955 4.67531
13 1 -0.9999 5.21611 8.39837 9.30201
14 2 0.472054 4.44392 8.8252 9.77269
15 2 0.527845 5.29685 8.77921 8.3809
16 1 -0.985811 7.79124 1.1571 7.32969
17 2 0.51604 8.254 2.03951 7.24477
18 2 0.469771 8.01735 0.745737 8.21268
19 1 -1.2005 8.5962 10.2429 7.53106
20 2 0.590158 8.35939 9.28723 7.35617
21 2 0.610346 8.07033 10.579 8.3124
22 1 -1.08263 6.38701 6.51235 10.9339
23 2 0.500796 7.35419 6.76551 10.956
24 2 0.581831 5.89639 7.12415 10.3134
25 1 -0.971372 9.61229 4.27301 10.6146
26 2 0.52505 8.80747 3.9692 11.1244
27 2 0.446323 10.1004 3.47689 10.2569
28 1 -1.04238 11.1247 1.75374 9.95817
29 2 0.540129 11.2753 0.981866 9.34048
30 2 0.502249 11.9167 2.36348 9.92898
31 1 -0.885042 5.09484 9.08787 0.800931
32 2 0.422787 4.93715 9.30421 12.2374
33 2 0.462255 4.29676 9.35986 1.3386
34 1 -0.876353 0.818653 7.08766 4.11641
35 2 0.454819 0.162984 7.75267 3.75883
36 2 0.421534 1.12991 6.49419 3.37418
37 1 -1.13137 10.8839 11.7856 8.41453
38 2 0.599849 10.1764 11.2096 8.0052
39 2 0.531522 11.1465 0.1015 7.76755
40 1 -0.8438 7.69784 5.19894 2.89936
41 2 0.424056 6.89249 4.68975 3.20289
42 2 0.419745 8.51069 4.84261 3.36013
43 1 -0.958446 8.11298 1.2859 10.4276
44 2 0.41975 9.09084 1.15693 10.2628
45 2 0.538696 7.97996 1.72878 11.3142
46 1 -0.84155 5.4705 3.07034 5.34846
47 2 0.437605 4.59658 3.52074 5.53122
48 2 0.403944 5.48185 2.17313 5.78993
49 1 -0.968868 2.67766 4.45128 2.71711
50 2 0.496077 2.21515 3.8022 2.11313
51 2 0.472791 3.18599 5.11415 2.16739
52 1 -0.955539 9.03068 3.81977 7.02057
53 2 0.506488 9.70834 4.00305 7.73274
54 2 0.449052 8.99225 4.59468 6.38966
55 1 -0.921611 7.90366 1.12382 0.974911
56 2 0.456765 8.36358 1.97171 1.23865
57 2 0.464846 7.8187 0.528279 1.77374
58 1 -0.918965 3.32622 0.968683 6.88847
59 2 0.500023 2.9775 1.8855 6.6939
60 2 0.418942 2.59897 0.414399 7.29331
61 1 -0.916028 11.8639 9.68614 5.77838
62 2 0.40785 10.9032 9.49411 5.57759
63 2 0.508178 12.1947 10.4057 5.16775
64 1 -0.934825 10.7173 0.0236 2.68421
65 2 0.465282 10.2992 12.1717 3.55696
66 2 0.469544 10.0353 0.46868 2.10393
67 1 -1.10421 1.27325 3.51345 10.7122
68 2 0.520756 2.0177 2.99209 10.295
69 2 0.583455 1.54225 4.4733 10.7917
70 1 -0.849688 3.03392 9.28972 11.1517
71 2 0.473593 2.04311 9.19887 11.0515
72 2 0.376095 3.28179 10.2585 11.1491
73 1 -0.934755 11.4397 1.33231 6.47607
74 2 0.423358 10.5665 1.81918 6.49705
75 2 0.511398 11.9457 1.59059 5.6531
76 1 -0.966366 8.96603 8.09021 10.7938
77 2 0.514905 8.75344 8.93858 11.2787
78 2 0.451461 9.80458 7.69381 11.1676
79 1 -0.905452 3.75053 5.91243 4.99739
80 2 0.476351 3.3077 5.43472 4.23863
81 2 0.429101 3.06149 6.17775 5.6718
82 1 -1.03249 11.4156 6.45728 10.9386
83 2 0.52871 10.7826 5.68329 10.9216
84 2 0.503784 11.6088 6.7505 10.0023
85 1 -0.928665 5.63846 11.8864 5.45458
86 2 0.464738 4.72495 12.1304 5.78014
87 2 0.463927 6.32616 12.3538 6.01017
88 1 -0.924957 6.9931 10.9606 2.45254
89 2 0.451562 7.06043 10.8261 3.44117
90 2 0.473395 6.71547 10.1039 2.01775
91 1 -0.927631 1.47375 12.2541 9.60501
92 2 0.453072 1.97527 0.613656 10.0193
93 2 0.474559 0.675885 12.0357 10.1669
94 1 -0.867086 9.19598 10.3244 0.415705
95 2 0.460719 8.79417 9.66117 1.04715
96 2 0.406367 8.58376 11.1096 0.322957
97 1 -0.889321 5.54929 2.99846 2.2521
98 2 0.481685 5.55351 2.73303 3.21622
99 2 0.407636 5.9141 2.24973 1.69863
100 1 -1.08272 3.82013 1.99146 10.6674
101 2 0.516402 4.29074 1.34772 11.2708
102 2 0.566313 4.47001 2.36266 10.0042
103 1 -0.919336 12.3131 12.318 12.0989
104 2 0.441465 11.4749 0.24955 11.6659
105 2 0.477872 0.1727 0.537064 0.440118
106 1 -0.967964 11.8754 5.35416 1.24126
107 2 0.40545 0.110555 5.76217 1.89707
108 2 0.562514 11.8441 5.91536 0.414165
109 1 -0.733432 3.6744 0.731814 3.60166
110 2 0.352109 3.16889 0.457235 2.78369
111 2 0.381323 4.34067 0.0236042 3.83515
112 1 -0.96298 8.0539 7.34157 8.03464
113 2 0.46236 7.24893 6.78831 8.24897
114 2 0.500619 8.5659 7.52428 8.87398
115 1 -0.984908 0.684039 11.301 3.86049
116 2 0.549592 12.2675 11.6985 3.44193
117 2 0.435316 1.28335 12.0335 4.18334
118 1 -0.94323 11.7566 4.78863 8.41675
119 2 0.394799 12.0823 4.61789 9.3467
120 2 0.548431 11.827 5.76511 8.21295
121 1 -1.02445 9.21606 10.9788 4.99753
122 2 0.591826 8.81429 11.0145 5.91258
123 2 0.432625 9.20732 10.0354 4.66615
124 1 -0.994172 5.46243 2.75583 8.4746
125 2 0.541646 5.49403 3.67579 8.08385
126 2 0.452525 6.23569 2.22175 8.1328
127 1 -0.857634 10.6066 2.63665 0.811234
128 2 0.375533 10.6263 2.4478 12.2294
129 2 0.482101 11.0101 3.53475 0.986089
130 1 -0.962931 5.33519 5.56621 7.66868
131 2 0.532148 4.62636 6.24363 7.86532
132 2 0.430783 5.41457 5.4444 6.6793
133 1 -1.0248 2.63613 7.03955 7.59171
134 2 0.515376 1.77508 6.85325 8.06487
135 2 0.509426 2.80911 8.02448 7.5898
136 1 -0.965173 3.04229 10.5107 1.96495
137 2 0.539243 2.23606 9.95409 1.76444
138 2 0.42593 3.10377 10.6653 2.95101
139 1 -0.97451 11.8424 9.66842 10.1064
140 2 0.50602 11.6885 10.2842 9.3336
141 2 0.46849 11.6223 10.1422 10.9591
142 1 -0.917476 6.94863 3.72025 11.7387
143 2 0.48987 6.51725 4.27053 11.0238
144 2 0.427606 6.28765 3.54398 0.0681574
145 1 -0.885245 4.98613 12.0354 9.08136
146 2 0.407278 4.03122 11.886 9.33794
147 2 0.477967 5.04353 0.402523 8.44243
148 1 -0.922904 10.6156 7.8606 2.20524
149 2 0.455422 10.1976 7.665 1.31811
150 2 0.467482 10.0425 7.48546 2.93379
151 1 -0.850255 8.22654 7.87388 4.99276
152 2 0.431353 8.8856 7.49666 5.64342
153 2 0.418903 7.30551 7.57118 5.23788
154 1 -0.985684 7.68761 7.80056 1.22303
155 2 0.487346 6.89616 7.92515 0.62462
156 2 0.498339 7.55791 6.98086 1.78096
157 1 -0.912762 3.11025 5.63272 10.8873
158 2 0.420805 4.04154 5.40726 10.6012
159 2 0.491957 3.14056 6.3398 11.5938
160 1 -1.01219 1.78477 2.28434 0.898033
161 2 0.556733 1.45513 2.65879 0.0313557
162 2 0.455458 2.73258 1.98358 0.792203
163 1 -0.933489 11.0016 6.44406 5.8833
164 2 0.443161 11.9356 6.71514 5.65076
165 2 0.490328 10.6335 5.86131 5.15881
166 1 -0.863862 0.461338 2.38447 3.51033
167 2 0.41408 0.851829 3.30048 3.41835
168 2 0.449781 0.580137 1.88382 2.65287
169 1 -0.898668 4.75941 5.77218 1.00111
170 2 0.481103 5.49481 5.75614 0.323665
171 2 0.417565 4.87692 5.01085 1.63875
172 1 -0.876422 2.22462 7.23834 1.08933
173 2 0.434448 1.69175 8.04366 0.829514
174 2 0.441974 3.16777 7.5102 1.28059
175 1 -0.904657 1.78655 9.81891 7.85434
176 2 0.441774 1.63942 10.6344 8.41405
177 2 0.462882 1.12953 9.80898 7.10053
178 1 -1.02758 7.44314 11.0169 9.90726
179 2 0.514523 7.66214 11.9293 10.2531
180 2 0.51306 6.49745 11.0016 9.58253
181 1 -0.849676 1.44172 3.38273 6.59164
182 2 0.466093 0.608153 3.43 7.14204
183 2 0.383583 1.75502 4.30873 6.38098
184 1 -1.13454 12.3427 7.56537 8.32782
185 2 0.533697 11.9153 7.88565 7.48236
186 2 0.600842 12.3903 8.31892 8.9835
187 1 -0.99291 10.5728 4.57966 3.86017
188 2 0.501294 10.6973 3.59322 3.96718
189 2 0.491617 10.8393 4.85088 2.93528
190 1 -0.873642 5.55432 9.22009 6.40074
191 2 0.385435 5.19901 8.35407 6.04895
192 2 0.488206 5.19353 9.97532 5.85351
