ITEM: TIMESTEP
0
ITEM: NUMBER OF ATOMS
192
ITEM: BOX BOUNDS pp pp pp
0.0000000000000000e+00 1.2400000000000000e+01
0.0000000000000000e+00 1.2400000000000000e+01
0.0000000000000000e+00 1.2400000000000000e+01
ITEM: ATOMS id type q x y z
1 1 -0.83364 10.3736 12.2761 1.55112
2 2 0.364726 11.0762 12.3636 2.25732
3 2 0.468915 10.27 11.3133 1.30146
4 1 -0.784584 1.2244 7.38862 4.65345
5 2 0.474524 0.445202 7.8616 4.24217
6 2 0.31006 1.84335 8.05917 5.06243
7 1 -0.84578 3.60379 0.792237 1.71305
8 2 0.425835 3.75801 0.784822 2.70106
9 2 0.419945 3.60203 1.73621 1.38302
10 1 -0.955511 4.65068 0.793954 4.98508
11 2 0.447258 4.07868 12.3964 5.17683
12 2 0.508254 5.61324 0.522912 4.99072
13 1 -0.944014 9.94136 5.75578 8.73782
14 2 0.460614 10.1096 4.91321 8.22616
15 2 0.4834 9.97606 5.56285 9.71843
16 1 -1.11225 11.9674 2.64804 7.66911
17 2 0.633687 11.8496 3.49388 7.14884
18 2 0.478565 11.358 1.94437 7.3038
19 1 -0.815204 6.52731 10.6264 9.53207
20 2 0.427108 6.12893 9.76334 9.22166
21 2 0.388095 6.3287 11.3443 8.8648
22 1 -0.970029 6.43102 8.83283 12.3483
23 2 0.464272 6.23177 9.5519 11.6826
24 2 0.505757 6.68121 7.99282 11.8669
25 1 -1.09631 10.7374 8.07011 7.33066
26 2 0.535535 10.7318 7.71521 6.39577
27 2 0.560775 10.841 7.31192 7.97441
28 1 -1.00961 12.3387 5.09392 6.52894
29 2 0.519442 0.770231 5.2954 7.04667
30 2 0.490171 12.2373 5.75913 5.78921
31 1 -0.913469 4.60907 4.96828 9.36235
32 2 0.413187 4.89865 5.83221 8.95032
33 2 0.500282 3.68797 4.74057 9.04654
34 1 -0.890992 2.86037 5.4851 6.94764
35 2 0.527624 3.27275 4.61542 6.67631
36 2 0.363368 3.1552 6.20443 6.31864
37 1 -0.997014 11.4858 12.3147 9.71969
38 2 0.448498 11.1831 0.86355 9.80984
39 2 0.548517 11.9325 12.1901 8.83374
40 1 -1.04273 12.3101 3.56543 2.54239
41 2 0.519713 0.723476 3.92731 2.99788
42 2 0.523017 0.187053 2.93989 1.81299
43 1 -0.906372 8.07509 3.58546 11.0253
44 2 0.469134 8.51495 2.71904 11.2616
45 2 0.437238 8.25646 4.25797 11.7428
46 1 -0.941812 7.57299 1.76006 4.75325
47 2 0.51141 8.24906 2.251 4.20379
48 2 0.430401 7.52178 2.17056 5.66368
49 1 -1.11346 7.72248 5.77273 4.41647
50 2 0.561804 7.4801 6.49 3.76318
51 2 0.551658 6.97285 5.11408 4.48169
52 1 -0.968993 10.2797 6.96279 4.56133
53 2 0.489956 10.5807 6.9357 3.60809
54 2 0.479036 9.59083 6.25409 4.71363
55 1 -1.05936 7.17892 11.6085 2.4244
56 2 0.498958 7.62402 0.0912908 2.57446
57 2 0.560398 6.74815 11.6015 1.52196
58 1 -1.00246 1.375 1.78413 5.16462
59 2 0.551998 0.433649 1.77559 4.82729
60 2 0.450461 1.43684 2.38026 5.96513
61 1 -0.949403 9.88954 10.159 9.95766
62 2 0.522322 10.5135 10.9285 9.82135
63 2 0.427081 10.3626 9.30436 9.74351
64 1 -0.998875 9.06632 9.69519 3.53855
65 2 0.516638 9.67848 9.86847 4.31007
66 2 0.482237 8.45388 10.4763 3.41699
67 1 -1.14245 3.65669 2.81917 6.84116
68 2 0.55139 4.01043 2.06114 6.2932
69 2 0.591062 2.99525 2.47032 7.50509
70 1 -1.13761 5.50976 7.93156 8.24458
71 2 0.553396 4.8453 8.32337 7.6082
72 2 0.584212 6.32287 7.64072 7.74033
73 1 -0.930252 7.92159 1.81339 1.14458
74 2 0.480897 7.82435 1.18964 0.369019
75 2 0.449355 8.78453 1.62854 1.61486
76 1 -0.956203 8.78454 0.526792 11.076
77 2 0.511345 8.55132 12.1438 10.4994
78 2 0.444858 9.77909 0.611316 11.1371
79 1 -0.938556 3.73154 8.87864 6.25243
80 2 0.473894 2.90323 8.50577 6.67062
81 2 0.464662 3.50684 9.27185 5.36086
82 1 -1.00428 1.20619 8.9623 7.84354
83 2 0.526901 1.62031 8.50493 8.63051
84 2 0.477383 0.272153 8.62818 7.71729
85 1 -0.999256 2.22919 11.3979 4.1607
86 2 0.503507 1.93863 11.1916 3.22633
87 2 0.495749 1.79519 12.2458 4.46524
88 1 -0.960353 5.60119 12.0014 12.3676
89 2 0.488526 5.73369 12.1923 11.395
90 2 0.471827 4.66769 12.2448 0.2309
91 1 -1.02067 0.419938 1.75836 0.219131
92 2 0.48044 1.33945 2.13199 0.0971
93 2 0.54023 12.2836 1.91522 11.7898
94 1 -1.01358 11.7272 8.18259 2.29
95 2 0.483943 12.0095 9.0967 2.58104
96 2 0.529641 11.0326 8.26018 1.57479
97 1 -0.901551 4.99207 5.31018 0.532309
98 2 0.459771 4.58878 6.06001 1.05683
99 2 0.44178 5.29233 5.65046 12.0412
100 1 -0.88337 5.55466 1.98905 10.7545
101 2 0.407862 5.16777 2.58347 10.0495
102 2 0.475508 6.38554 2.40605 11.123
103 1 -0.908172 0.74495 11.2465 1.53941
104 2 0.422947 1.45093 11.1398 0.839266
105 2 0.485225 0.277762 12.1213 1.41112
106 1 -0.977685 2.58974 7.68757 9.89482
107 2 0.525583 2.61402 6.75262 10.2488
108 2 0.452101 3.48354 8.11667 10.0252
109 1 -0.925775 5.84862 3.85529 3.4015
110 2 0.447953 5.8952 3.80988 2.40362
111 2 0.477821 6.25589 3.02973 3.79213
112 1 -1.04835 11.5323 2.78139 10.4979
113 2 0.55066 11.7278 2.93607 9.52945
114 2 0.49769 11.5197 3.65768 10.9795
115 1 -0.868387 11.748 10.4757 4.68411
116 2 0.464345 11.0782 10.63 5.41048
117 2 0.404041 0.267581 10.4593 5.07663
118 1 -0.95192 9.6412 9.27366 0.32428
119 2 0.515501 9.63625 9.7092 11.8241
120 2 0.436419 8.70437 9.20755 0.667757
121 1 -0.895312 5.07451 10.1715 3.60291
122 2 0.380048 4.25428 10.7383 3.67982
123 2 0.515264 5.76458 10.655 3.06438
124 1 -0.955868 2.14734 1.79478 8.97707
125 2 0.513362 1.1576 1.91644 8.90206
126 2 0.442506 2.35872 1.29093 9.8146
127 1 -1.01971 2.81222 3.35408 12.3878
128 2 0.499239 3.791 3.23039 12.2244
129 2 0.52047 2.67477 4.09859 0.64107
130 1 -0.796568 3.96772 11.9488 7.9544
131 2 0.378012 4.12551 0.352005 8.52885
132 2 0.418556 4.79671 11.7428 7.43446
133 1 -0.961059 10.6231 5.56904 11.6829
134 2 0.4907 9.82104 5.67867 12.2699
135 2 0.47036 11.4413 5.86053 12.1785
136 1 -0.780464 0.212538 9.10045 11.1869
137 2 0.404331 1.07345 8.79029 10.7836
138 2 0.376133 0.382319 9.44691 12.1095
139 1 -0.906408 0.801685 5.87993 0.805184
140 2 0.416648 0.283403 5.1791 1.29531
141 2 0.48976 0.857137 6.70638 1.36546
142 1 -1.0386 8.27253 5.09898 1.25212
143 2 0.443586 7.40867 4.69533 0.950765
144 2 0.595015 8.09474 5.98389 1.68262
145 1 -0.818129 2.18306 11.328 10.8647
146 2 0.406647 2.34029 11.3037 9.87742
147 2 0.411482 1.34028 10.8348 11.0803
148 1 -0.852867 9.38945 3.76595 6.42903
149 2 0.422043 9.61385 3.94656 5.47142
150 2 0.430824 8.42122 3.52779 6.50532
151 1 -1.03016 7.8303 7.13679 6.76228
152 2 0.487479 8.77068 7.30142 7.05992
153 2 0.542685 7.83081 6.82972 5.81059
154 1 -0.958219 2.84542 3.75791 3.2809
155 2 0.504656 3.80592 4.01921 3.3767
156 2 0.453563 2.655 2.96829 3.8642
157 1 -1.0134 6.50828 3.38927 7.07739
158 2 0.547872 5.51802 3.34942 6.94397
159 2 0.465533 6.71428 3.94987 7.87944
160 1 -0.770623 4.36449 6.80153 3.2587
161 2 0.366338 3.66839 6.80855 3.97662
162 2 0.404286 4.47887 7.72648 2.89623
163 1 -1.19366 7.60189 7.74527 2.30361
164 2 0.561093 6.94598 8.21771 1.7149
165 2 0.632571 8.09875 8.4159 2.85443
166 1 -0.923452 11.0274 1.32414 4.95702
167 2 0.446074 10.3778 0.729276 5.43042
168 2 0.477378 10.5599 1.80471 4.21511
169 1 -0.760665 3.65652 9.65789 0.89787
170 2 0.385107 3.82446 10.1697 0.0553315
171 2 0.375558 4.03224 10.1627 1.67504
172 1 -0.852878 1.74186 4.73219 10.0029
173 2 0.366147 0.898657 5.21718 10.2348
174 2 0.486731 1.93243 4.04222 10.7012
175 1 -0.947065 0.78853 12.0104 7.44382
176 2 0.477072 1.26972 11.1896 7.75167
177 2 0.469993 1.38435 0.139073 6.83924
178 1 -0.77963 7.90018 0.751248 8.04052
179 2 0.386418 7.15243 1.27983 7.63867
180 2 0.393212 8.26439 1.23899 8.8339
181 1 -1.04092 9.49521 10.4723 6.50742
182 2 0.469309 8.70926 10.8525 6.99501
183 2 0.571614 9.8841 9.71907 7.03794
184 1 -0.876507 6.5154 10.7484 6.34628
185 2 0.447996 6.00932 9.89532 6.21949
186 2 0.428511 7.42444 10.6604 5.93896
187 1 -1.1437 9.44943 3.17127 3.14888
188 2 0.569653 10.3684 3.29873 2.77578
189 2 0.574046 8.82266 3.82243 2.72092
190 1 -0.952493 6.93647 6.69651 10.4875
191 2 0.49247 6.45621 7.16374 9.74522
192 2 0.460023 7.34745 5.85363 10.1402
