ITEM: TIMESTEP
0
ITEM: NUMBER OF ATOMS
192
ITEM: BOX BOUNDS pp pp pp
0.0000000000000000e+00 1.2400000000000000e+01
0.0000000000000000e+00 1.2400000000000000e+01
0.0000000000000000e+00 1.2400000000000000e+01
ITEM: ATOMS id type q x y z
1 1 -1.00535 11.227 0.281537 12.1154
2 2 0.472742 12.1343 0.696275 12.0464
3 2 0.532611 10.5994 0.923864 0.155395
4 1 -0.984798 2.41026 7.76246 4.56627
5 2 0.503352 2.75841 8.63449 4.91029
6 2 0.481446 1.45794 7.87265 4.28175
7 1 -0.853757 2.30699 0.510304 2.29614
8 2 0.416365 3.1775 0.842879 1.93335
9 2 0.437393 1.56483 1.0969 1.97191
10 1 -0.830119 4.17702 1.25879 5.01267
11 2 0.389194 4.42756 2.10244 5.48753
12 2 0.440924 3.34411 1.41058 4.48047
13 1 -1.01162 10.8219 6.7288 10.3801
14 2 0.495221 10.5276 6.55795 11.3204
15 2 0.516397 10.5457 7.65012 10.1065
16 1 -0.952367 11.7078 2.76647 6.71396
17 2 0.514088 11.4035 3.63342 7.10861
18 2 0.438279 10.9541 2.10949 6.73121
19 1 -0.958706 6.65909 10.3503 8.92433
20 2 0.420351 7.21162 11.1286 8.62607
21 2 0.538355 5.9192 10.1963 8.26946
22 1 -1.04905 5.05672 7.77797 0.535633
23 2 0.535481 4.22794 8.32462 0.416019
24 2 0.513572 5.75652 8.08837 12.2922
25 1 -0.83122 11.288 5.92983 5.37075
26 2 0.415369 11.4449 5.67644 4.4162
27 2 0.415852 10.4351 5.51644 5.68948
28 1 -1.01272 1.86831 5.18357 6.72991
29 2 0.512124 2.76935 5.53279 6.47266
30 2 0.500594 1.24904 5.95058 6.89787
31 1 -0.902072 4.54463 4.39408 9.96066
32 2 0.452183 4.40811 5.38458 9.97717
33 2 0.449889 3.94836 3.98689 9.26881
34 1 -0.920254 4.46455 6.39571 7.07039
35 2 0.484317 5.15085 6.55799 7.77937
36 2 0.435937 4.74492 6.85005 6.22483
37 1 -0.948959 8.87826 0.576577 9.98953
38 2 0.483666 8.30033 12.3942 10.5612
39 2 0.465294 9.83261 0.478977 10.2718
40 1 -0.949647 1.093 3.0325 4.28775
41 2 0.488377 0.567015 3.2505 5.10983
42 2 0.46127 0.647133 3.43761 3.48957
43 1 -0.941227 7.71924 5.87718 10.7314
44 2 0.442576 6.75173 5.9357 10.9774
45 2 0.49865 7.89428 5.00641 10.2719
46 1 -0.940952 6.96223 11.8165 4.736
47 2 0.492704 6.0409 12.1737 4.88941
48 2 0.448248 7.16386 11.824 3.75656
49 1 -0.891599 8.26022 6.40328 4.26666
50 2 0.488122 7.83617 7.08866 3.67467
51 2 0.403477 8.04808 5.48858 3.92269
52 1 -0.910894 11.1546 4.33354 2.6383
53 2 0.456012 10.5536 4.90969 2.08434
54 2 0.454883 10.8514 3.38241 2.57977
55 1 -1.02872 7.43639 11.5767 12.0867
56 2 0.526975 7.70234 11.6068 0.650182
57 2 0.501742 6.50846 11.2123 12.0082
58 1 -0.882442 1.20433 0.254839 6.43842
59 2 0.427456 0.579439 0.963964 6.11184
60 2 0.454985 1.65126 0.565032 7.27749
61 1 -0.946809 9.26311 8.79331 8.77453
62 2 0.506241 10.0431 9.28114 8.3825
63 2 0.440568 8.52245 9.44017 8.9562
64 1 -0.946559 9.20637 10.8272 2.27739
65 2 0.420024 10.0087 11.174 2.76313
66 2 0.526536 8.85824 10.0152 2.74595
67 1 -1.06807 2.96074 2.7995 7.75175
68 2 0.509345 3.81842 3.01978 7.28714
69 2 0.558725 2.23704 3.40478 7.42022
70 1 -0.886555 5.22767 7.62672 9.8035
71 2 0.496205 4.32452 7.96441 9.53836
72 2 0.39035 5.92495 8.28881 9.52881
73 1 -1.04342 6.84852 2.90012 0.686743
74 2 0.548029 6.78393 3.86388 0.945593
75 2 0.49539 7.65015 2.76435 0.104539
76 1 -1.04236 7.52803 3.11993 9.4312
77 2 0.482446 6.69115 2.87508 9.92078
78 2 0.559918 8.15592 2.34162 9.43439
79 1 -0.939567 3.1645 9.33038 8.80554
80 2 0.465922 2.36128 8.73713 8.75186
81 2 0.473646 3.04921 10.1047 8.1833
82 1 -0.882303 0.538518 7.90586 7.41578
83 2 0.408149 0.0224737 8.49365 8.03883
84 2 0.474154 0.1379 7.95672 6.50095
85 1 -0.952183 3.25602 10.4447 5.505
86 2 0.500533 2.5384 11.0971 5.74861
87 2 0.451649 4.14365 10.8012 5.79658
88 1 -0.957943 4.59849 10.4636 11.3562
89 2 0.457443 4.67021 10.266 10.3786
90 2 0.5005 3.69304 10.8386 11.555
91 1 -0.868813 1.13424 2.56895 0.186437
92 2 0.47703 2.09011 2.86182 0.1629
93 2 0.391783 0.673327 2.86786 11.7508
94 1 -0.933325 12.1159 9.17763 4.4639
95 2 0.484524 11.1838 8.82515 4.54772
96 2 0.448801 12.1685 9.79823 3.68154
97 1 -1.10302 5.99689 5.52944 1.59074
98 2 0.466507 5.33337 5.16021 2.24145
99 2 0.636514 5.6887 6.42614 1.27303
100 1 -0.859098 5.59873 1.17411 10.772
101 2 0.400732 6.04938 0.333844 11.0734
102 2 0.458366 5.25222 1.67053 11.5679
103 1 -1.04895 0.0600072 10.9652 1.7718
104 2 0.50602 1.00547 11.2909 1.77549
105 2 0.542933 11.9796 11.3453 0.981359
106 1 -0.789849 2.18187 6.16744 10.9245
107 2 0.437168 1.37596 5.69616 10.5662
108 2 0.352681 2.0133 7.15305 10.9376
109 1 -0.821391 5.68707 1.11754 2.47859
110 2 0.347321 5.3327 0.380805 1.9027
111 2 0.47407 5.94988 1.89268 1.90405
112 1 -0.799614 10.7572 3.20712 11.0606
113 2 0.32222 10.0521 3.84493 11.3705
114 2 0.477394 11.3676 3.67115 10.4186
115 1 -0.941589 11.5281 0.599941 3.83194
116 2 0.464384 11.8722 12.3953 3.11364
117 2 0.477205 12.2869 1.12431 4.21818
118 1 -0.864083 10.5441 9.40015 12.2908
119 2 0.386363 9.82389 9.3699 11.5977
120 2 0.47772 10.1883 9.82559 0.722949
121 1 -0.927621 5.34214 10.6004 2.18162
122 2 0.434713 4.914 11.0858 2.94393
123 2 0.492908 4.66682 10.0081 1.74221
124 1 -0.909009 1.20008 1.51221 9.39309
125 2 0.505736 2.00848 1.8157 8.88872
126 2 0.403273 0.638882 2.30484 9.63144
127 1 -0.95261 4.06576 3.12928 0.212982
128 2 0.448508 4.97879 3.16461 0.619342
129 2 0.504102 3.96512 3.87466 11.954
130 1 -0.905911 4.6545 12.2701 7.81658
131 2 0.435538 5.13359 0.136858 8.65284
132 2 0.470373 4.40647 0.688961 7.29889
133 1 -0.904686 0.23683 7.46715 1.13638
134 2 0.42847 12.2815 6.72011 1.69821
135 2 0.476216 11.9359 8.17371 1.0392
136 1 -0.867897 12.1269 10.3545 9.76853
137 2 0.438666 11.6113 10.1431 10.5989
138 2 0.429231 11.8102 11.2251 9.39203
139 1 -0.788338 3.11505 6.0492 2.13429
140 2 0.389527 2.77274 6.26297 1.21934
141 2 0.398811 3.01384 6.85064 2.72374
142 1 -0.884444 9.41807 6.32815 1.12812
143 2 0.442143 8.75592 5.95004 0.481133
144 2 0.442301 8.99294 7.07215 1.64362
145 1 -0.889499 1.89634 11.5398 11.5971
146 2 0.428499 2.19185 12.3769 11.1367
147 2 0.461 1.47133 10.9258 10.9319
148 1 -0.911667 9.92315 5.02863 7.90802
149 2 0.481855 8.9575 5.12781 7.66784
150 2 0.429812 10.0885 5.44396 8.80253
151 1 -0.878207 7.45212 6.34663 7.6708
152 2 0.466612 7.89916 7.01177 8.26892
153 2 0.411594 7.34649 6.73837 6.7568
154 1 -0.809705 4.51252 4.13135 4.40165
155 2 0.459093 3.63394 3.74342 4.12307
156 2 0.350613 4.44421 4.47191 5.33939
157 1 -0.88421 8.54687 2.90286 3.81118
158 2 0.440226 7.56104 3.06496 3.85441
159 2 0.443985 8.85154 2.47269 4.66096
160 1 -0.95586 5.24651 7.21722 4.31151
161 2 0.487422 4.29882 7.53359 4.35377
162 2 0.468438 5.37928 6.67189 3.48387
163 1 -0.990258 7.58704 8.3839 2.19214
164 2 0.449456 7.88502 8.1968 1.25608
165 2 0.540802 6.86017 9.07056 2.17961
166 1 -0.970776 9.55473 0.532842 6.14068
167 2 0.501651 8.61464 0.3526 5.85128
168 2 0.469125 10.1602 0.501318 5.34541
169 1 -0.925106 2.58016 9.02604 1.50912
170 2 0.424405 2.10606 9.5374 2.22588
171 2 0.500701 2.02784 8.23631 1.24215
172 1 -1.06585 0.0144067 4.70927 9.46536
173 2 0.568064 11.8644 5.50157 9.72951
174 2 0.497784 0.441354 4.88092 8.57752
175 1 -0.999981 10.9578 10.6399 7.08532
176 2 0.48666 11.7288 10.6355 6.44839
177 2 0.513321 10.57 11.5604 7.13282
178 1 -0.966055 5.69123 3.08612 7.07074
179 2 0.394409 5.85951 3.76955 6.36038
180 2 0.571646 6.24733 3.29702 7.87465
181 1 -0.948465 9.29708 9.13804 4.89829
182 2 0.458115 9.62909 9.58749 5.72762
183 2 0.490349 8.86421 8.26967 5.14025
184 1 -0.919638 6.29861 9.27524 6.18148
185 2 0.467872 6.90282 9.85418 5.63397
186 2 0.451766 5.84965 8.60701 5.58826
187 1 -0.924762 9.59337 1.76811 1.64582
188 2 0.400417 9.69613 0.852312 2.0341
189 2 0.524346 8.97734 2.3067 2.22065
190 1 -0.94917 7.72711 8.8454 11.5842
191 2 0.474173 7.83197 9.80058 11.3073
192 2 0.474997 7.65286 8.26876 10.7705
