ITEM: TIMESTEP
0
ITEM: NUMBER OF ATOMS
192
ITEM: BOX BOUNDS pp pp pp
0.0000000000000000e+00 1.2400000000000000e+01
0.0000000000000000e+00 1.2400000000000000e+01
0.0000000000000000e+00 1.2400000000000000e+01
ITEM: ATOMS id type q x y z
1 1 -1.06822 12.3343 0.747969 10.8963
2 2 0.548168 0.21117 1.56896 11.3956
3 2 0.520049 12.1216 0.989488 9.94949
4 1 -0.828669 3.04544 7.58077 2.99078
5 2 0.398448 2.12018 7.22724 2.85324
6 2 0.430221 3.71063 6.91146 2.65981
7 1 -0.934354 2.97773 1.35207 4.55915
8 2 0.508112 3.06487 0.618277 5.23292
9 2 0.426242 2.72961 0.962481 3.67221
10 1 -1.08459 6.49649 3.04294 5.90312
11 2 0.619091 6.75228 4.00339 5.79305
12 2 0.465498 5.60706 2.98471 6.35648
13 1 -0.910415 10.6755 6.74608 9.40359
14 2 0.447667 10.477 5.81709 9.0912
15 2 0.462748 10.1559 6.93576 10.2367
16 1 -1.02817 11.3607 1.50437 8.04208
17 2 0.497084 10.6796 0.787861 7.89098
18 2 0.531086 11.0738 2.34076 7.57499
19 1 -1.05021 6.73467 8.98746 11.418
20 2 0.586644 6.58075 8.82783 12.3931
21 2 0.463562 7.67937 8.75451 11.1871
22 1 -0.792779 2.65914 6.70232 11.3066
23 2 0.433248 3.54886 6.50539 10.8948
24 2 0.359531 2.08291 7.17944 10.6431
25 1 -1.02849 9.8238 8.24724 4.49204
26 2 0.616071 9.43379 8.36461 5.40534
27 2 0.412424 10.617 7.64051 4.54377
28 1 -1.04488 0.53447 6.6736 7.07535
29 2 0.499572 0.215944 7.54621 7.44562
30 2 0.545304 0.5746 5.99503 7.80879
31 1 -0.892912 3.50745 8.27739 7.96847
32 2 0.407644 3.50648 7.34082 8.31894
33 2 0.485268 2.56697 8.56886 7.79367
34 1 -0.85629 4.19316 5.6532 5.70925
35 2 0.413719 5.0559 6.12739 5.53366
36 2 0.442571 3.57718 5.78323 4.93229
37 1 -0.957544 9.6151 12.2213 10.9878
38 2 0.443994 8.91708 0.42252 10.5987
39 2 0.513551 10.5213 0.207259 10.815
40 1 -0.855639 0.760267 3.70802 6.0416
41 2 0.405037 0.923941 4.42934 6.71459
42 2 0.450603 1.45848 2.9985 6.13696
43 1 -0.897218 4.47805 3.63231 11.5095
44 2 0.429479 4.83467 3.36866 0.0058
45 2 0.467738 4.84223 3.0159 10.8113
46 1 -1.11644 7.55074 1.14948 4.28943
47 2 0.624205 7.11923 1.86986 4.83244
48 2 0.492232 7.11337 0.273022 4.49074
49 1 -1.0367 8.68792 6.42264 2.50197
50 2 0.515911 9.11443 6.83174 3.30864
51 2 0.52079 8.71885 5.426 2.57784
52 1 -1.02448 12.038 3.48276 3.12083
53 2 0.5277 11.7368 2.75979 2.49903
54 2 0.496785 11.9702 3.1601 4.06492
55 1 -0.883767 6.58661 12.2442 0.59409
56 2 0.429147 6.60499 11.5328 12.2916
57 2 0.454619 6.95165 0.695153 0.216342
58 1 -0.955582 0.0836508 0.166423 5.05938
59 2 0.494818 0.476948 11.6482 5.10545
60 2 0.460764 0.80458 0.84522 5.19903
61 1 -1.01792 9.83088 4.17464 8.02236
62 2 0.441717 9.84998 4.4993 7.07672
63 2 0.576198 8.90329 3.88313 8.25604
64 1 -0.934802 9.32403 10.2778 0.626115
65 2 0.441155 10.1807 10.6561 0.976813
66 2 0.493647 9.05272 10.7749 12.202
67 1 -0.89727 4.18478 4.30073 8.43107
68 2 0.441215 4.02409 4.45026 7.45545
69 2 0.456055 4.55168 5.13611 8.84035
70 1 -1.04664 6.23439 9.4494 8.58671
71 2 0.541147 6.20357 9.52836 9.58312
72 2 0.505496 5.76844 8.6109 8.30421
73 1 -0.846921 7.27741 5.47556 12.1758
74 2 0.434887 8.13073 5.11881 11.7955
75 2 0.412034 7.43858 5.80325 0.706703
76 1 -0.855894 7.83749 2.43939 12.1059
77 2 0.398699 8.35424 2.40171 0.561161
78 2 0.457195 8.42007 2.80562 11.3803
79 1 -0.863381 3.70411 11.0194 8.8336
80 2 0.40352 3.12394 11.0685 9.64662
81 2 0.45986 4.23911 10.1749 8.85635
82 1 -0.904872 0.963946 9.66859 8.28165
83 2 0.389686 1.7354 10.1145 8.7355
84 2 0.515186 0.164633 10.2685 8.31636
85 1 -0.965418 2.94878 11.2133 5.64879
86 2 0.467134 2.29764 10.5262 5.97119
87 2 0.498284 3.82997 11.0756 6.10105
88 1 -0.908907 3.76868 9.56308 0.441739
89 2 0.450223 3.20978 9.90508 12.0863
90 2 0.458684 3.45652 8.64884 0.700056
91 1 -0.90683 1.57537 1.55213 1.70053
92 2 0.429731 1.6632 2.11718 0.880159
93 2 0.477099 2.38157 0.967348 1.79039
94 1 -0.809776 0.672364 9.34112 5.15304
95 2 0.441865 0.858886 8.35959 5.11061
96 2 0.367911 12.0902 9.49856 5.0498
97 1 -0.955497 5.03333 5.94875 1.40496
98 2 0.488772 5.68073 5.70227 0.683768
99 2 0.466725 4.54993 5.12943 1.71324
100 1 -0.981877 6.10481 0.615776 8.71404
101 2 0.499218 5.37773 0.688248 9.39677
102 2 0.482659 5.85894 12.3215 8.03766
103 1 -0.867954 0.0392097 11.1403 1.68255
104 2 0.495311 0.624984 11.6791 2.28804
105 2 0.372643 0.0274412 11.5563 0.773258
106 1 -0.934847 11.9403 5.36668 0.691946
107 2 0.430243 12.0258 4.56741 1.28681
108 2 0.504604 11.9246 6.19684 1.24926
109 1 -0.859586 4.37644 0.584685 11.258
110 2 0.444614 4.7302 0.496452 12.1891
111 2 0.414971 3.50668 0.0967397 11.1842
112 1 -0.903968 10.4333 3.67269 10.8806
113 2 0.463588 10.7457 4.03058 10.0006
114 2 0.44038 10.8167 4.22555 11.6204
115 1 -1.09515 10.3386 1.84243 5.161
116 2 0.486842 9.54659 1.50498 4.65218
117 2 0.608303 11.0518 1.14159 5.17074
118 1 -0.907281 11.9059 8.26744 1.81064
119 2 0.412224 11.3503 8.04178 2.61087
120 2 0.495057 0.0934109 9.04854 2.02225
121 1 -0.935487 6.00656 10.6547 3.31029
122 2 0.442153 6.60152 11.2099 2.72918
123 2 0.493334 5.82709 9.7785 2.86293
124 1 -0.786407 2.01302 1.3977 8.07011
125 2 0.380476 2.18153 0.448528 8.33598
126 2 0.405931 1.038 1.6009 8.15979
127 1 -1.07821 1.60348 3.26655 11.6416
128 2 0.489775 1.23821 4.09228 12.0714
129 2 0.588438 2.5862 3.3755 11.4919
130 1 -0.93065 6.07205 11.2363 6.36277
131 2 0.412987 6.67403 11.0906 5.57765
132 2 0.517662 6.19207 10.4902 7.01777
133 1 -1.00882 0.116259 6.17293 4.32561
134 2 0.49353 0.61256 5.34187 4.07454
135 2 0.51529 0.217069 6.33783 5.30676
136 1 -0.993332 0.17386 8.4646 11.2047
137 2 0.499075 12.1546 7.74841 10.6468
138 2 0.494257 0.263114 8.14336 12.1475
139 1 -0.902148 2.358 4.28966 3.00623
140 2 0.411374 2.97035 3.56194 2.69727
141 2 0.490774 1.46467 3.90053 3.23109
142 1 -0.970327 9.38762 7.62957 11.9785
143 2 0.421241 9.14149 6.90084 0.217508
144 2 0.549085 9.62046 8.45678 0.0898435
145 1 -1.11143 1.77122 10.8479 11.0804
146 2 0.520832 1.20641 11.6731 11.0723
147 2 0.5906 1.19447 10.0476 10.9165
148 1 -0.963834 7.24609 3.47017 8.87062
149 2 0.474747 6.35105 3.76542 8.53633
150 2 0.489086 7.28084 2.471 8.89224
151 1 -1.06912 7.40061 5.59082 5.86278
152 2 0.526075 7.34676 6.58119 5.73523
153 2 0.54304 8.25186 5.24922 5.46443
154 1 -0.852255 5.21348 2.69094 2.35954
155 2 0.423296 4.91551 2.76667 3.31111
156 2 0.428959 5.84349 1.91978 2.26788
157 1 -1.05913 9.85092 4.78971 4.83878
158 2 0.529122 10.8101 5.01417 4.66658
159 2 0.530005 9.75887 3.80349 4.9763
160 1 -0.86418 6.07342 8.1438 5.43919
161 2 0.458566 6.11463 8.85221 4.73458
162 2 0.405614 5.12706 7.84134 5.55282
163 1 -1.03054 6.71628 8.32146 1.85137
164 2 0.525765 7.57251 8.06938 2.30229
165 2 0.50478 6.16675 7.50044 1.69663
166 1 -1.00994 8.95765 0.196581 7.47119
167 2 0.511035 8.01494 12.2773 7.56788
168 2 0.49891 9.01281 0.848792 6.71515
169 1 -1.04324 3.1703 11.6672 2.27953
170 2 0.52882 3.43542 11.1298 1.4789
171 2 0.514417 3.53422 11.2365 3.10542
172 1 -0.947165 1.11386 4.81956 9.21979
173 2 0.470477 1.99914 4.4816 8.90031
174 2 0.476688 0.767822 4.21846 9.94017
175 1 -0.960379 10.6086 10.5431 8.78239
176 2 0.509492 9.96487 11.2266 8.43821
177 2 0.450887 10.4495 10.3973 9.75885
178 1 -0.895233 8.31873 3.28414 2.81973
179 2 0.377647 9.20635 3.12624 2.38706
180 2 0.517586 7.99041 2.43214 3.22755
181 1 -0.854518 9.29555 11.2048 3.49437
182 2 0.459896 9.62347 10.3111 3.80061
183 2 0.394622 8.75704 11.0939 2.65907
184 1 -1.00827 9.05606 8.69672 7.11682
185 2 0.516602 9.86004 8.82008 7.69854
186 2 0.491664 8.23239 8.93405 7.63183
187 1 -0.907647 10.4495 1.30253 1.87662
188 2 0.414739 10.9497 0.860594 1.13194
189 2 0.492908 9.90512 0.619705 2.36384
190 1 -0.99045 5.31972 6.59781 10.0398
191 2 0.473579 5.42868 7.46215 10.5307
192 2 0.516871 6.01825 5.95065 10.3451
