ITEM: TIMESTEP
0
ITEM: NUMBER OF ATOMS
192
ITEM: BOX BOUNDS pp pp pp
0.0000000000000000e+00 1.2400000000000000e+01
0.0000000000000000e+00 1.2400000000000000e+01
0.0000000000000000e+00 1.2400000000000000e+01
ITEM: ATOMS id type q x y z
1 1 -0.945237 0.852937 11.5508 10.9447
2 2 0.46858 0.572866 12.0576 11.76
3 2 0.476658 0.988328 12.1882 10.1861
4 1 -0.940077 2.89672 9.69621 1.14807
5 2 0.491317 1.93453 9.56023 1.3841
6 2 0.44876 3.45321 9.00181 1.60427
7 1 -0.816903 3.56203 2.43223 7.37973
8 2 0.393619 3.40785 2.13281 8.32131
9 2 0.423283 3.53896 1.63997 6.76998
10 1 -0.901416 5.99612 6.169 7.15931
11 2 0.50376 5.87551 5.32562 6.6357
12 2 0.397656 6.68088 6.02304 7.87331
13 1 -1.11879 8.93373 8.50245 7.81905
14 2 0.552149 9.89742 8.23544 7.8159
15 2 0.566644 8.64982 8.71515 8.75401
16 1 -0.989978 0.912131 0.928399 8.67678
17 2 0.499452 1.34485 1.75685 9.03235
18 2 0.490526 0.168492 1.18027 8.05745
19 1 -1.16656 8.02711 9.19824 10.3376
20 2 0.555859 7.12689 9.61428 10.4661
21 2 0.610698 8.48359 9.11121 11.2231
22 1 -0.988832 1.50614 6.25876 10.7851
23 2 0.466534 2.33026 6.45089 11.318
24 2 0.522299 0.961755 7.09332 10.7006
25 1 -0.938717 9.83824 7.55606 3.00339
26 2 0.445362 9.287 8.30791 3.36513
27 2 0.493355 9.98451 6.87482 3.7207
28 1 -0.849556 11.9531 7.42218 7.85303
29 2 0.482774 0.394009 6.90242 7.70212
30 2 0.366781 11.8034 7.53613 8.83518
31 1 -0.883436 3.03892 7.697 7.59392
32 2 0.431232 3.92741 8.02351 7.91637
33 2 0.452204 3.17112 6.90519 6.99763
34 1 -0.932606 4.14913 6.71802 4.37163
35 2 0.405506 4.94576 6.11361 4.36283
36 2 0.5271 3.42406 6.32208 3.80815
37 1 -0.885807 9.97134 12.1433 11.8714
38 2 0.437559 9.15872 11.561 11.8958
39 2 0.448248 10.6906 11.6899 11.3449
40 1 -0.844556 1.5654 5.10121 6.6953
41 2 0.419519 2.09966 4.39804 7.16448
42 2 0.425037 1.63562 4.9689 5.70658
43 1 -0.818545 3.30039 3.20859 0.83507
44 2 0.370887 3.12727 2.76897 12.3537
45 2 0.447659 3.79616 2.57687 1.43101
46 1 -0.906759 7.05842 2.21701 4.44382
47 2 0.473178 7.8193 2.66049 3.97011
48 2 0.433582 7.35119 1.94091 5.35927
49 1 -0.901429 7.64433 6.21932 1.82847
50 2 0.504028 8.40538 6.817 2.08064
51 2 0.397401 7.81198 5.299 2.18191
52 1 -0.869646 11.4647 5.92596 4.97579
53 2 0.401845 12.1567 5.21479 4.85209
54 2 0.4678 11.8892 6.82558 4.87335
55 1 -0.879697 6.73198 11.8806 0.897278
56 2 0.429932 6.44763 11.2802 0.149873
57 2 0.449765 6.57762 0.433601 0.636424
58 1 -0.976717 1.04994 0.964047 4.09054
59 2 0.541027 1.86571 0.613238 4.55037
60 2 0.43569 1.09232 0.73735 3.11749
61 1 -1.057 11.177 4.03058 8.12067
62 2 0.605125 10.7419 4.32021 7.26812
63 2 0.45188 10.5423 3.45982 8.64165
64 1 -0.993922 9.31169 9.31462 0.401111
65 2 0.486176 10.0026 8.61284 0.574909
66 2 0.507745 9.40657 10.0494 1.07279
67 1 -0.888818 4.26141 4.63387 9.57618
68 2 0.4462 3.63807 4.37671 8.83771
69 2 0.442619 4.13476 5.60075 9.79778
70 1 -0.994823 5.95273 9.0103 8.11197
71 2 0.465154 6.76861 9.31118 8.60574
72 2 0.529669 6.11764 8.10767 7.7144
73 1 -0.958872 8.01413 5.19215 11.4164
74 2 0.484568 7.84555 4.22063 11.2499
75 2 0.474304 7.59716 5.45863 12.2854
76 1 -0.82915 7.51247 2.56268 0.913236
77 2 0.38919 8.33268 2.19842 0.472131
78 2 0.439961 6.83824 2.80461 0.215457
79 1 -0.910205 4.01059 11.1346 8.58498
80 2 0.526663 4.69954 10.4129 8.51823
81 2 0.383542 3.70702 11.3916 7.66746
82 1 -0.914187 0.977758 10.9989 6.83065
83 2 0.399124 1.41957 10.1037 6.88922
84 2 0.515063 1.01503 11.448 7.72332
85 1 -1.0128 3.30988 12.1184 5.32778
86 2 0.425679 2.61202 11.6379 5.85895
87 2 0.587124 3.93545 11.4531 4.9203
88 1 -1.05646 5.24467 9.65843 11.4092
89 2 0.627747 4.35483 9.45765 10.9994
90 2 0.428709 5.14629 9.72905 0.00180205
91 1 -0.986785 0.569557 0.803213 0.912823
92 2 0.511187 0.174428 1.71619 0.811113
93 2 0.475598 1.55797 0.880438 1.04351
94 1 -0.98063 11.1143 10.7937 4.54304
95 2 0.444978 11.1326 11.776 4.35636
96 2 0.535651 11.6453 10.6013 5.36833
97 1 -0.932198 1.70101 4.74813 3.46912
98 2 0.482878 1.09875 4.94593 2.6957
99 2 0.44932 2.01088 3.79883 3.41604
100 1 -0.810602 7.00843 11.9315 10.0261
101 2 0.417688 6.26337 0.169061 10.2219
102 2 0.392914 7.33816 12.0803 9.09386
103 1 -1.05327 0.248424 10.4687 2.17046
104 2 0.516926 12.0789 10.3555 2.98458
105 2 0.536345 0.299931 11.4385 1.9319
106 1 -1.02255 11.6837 5.32086 1.65365
107 2 0.375307 10.9442 5.03498 1.0443
108 2 0.647239 11.8608 6.29699 1.52783
109 1 -0.996526 3.95445 0.481604 10.9776
110 2 0.44537 3.61832 0.12 11.8473
111 2 0.551156 3.88544 12.1747 10.2737
112 1 -0.882912 9.28594 2.6826 10.4798
113 2 0.408944 10.1013 2.95347 10.9915
114 2 0.473968 9.39368 1.74334 10.1539
115 1 -0.956881 11.335 1.31305 5.89051
116 2 0.428423 10.873 2.17354 5.6757
117 2 0.528458 11.8887 1.02761 5.10821
118 1 -1.05631 12.2806 7.88512 0.845201
119 2 0.520327 12.2844 8.17106 12.287
120 2 0.535986 12.3433 8.6911 1.43382
121 1 -0.919386 6.1981 9.02826 2.29064
122 2 0.436659 6.77302 9.58033 1.68675
123 2 0.482727 6.39211 8.05874 2.141
124 1 -0.995071 5.96571 2.57106 10.7607
125 2 0.513097 5.58182 3.44502 10.4626
126 2 0.481974 5.22342 1.92917 10.953
127 1 -0.940517 12.2487 3.28229 11.744
128 2 0.429426 12.2372 4.07011 12.3598
129 2 0.511092 0.652547 3.33401 11.1515
130 1 -0.907385 7.42759 11.2937 6.87363
131 2 0.43617 7.86873 10.3966 6.89719
132 2 0.471215 6.45393 11.1813 6.67524
133 1 -0.771213 1.271 8.18229 4.69587
134 2 0.408776 1.94623 7.89916 5.37698
135 2 0.362438 1.52886 9.07279 4.321
136 1 -1.08399 12.0194 8.46673 10.3452
137 2 0.552218 11.8808 9.12771 9.60773
138 2 0.531773 11.253 7.82467 10.3657
139 1 -0.836646 4.13962 2.69676 4.16515
140 2 0.353741 3.5188 2.65702 4.9481
141 2 0.482905 5.0841 2.61887 4.48435
142 1 -1.05004 10.4959 6.03606 10.0625
143 2 0.524684 10.7849 5.35594 9.38879
144 2 0.525357 9.74711 5.66433 10.6113
145 1 -1.03794 2.81399 9.01187 10.4261
146 2 0.546716 2.10474 9.56845 10.8588
147 2 0.491224 2.49458 8.70214 9.53052
148 1 -0.883268 6.80563 3.20961 7.66041
149 2 0.432009 6.23198 2.89533 8.41682
150 2 0.451258 7.74961 2.9177 7.81433
151 1 -0.827103 7.19568 5.46039 4.59463
152 2 0.360851 7.16481 5.10124 3.66186
153 2 0.466252 6.99473 6.43991 4.5815
154 1 -0.990843 5.89676 11.956 3.5651
155 2 0.517381 6.35955 11.6204 2.7446
156 2 0.473463 6.29929 0.428698 3.84147
157 1 -1.04088 9.258 3.93132 6.14428
158 2 0.499257 8.4109 4.40824 6.37871
159 2 0.541623 9.46111 4.06962 5.17494
160 1 -1.03648 4.71623 9.58995 4.83754
161 2 0.532016 5.0742 9.69473 3.90971
162 2 0.504466 4.47441 8.63255 4.99539
163 1 -0.892793 3.8381 6.3319 1.32494
164 2 0.46603 4.47103 6.36725 0.551529
165 2 0.426763 3.36253 5.45222 1.32655
166 1 -0.923643 9.04749 1.05956 7.90462
167 2 0.464561 9.76737 1.22777 7.23122
168 2 0.459082 8.41472 0.370629 7.55109
169 1 -1.02174 3.31188 0.156689 1.9271
170 2 0.522607 3.92484 0.277672 2.7079
171 2 0.499136 3.27265 11.5882 1.68105
172 1 -1.15624 1.26469 3.93654 9.39082
173 2 0.569217 0.555069 3.97703 8.6874
174 2 0.587023 1.26151 4.787 9.91687
175 1 -0.836411 10.6744 10.5784 8.68327
176 2 0.412684 9.73557 10.2944 8.87785
177 2 0.423726 10.6635 11.3674 8.06897
178 1 -1.00375 9.7694 3.78115 3.3064
179 2 0.489474 10.0247 2.94134 2.8273
180 2 0.514275 10.4401 4.49562 3.10723
181 1 -0.919183 8.55883 10.6144 3.16246
182 2 0.473481 9.42778 10.6171 3.65736
183 2 0.445703 7.88689 10.0766 3.67162
184 1 -0.973505 7.69653 8.34296 5.23916
185 2 0.55071 8.20128 8.36099 6.10224
186 2 0.422795 6.85737 8.87879 5.33251
187 1 -0.919688 10.2025 0.864526 2.24804
188 2 0.492414 10.2258 0.810264 1.24978
189 2 0.427275 9.30697 0.565267 2.57736
190 1 -0.924808 5.39363 6.78765 11.2393
191 2 0.472965 5.27956 7.77417 11.1219
192 2 0.451843 6.21553 6.48721 10.7554
