ITEM: TIMESTEP
0
ITEM: NUMBER OF ATOMS
192
ITEM: BOX BOUNDS pp pp pp
0.0000000000000000e+00 1.2400000000000000e+01
0.0000000000000000e+00 1.2400000000000000e+01
0.0000000000000000e+00 1.2400000000000000e+01
ITEM: ATOMS id type q x y z
1 1 -0.903029 0.65029 11.8324 11.2169
2 2 0.456537 1.14755 11.2254 10.597
3 2 0.446492 12.2903 11.3335 11.6335
4 1 -0.957429 2.24941 12.052 2.70777
5 2 0.464281 1.36594 0.0836043 2.52552
6 2 0.493148 2.12293 11.2879 3.34029
7 1 -0.828059 3.9522 3.35146 7.74129
8 2 0.407405 3.69793 3.31989 8.70791
9 2 0.420654 3.31508 2.79249 7.21059
10 1 -0.947366 9.72432 1.82967 9.11268
11 2 0.457827 9.85558 1.42574 10.018
12 2 0.489538 8.76513 2.08863 8.9991
13 1 -1.01853 7.47014 8.84865 8.36274
14 2 0.516938 6.55504 8.58542 8.6682
15 2 0.501593 7.98668 9.21652 9.13596
16 1 -0.833765 0.567929 2.39653 8.64747
17 2 0.429132 0.106458 1.51375 8.73551
18 2 0.404634 1.12939 2.3981 7.81997
19 1 -0.890815 8.67593 6.16206 11.8766
20 2 0.421093 9.11695 5.40353 12.3563
21 2 0.469722 8.13267 5.80505 11.1167
22 1 -0.831323 4.21752 6.40134 8.5672
23 2 0.418328 3.39487 6.25355 9.11621
24 2 0.412995 4.71372 5.53844 8.47126
25 1 -0.923618 10.7125 3.8032 3.82413
26 2 0.4961 9.95445 3.1558 3.74503
27 2 0.427518 10.5728 4.55968 3.1852
28 1 -0.964205 1.61067 8.29751 6.94675
29 2 0.516321 1.99076 7.37337 6.98553
30 2 0.447884 0.660401 8.25443 6.6383
31 1 -0.904632 4.02408 9.73501 6.09921
32 2 0.479953 4.85855 9.37934 5.67829
33 2 0.424679 3.55567 8.9975 6.5857
34 1 -0.851911 2.13949 7.94544 1.58636
35 2 0.441549 1.40169 8.48557 1.99121
36 2 0.410362 1.77495 7.07169 1.26435
37 1 -0.966931 10.1109 11.2361 1.22363
38 2 0.496195 10.6974 11.9693 1.56786
39 2 0.470735 9.26197 11.2127 1.75159
40 1 -0.930913 2.66003 5.65225 4.36773
41 2 0.511459 1.9694 5.3056 5.00245
42 2 0.419454 2.43298 6.5909 4.10814
43 1 -0.924556 3.11148 4.92809 1.2735
44 2 0.534384 3.9875 4.70262 0.847178
45 2 0.390173 3.19277 5.79608 1.76339
46 1 -0.977098 4.70084 3.6331 4.20219
47 2 0.431255 4.87859 3.2347 5.10201
48 2 0.545843 3.83966 4.14081 4.22665
49 1 -1.08439 5.75622 4.20667 0.729172
50 2 0.571299 6.07687 3.27097 0.87634
51 2 0.513087 6.49931 4.84775 0.921097
52 1 -0.802627 8.97633 6.81483 5.09693
53 2 0.397289 8.23467 6.60239 5.73318
54 2 0.405338 8.88363 6.25058 4.27655
55 1 -0.826643 7.00787 11.1651 1.4894
56 2 0.438647 6.43433 10.8799 2.25731
57 2 0.387996 6.43107 11.5411 0.764173
58 1 -0.902463 1.96896 1.79612 11.9434
59 2 0.487114 1.62569 0.857454 11.9107
60 2 0.415349 2.87741 1.83355 11.5271
61 1 -0.956461 1.14378 5.52493 7.59097
62 2 0.483668 0.213626 5.20711 7.40712
63 2 0.472794 1.42335 5.22748 8.50386
64 1 -0.863898 7.75396 9.20423 11.5428
65 2 0.424091 7.35814 8.33446 11.8375
66 2 0.439808 7.90555 9.78857 12.34
67 1 -0.988455 4.62749 3.14389 10.7192
68 2 0.471278 4.76631 3.76162 11.4932
69 2 0.517176 5.19016 2.32612 10.8402
70 1 -0.996821 7.46654 9.68532 5.67731
71 2 0.434721 7.29485 9.0694 4.90843
72 2 0.5621 7.57517 9.15033 6.51516
73 1 -0.902075 10.7723 4.40147 7.31617
74 2 0.459509 11.2396 3.59385 7.67593
75 2 0.442566 10.014 4.1147 6.7307
76 1 -1.0824 8.98391 1.54839 3.34764
77 2 0.4778 8.03884 1.74064 3.08326
78 2 0.604596 9.05827 0.598781 3.65213
79 1 -1.0282 4.66263 0.112915 10.3221
80 2 0.54334 3.82916 0.134736 9.76996
81 2 0.484859 5.43993 12.2676 9.74277
82 1 -1.06154 2.7179 11.9509 8.32364
83 2 0.452588 3.13948 11.281 7.71245
84 2 0.608956 1.73385 11.781 8.37647
85 1 -0.939911 2.15812 2.4917 3.01988
86 2 0.47375 2.72115 3.13192 2.49727
87 2 0.466161 2.71824 1.71614 3.31105
88 1 -0.871062 4.89771 9.65354 9.65232
89 2 0.433946 5.07524 10.5519 10.054
90 2 0.437116 3.9219 9.56465 9.45258
91 1 -0.945315 11.7991 1.05544 2.35821
92 2 0.491446 11.0869 1.47305 2.9224
93 2 0.453869 0.0751757 1.74846 2.1079
94 1 -0.964829 0.203953 0.101173 5.59988
95 2 0.483812 0.426544 11.5445 5.41196
96 2 0.481017 1.03043 0.658102 5.51756
97 1 -0.989764 0.107547 4.87051 0.998815
98 2 0.454943 12.2594 4.25832 0.248066
99 2 0.534821 1.0624 4.71643 1.25282
100 1 -0.842702 10.066 11.126 10.265
101 2 0.457909 9.59607 11.2495 11.1391
102 2 0.384793 10.3931 10.1838 10.1926
103 1 -0.847378 9.06179 8.98826 2.86299
104 2 0.405525 9.79206 9.60735 2.57414
105 2 0.441854 9.38864 8.04416 2.81989
106 1 -0.930726 8.821 3.66422 0.932647
107 2 0.484502 9.54974 3.08627 0.565346
108 2 0.446223 8.80238 3.58413 1.92926
109 1 -0.845444 4.01647 10.7761 0.51841
110 2 0.40829 4.20907 11.3808 12.1456
111 2 0.437155 3.20745 11.1051 1.0055
112 1 -0.860696 11.2841 2.06744 11.8775
113 2 0.417613 11.4686 1.99854 10.8971
114 2 0.443083 11.9979 1.58544 12.3857
115 1 -0.950146 0.747608 3.0767 5.4508
116 2 0.46507 1.43414 2.77213 4.79056
117 2 0.485076 12.246 3.07681 5.01815
118 1 -1.0293 10.2866 6.25717 2.07008
119 2 0.563847 10.999 5.80719 1.53154
120 2 0.465449 9.39781 6.11048 1.63592
121 1 -0.864223 6.49265 6.99807 2.85834
122 2 0.488187 6.41226 7.97313 3.06522
123 2 0.376036 5.70476 6.70631 2.31602
124 1 -0.789145 7.18145 1.58202 11.8667
125 2 0.364383 6.94716 0.677374 11.5107
126 2 0.424762 7.22924 1.5453 0.464896
127 1 -0.889867 11.5438 5.56243 10.3809
128 2 0.442107 11.2447 5.22266 9.48923
129 2 0.44776 0.138463 5.48626 10.4501
130 1 -0.898072 7.02734 11.8435 8.60834
131 2 0.438163 7.21681 0.0982949 7.87662
132 2 0.459908 7.0306 10.916 8.23473
133 1 -0.981111 1.51263 9.89071 4.4374
134 2 0.519776 2.18425 9.65717 5.14054
135 2 0.461335 0.705839 9.30898 4.54074
136 1 -0.877255 11.5487 8.1871 12.0949
137 2 0.44703 11.3504 7.27054 11.7476
138 2 0.430224 10.7396 8.55088 0.156485
139 1 -0.900559 12.1946 6.6346 4.46231
140 2 0.421318 11.8184 6.17357 5.26602
141 2 0.479241 11.665 6.37948 3.65334
142 1 -0.885715 10.7254 8.4511 8.97244
143 2 0.420361 9.89177 8.21308 8.47398
144 2 0.465354 10.7701 7.92132 9.81941
145 1 -0.910321 1.81912 9.0486 9.97644
146 2 0.462546 1.61268 8.74729 9.04552
147 2 0.447776 1.07808 8.77213 10.5883
148 1 -0.915555 7.16112 3.65246 8.71422
149 2 0.424149 6.24565 3.27006 8.83945
150 2 0.491407 7.21351 4.54525 9.16166
151 1 -0.878414 7.67501 4.38785 3.58457
152 2 0.407812 7.26357 3.76372 4.24878
153 2 0.470602 7.28205 5.30052 3.69689
154 1 -0.859771 3.33179 1.03956 5.78601
155 2 0.436586 4.13316 0.542492 5.45324
156 2 0.423185 3.05573 0.670884 6.67364
157 1 -0.909612 6.83324 1.55469 6.26975
158 2 0.43936 6.83933 2.27136 6.96714
159 2 0.470252 7.73066 1.50894 5.83095
160 1 -0.953519 4.72176 9.57149 3.10774
161 2 0.469036 4.63352 10.5163 3.42337
162 2 0.484483 3.9982 9.37183 2.44698
163 1 -0.891394 4.07259 7.37625 11.6807
164 2 0.475715 3.88503 8.20875 11.1594
165 2 0.415679 3.64383 7.44341 0.181597
166 1 -1.00778 9.9003 1.11627 6.38271
167 2 0.534399 10.0634 1.17762 7.36742
168 2 0.473383 10.7441 0.841599 5.92158
169 1 -1.02355 5.95087 1.70311 2.39194
170 2 0.493025 5.86576 0.884821 2.96042
171 2 0.530522 5.50467 2.4734 2.84755
172 1 -0.965029 1.93249 4.55445 10.2266
173 2 0.435983 2.92518 4.47286 10.1377
174 2 0.529046 1.57394 3.75407 10.707
175 1 -1.03741 12.3652 11.6416 8.34251
176 2 0.5423 11.6159 11.1727 8.81017
177 2 0.495111 12.1017 11.8299 7.39638
178 1 -0.958035 5.77875 11.8177 4.52515
179 2 0.522431 6.52993 11.158 4.50197
180 2 0.435604 5.61792 12.1067 5.46888
181 1 -0.861845 11.1285 9.55486 5.99749
182 2 0.443743 10.6098 8.93491 5.40876
183 2 0.418102 11.1473 9.19204 6.92917
184 1 -0.85426 5.8705 7.05266 5.79759
185 2 0.43056 5.42649 6.69229 6.61795
186 2 0.4237 5.33234 6.80602 4.99164
187 1 -1.02943 9.2049 11.5495 4.34528
188 2 0.571893 9.11679 10.6423 4.75664
189 2 0.457538 9.51924 12.2 5.03674
190 1 -0.958043 6.31689 5.86677 10.4336
191 2 0.490098 5.75014 5.69092 11.2385
192 2 0.467946 6.09064 6.76484 10.0564
