ITEM: TIMESTEP
0
ITEM: NUMBER OF ATOMS
192
ITEM: BOX BOUNDS pp pp pp
0.0000000000000000e+00 1.2400000000000000e+01
0.0000000000000000e+00 1.2400000000000000e+01
0.0000000000000000e+00 1.2400000000000000e+01
ITEM: ATOMS id type q x y z
1 1 -0.968944 0.592604 0.214193 10.7879
2 2 0.469506 0.602896 11.9026 11.4904
3 2 0.499438 12.144 0.151788 10.2627
4 1 -0.939054 1.11402 11.2926 0.913188
5 2 0.436781 0.97717 10.5207 1.53403
6 2 0.502273 0.370003 11.9504 1.03017
7 1 -0.944117 3.63139 0.62477 7.2544
8 2 0.502414 3.94826 0.722887 8.19779
9 2 0.441704 4.00099 12.1813 6.86465
10 1 -0.923271 8.94226 2.79692 9.69884
11 2 0.450085 8.04234 2.70014 9.27366
12 2 0.473185 9.64688 2.4813 9.06331
13 1 -0.920514 7.0467 8.68637 8.00684
14 2 0.408498 6.13025 8.81724 8.38498
15 2 0.512016 7.72232 8.74754 8.74155
16 1 -0.869334 0.960761 1.93681 8.12836
17 2 0.406155 0.0412978 1.5953 7.93351
18 2 0.463178 1.63501 1.36237 7.66423
19 1 -1.07904 5.60816 4.88892 11.4329
20 2 0.577419 5.32297 4.31203 10.6675
21 2 0.501617 6.48626 4.56517 11.7852
22 1 -0.890282 4.72679 7.24868 10.0528
23 2 0.444269 3.77007 7.12913 10.3181
24 2 0.446013 5.31024 6.70317 10.6545
25 1 -0.924124 9.40903 3.602 3.78612
26 2 0.47488 9.13432 3.1524 4.63605
27 2 0.449244 9.54863 4.57768 3.95517
28 1 -0.870297 2.80974 7.96688 7.28956
29 2 0.493849 2.54534 7.04285 7.01339
30 2 0.376449 1.9931 8.53932 7.36307
31 1 -0.887198 4.80213 10.2545 7.0857
32 2 0.402457 5.6772 9.96345 7.47245
33 2 0.484741 4.11364 9.54809 7.25011
34 1 -1.03244 1.38044 7.9745 0.697605
35 2 0.500886 2.33339 7.75829 0.910096
36 2 0.531557 0.967445 8.4558 1.47077
37 1 -1.071 0.117142 9.27304 2.87444
38 2 0.537494 0.406197 9.25687 3.83162
39 2 0.533508 11.5837 9.62671 2.81405
40 1 -0.873608 2.71254 6.46489 4.28975
41 2 0.463645 1.8649 5.96942 4.47957
42 2 0.409963 2.50702 7.43211 4.14054
43 1 -0.84876 2.61712 5.16014 11.5278
44 2 0.430454 3.34297 4.62171 11.9558
45 2 0.418306 2.01327 5.52758 12.2351
46 1 -0.910917 4.617 3.66545 5.35905
47 2 0.462331 5.02375 3.00659 5.99188
48 2 0.448585 3.73611 3.97307 5.71877
49 1 -0.985652 5.71257 3.86444 2.67456
50 2 0.450693 6.24215 4.64227 2.33615
51 2 0.534959 5.56949 3.9618 3.65947
52 1 -0.91577 9.85714 7.17165 6.92199
53 2 0.447403 9.67538 7.03181 7.89534
54 2 0.468367 9.23226 6.60792 6.38185
55 1 -0.917392 7.42368 9.08815 0.920655
56 2 0.386674 7.71305 9.73 1.6308
57 2 0.530718 7.0901 9.59714 0.127145
58 1 -0.951436 2.63164 2.28353 0.0066
59 2 0.470808 2.62727 1.88083 0.92197
60 2 0.480628 1.94735 1.82673 11.8382
61 1 -0.975809 1.48451 5.07527 8.70378
62 2 0.471368 1.48173 4.16727 8.28483
63 2 0.504441 2.05098 5.06047 9.52774
64 1 -1.03204 9.20161 8.24264 10.2457
65 2 0.568075 9.60557 7.33604 10.1236
66 2 0.463965 8.48184 8.19635 10.9383
67 1 -0.98112 5.58457 1.6633 12.3744
68 2 0.528409 6.275 1.79547 0.68566
69 2 0.452711 4.86216 2.34667 0.0800442
70 1 -0.92273 7.9072 10.2377 5.06735
71 2 0.418574 7.97172 9.89849 6.00584
72 2 0.504156 8.42209 9.63414 4.45859
73 1 -0.919808 11.3311 4.32701 7.17102
74 2 0.458106 11.599 4.82821 7.99385
75 2 0.461702 11.8984 4.62138 6.40191
76 1 -0.948629 7.88823 1.50229 1.79693
77 2 0.51175 7.33659 2.07282 2.40536
78 2 0.43688 8.7487 1.26767 2.24921
79 1 -1.0333 4.35995 0.513089 9.91483
80 2 0.558719 4.70332 0.998594 10.7188
81 2 0.474583 3.89382 12.077 10.2042
82 1 -0.895505 1.47588 11.0828 8.34466
83 2 0.484728 1.84679 11.7008 9.03789
84 2 0.410777 1.57745 10.1369 8.65271
85 1 -1.09726 1.08662 4.22702 1.44829
86 2 0.595285 0.274882 3.64746 1.52046
87 2 0.501975 1.8106 3.72874 0.971236
88 1 -0.937684 6.36307 9.6951 10.8187
89 2 0.437436 6.33862 10.6891 10.9251
90 2 0.500248 5.43367 9.33065 10.877
91 1 -1.08952 11.1628 2.78965 1.55844
92 2 0.552919 10.5577 2.83796 2.35315
93 2 0.5366 10.975 1.95108 1.04702
94 1 -1.16675 11.4023 0.218138 5.7045
95 2 0.575654 12.2792 0.274583 5.22726
96 2 0.591096 11.3072 11.7141 6.12131
97 1 -0.961786 11.7719 6.11726 12.0411
98 2 0.442454 11.8415 5.18092 12.3852
99 2 0.519332 0.062806 6.68778 0.0851449
100 1 -1.04185 10.8357 12.2286 0.796257
101 2 0.494921 10.494 11.56 0.135879
102 2 0.54693 10.5546 11.9608 1.71778
103 1 -0.989083 9.30983 8.42796 3.46406
104 2 0.492634 9.17229 7.5301 3.88232
105 2 0.496449 9.45929 8.31854 2.48137
106 1 -0.978176 8.68176 4.38177 12.041
107 2 0.547214 8.87913 3.79837 11.2531
108 2 0.430962 9.38217 4.24428 0.341363
109 1 -0.832394 4.72198 11.2666 0.998388
110 2 0.472796 5.1446 12.1698 0.924091
111 2 0.359599 4.10135 11.2524 1.78236
112 1 -0.826574 11.977 2.92681 10.5092
113 2 0.373992 12.316 3.67581 9.93994
114 2 0.452582 0.269155 2.20685 10.5597
115 1 -0.830689 1.43863 3.87525 5.18456
116 2 0.445554 1.68612 2.9253 5.37521
117 2 0.385136 0.896538 3.91648 4.34525
118 1 -0.92316 11.7652 6.07889 2.67908
119 2 0.522081 0.0553009 5.4913 2.25661
120 2 0.401079 11.3144 6.6246 1.9727
121 1 -0.987069 7.63961 6.21045 1.63532
122 2 0.507054 7.137 6.999 1.28095
123 2 0.480015 8.06831 5.72001 0.876578
124 1 -0.868257 7.99247 11.8589 11.9751
125 2 0.388401 8.26566 12.0939 11.0423
126 2 0.479855 8.24729 0.20174 0.194217
127 1 -1.03983 10.1823 5.65718 9.78849
128 2 0.491702 9.78901 4.77007 9.54683
129 2 0.54813 10.7704 5.55372 10.5906
130 1 -0.7555 7.52236 11.9451 8.30371
131 2 0.372911 7.50544 11.2783 7.55864
132 2 0.382589 6.63816 11.9455 8.77081
133 1 -0.918673 1.5545 10.6085 5.5473
134 2 0.551068 1.61076 10.7457 6.53624
135 2 0.367605 2.43731 10.2873 5.20457
136 1 -0.846759 10.714 9.15994 0.408567
137 2 0.451055 10.1196 9.08884 12.0075
138 2 0.395704 11.6282 8.82818 0.175879
139 1 -0.944509 12.2901 7.14091 5.33142
140 2 0.477728 11.525 7.07504 5.97198
141 2 0.466781 11.9905 6.84864 4.4232
142 1 -0.86295 0.0639602 8.00505 8.96415
143 2 0.478032 0.4913 7.10237 8.91375
144 2 0.384918 11.9667 8.09073 9.82754
145 1 -0.894971 3.02909 10.2894 11.2201
146 2 0.430343 2.15552 9.84194 11.4116
147 2 0.464628 3.2753 10.8819 11.9871
148 1 -1.0663 6.68121 3.01157 7.26727
149 2 0.528192 6.71637 3.99326 7.45445
150 2 0.538105 7.60498 2.67309 7.08809
151 1 -1.01319 7.9539 6.088 4.91719
152 2 0.525666 7.31023 6.60056 5.4855
153 2 0.48752 7.5623 5.95548 4.00664
154 1 -0.99905 1.37838 0.834386 4.31488
155 2 0.435151 1.71244 0.023 4.79456
156 2 0.563899 2.06736 1.1405 3.65791
157 1 -0.828032 6.65024 1.35266 4.68948
158 2 0.41275 6.70799 1.97752 5.46808
159 2 0.415282 6.15302 0.528244 4.95986
160 1 -0.853003 3.1487 9.19295 3.27987
161 2 0.390299 2.39472 9.80045 3.02996
162 2 0.462704 3.79377 9.13153 2.51822
163 1 -0.891718 4.30172 6.75423 1.01068
164 2 0.407534 4.04158 6.35773 1.89109
165 2 0.484184 4.63393 6.03144 0.404706
166 1 -1.07342 9.39293 2.20908 6.50438
167 2 0.473988 9.83747 3.08002 6.71377
168 2 0.599433 10.0802 1.54787 6.2036
169 1 -1.08446 3.60617 1.51629 2.82078
170 2 0.538047 4.30342 0.866348 3.12316
171 2 0.546412 3.96543 2.44693 2.89035
172 1 -0.964635 4.56003 3.43203 9.35056
173 2 0.467469 3.99823 2.61946 9.50587
174 2 0.497166 5.30773 3.20597 8.72618
175 1 -0.873741 10.3839 11.2399 9.6477
176 2 0.440686 9.9624 10.3394 9.75474
177 2 0.433055 9.89708 11.754 8.94149
178 1 -0.883898 4.92874 11.4686 3.99218
179 2 0.391878 4.13866 10.9629 4.33871
180 2 0.492021 5.72253 10.8616 3.95429
181 1 -0.933625 10.9121 10.1169 6.88013
182 2 0.526556 11.3386 9.46774 7.50992
183 2 0.407069 10.4128 9.61636 6.17293
184 1 -0.853123 5.38027 7.44127 5.6211
185 2 0.37581 5.37068 8.32627 6.08659
186 2 0.477313 4.49304 7.2829 5.18781
187 1 -1.04424 9.92263 11.6393 3.48005
188 2 0.500624 9.13423 11.136 3.83376
189 2 0.543618 10.3971 12.0898 4.2363
190 1 -0.914131 6.94033 5.66201 8.49497
191 2 0.485869 6.09626 5.90343 8.9738
192 2 0.428261 7.42641 6.49637 8.23502
