LAMMPS (2 Sep 2026)
OMP_NUM_THREADS environment is not set. Defaulting to 1 thread.
  using 1 OpenMP thread(s) per MPI task
units metal
atom_style full
boundary p p p
lattice sc 3.1
Lattice spacing in x,y,z = 3.1 3.1 3.1
region box block 0 8 0 8 0 8
create_box 2 box
Created orthogonal box = (0 0 0) to (24.8 24.8 24.8)
  1 by 2 by 2 MPI processor grid
mass 1 15.9994
mass 2 1.008
molecule h2o spcfq.mol
Read molecule template h2o:
# SPC-FQ 3-site water: O(type1) + 2H(type2), all charged via samqeq. SPC geom rOH=1.0 theta=109.47.
  1 molecules
  0 fragments
  0 bodies
  3 atoms with max type 2
  0 bonds with max type 0
  0 angles with max type 0
  0 dihedrals with max type 0
  0 impropers with max type 0
create_atoms 0 box mol h2o 12345
Created 1536 atoms
  using lattice units in orthogonal box = (0 0 0) to (24.8 24.8 24.8)
  create_atoms CPU = 0.003 seconds
group fq type 1 2
1536 atoms in group fq
set type 1 charge -0.85
Setting atom values ...
  512 settings made for charge
set type 2 charge 0.425
Setting atom values ...
  1024 settings made for charge
pair_style hybrid/overlay lj/cut 10.0 coul/long 10.0 coul/shield/intra 5.0 all
pair_coeff 1 1 lj/cut 0.01275 3.144
pair_coeff 1 2 lj/cut 0.0 1.0
pair_coeff 2 2 lj/cut 0.0 1.0
pair_coeff * * coul/long
pair_coeff * * coul/shield/intra 1.11
kspace_style pppm/samqeq 1.0e-6
neighbor 2.0 bin
velocity all create 298 4928459 mom yes rot yes
timestep 0.001
fix chg fq qeq/sam 1 0.0 10.0 1.0e-5 spcfq_expt.param
fix_modify chg recip_self 0.37933
samqeq: grid reciprocal self-term PINNED at recip_self=0.37933 (raw) = 5.4622 eV/e (not measured; operator is decomposition- and atom-order-independent)
fix integ all rigid/nvt/small molecule temp 298 298 0.1
Fix rigid/nvt/small setup ...
  create bodies CPU = 0.000 seconds
  512 rigid bodies with 1536 atoms
  1.0000026 = max distance from body owner to body atom
variable aq atom abs(q)
compute qmax fq reduce max v_aq
thermo_style custom step temp pe c_qmax
thermo 200
run 3000

CITE-CITE-CITE-CITE-CITE-CITE-CITE-CITE-CITE-CITE-CITE-CITE-CITE

Your simulation uses code contributions which should be cited:

- fix acks2/reaxff command: https://doi.org/10.1137/18M1224684

@Article{O'Hearn2020,
 author = {K. A. {O'Hearn} and A. Alperen and H. M. Aktulga},
 title = {Fast Solvers for Charge Distribution Models on Shared Memory Platforms},
 journal = {SIAM J.\ Sci.\ Comput.},
 year =    2020,
 volume =  42,
 number =  1,
 pages =   {1--22}
}

CITE-CITE-CITE-CITE-CITE-CITE-CITE-CITE-CITE-CITE-CITE-CITE-CITE

PPPM initialization ...
  using 12-bit tables for long-range coulomb
  G vector (1/distance) = 0.33957131
  grid = 36 36 36
  stencil order = 5
  estimated absolute RMS force accuracy = 1.4063135e-05
  estimated relative force accuracy = 9.7663066e-07
  using double precision FFTW3
  3d grid and FFT values/proc = 26875 11664
Generated 0 of 1 mixed pair_coeff terms from geometric mixing rule
samqeq: E_self = sum(chi q + 1/2 eta qs^2) INCLUDED in pe/etotal (fix_modify chg energy yes; eselfref qs = q - q0) -- pe + E_self is the energy the forces integrate
Neighbor list info ...
  update: every = 1 steps, delay = 0 steps, check = yes
  max neighbors/atom: 2000, page size: 100000
  master list distance cutoff = 12
  ghost atom cutoff = 12
  binsize = 6, bins = 5 5 5
  5 neighbor lists, perpetual/occasional/extra = 5 0 0
  (1) pair lj/cut, perpetual, half/full from (5)
      attributes: half, newton on
      pair build: halffull/newton
      stencil: none
      bin: none
  (2) pair coul/long, perpetual, copy from (1)
      attributes: half, newton on
      pair build: copy
      stencil: none
      bin: none
  (3) pair coul/shield/intra, perpetual, trim from (2)
      attributes: half, newton on, cut 7
      pair build: trim
      stencil: none
      bin: none
  (4) fix qeq/sam, perpetual, half/full from (5)
      attributes: half, newton off
      pair build: halffull/newtoff
      stencil: none
      bin: none
  (5) fix qeq/sam, perpetual
      attributes: full, newton on
      pair build: full/bin
      stencil: full/bin/3d
      bin: standard
samqeq: recip_self ACTIVE at run start (step 0): 0.37933 raw = 5.4622 eV/e, PINNED (fix_modify recip_self)
samqeq SOLVER-DIAG step 0: CG 12 iters (=12 matvecs), resid/b=7.60e-06
Per MPI rank memory allocation (min/avg/max) = 31.06 | 31.09 | 31.16 Mbytes
   Step          Temp          PotEng         c_qmax    
         0   296.94096     -372.54188      1.0374391    
samqeq SOLVER-DIAG step 200: CG 13 iters (=13 matvecs), resid/b=6.85e-06
       200   650.41266     -510.88583      1.1209516    
samqeq SOLVER-DIAG step 400: CG 13 iters (=13 matvecs), resid/b=5.55e-06
       400   489.94713     -535.94891      1.1742336    
samqeq SOLVER-DIAG step 600: CG 13 iters (=13 matvecs), resid/b=6.51e-06
       600   405.78536     -552.08829      1.1912144    
samqeq SOLVER-DIAG step 800: CG 13 iters (=13 matvecs), resid/b=7.18e-06
       800   351.96177     -562.40082      1.3011044    
samqeq SOLVER-DIAG step 1000: CG 13 iters (=13 matvecs), resid/b=6.96e-06
      1000   332.27699     -572.22898      1.2794004    
samqeq SOLVER-DIAG step 1200: CG 13 iters (=13 matvecs), resid/b=5.68e-06
      1200   321.17273     -579.39293      1.2091912    
samqeq SOLVER-DIAG step 1400: CG 13 iters (=13 matvecs), resid/b=7.37e-06
      1400   309.10313     -583.3744       1.3344956    
samqeq SOLVER-DIAG step 1600: CG 13 iters (=13 matvecs), resid/b=7.19e-06
      1600   299.0791      -586.37767      1.2533232    
samqeq SOLVER-DIAG step 1800: CG 13 iters (=13 matvecs), resid/b=8.73e-06
      1800   283.62382     -586.53612      1.3327369    
samqeq SOLVER-DIAG step 2000: CG 13 iters (=13 matvecs), resid/b=7.27e-06
      2000   289.71836     -584.695        1.2659522    
samqeq SOLVER-DIAG step 2200: CG 13 iters (=13 matvecs), resid/b=7.07e-06
      2200   310.95863     -583.39207      1.3035268    
samqeq SOLVER-DIAG step 2400: CG 13 iters (=13 matvecs), resid/b=7.07e-06
      2400   298.05107     -585.72768      1.295679     
samqeq SOLVER-DIAG step 2600: CG 13 iters (=13 matvecs), resid/b=7.60e-06
      2600   302.04542     -586.90242      1.3041171    
samqeq SOLVER-DIAG step 2800: CG 13 iters (=13 matvecs), resid/b=5.99e-06
      2800   293.41415     -585.82378      1.2403905    
samqeq SOLVER-DIAG step 3000: CG 13 iters (=13 matvecs), resid/b=7.37e-06
      3000   295.58631     -587.95925      1.3314405    
Loop time of 129.557 on 4 procs for 3000 steps with 1536 atoms

Performance: 2.001 ns/day, 11.996 hours/ns, 23.156 timesteps/s, 35.567 katom-step/s
92.7% CPU use with 4 MPI tasks x 1 OpenMP threads

MPI task timing breakdown:
Section |  min time  |  avg time  |  max time  |%varavg| %total
---------------------------------------------------------------
Pair    | 12.093     | 12.372     | 12.626     |   5.8 |  9.55
Bond    | 0.0014293  | 0.00157    | 0.0017776  |   0.3 |  0.00
Kspace  | 9.6171     | 9.8589     | 10.137     |   6.4 |  7.61
Neigh   | 1.4135     | 1.4423     | 1.4722     |   2.1 |  1.11
Comm    | 0.82758    | 0.84023    | 0.85135    |   0.9 |  0.65
Output  | 0.0011731  | 0.0012303  | 0.0013037  |   0.1 |  0.00
Modify  | 104.81     | 104.86     | 104.92     |   0.4 | 80.94
Other   |            | 0.1794     |            |       |  0.14

Nlocal:            384 ave         398 max         371 min
Histogram: 1 0 1 0 0 0 1 0 0 1
Nghost:        6144.25 ave        6219 max        6075 min
Histogram: 1 1 0 0 0 0 0 1 0 1
Neighs:         139658 ave      145182 max      134184 min
Histogram: 1 0 0 1 0 0 1 0 0 1
FullNghs:       279316 ave      290927 max      268407 min
Histogram: 1 0 1 0 0 0 1 0 0 1

Total # of neighbors = 1117264
Ave neighs/atom = 727.38542
Ave special neighs/atom = 0
Neighbor list builds = 156
Dangerous builds = 0
Total wall time: 0:02:09
