ITEM: TIMESTEP
0
ITEM: NUMBER OF ATOMS
240
ITEM: BOX BOUNDS pp pp ff
0.0000000000000000e+00 1.7650658050000001e+01
0.0000000000000000e+00 2.0381224350000000e+01
0.0000000000000000e+00 6.0000000000000000e+01
ITEM: ATOMS id type q
1 1 -0.031738646273
2 1 -0.0317386010594
3 1 -0.0317385764004
4 1 -0.0317386157532
5 1 -0.0317386463355
6 1 -0.0317386010754
7 1 -0.0317385763603
8 1 -0.0317386156806
9 1 -0.031738646277
10 1 -0.0317386010669
11 1 -0.0317385764045
12 1 -0.0317386157607
13 1 -0.0317386463396
14 1 -0.0317386010829
15 1 -0.0317385763644
16 1 -0.0317386156881
17 1 -0.0317386462868
18 1 -0.0317386010755
19 1 -0.0317385764142
20 1 -0.0317386157692
21 1 -0.0317386463493
22 1 -0.0317386010914
23 1 -0.0317385763741
24 1 -0.0317386156967
25 1 -0.0317386462902
26 1 -0.0317386010721
27 1 -0.0317385764176
28 1 -0.0317386157658
29 1 -0.0317386463527
30 1 -0.031738601088
31 1 -0.0317385763775
32 1 -0.0317386156933
33 1 -0.0317386462816
34 1 -0.0317386010623
35 1 -0.0317385764091
36 1 -0.0317386157561
37 1 -0.0317386463442
38 1 -0.0317386010783
39 1 -0.031738576369
40 1 -0.0317386156835
41 1 -0.0317386462742
42 1 -0.0317386010582
43 1 -0.0317385764016
44 1 -0.031738615752
45 1 -0.0317386463367
46 1 -0.0317386010742
47 1 -0.0317385763615
48 1 -0.0317386156795
49 1 0.00881947894214
50 1 0.00881953796291
51 1 0.00881952945771
52 1 0.00881947364879
53 1 0.00881947890163
54 1 0.00881953797239
55 1 0.00881952951157
56 1 0.0088194737157
57 1 0.00881947893887
58 1 0.00881953795777
59 1 0.00881952945445
60 1 0.00881947364365
61 1 0.00881947889837
62 1 0.00881953796725
63 1 0.00881952950831
64 1 0.00881947371056
65 1 0.0088194789339
66 1 0.00881953795568
67 1 0.00881952944948
68 1 0.00881947364155
69 1 0.00881947889339
70 1 0.00881953796515
71 1 0.00881952950333
72 1 0.00881947370847
73 1 0.00881947893599
74 1 0.00881953796065
75 1 0.00881952945157
76 1 0.00881947364653
77 1 0.00881947889549
78 1 0.00881953797013
79 1 0.00881952950543
80 1 0.00881947371344
81 1 0.00881947894113
82 1 0.00881953796392
83 1 0.00881952945671
84 1 0.00881947364979
85 1 0.00881947890063
86 1 0.00881953797339
87 1 0.00881952951057
88 1 0.0088194737167
89 1 0.00881947894205
90 1 0.00881953796384
91 1 0.00881952945763
92 1 0.00881947364971
93 1 0.00881947890155
94 1 0.00881953797331
95 1 0.00881952951149
96 1 0.00881947371662
97 1 -5.47004240134e-05
98 1 -5.46744608104e-05
99 1 -5.47006003735e-05
100 1 -5.47265756354e-05
101 1 -5.47004366234e-05
102 1 -5.46744315953e-05
103 1 -5.47005469778e-05
104 1 -5.47265301071e-05
105 1 -5.470042394e-05
106 1 -5.46744607443e-05
107 1 -5.47006003e-05
108 1 -5.47265755694e-05
109 1 -5.47004365499e-05
110 1 -5.46744315293e-05
111 1 -5.47005469043e-05
112 1 -5.4726530041e-05
113 1 -5.47004239118e-05
114 1 -5.46744607725e-05
115 1 -5.47006002718e-05
116 1 -5.47265755974e-05
117 1 -5.47004365217e-05
118 1 -5.46744315574e-05
119 1 -5.47005468762e-05
120 1 -5.47265300691e-05
121 1 -5.47004239778e-05
122 1 -5.46744608459e-05
123 1 -5.47006003378e-05
124 1 -5.47265756709e-05
125 1 -5.47004365876e-05
126 1 -5.46744316308e-05
127 1 -5.47005469421e-05
128 1 -5.47265301426e-05
129 1 -5.47004240396e-05
130 1 -5.4674460886e-05
131 1 -5.47006003997e-05
132 1 -5.47265757111e-05
133 1 -5.47004366495e-05
134 1 -5.46744316709e-05
135 1 -5.4700547004e-05
136 1 -5.47265301827e-05
137 1 -5.47004240536e-05
138 1 -5.46744608722e-05
139 1 -5.47006004136e-05
140 1 -5.47265756973e-05
141 1 -5.47004366634e-05
142 1 -5.46744316571e-05
143 1 -5.47005470179e-05
144 1 -5.47265301689e-05
145 1 -0.00865031206694
146 1 -0.00865030694197
147 1 -0.00865036240029
148 1 -0.00865037074573
149 1 -0.00865031205577
150 1 -0.00865030690284
151 1 -0.00865036235876
152 1 -0.00865037072513
153 1 -0.00865031206212
154 1 -0.00865030693995
155 1 -0.00865036239547
156 1 -0.00865037074371
157 1 -0.00865031205094
158 1 -0.00865030690083
159 1 -0.00865036235394
160 1 -0.00865037072311
161 1 -0.00865031206413
162 1 -0.00865030694477
163 1 -0.00865036239748
164 1 -0.00865037074854
165 1 -0.00865031205296
166 1 -0.00865030690565
167 1 -0.00865036235595
168 1 -0.00865037072793
169 1 -0.00865031206918
170 1 -0.00865030694802
171 1 -0.00865036240253
172 1 -0.00865037075179
173 1 -0.008650312058
174 1 -0.0086503069089
175 1 -0.008650362361
176 1 -0.00865037073119
177 1 -0.00865031207013
178 1 -0.00865030694796
179 1 -0.00865036240347
180 1 -0.00865037075172
181 1 -0.00865031205895
182 1 -0.00865030690883
183 1 -0.00865036236194
184 1 -0.00865037073112
185 1 -0.00865031207019
186 1 -0.00865030694701
187 1 -0.00865036240354
188 1 -0.00865037075077
189 1 -0.00865031205902
190 1 -0.00865030690789
191 1 -0.00865036236201
192 1 -0.00865037073017
193 1 0.0316241796925
194 1 0.0316241491447
195 1 0.031624110036
196 1 0.0316241346778
197 1 0.0316241797187
198 1 0.03162414918
199 1 0.031624110058
200 1 0.0316241346753
201 1 0.0316241796961
202 1 0.0316241491411
203 1 0.0316241100396
204 1 0.0316241346742
205 1 0.0316241797223
206 1 0.0316241491764
207 1 0.0316241100616
208 1 0.0316241346717
209 1 0.0316241796872
210 1 0.0316241491311
211 1 0.0316241100307
212 1 0.0316241346643
213 1 0.0316241797134
214 1 0.0316241491665
215 1 0.0316241100527
216 1 0.0316241346618
217 1 0.0316241796796
218 1 0.0316241491271
219 1 0.0316241100232
220 1 0.0316241346602
221 1 0.0316241797059
222 1 0.0316241491624
223 1 0.0316241100451
224 1 0.0316241346577
225 1 0.0316241796785
226 1 0.0316241491283
227 1 0.031624110022
228 1 0.0316241346614
229 1 0.0316241797047
230 1 0.0316241491636
231 1 0.031624110044
232 1 0.0316241346589
233 1 0.0316241796825
234 1 0.0316241491358
235 1 0.0316241100261
236 1 0.0316241346689
237 1 0.0316241797087
238 1 0.0316241491711
239 1 0.031624110048
240 1 0.0316241346664
