LAMMPS (2 Sep 2026)
OMP_NUM_THREADS environment is not set. Defaulting to 1 thread.
  using 1 OpenMP thread(s) per MPI task
# referee item 4: NVE of SPC-FQ water, arm matched_warm_tol1e-7 (run_nve.py)
units        metal
atom_style   full
boundary     p p p
lattice      sc 3.1
Lattice spacing in x,y,z = 3.1 3.1 3.1
region       box block 0 4 0 4 0 4
create_box   2 box
Created orthogonal box = (0 0 0) to (12.4 12.4 12.4)
  1 by 1 by 1 MPI processor grid
mass         1 15.9994
mass         2 1.008
molecule     h2o spcfq.mol
Read molecule template h2o:
# SPC-FQ 3-site water: O(type1) + 2H(type2), all charged via samqeq. SPC geom rOH=1.0 theta=109.47.
  1 molecules
  0 fragments
  0 bodies
  3 atoms with max type 2
  0 bonds with max type 0
  0 angles with max type 0
  0 dihedrals with max type 0
  0 impropers with max type 0
create_atoms 0 box mol h2o 12345
Created 192 atoms
  using lattice units in orthogonal box = (0 0 0) to (12.4 12.4 12.4)
  create_atoms CPU = 0.002 seconds
group        fq type 1 2
192 atoms in group fq
set          type 1 charge -0.85
Setting atom values ...
  64 settings made for charge
set          type 2 charge  0.425
Setting atom values ...
  128 settings made for charge
pair_style   hybrid/overlay lj/cut 10.0 coul/long 10.0 coul/shield/intra 10.0 all
pair_coeff   1 1 lj/cut 0.01275 3.176
pair_coeff   1 2 lj/cut 0.0 1.0
pair_coeff   2 2 lj/cut 0.0 1.0
pair_coeff   * * coul/long
pair_coeff   * * coul/shield/intra 1.11
pair_modify  pair lj/cut shift yes
kspace_style pppm/samqeq 1.0e-6
neighbor     2.0 bin
neigh_modify every 1 delay 0 check yes
fix          chg fq qeq/sam 1 0.0 10.0 1.0e-7 spcfq_expt.param
fix_modify   chg energy yes
fix_modify   chg solver warmstart on
samqeq: charge predictor (warm-start from the previous converged charges) = ON (#20; cuts BO iteration count; first/single-point solve still cold-starts)
compute      dip fq dipole/samqeq
timestep     0.001
velocity     all create 298 123456 mom yes rot yes dist gaussian
fix          integ all rigid/nvt/small molecule temp 298 298 0.1
Fix rigid/nvt/small setup ...
  create bodies CPU = 0.000 seconds
  64 rigid bodies with 192 atoms
  1.0000026 = max distance from body owner to body atom
thermo_style custom step temp pe etotal c_dip
thermo       1000
run          100000

CITE-CITE-CITE-CITE-CITE-CITE-CITE-CITE-CITE-CITE-CITE-CITE-CITE

Your simulation uses code contributions which should be cited:

- fix acks2/reaxff command: https://doi.org/10.1137/18M1224684

@Article{O'Hearn2020,
 author = {K. A. {O'Hearn} and A. Alperen and H. M. Aktulga},
 title = {Fast Solvers for Charge Distribution Models on Shared Memory Platforms},
 journal = {SIAM J.\ Sci.\ Comput.},
 year =    2020,
 volume =  42,
 number =  1,
 pages =   {1--22}
}

CITE-CITE-CITE-CITE-CITE-CITE-CITE-CITE-CITE-CITE-CITE-CITE-CITE

PPPM initialization ...
  using 12-bit tables for long-range coulomb
  G vector (1/distance) = 0.33957131
  grid = 18 18 18
  stencil order = 5
  estimated absolute RMS force accuracy = 1.4063135e-05
  estimated relative force accuracy = 9.7663066e-07
  using double precision FFTW3
  3d grid and FFT values/proc = 15625 5832
Generated 0 of 1 mixed pair_coeff terms from geometric mixing rule
samqeq: E_self = sum(chi q + 1/2 eta qs^2) INCLUDED in pe/etotal (fix_modify chg energy yes; eselfref qs = q - q0) -- pe + E_self is the energy the forces integrate
Neighbor list info ...
  update: every = 1 steps, delay = 0 steps, check = yes
  max neighbors/atom: 2000, page size: 100000
  master list distance cutoff = 12
  ghost atom cutoff = 12
  binsize = 6, bins = 3 3 3
  5 neighbor lists, perpetual/occasional/extra = 5 0 0
  (1) pair lj/cut, perpetual, half/full from (5)
      attributes: half, newton on
      pair build: halffull/newton
      stencil: none
      bin: none
  (2) pair coul/long, perpetual, copy from (1)
      attributes: half, newton on
      pair build: copy
      stencil: none
      bin: none
  (3) pair coul/shield/intra, perpetual, copy from (1)
      attributes: half, newton on
      pair build: copy
      stencil: none
      bin: none
  (4) fix qeq/sam, perpetual, half/full from (5)
      attributes: half, newton off
      pair build: halffull/newtoff
      stencil: none
      bin: none
  (5) fix qeq/sam, perpetual
      attributes: full, newton on
      pair build: full/bin
      stencil: full/bin/3d
      bin: standard
samqeq: recip_self ACTIVE at run start (step 0): not yet calibrated -- measured at the first solve by the K=16 deterministic-probe route
samqeq: calibrated grid reciprocal self-term recip_self=0.38207 +/- 0.00000 (raw, K=16 deterministic probes) = 5.5016 eV/e (subtracted so the QEq diagonal stays = eta)
samqeq SOLVER-DIAG step 0: CG 16 iters (=16 matvecs) [warm], resid/b=9.49e-08
Per MPI rank memory allocation (min/avg/max) = 24.65 | 24.65 | 24.65 Mbytes
   Step          Temp          PotEng         TotEng         c_dip     
         0   295.15635     -45.539089     -40.693791      2.033378     
samqeq SOLVER-DIAG step 200: CG 13 iters (=13 matvecs) [warm], resid/b=4.39e-08
samqeq SOLVER-DIAG step 400: CG 13 iters (=13 matvecs) [warm], resid/b=5.61e-08
samqeq SOLVER-DIAG step 600: CG 13 iters (=13 matvecs) [warm], resid/b=7.21e-08
samqeq SOLVER-DIAG step 800: CG 13 iters (=13 matvecs) [warm], resid/b=8.70e-08
samqeq SOLVER-DIAG step 1000: CG 13 iters (=13 matvecs) [warm], resid/b=5.77e-08
      1000   265.159       -71.312231     -66.959371      2.7724909    
samqeq SOLVER-DIAG step 1200: CG 14 iters (=14 matvecs) [warm], resid/b=4.01e-08
samqeq SOLVER-DIAG step 1400: CG 14 iters (=14 matvecs) [warm], resid/b=4.58e-08
samqeq SOLVER-DIAG step 1600: CG 13 iters (=13 matvecs) [warm], resid/b=9.31e-08
samqeq SOLVER-DIAG step 1800: CG 13 iters (=13 matvecs) [warm], resid/b=9.31e-08
samqeq SOLVER-DIAG step 2000: CG 14 iters (=14 matvecs) [warm], resid/b=5.57e-08
      2000   311.79636     -71.12869      -66.010229      2.7973135    
samqeq SOLVER-DIAG step 2200: CG 13 iters (=13 matvecs) [warm], resid/b=8.24e-08
samqeq SOLVER-DIAG step 2400: CG 14 iters (=14 matvecs) [warm], resid/b=7.11e-08
samqeq SOLVER-DIAG step 2600: CG 13 iters (=13 matvecs) [warm], resid/b=8.87e-08
samqeq SOLVER-DIAG step 2800: CG 14 iters (=14 matvecs) [warm], resid/b=4.00e-08
samqeq SOLVER-DIAG step 3000: CG 13 iters (=13 matvecs) [warm], resid/b=9.51e-08
      3000   287.69461     -71.349645     -66.62684       2.8166271    
samqeq SOLVER-DIAG step 3200: CG 13 iters (=13 matvecs) [warm], resid/b=9.01e-08
samqeq SOLVER-DIAG step 3400: CG 13 iters (=13 matvecs) [warm], resid/b=8.54e-08
samqeq SOLVER-DIAG step 3600: CG 13 iters (=13 matvecs) [warm], resid/b=9.32e-08
samqeq SOLVER-DIAG step 3800: CG 14 iters (=14 matvecs) [warm], resid/b=5.70e-08
samqeq SOLVER-DIAG step 4000: CG 13 iters (=13 matvecs) [warm], resid/b=8.20e-08
      4000   332.85271     -72.775272     -67.311149      2.8440116    
samqeq SOLVER-DIAG step 4200: CG 14 iters (=14 matvecs) [warm], resid/b=4.38e-08
samqeq SOLVER-DIAG step 4400: CG 13 iters (=13 matvecs) [warm], resid/b=9.88e-08
samqeq SOLVER-DIAG step 4600: CG 14 iters (=14 matvecs) [warm], resid/b=4.69e-08
samqeq SOLVER-DIAG step 4800: CG 14 iters (=14 matvecs) [warm], resid/b=5.56e-08
samqeq SOLVER-DIAG step 5000: CG 14 iters (=14 matvecs) [warm], resid/b=5.12e-08
      5000   305.32482     -72.220143     -67.20792       2.8303297    
samqeq SOLVER-DIAG step 5200: CG 13 iters (=13 matvecs) [warm], resid/b=7.97e-08
samqeq SOLVER-DIAG step 5400: CG 14 iters (=14 matvecs) [warm], resid/b=7.74e-08
samqeq SOLVER-DIAG step 5600: CG 14 iters (=14 matvecs) [warm], resid/b=5.86e-08
samqeq SOLVER-DIAG step 5800: CG 13 iters (=13 matvecs) [warm], resid/b=4.14e-08
samqeq SOLVER-DIAG step 6000: CG 14 iters (=14 matvecs) [warm], resid/b=4.58e-08
      6000   307.89054     -70.93063      -65.876287      2.7982735    
samqeq SOLVER-DIAG step 6200: CG 13 iters (=13 matvecs) [warm], resid/b=9.24e-08
samqeq SOLVER-DIAG step 6400: CG 13 iters (=13 matvecs) [warm], resid/b=6.24e-08
samqeq SOLVER-DIAG step 6600: CG 14 iters (=14 matvecs) [warm], resid/b=7.92e-08
samqeq SOLVER-DIAG step 6800: CG 14 iters (=14 matvecs) [warm], resid/b=4.81e-08
samqeq SOLVER-DIAG step 7000: CG 13 iters (=13 matvecs) [warm], resid/b=6.15e-08
      7000   286.31049     -71.955817     -67.255733      2.8052602    
samqeq SOLVER-DIAG step 7200: CG 14 iters (=14 matvecs) [warm], resid/b=6.24e-08
samqeq SOLVER-DIAG step 7400: CG 14 iters (=14 matvecs) [warm], resid/b=7.27e-08
samqeq SOLVER-DIAG step 7600: CG 14 iters (=14 matvecs) [warm], resid/b=5.57e-08
samqeq SOLVER-DIAG step 7800: CG 14 iters (=14 matvecs) [warm], resid/b=5.61e-08
samqeq SOLVER-DIAG step 8000: CG 14 iters (=14 matvecs) [warm], resid/b=4.77e-08
      8000   271.38539     -71.812966     -67.357893      2.7686123    
samqeq SOLVER-DIAG step 8200: CG 13 iters (=13 matvecs) [warm], resid/b=7.19e-08
samqeq SOLVER-DIAG step 8400: CG 13 iters (=13 matvecs) [warm], resid/b=8.16e-08
samqeq SOLVER-DIAG step 8600: CG 14 iters (=14 matvecs) [warm], resid/b=5.19e-08
samqeq SOLVER-DIAG step 8800: CG 13 iters (=13 matvecs) [warm], resid/b=8.75e-08
samqeq SOLVER-DIAG step 9000: CG 14 iters (=14 matvecs) [warm], resid/b=6.53e-08
      9000   317.33045     -70.883852     -65.674543      2.7586745    
samqeq SOLVER-DIAG step 9200: CG 14 iters (=14 matvecs) [warm], resid/b=4.89e-08
samqeq SOLVER-DIAG step 9400: CG 13 iters (=13 matvecs) [warm], resid/b=9.34e-08
samqeq SOLVER-DIAG step 9600: CG 13 iters (=13 matvecs) [warm], resid/b=9.47e-08
samqeq SOLVER-DIAG step 9800: CG 14 iters (=14 matvecs) [warm], resid/b=5.15e-08
samqeq SOLVER-DIAG step 10000: CG 14 iters (=14 matvecs) [warm], resid/b=5.07e-08
     10000   275.49516     -71.314784     -66.792245      2.7544843    
samqeq SOLVER-DIAG step 10200: CG 14 iters (=14 matvecs) [warm], resid/b=6.71e-08
samqeq SOLVER-DIAG step 10400: CG 13 iters (=13 matvecs) [warm], resid/b=7.41e-08
samqeq SOLVER-DIAG step 10600: CG 13 iters (=13 matvecs) [warm], resid/b=9.91e-08
samqeq SOLVER-DIAG step 10800: CG 14 iters (=14 matvecs) [warm], resid/b=5.78e-08
samqeq SOLVER-DIAG step 11000: CG 14 iters (=14 matvecs) [warm], resid/b=6.07e-08
     11000   274.91694     -71.426073     -66.913026      2.804237     
samqeq SOLVER-DIAG step 11200: CG 14 iters (=14 matvecs) [warm], resid/b=5.04e-08
samqeq SOLVER-DIAG step 11400: CG 13 iters (=13 matvecs) [warm], resid/b=6.77e-08
samqeq SOLVER-DIAG step 11600: CG 13 iters (=13 matvecs) [warm], resid/b=8.34e-08
samqeq SOLVER-DIAG step 11800: CG 14 iters (=14 matvecs) [warm], resid/b=7.02e-08
samqeq SOLVER-DIAG step 12000: CG 14 iters (=14 matvecs) [warm], resid/b=8.85e-08
     12000   314.07385     -72.879984     -67.724135      2.85442      
samqeq SOLVER-DIAG step 12200: CG 14 iters (=14 matvecs) [warm], resid/b=5.87e-08
samqeq SOLVER-DIAG step 12400: CG 14 iters (=14 matvecs) [warm], resid/b=4.90e-08
samqeq SOLVER-DIAG step 12600: CG 14 iters (=14 matvecs) [warm], resid/b=4.58e-08
samqeq SOLVER-DIAG step 12800: CG 14 iters (=14 matvecs) [warm], resid/b=5.66e-08
samqeq SOLVER-DIAG step 13000: CG 14 iters (=14 matvecs) [warm], resid/b=6.51e-08
     13000   308.83188     -71.426839     -66.357043      2.7940306    
samqeq SOLVER-DIAG step 13200: CG 14 iters (=14 matvecs) [warm], resid/b=4.82e-08
samqeq SOLVER-DIAG step 13400: CG 14 iters (=14 matvecs) [warm], resid/b=3.86e-08
samqeq SOLVER-DIAG step 13600: CG 14 iters (=14 matvecs) [warm], resid/b=5.61e-08
samqeq SOLVER-DIAG step 13800: CG 13 iters (=13 matvecs) [warm], resid/b=9.15e-08
samqeq SOLVER-DIAG step 14000: CG 14 iters (=14 matvecs) [warm], resid/b=5.68e-08
     14000   267.7611      -71.239803     -66.844226      2.8357354    
samqeq SOLVER-DIAG step 14200: CG 14 iters (=14 matvecs) [warm], resid/b=6.25e-08
samqeq SOLVER-DIAG step 14400: CG 14 iters (=14 matvecs) [warm], resid/b=3.41e-08
samqeq SOLVER-DIAG step 14600: CG 13 iters (=13 matvecs) [warm], resid/b=7.00e-08
samqeq SOLVER-DIAG step 14800: CG 14 iters (=14 matvecs) [warm], resid/b=4.20e-08
samqeq SOLVER-DIAG step 15000: CG 14 iters (=14 matvecs) [warm], resid/b=3.19e-08
     15000   311.36253     -72.284422     -67.173082      2.8139929    
samqeq SOLVER-DIAG step 15200: CG 14 iters (=14 matvecs) [warm], resid/b=7.95e-08
samqeq SOLVER-DIAG step 15400: CG 14 iters (=14 matvecs) [warm], resid/b=5.72e-08
samqeq SOLVER-DIAG step 15600: CG 13 iters (=13 matvecs) [warm], resid/b=6.13e-08
samqeq SOLVER-DIAG step 15800: CG 14 iters (=14 matvecs) [warm], resid/b=5.39e-08
samqeq SOLVER-DIAG step 16000: CG 14 iters (=14 matvecs) [warm], resid/b=7.31e-08
     16000   314.74519     -71.962259     -66.79539       2.8143822    
samqeq SOLVER-DIAG step 16200: CG 14 iters (=14 matvecs) [warm], resid/b=3.58e-08
samqeq SOLVER-DIAG step 16400: CG 13 iters (=13 matvecs) [warm], resid/b=8.35e-08
samqeq SOLVER-DIAG step 16600: CG 14 iters (=14 matvecs) [warm], resid/b=4.02e-08
samqeq SOLVER-DIAG step 16800: CG 14 iters (=14 matvecs) [warm], resid/b=5.44e-08
samqeq SOLVER-DIAG step 17000: CG 13 iters (=13 matvecs) [warm], resid/b=9.99e-08
     17000   293.3779      -71.797431     -66.981328      2.7891742    
samqeq SOLVER-DIAG step 17200: CG 14 iters (=14 matvecs) [warm], resid/b=5.92e-08
samqeq SOLVER-DIAG step 17400: CG 13 iters (=13 matvecs) [warm], resid/b=8.77e-08
samqeq SOLVER-DIAG step 17600: CG 13 iters (=13 matvecs) [warm], resid/b=9.19e-08
samqeq SOLVER-DIAG step 17800: CG 13 iters (=13 matvecs) [warm], resid/b=8.53e-08
samqeq SOLVER-DIAG step 18000: CG 13 iters (=13 matvecs) [warm], resid/b=8.36e-08
     18000   290.95008     -71.471854     -66.695606      2.7969766    
samqeq SOLVER-DIAG step 18200: CG 14 iters (=14 matvecs) [warm], resid/b=5.20e-08
samqeq SOLVER-DIAG step 18400: CG 13 iters (=13 matvecs) [warm], resid/b=9.97e-08
samqeq SOLVER-DIAG step 18600: CG 14 iters (=14 matvecs) [warm], resid/b=4.28e-08
samqeq SOLVER-DIAG step 18800: CG 13 iters (=13 matvecs) [warm], resid/b=8.12e-08
samqeq SOLVER-DIAG step 19000: CG 14 iters (=14 matvecs) [warm], resid/b=5.61e-08
     19000   317.3087      -72.054845     -66.845893      2.8228319    
samqeq SOLVER-DIAG step 19200: CG 14 iters (=14 matvecs) [warm], resid/b=4.27e-08
samqeq SOLVER-DIAG step 19400: CG 14 iters (=14 matvecs) [warm], resid/b=6.27e-08
samqeq SOLVER-DIAG step 19600: CG 14 iters (=14 matvecs) [warm], resid/b=4.97e-08
samqeq SOLVER-DIAG step 19800: CG 14 iters (=14 matvecs) [warm], resid/b=6.80e-08
samqeq SOLVER-DIAG step 20000: CG 13 iters (=13 matvecs) [warm], resid/b=9.61e-08
     20000   283.66844     -71.596018     -66.939305      2.7763885    
samqeq SOLVER-DIAG step 20200: CG 13 iters (=13 matvecs) [warm], resid/b=6.48e-08
samqeq SOLVER-DIAG step 20400: CG 13 iters (=13 matvecs) [warm], resid/b=7.32e-08
samqeq SOLVER-DIAG step 20600: CG 14 iters (=14 matvecs) [warm], resid/b=5.41e-08
samqeq SOLVER-DIAG step 20800: CG 14 iters (=14 matvecs) [warm], resid/b=6.07e-08
samqeq SOLVER-DIAG step 21000: CG 14 iters (=14 matvecs) [warm], resid/b=7.61e-08
     21000   294.34705     -72.410544     -67.578531      2.8448991    
samqeq SOLVER-DIAG step 21200: CG 13 iters (=13 matvecs) [warm], resid/b=9.13e-08
samqeq SOLVER-DIAG step 21400: CG 14 iters (=14 matvecs) [warm], resid/b=8.57e-08
samqeq SOLVER-DIAG step 21600: CG 13 iters (=13 matvecs) [warm], resid/b=8.29e-08
samqeq SOLVER-DIAG step 21800: CG 14 iters (=14 matvecs) [warm], resid/b=4.56e-08
samqeq SOLVER-DIAG step 22000: CG 14 iters (=14 matvecs) [warm], resid/b=4.74e-08
     22000   292.35015     -71.891695     -67.092464      2.7771142    
samqeq SOLVER-DIAG step 22200: CG 13 iters (=13 matvecs) [warm], resid/b=6.36e-08
samqeq SOLVER-DIAG step 22400: CG 13 iters (=13 matvecs) [warm], resid/b=8.57e-08
samqeq SOLVER-DIAG step 22600: CG 14 iters (=14 matvecs) [warm], resid/b=4.98e-08
samqeq SOLVER-DIAG step 22800: CG 14 iters (=14 matvecs) [warm], resid/b=5.54e-08
samqeq SOLVER-DIAG step 23000: CG 14 iters (=14 matvecs) [warm], resid/b=4.43e-08
     23000   306.73549     -71.296355     -66.260973      2.7612801    
samqeq SOLVER-DIAG step 23200: CG 14 iters (=14 matvecs) [warm], resid/b=4.77e-08
samqeq SOLVER-DIAG step 23400: CG 13 iters (=13 matvecs) [warm], resid/b=8.85e-08
samqeq SOLVER-DIAG step 23600: CG 14 iters (=14 matvecs) [warm], resid/b=7.65e-08
samqeq SOLVER-DIAG step 23800: CG 14 iters (=14 matvecs) [warm], resid/b=4.97e-08
samqeq SOLVER-DIAG step 24000: CG 14 iters (=14 matvecs) [warm], resid/b=5.12e-08
     24000   324.59527     -71.688033     -66.359464      2.8414056    
samqeq SOLVER-DIAG step 24200: CG 13 iters (=13 matvecs) [warm], resid/b=9.69e-08
samqeq SOLVER-DIAG step 24400: CG 13 iters (=13 matvecs) [warm], resid/b=7.85e-08
samqeq SOLVER-DIAG step 24600: CG 14 iters (=14 matvecs) [warm], resid/b=5.84e-08
samqeq SOLVER-DIAG step 24800: CG 14 iters (=14 matvecs) [warm], resid/b=6.17e-08
samqeq SOLVER-DIAG step 25000: CG 13 iters (=13 matvecs) [warm], resid/b=7.08e-08
     25000   297.25955     -71.919533     -67.039709      2.8274341    
samqeq SOLVER-DIAG step 25200: CG 13 iters (=13 matvecs) [warm], resid/b=9.84e-08
samqeq SOLVER-DIAG step 25400: CG 14 iters (=14 matvecs) [warm], resid/b=4.73e-08
samqeq SOLVER-DIAG step 25600: CG 13 iters (=13 matvecs) [warm], resid/b=8.96e-08
samqeq SOLVER-DIAG step 25800: CG 14 iters (=14 matvecs) [warm], resid/b=3.56e-08
samqeq SOLVER-DIAG step 26000: CG 13 iters (=13 matvecs) [warm], resid/b=9.01e-08
     26000   287.87153     -70.962266     -66.236556      2.789397     
samqeq SOLVER-DIAG step 26200: CG 14 iters (=14 matvecs) [warm], resid/b=5.42e-08
samqeq SOLVER-DIAG step 26400: CG 14 iters (=14 matvecs) [warm], resid/b=6.54e-08
samqeq SOLVER-DIAG step 26600: CG 13 iters (=13 matvecs) [warm], resid/b=8.83e-08
samqeq SOLVER-DIAG step 26800: CG 14 iters (=14 matvecs) [warm], resid/b=3.54e-08
samqeq SOLVER-DIAG step 27000: CG 14 iters (=14 matvecs) [warm], resid/b=5.99e-08
     27000   314.16314     -72.015856     -66.858542      2.7940851    
samqeq SOLVER-DIAG step 27200: CG 14 iters (=14 matvecs) [warm], resid/b=6.84e-08
samqeq SOLVER-DIAG step 27400: CG 14 iters (=14 matvecs) [warm], resid/b=5.96e-08
samqeq SOLVER-DIAG step 27600: CG 14 iters (=14 matvecs) [warm], resid/b=4.52e-08
samqeq SOLVER-DIAG step 27800: CG 13 iters (=13 matvecs) [warm], resid/b=7.82e-08
samqeq SOLVER-DIAG step 28000: CG 13 iters (=13 matvecs) [warm], resid/b=8.32e-08
     28000   312.13227     -72.349478     -67.225503      2.805166     
samqeq SOLVER-DIAG step 28200: CG 14 iters (=14 matvecs) [warm], resid/b=6.14e-08
samqeq SOLVER-DIAG step 28400: CG 13 iters (=13 matvecs) [warm], resid/b=8.20e-08
samqeq SOLVER-DIAG step 28600: CG 14 iters (=14 matvecs) [warm], resid/b=7.64e-08
samqeq SOLVER-DIAG step 28800: CG 14 iters (=14 matvecs) [warm], resid/b=8.45e-08
samqeq SOLVER-DIAG step 29000: CG 14 iters (=14 matvecs) [warm], resid/b=4.81e-08
     29000   314.02969     -72.461456     -67.306333      2.8606476    
samqeq SOLVER-DIAG step 29200: CG 13 iters (=13 matvecs) [warm], resid/b=9.67e-08
samqeq SOLVER-DIAG step 29400: CG 14 iters (=14 matvecs) [warm], resid/b=6.52e-08
samqeq SOLVER-DIAG step 29600: CG 14 iters (=14 matvecs) [warm], resid/b=7.89e-08
samqeq SOLVER-DIAG step 29800: CG 14 iters (=14 matvecs) [warm], resid/b=7.39e-08
samqeq SOLVER-DIAG step 30000: CG 14 iters (=14 matvecs) [warm], resid/b=6.82e-08
     30000   304.63947     -72.795257     -67.794283      2.8640375    
samqeq SOLVER-DIAG step 30200: CG 13 iters (=13 matvecs) [warm], resid/b=8.98e-08
samqeq SOLVER-DIAG step 30400: CG 14 iters (=14 matvecs) [warm], resid/b=6.67e-08
samqeq SOLVER-DIAG step 30600: CG 14 iters (=14 matvecs) [warm], resid/b=6.47e-08
samqeq SOLVER-DIAG step 30800: CG 13 iters (=13 matvecs) [warm], resid/b=7.48e-08
samqeq SOLVER-DIAG step 31000: CG 14 iters (=14 matvecs) [warm], resid/b=5.21e-08
     31000   278.13764     -72.193147     -67.627229      2.8468257    
samqeq SOLVER-DIAG step 31200: CG 14 iters (=14 matvecs) [warm], resid/b=5.72e-08
samqeq SOLVER-DIAG step 31400: CG 14 iters (=14 matvecs) [warm], resid/b=5.93e-08
samqeq SOLVER-DIAG step 31600: CG 13 iters (=13 matvecs) [warm], resid/b=7.44e-08
samqeq SOLVER-DIAG step 31800: CG 14 iters (=14 matvecs) [warm], resid/b=7.97e-08
samqeq SOLVER-DIAG step 32000: CG 14 iters (=14 matvecs) [warm], resid/b=8.52e-08
     32000   304.25371     -72.644791     -67.65015       2.9047434    
samqeq SOLVER-DIAG step 32200: CG 14 iters (=14 matvecs) [warm], resid/b=4.80e-08
samqeq SOLVER-DIAG step 32400: CG 14 iters (=14 matvecs) [warm], resid/b=4.84e-08
samqeq SOLVER-DIAG step 32600: CG 13 iters (=13 matvecs) [warm], resid/b=9.10e-08
samqeq SOLVER-DIAG step 32800: CG 13 iters (=13 matvecs) [warm], resid/b=8.02e-08
samqeq SOLVER-DIAG step 33000: CG 14 iters (=14 matvecs) [warm], resid/b=6.90e-08
     33000   309.4136      -71.578318     -66.498973      2.8190467    
samqeq SOLVER-DIAG step 33200: CG 14 iters (=14 matvecs) [warm], resid/b=6.11e-08
samqeq SOLVER-DIAG step 33400: CG 14 iters (=14 matvecs) [warm], resid/b=5.90e-08
samqeq SOLVER-DIAG step 33600: CG 14 iters (=14 matvecs) [warm], resid/b=3.87e-08
samqeq SOLVER-DIAG step 33800: CG 13 iters (=13 matvecs) [warm], resid/b=9.02e-08
samqeq SOLVER-DIAG step 34000: CG 14 iters (=14 matvecs) [warm], resid/b=5.31e-08
     34000   298.44205     -71.453923     -66.554687      2.8059897    
samqeq SOLVER-DIAG step 34200: CG 14 iters (=14 matvecs) [warm], resid/b=3.30e-08
samqeq SOLVER-DIAG step 34400: CG 14 iters (=14 matvecs) [warm], resid/b=6.68e-08
samqeq SOLVER-DIAG step 34600: CG 14 iters (=14 matvecs) [warm], resid/b=5.34e-08
samqeq SOLVER-DIAG step 34800: CG 14 iters (=14 matvecs) [warm], resid/b=4.64e-08
samqeq SOLVER-DIAG step 35000: CG 13 iters (=13 matvecs) [warm], resid/b=8.66e-08
     35000   314.60174     -71.768408     -66.603894      2.8035659    
samqeq SOLVER-DIAG step 35200: CG 14 iters (=14 matvecs) [warm], resid/b=5.59e-08
samqeq SOLVER-DIAG step 35400: CG 13 iters (=13 matvecs) [warm], resid/b=6.63e-08
samqeq SOLVER-DIAG step 35600: CG 13 iters (=13 matvecs) [warm], resid/b=9.98e-08
samqeq SOLVER-DIAG step 35800: CG 13 iters (=13 matvecs) [warm], resid/b=9.72e-08
samqeq SOLVER-DIAG step 36000: CG 13 iters (=13 matvecs) [warm], resid/b=7.77e-08
     36000   277.78009     -72.385713     -67.825665      2.8245426    
samqeq SOLVER-DIAG step 36200: CG 14 iters (=14 matvecs) [warm], resid/b=7.59e-08
samqeq SOLVER-DIAG step 36400: CG 14 iters (=14 matvecs) [warm], resid/b=5.91e-08
samqeq SOLVER-DIAG step 36600: CG 14 iters (=14 matvecs) [warm], resid/b=6.21e-08
samqeq SOLVER-DIAG step 36800: CG 13 iters (=13 matvecs) [warm], resid/b=8.33e-08
samqeq SOLVER-DIAG step 37000: CG 14 iters (=14 matvecs) [warm], resid/b=4.75e-08
     37000   303.28851     -70.597244     -65.618448      2.7567635    
samqeq SOLVER-DIAG step 37200: CG 13 iters (=13 matvecs) [warm], resid/b=6.58e-08
samqeq SOLVER-DIAG step 37400: CG 14 iters (=14 matvecs) [warm], resid/b=6.71e-08
samqeq SOLVER-DIAG step 37600: CG 13 iters (=13 matvecs) [warm], resid/b=6.11e-08
samqeq SOLVER-DIAG step 37800: CG 13 iters (=13 matvecs) [warm], resid/b=7.14e-08
samqeq SOLVER-DIAG step 38000: CG 14 iters (=14 matvecs) [warm], resid/b=3.17e-08
     38000   290.2378      -71.593766     -66.829211      2.7534265    
samqeq SOLVER-DIAG step 38200: CG 14 iters (=14 matvecs) [warm], resid/b=3.94e-08
samqeq SOLVER-DIAG step 38400: CG 13 iters (=13 matvecs) [warm], resid/b=6.22e-08
samqeq SOLVER-DIAG step 38600: CG 13 iters (=13 matvecs) [warm], resid/b=7.61e-08
samqeq SOLVER-DIAG step 38800: CG 14 iters (=14 matvecs) [warm], resid/b=6.16e-08
samqeq SOLVER-DIAG step 39000: CG 13 iters (=13 matvecs) [warm], resid/b=9.69e-08
     39000   307.50888     -71.836225     -66.788148      2.8353386    
samqeq SOLVER-DIAG step 39200: CG 13 iters (=13 matvecs) [warm], resid/b=7.06e-08
samqeq SOLVER-DIAG step 39400: CG 13 iters (=13 matvecs) [warm], resid/b=9.01e-08
samqeq SOLVER-DIAG step 39600: CG 13 iters (=13 matvecs) [warm], resid/b=7.56e-08
samqeq SOLVER-DIAG step 39800: CG 13 iters (=13 matvecs) [warm], resid/b=8.95e-08
samqeq SOLVER-DIAG step 40000: CG 14 iters (=14 matvecs) [warm], resid/b=6.65e-08
     40000   289.61181     -71.272714     -66.518435      2.796529     
samqeq SOLVER-DIAG step 40200: CG 13 iters (=13 matvecs) [warm], resid/b=8.42e-08
samqeq SOLVER-DIAG step 40400: CG 14 iters (=14 matvecs) [warm], resid/b=4.41e-08
samqeq SOLVER-DIAG step 40600: CG 13 iters (=13 matvecs) [warm], resid/b=9.42e-08
samqeq SOLVER-DIAG step 40800: CG 14 iters (=14 matvecs) [warm], resid/b=3.60e-08
samqeq SOLVER-DIAG step 41000: CG 14 iters (=14 matvecs) [warm], resid/b=6.30e-08
     41000   331.84101     -72.265979     -66.818465      2.8464135    
samqeq SOLVER-DIAG step 41200: CG 13 iters (=13 matvecs) [warm], resid/b=6.90e-08
samqeq SOLVER-DIAG step 41400: CG 13 iters (=13 matvecs) [warm], resid/b=5.71e-08
samqeq SOLVER-DIAG step 41600: CG 13 iters (=13 matvecs) [warm], resid/b=6.72e-08
samqeq SOLVER-DIAG step 41800: CG 13 iters (=13 matvecs) [warm], resid/b=9.75e-08
samqeq SOLVER-DIAG step 42000: CG 13 iters (=13 matvecs) [warm], resid/b=9.07e-08
     42000   301.64386     -72.315598     -67.363801      2.8543884    
samqeq SOLVER-DIAG step 42200: CG 13 iters (=13 matvecs) [warm], resid/b=7.57e-08
samqeq SOLVER-DIAG step 42400: CG 13 iters (=13 matvecs) [warm], resid/b=9.46e-08
samqeq SOLVER-DIAG step 42600: CG 13 iters (=13 matvecs) [warm], resid/b=7.71e-08
samqeq SOLVER-DIAG step 42800: CG 13 iters (=13 matvecs) [warm], resid/b=7.54e-08
samqeq SOLVER-DIAG step 43000: CG 13 iters (=13 matvecs) [warm], resid/b=7.13e-08
     43000   289.64024     -71.684138     -66.929393      2.8034455    
samqeq SOLVER-DIAG step 43200: CG 13 iters (=13 matvecs) [warm], resid/b=8.53e-08
samqeq SOLVER-DIAG step 43400: CG 13 iters (=13 matvecs) [warm], resid/b=9.96e-08
samqeq SOLVER-DIAG step 43600: CG 13 iters (=13 matvecs) [warm], resid/b=9.70e-08
samqeq SOLVER-DIAG step 43800: CG 13 iters (=13 matvecs) [warm], resid/b=8.59e-08
samqeq SOLVER-DIAG step 44000: CG 14 iters (=14 matvecs) [warm], resid/b=5.12e-08
     44000   278.99569     -72.32401      -67.744006      2.836494     
samqeq SOLVER-DIAG step 44200: CG 14 iters (=14 matvecs) [warm], resid/b=6.61e-08
samqeq SOLVER-DIAG step 44400: CG 14 iters (=14 matvecs) [warm], resid/b=4.96e-08
samqeq SOLVER-DIAG step 44600: CG 14 iters (=14 matvecs) [warm], resid/b=5.05e-08
samqeq SOLVER-DIAG step 44800: CG 13 iters (=13 matvecs) [warm], resid/b=7.92e-08
samqeq SOLVER-DIAG step 45000: CG 14 iters (=14 matvecs) [warm], resid/b=3.64e-08
     45000   289.78296     -71.038552     -66.281464      2.7601192    
samqeq SOLVER-DIAG step 45200: CG 14 iters (=14 matvecs) [warm], resid/b=3.03e-08
samqeq SOLVER-DIAG step 45400: CG 14 iters (=14 matvecs) [warm], resid/b=4.04e-08
samqeq SOLVER-DIAG step 45600: CG 13 iters (=13 matvecs) [warm], resid/b=8.22e-08
samqeq SOLVER-DIAG step 45800: CG 13 iters (=13 matvecs) [warm], resid/b=3.72e-08
samqeq SOLVER-DIAG step 46000: CG 14 iters (=14 matvecs) [warm], resid/b=5.23e-08
     46000   296.8344      -71.038798     -66.165953      2.7633915    
samqeq SOLVER-DIAG step 46200: CG 14 iters (=14 matvecs) [warm], resid/b=5.53e-08
samqeq SOLVER-DIAG step 46400: CG 14 iters (=14 matvecs) [warm], resid/b=4.58e-08
samqeq SOLVER-DIAG step 46600: CG 14 iters (=14 matvecs) [warm], resid/b=5.10e-08
samqeq SOLVER-DIAG step 46800: CG 14 iters (=14 matvecs) [warm], resid/b=5.60e-08
samqeq SOLVER-DIAG step 47000: CG 14 iters (=14 matvecs) [warm], resid/b=5.19e-08
     47000   288.02246     -72.238747     -67.51056       2.8623898    
samqeq SOLVER-DIAG step 47200: CG 14 iters (=14 matvecs) [warm], resid/b=6.39e-08
samqeq SOLVER-DIAG step 47400: CG 14 iters (=14 matvecs) [warm], resid/b=6.90e-08
samqeq SOLVER-DIAG step 47600: CG 14 iters (=14 matvecs) [warm], resid/b=3.35e-08
samqeq SOLVER-DIAG step 47800: CG 13 iters (=13 matvecs) [warm], resid/b=9.21e-08
samqeq SOLVER-DIAG step 48000: CG 13 iters (=13 matvecs) [warm], resid/b=8.89e-08
     48000   297.4813      -71.586764     -66.703299      2.8021372    
samqeq SOLVER-DIAG step 48200: CG 14 iters (=14 matvecs) [warm], resid/b=6.66e-08
samqeq SOLVER-DIAG step 48400: CG 14 iters (=14 matvecs) [warm], resid/b=5.83e-08
samqeq SOLVER-DIAG step 48600: CG 13 iters (=13 matvecs) [warm], resid/b=9.65e-08
samqeq SOLVER-DIAG step 48800: CG 13 iters (=13 matvecs) [warm], resid/b=8.52e-08
samqeq SOLVER-DIAG step 49000: CG 13 iters (=13 matvecs) [warm], resid/b=9.65e-08
     49000   285.93579     -71.645603     -66.95167       2.8181837    
samqeq SOLVER-DIAG step 49200: CG 13 iters (=13 matvecs) [warm], resid/b=8.63e-08
samqeq SOLVER-DIAG step 49400: CG 14 iters (=14 matvecs) [warm], resid/b=4.60e-08
samqeq SOLVER-DIAG step 49600: CG 13 iters (=13 matvecs) [warm], resid/b=9.38e-08
samqeq SOLVER-DIAG step 49800: CG 14 iters (=14 matvecs) [warm], resid/b=4.03e-08
samqeq SOLVER-DIAG step 50000: CG 14 iters (=14 matvecs) [warm], resid/b=4.72e-08
     50000   298.66224     -72.391763     -67.488912      2.843113     
samqeq SOLVER-DIAG step 50200: CG 14 iters (=14 matvecs) [warm], resid/b=5.44e-08
samqeq SOLVER-DIAG step 50400: CG 14 iters (=14 matvecs) [warm], resid/b=5.13e-08
samqeq SOLVER-DIAG step 50600: CG 14 iters (=14 matvecs) [warm], resid/b=4.01e-08
samqeq SOLVER-DIAG step 50800: CG 14 iters (=14 matvecs) [warm], resid/b=6.41e-08
samqeq SOLVER-DIAG step 51000: CG 14 iters (=14 matvecs) [warm], resid/b=6.65e-08
     51000   297.17912     -72.554787     -67.676283      2.8958302    
samqeq SOLVER-DIAG step 51200: CG 14 iters (=14 matvecs) [warm], resid/b=4.14e-08
samqeq SOLVER-DIAG step 51400: CG 13 iters (=13 matvecs) [warm], resid/b=9.21e-08
samqeq SOLVER-DIAG step 51600: CG 13 iters (=13 matvecs) [warm], resid/b=9.84e-08
samqeq SOLVER-DIAG step 51800: CG 13 iters (=13 matvecs) [warm], resid/b=9.94e-08
samqeq SOLVER-DIAG step 52000: CG 14 iters (=14 matvecs) [warm], resid/b=6.52e-08
     52000   286.85835     -72.34639      -67.637313      2.8364388    
samqeq SOLVER-DIAG step 52200: CG 14 iters (=14 matvecs) [warm], resid/b=5.98e-08
samqeq SOLVER-DIAG step 52400: CG 13 iters (=13 matvecs) [warm], resid/b=7.66e-08
samqeq SOLVER-DIAG step 52600: CG 13 iters (=13 matvecs) [warm], resid/b=9.52e-08
samqeq SOLVER-DIAG step 52800: CG 13 iters (=13 matvecs) [warm], resid/b=9.34e-08
samqeq SOLVER-DIAG step 53000: CG 14 iters (=14 matvecs) [warm], resid/b=5.76e-08
     53000   320.96087     -71.658142     -66.389236      2.820244     
samqeq SOLVER-DIAG step 53200: CG 14 iters (=14 matvecs) [warm], resid/b=5.58e-08
samqeq SOLVER-DIAG step 53400: CG 13 iters (=13 matvecs) [warm], resid/b=8.64e-08
samqeq SOLVER-DIAG step 53600: CG 13 iters (=13 matvecs) [warm], resid/b=9.56e-08
samqeq SOLVER-DIAG step 53800: CG 14 iters (=14 matvecs) [warm], resid/b=6.41e-08
samqeq SOLVER-DIAG step 54000: CG 14 iters (=14 matvecs) [warm], resid/b=7.68e-08
     54000   319.55548     -72.519268     -67.273433      2.8287025    
samqeq SOLVER-DIAG step 54200: CG 13 iters (=13 matvecs) [warm], resid/b=9.34e-08
samqeq SOLVER-DIAG step 54400: CG 13 iters (=13 matvecs) [warm], resid/b=8.74e-08
samqeq SOLVER-DIAG step 54600: CG 14 iters (=14 matvecs) [warm], resid/b=4.85e-08
samqeq SOLVER-DIAG step 54800: CG 13 iters (=13 matvecs) [warm], resid/b=6.20e-08
samqeq SOLVER-DIAG step 55000: CG 14 iters (=14 matvecs) [warm], resid/b=5.06e-08
     55000   326.0989      -71.109606     -65.756354      2.7693352    
samqeq SOLVER-DIAG step 55200: CG 14 iters (=14 matvecs) [warm], resid/b=6.00e-08
samqeq SOLVER-DIAG step 55400: CG 13 iters (=13 matvecs) [warm], resid/b=9.05e-08
samqeq SOLVER-DIAG step 55600: CG 13 iters (=13 matvecs) [warm], resid/b=6.81e-08
samqeq SOLVER-DIAG step 55800: CG 13 iters (=13 matvecs) [warm], resid/b=8.75e-08
samqeq SOLVER-DIAG step 56000: CG 13 iters (=13 matvecs) [warm], resid/b=5.56e-08
     56000   307.64027     -72.521427     -67.471193      2.792499     
samqeq SOLVER-DIAG step 56200: CG 14 iters (=14 matvecs) [warm], resid/b=5.51e-08
samqeq SOLVER-DIAG step 56400: CG 13 iters (=13 matvecs) [warm], resid/b=8.55e-08
samqeq SOLVER-DIAG step 56600: CG 13 iters (=13 matvecs) [warm], resid/b=8.67e-08
samqeq SOLVER-DIAG step 56800: CG 13 iters (=13 matvecs) [warm], resid/b=9.97e-08
samqeq SOLVER-DIAG step 57000: CG 13 iters (=13 matvecs) [warm], resid/b=8.52e-08
     57000   295.39884     -72.4093       -67.560021      2.838414     
samqeq SOLVER-DIAG step 57200: CG 14 iters (=14 matvecs) [warm], resid/b=4.03e-08
samqeq SOLVER-DIAG step 57400: CG 13 iters (=13 matvecs) [warm], resid/b=5.26e-08
samqeq SOLVER-DIAG step 57600: CG 14 iters (=14 matvecs) [warm], resid/b=6.76e-08
samqeq SOLVER-DIAG step 57800: CG 13 iters (=13 matvecs) [warm], resid/b=9.53e-08
samqeq SOLVER-DIAG step 58000: CG 13 iters (=13 matvecs) [warm], resid/b=9.30e-08
     58000   283.77212     -72.656489     -67.998075      2.823002     
samqeq SOLVER-DIAG step 58200: CG 13 iters (=13 matvecs) [warm], resid/b=8.91e-08
samqeq SOLVER-DIAG step 58400: CG 13 iters (=13 matvecs) [warm], resid/b=6.88e-08
samqeq SOLVER-DIAG step 58600: CG 13 iters (=13 matvecs) [warm], resid/b=9.22e-08
samqeq SOLVER-DIAG step 58800: CG 14 iters (=14 matvecs) [warm], resid/b=6.51e-08
samqeq SOLVER-DIAG step 59000: CG 14 iters (=14 matvecs) [warm], resid/b=5.58e-08
     59000   329.49925     -71.781099     -66.372026      2.8416509    
samqeq SOLVER-DIAG step 59200: CG 13 iters (=13 matvecs) [warm], resid/b=8.28e-08
samqeq SOLVER-DIAG step 59400: CG 13 iters (=13 matvecs) [warm], resid/b=5.79e-08
samqeq SOLVER-DIAG step 59600: CG 14 iters (=14 matvecs) [warm], resid/b=3.20e-08
samqeq SOLVER-DIAG step 59800: CG 14 iters (=14 matvecs) [warm], resid/b=2.93e-08
samqeq SOLVER-DIAG step 60000: CG 14 iters (=14 matvecs) [warm], resid/b=5.06e-08
     60000   302.72564     -73.149897     -68.180341      2.9675198    
samqeq SOLVER-DIAG step 60200: CG 14 iters (=14 matvecs) [warm], resid/b=3.95e-08
samqeq SOLVER-DIAG step 60400: CG 13 iters (=13 matvecs) [warm], resid/b=9.97e-08
samqeq SOLVER-DIAG step 60600: CG 14 iters (=14 matvecs) [warm], resid/b=5.97e-08
samqeq SOLVER-DIAG step 60800: CG 14 iters (=14 matvecs) [warm], resid/b=7.54e-08
samqeq SOLVER-DIAG step 61000: CG 13 iters (=13 matvecs) [warm], resid/b=9.19e-08
     61000   292.98008     -72.039773     -67.230201      2.7858192    
samqeq SOLVER-DIAG step 61200: CG 13 iters (=13 matvecs) [warm], resid/b=8.84e-08
samqeq SOLVER-DIAG step 61400: CG 14 iters (=14 matvecs) [warm], resid/b=6.44e-08
samqeq SOLVER-DIAG step 61600: CG 14 iters (=14 matvecs) [warm], resid/b=4.73e-08
samqeq SOLVER-DIAG step 61800: CG 14 iters (=14 matvecs) [warm], resid/b=5.17e-08
samqeq SOLVER-DIAG step 62000: CG 13 iters (=13 matvecs) [warm], resid/b=9.30e-08
     62000   280.00587     -72.309891     -67.713304      2.8272975    
samqeq SOLVER-DIAG step 62200: CG 14 iters (=14 matvecs) [warm], resid/b=6.19e-08
samqeq SOLVER-DIAG step 62400: CG 13 iters (=13 matvecs) [warm], resid/b=7.80e-08
samqeq SOLVER-DIAG step 62600: CG 14 iters (=14 matvecs) [warm], resid/b=4.56e-08
samqeq SOLVER-DIAG step 62800: CG 13 iters (=13 matvecs) [warm], resid/b=5.37e-08
samqeq SOLVER-DIAG step 63000: CG 13 iters (=13 matvecs) [warm], resid/b=7.80e-08
     63000   284.55357     -71.449411     -66.778169      2.7999168    
samqeq SOLVER-DIAG step 63200: CG 13 iters (=13 matvecs) [warm], resid/b=8.11e-08
samqeq SOLVER-DIAG step 63400: CG 13 iters (=13 matvecs) [warm], resid/b=8.04e-08
samqeq SOLVER-DIAG step 63600: CG 14 iters (=14 matvecs) [warm], resid/b=5.14e-08
samqeq SOLVER-DIAG step 63800: CG 13 iters (=13 matvecs) [warm], resid/b=8.71e-08
samqeq SOLVER-DIAG step 64000: CG 13 iters (=13 matvecs) [warm], resid/b=7.39e-08
     64000   306.73431     -71.979992     -66.944629      2.8331209    
samqeq SOLVER-DIAG step 64200: CG 13 iters (=13 matvecs) [warm], resid/b=9.27e-08
samqeq SOLVER-DIAG step 64400: CG 14 iters (=14 matvecs) [warm], resid/b=6.78e-08
samqeq SOLVER-DIAG step 64600: CG 14 iters (=14 matvecs) [warm], resid/b=5.68e-08
samqeq SOLVER-DIAG step 64800: CG 14 iters (=14 matvecs) [warm], resid/b=3.75e-08
samqeq SOLVER-DIAG step 65000: CG 14 iters (=14 matvecs) [warm], resid/b=7.90e-08
     65000   365.48117     -71.932202     -65.932449      2.8358376    
samqeq SOLVER-DIAG step 65200: CG 13 iters (=13 matvecs) [warm], resid/b=8.55e-08
samqeq SOLVER-DIAG step 65400: CG 13 iters (=13 matvecs) [warm], resid/b=9.90e-08
samqeq SOLVER-DIAG step 65600: CG 14 iters (=14 matvecs) [warm], resid/b=4.56e-08
samqeq SOLVER-DIAG step 65800: CG 13 iters (=13 matvecs) [warm], resid/b=9.41e-08
samqeq SOLVER-DIAG step 66000: CG 13 iters (=13 matvecs) [warm], resid/b=8.75e-08
     66000   335.37061     -71.395371     -65.889914      2.8034829    
samqeq SOLVER-DIAG step 66200: CG 14 iters (=14 matvecs) [warm], resid/b=6.50e-08
samqeq SOLVER-DIAG step 66400: CG 14 iters (=14 matvecs) [warm], resid/b=5.52e-08
samqeq SOLVER-DIAG step 66600: CG 14 iters (=14 matvecs) [warm], resid/b=4.80e-08
samqeq SOLVER-DIAG step 66800: CG 13 iters (=13 matvecs) [warm], resid/b=6.84e-08
samqeq SOLVER-DIAG step 67000: CG 14 iters (=14 matvecs) [warm], resid/b=5.76e-08
     67000   281.50485     -72.805096     -68.183901      2.8710246    
samqeq SOLVER-DIAG step 67200: CG 14 iters (=14 matvecs) [warm], resid/b=7.23e-08
samqeq SOLVER-DIAG step 67400: CG 14 iters (=14 matvecs) [warm], resid/b=6.25e-08
samqeq SOLVER-DIAG step 67600: CG 14 iters (=14 matvecs) [warm], resid/b=5.80e-08
samqeq SOLVER-DIAG step 67800: CG 14 iters (=14 matvecs) [warm], resid/b=4.21e-08
samqeq SOLVER-DIAG step 68000: CG 14 iters (=14 matvecs) [warm], resid/b=5.79e-08
     68000   309.57316     -73.060583     -67.978618      2.8480988    
samqeq SOLVER-DIAG step 68200: CG 14 iters (=14 matvecs) [warm], resid/b=4.83e-08
samqeq SOLVER-DIAG step 68400: CG 13 iters (=13 matvecs) [warm], resid/b=9.37e-08
samqeq SOLVER-DIAG step 68600: CG 13 iters (=13 matvecs) [warm], resid/b=7.19e-08
samqeq SOLVER-DIAG step 68800: CG 13 iters (=13 matvecs) [warm], resid/b=9.38e-08
samqeq SOLVER-DIAG step 69000: CG 13 iters (=13 matvecs) [warm], resid/b=7.23e-08
     69000   286.94312     -72.601383     -67.890913      2.8739163    
samqeq SOLVER-DIAG step 69200: CG 14 iters (=14 matvecs) [warm], resid/b=5.23e-08
samqeq SOLVER-DIAG step 69400: CG 14 iters (=14 matvecs) [warm], resid/b=5.74e-08
samqeq SOLVER-DIAG step 69600: CG 13 iters (=13 matvecs) [warm], resid/b=8.68e-08
samqeq SOLVER-DIAG step 69800: CG 14 iters (=14 matvecs) [warm], resid/b=5.57e-08
samqeq SOLVER-DIAG step 70000: CG 13 iters (=13 matvecs) [warm], resid/b=8.74e-08
     70000   325.47751     -71.988153     -66.645102      2.8223503    
samqeq SOLVER-DIAG step 70200: CG 14 iters (=14 matvecs) [warm], resid/b=5.50e-08
samqeq SOLVER-DIAG step 70400: CG 14 iters (=14 matvecs) [warm], resid/b=4.52e-08
samqeq SOLVER-DIAG step 70600: CG 13 iters (=13 matvecs) [warm], resid/b=8.71e-08
samqeq SOLVER-DIAG step 70800: CG 13 iters (=13 matvecs) [warm], resid/b=8.22e-08
samqeq SOLVER-DIAG step 71000: CG 14 iters (=14 matvecs) [warm], resid/b=5.85e-08
     71000   304.62218     -71.884326     -66.883637      2.8159245    
samqeq SOLVER-DIAG step 71200: CG 13 iters (=13 matvecs) [warm], resid/b=6.70e-08
samqeq SOLVER-DIAG step 71400: CG 14 iters (=14 matvecs) [warm], resid/b=5.95e-08
samqeq SOLVER-DIAG step 71600: CG 14 iters (=14 matvecs) [warm], resid/b=6.96e-08
samqeq SOLVER-DIAG step 71800: CG 13 iters (=13 matvecs) [warm], resid/b=9.94e-08
samqeq SOLVER-DIAG step 72000: CG 14 iters (=14 matvecs) [warm], resid/b=4.93e-08
     72000   329.66025     -71.9976       -66.585885      2.7995982    
samqeq SOLVER-DIAG step 72200: CG 13 iters (=13 matvecs) [warm], resid/b=7.49e-08
samqeq SOLVER-DIAG step 72400: CG 14 iters (=14 matvecs) [warm], resid/b=5.51e-08
samqeq SOLVER-DIAG step 72600: CG 13 iters (=13 matvecs) [warm], resid/b=7.77e-08
samqeq SOLVER-DIAG step 72800: CG 14 iters (=14 matvecs) [warm], resid/b=6.85e-08
samqeq SOLVER-DIAG step 73000: CG 14 iters (=14 matvecs) [warm], resid/b=4.17e-08
     73000   290.91541     -72.74003      -67.964351      2.8667118    
samqeq SOLVER-DIAG step 73200: CG 13 iters (=13 matvecs) [warm], resid/b=6.43e-08
samqeq SOLVER-DIAG step 73400: CG 14 iters (=14 matvecs) [warm], resid/b=5.81e-08
samqeq SOLVER-DIAG step 73600: CG 14 iters (=14 matvecs) [warm], resid/b=5.65e-08
samqeq SOLVER-DIAG step 73800: CG 14 iters (=14 matvecs) [warm], resid/b=6.60e-08
samqeq SOLVER-DIAG step 74000: CG 14 iters (=14 matvecs) [warm], resid/b=4.84e-08
     74000   309.06951     -72.601615     -67.527918      2.8792524    
samqeq SOLVER-DIAG step 74200: CG 14 iters (=14 matvecs) [warm], resid/b=4.97e-08
samqeq SOLVER-DIAG step 74400: CG 13 iters (=13 matvecs) [warm], resid/b=7.49e-08
samqeq SOLVER-DIAG step 74600: CG 13 iters (=13 matvecs) [warm], resid/b=7.99e-08
samqeq SOLVER-DIAG step 74800: CG 14 iters (=14 matvecs) [warm], resid/b=5.96e-08
samqeq SOLVER-DIAG step 75000: CG 14 iters (=14 matvecs) [warm], resid/b=4.96e-08
     75000   283.0906      -71.466159     -66.818933      2.76455      
samqeq SOLVER-DIAG step 75200: CG 14 iters (=14 matvecs) [warm], resid/b=5.50e-08
samqeq SOLVER-DIAG step 75400: CG 14 iters (=14 matvecs) [warm], resid/b=6.12e-08
samqeq SOLVER-DIAG step 75600: CG 14 iters (=14 matvecs) [warm], resid/b=5.99e-08
samqeq SOLVER-DIAG step 75800: CG 14 iters (=14 matvecs) [warm], resid/b=4.41e-08
samqeq SOLVER-DIAG step 76000: CG 14 iters (=14 matvecs) [warm], resid/b=6.13e-08
     76000   284.26702     -71.993454     -67.326915      2.8478586    
samqeq SOLVER-DIAG step 76200: CG 14 iters (=14 matvecs) [warm], resid/b=4.82e-08
samqeq SOLVER-DIAG step 76400: CG 14 iters (=14 matvecs) [warm], resid/b=5.58e-08
samqeq SOLVER-DIAG step 76600: CG 14 iters (=14 matvecs) [warm], resid/b=4.42e-08
samqeq SOLVER-DIAG step 76800: CG 14 iters (=14 matvecs) [warm], resid/b=5.61e-08
samqeq SOLVER-DIAG step 77000: CG 14 iters (=14 matvecs) [warm], resid/b=5.07e-08
     77000   320.69089     -72.511218     -67.246744      2.8414625    
samqeq SOLVER-DIAG step 77200: CG 13 iters (=13 matvecs) [warm], resid/b=6.19e-08
samqeq SOLVER-DIAG step 77400: CG 14 iters (=14 matvecs) [warm], resid/b=4.71e-08
samqeq SOLVER-DIAG step 77600: CG 14 iters (=14 matvecs) [warm], resid/b=4.57e-08
samqeq SOLVER-DIAG step 77800: CG 14 iters (=14 matvecs) [warm], resid/b=6.04e-08
samqeq SOLVER-DIAG step 78000: CG 13 iters (=13 matvecs) [warm], resid/b=7.30e-08
     78000   277.70199     -71.902602     -67.343835      2.7814463    
samqeq SOLVER-DIAG step 78200: CG 14 iters (=14 matvecs) [warm], resid/b=3.87e-08
samqeq SOLVER-DIAG step 78400: CG 13 iters (=13 matvecs) [warm], resid/b=7.86e-08
samqeq SOLVER-DIAG step 78600: CG 14 iters (=14 matvecs) [warm], resid/b=5.53e-08
samqeq SOLVER-DIAG step 78800: CG 13 iters (=13 matvecs) [warm], resid/b=7.21e-08
samqeq SOLVER-DIAG step 79000: CG 14 iters (=14 matvecs) [warm], resid/b=5.54e-08
     79000   315.91843     -71.75566      -66.569531      2.8125746    
samqeq SOLVER-DIAG step 79200: CG 13 iters (=13 matvecs) [warm], resid/b=7.41e-08
samqeq SOLVER-DIAG step 79400: CG 13 iters (=13 matvecs) [warm], resid/b=7.04e-08
samqeq SOLVER-DIAG step 79600: CG 14 iters (=14 matvecs) [warm], resid/b=5.67e-08
samqeq SOLVER-DIAG step 79800: CG 14 iters (=14 matvecs) [warm], resid/b=6.36e-08
samqeq SOLVER-DIAG step 80000: CG 14 iters (=14 matvecs) [warm], resid/b=6.63e-08
     80000   294.72772     -71.468153     -66.629891      2.8468227    
samqeq SOLVER-DIAG step 80200: CG 14 iters (=14 matvecs) [warm], resid/b=4.79e-08
samqeq SOLVER-DIAG step 80400: CG 14 iters (=14 matvecs) [warm], resid/b=5.60e-08
samqeq SOLVER-DIAG step 80600: CG 13 iters (=13 matvecs) [warm], resid/b=6.51e-08
samqeq SOLVER-DIAG step 80800: CG 14 iters (=14 matvecs) [warm], resid/b=6.06e-08
samqeq SOLVER-DIAG step 81000: CG 14 iters (=14 matvecs) [warm], resid/b=8.25e-08
     81000   319.30578     -72.823869     -67.582133      2.8979114    
samqeq SOLVER-DIAG step 81200: CG 14 iters (=14 matvecs) [warm], resid/b=4.13e-08
samqeq SOLVER-DIAG step 81400: CG 14 iters (=14 matvecs) [warm], resid/b=4.93e-08
samqeq SOLVER-DIAG step 81600: CG 13 iters (=13 matvecs) [warm], resid/b=8.62e-08
samqeq SOLVER-DIAG step 81800: CG 13 iters (=13 matvecs) [warm], resid/b=6.06e-08
samqeq SOLVER-DIAG step 82000: CG 13 iters (=13 matvecs) [warm], resid/b=9.12e-08
     82000   349.27021     -72.254044     -66.520411      2.8250259    
samqeq SOLVER-DIAG step 82200: CG 14 iters (=14 matvecs) [warm], resid/b=3.80e-08
samqeq SOLVER-DIAG step 82400: CG 14 iters (=14 matvecs) [warm], resid/b=5.22e-08
samqeq SOLVER-DIAG step 82600: CG 14 iters (=14 matvecs) [warm], resid/b=6.86e-08
samqeq SOLVER-DIAG step 82800: CG 14 iters (=14 matvecs) [warm], resid/b=5.28e-08
samqeq SOLVER-DIAG step 83000: CG 14 iters (=14 matvecs) [warm], resid/b=5.10e-08
     83000   314.43386     -71.882391     -66.720632      2.8400605    
samqeq SOLVER-DIAG step 83200: CG 14 iters (=14 matvecs) [warm], resid/b=3.79e-08
samqeq SOLVER-DIAG step 83400: CG 14 iters (=14 matvecs) [warm], resid/b=4.59e-08
samqeq SOLVER-DIAG step 83600: CG 14 iters (=14 matvecs) [warm], resid/b=4.30e-08
samqeq SOLVER-DIAG step 83800: CG 13 iters (=13 matvecs) [warm], resid/b=8.31e-08
samqeq SOLVER-DIAG step 84000: CG 13 iters (=13 matvecs) [warm], resid/b=8.76e-08
     84000   318.74107     -71.916129     -66.683663      2.7926829    
samqeq SOLVER-DIAG step 84200: CG 13 iters (=13 matvecs) [warm], resid/b=8.67e-08
samqeq SOLVER-DIAG step 84400: CG 14 iters (=14 matvecs) [warm], resid/b=5.54e-08
samqeq SOLVER-DIAG step 84600: CG 13 iters (=13 matvecs) [warm], resid/b=7.21e-08
samqeq SOLVER-DIAG step 84800: CG 14 iters (=14 matvecs) [warm], resid/b=6.00e-08
samqeq SOLVER-DIAG step 85000: CG 14 iters (=14 matvecs) [warm], resid/b=4.70e-08
     85000   317.06735     -72.884772     -67.679782      2.8880082    
samqeq SOLVER-DIAG step 85200: CG 13 iters (=13 matvecs) [warm], resid/b=8.93e-08
samqeq SOLVER-DIAG step 85400: CG 13 iters (=13 matvecs) [warm], resid/b=8.86e-08
samqeq SOLVER-DIAG step 85600: CG 14 iters (=14 matvecs) [warm], resid/b=4.39e-08
samqeq SOLVER-DIAG step 85800: CG 14 iters (=14 matvecs) [warm], resid/b=3.71e-08
samqeq SOLVER-DIAG step 86000: CG 13 iters (=13 matvecs) [warm], resid/b=7.62e-08
     86000   328.16184     -71.705894     -66.318776      2.7854381    
samqeq SOLVER-DIAG step 86200: CG 13 iters (=13 matvecs) [warm], resid/b=7.73e-08
samqeq SOLVER-DIAG step 86400: CG 13 iters (=13 matvecs) [warm], resid/b=9.23e-08
samqeq SOLVER-DIAG step 86600: CG 14 iters (=14 matvecs) [warm], resid/b=5.07e-08
samqeq SOLVER-DIAG step 86800: CG 14 iters (=14 matvecs) [warm], resid/b=5.28e-08
samqeq SOLVER-DIAG step 87000: CG 14 iters (=14 matvecs) [warm], resid/b=6.06e-08
     87000   359.63836     -70.909889     -65.006052      2.8206389    
samqeq SOLVER-DIAG step 87200: CG 13 iters (=13 matvecs) [warm], resid/b=9.72e-08
samqeq SOLVER-DIAG step 87400: CG 13 iters (=13 matvecs) [warm], resid/b=9.24e-08
samqeq SOLVER-DIAG step 87600: CG 13 iters (=13 matvecs) [warm], resid/b=6.06e-08
samqeq SOLVER-DIAG step 87800: CG 14 iters (=14 matvecs) [warm], resid/b=5.60e-08
samqeq SOLVER-DIAG step 88000: CG 13 iters (=13 matvecs) [warm], resid/b=7.95e-08
     88000   280.32075     -71.866169     -67.264413      2.8329806    
samqeq SOLVER-DIAG step 88200: CG 14 iters (=14 matvecs) [warm], resid/b=7.44e-08
samqeq SOLVER-DIAG step 88400: CG 14 iters (=14 matvecs) [warm], resid/b=6.21e-08
samqeq SOLVER-DIAG step 88600: CG 13 iters (=13 matvecs) [warm], resid/b=9.35e-08
samqeq SOLVER-DIAG step 88800: CG 14 iters (=14 matvecs) [warm], resid/b=4.29e-08
samqeq SOLVER-DIAG step 89000: CG 14 iters (=14 matvecs) [warm], resid/b=4.67e-08
     89000   290.60884     -71.853076     -67.082431      2.7507657    
samqeq SOLVER-DIAG step 89200: CG 14 iters (=14 matvecs) [warm], resid/b=6.57e-08
samqeq SOLVER-DIAG step 89400: CG 13 iters (=13 matvecs) [warm], resid/b=7.37e-08
samqeq SOLVER-DIAG step 89600: CG 13 iters (=13 matvecs) [warm], resid/b=7.51e-08
samqeq SOLVER-DIAG step 89800: CG 13 iters (=13 matvecs) [warm], resid/b=8.08e-08
samqeq SOLVER-DIAG step 90000: CG 13 iters (=13 matvecs) [warm], resid/b=9.43e-08
     90000   290.73097     -70.94257      -66.169919      2.7882527    
samqeq SOLVER-DIAG step 90200: CG 13 iters (=13 matvecs) [warm], resid/b=9.00e-08
samqeq SOLVER-DIAG step 90400: CG 14 iters (=14 matvecs) [warm], resid/b=4.85e-08
samqeq SOLVER-DIAG step 90600: CG 14 iters (=14 matvecs) [warm], resid/b=3.07e-08
samqeq SOLVER-DIAG step 90800: CG 14 iters (=14 matvecs) [warm], resid/b=4.82e-08
samqeq SOLVER-DIAG step 91000: CG 13 iters (=13 matvecs) [warm], resid/b=8.30e-08
     91000   319.91181     -72.752479     -67.500794      2.8636208    
samqeq SOLVER-DIAG step 91200: CG 13 iters (=13 matvecs) [warm], resid/b=8.30e-08
samqeq SOLVER-DIAG step 91400: CG 14 iters (=14 matvecs) [warm], resid/b=5.05e-08
samqeq SOLVER-DIAG step 91600: CG 14 iters (=14 matvecs) [warm], resid/b=5.84e-08
samqeq SOLVER-DIAG step 91800: CG 14 iters (=14 matvecs) [warm], resid/b=3.77e-08
samqeq SOLVER-DIAG step 92000: CG 14 iters (=14 matvecs) [warm], resid/b=3.65e-08
     92000   327.80164     -71.317962     -65.936758      2.7449923    
samqeq SOLVER-DIAG step 92200: CG 14 iters (=14 matvecs) [warm], resid/b=6.74e-08
samqeq SOLVER-DIAG step 92400: CG 14 iters (=14 matvecs) [warm], resid/b=5.46e-08
samqeq SOLVER-DIAG step 92600: CG 14 iters (=14 matvecs) [warm], resid/b=5.43e-08
samqeq SOLVER-DIAG step 92800: CG 13 iters (=13 matvecs) [warm], resid/b=7.98e-08
samqeq SOLVER-DIAG step 93000: CG 14 iters (=14 matvecs) [warm], resid/b=4.55e-08
     93000   293.55076     -72.219341     -67.400401      2.8129603    
samqeq SOLVER-DIAG step 93200: CG 14 iters (=14 matvecs) [warm], resid/b=7.20e-08
samqeq SOLVER-DIAG step 93400: CG 14 iters (=14 matvecs) [warm], resid/b=6.00e-08
samqeq SOLVER-DIAG step 93600: CG 14 iters (=14 matvecs) [warm], resid/b=6.08e-08
samqeq SOLVER-DIAG step 93800: CG 14 iters (=14 matvecs) [warm], resid/b=5.06e-08
samqeq SOLVER-DIAG step 94000: CG 14 iters (=14 matvecs) [warm], resid/b=4.72e-08
     94000   268.0972      -70.82804      -66.426946      2.7561178    
samqeq SOLVER-DIAG step 94200: CG 14 iters (=14 matvecs) [warm], resid/b=5.23e-08
samqeq SOLVER-DIAG step 94400: CG 13 iters (=13 matvecs) [warm], resid/b=6.77e-08
samqeq SOLVER-DIAG step 94600: CG 14 iters (=14 matvecs) [warm], resid/b=6.23e-08
samqeq SOLVER-DIAG step 94800: CG 13 iters (=13 matvecs) [warm], resid/b=9.67e-08
samqeq SOLVER-DIAG step 95000: CG 14 iters (=14 matvecs) [warm], resid/b=4.65e-08
     95000   314.29943     -71.854695     -66.695143      2.792766     
samqeq SOLVER-DIAG step 95200: CG 13 iters (=13 matvecs) [warm], resid/b=8.16e-08
samqeq SOLVER-DIAG step 95400: CG 14 iters (=14 matvecs) [warm], resid/b=5.96e-08
samqeq SOLVER-DIAG step 95600: CG 14 iters (=14 matvecs) [warm], resid/b=5.92e-08
samqeq SOLVER-DIAG step 95800: CG 14 iters (=14 matvecs) [warm], resid/b=4.39e-08
samqeq SOLVER-DIAG step 96000: CG 13 iters (=13 matvecs) [warm], resid/b=7.63e-08
     96000   277.77485     -72.953847     -68.393885      2.852714     
samqeq SOLVER-DIAG step 96200: CG 13 iters (=13 matvecs) [warm], resid/b=9.21e-08
samqeq SOLVER-DIAG step 96400: CG 14 iters (=14 matvecs) [warm], resid/b=4.16e-08
samqeq SOLVER-DIAG step 96600: CG 13 iters (=13 matvecs) [warm], resid/b=8.15e-08
samqeq SOLVER-DIAG step 96800: CG 13 iters (=13 matvecs) [warm], resid/b=8.79e-08
samqeq SOLVER-DIAG step 97000: CG 14 iters (=14 matvecs) [warm], resid/b=4.64e-08
     97000   276.01049     -71.934071     -67.403072      2.8108091    
samqeq SOLVER-DIAG step 97200: CG 13 iters (=13 matvecs) [warm], resid/b=7.89e-08
samqeq SOLVER-DIAG step 97400: CG 14 iters (=14 matvecs) [warm], resid/b=6.09e-08
samqeq SOLVER-DIAG step 97600: CG 13 iters (=13 matvecs) [warm], resid/b=9.60e-08
samqeq SOLVER-DIAG step 97800: CG 13 iters (=13 matvecs) [warm], resid/b=9.93e-08
samqeq SOLVER-DIAG step 98000: CG 13 iters (=13 matvecs) [warm], resid/b=8.59e-08
     98000   290.62514     -71.887492     -67.116579      2.7562866    
samqeq SOLVER-DIAG step 98200: CG 14 iters (=14 matvecs) [warm], resid/b=6.08e-08
samqeq SOLVER-DIAG step 98400: CG 14 iters (=14 matvecs) [warm], resid/b=5.22e-08
samqeq SOLVER-DIAG step 98600: CG 14 iters (=14 matvecs) [warm], resid/b=5.65e-08
samqeq SOLVER-DIAG step 98800: CG 13 iters (=13 matvecs) [warm], resid/b=9.48e-08
samqeq SOLVER-DIAG step 99000: CG 14 iters (=14 matvecs) [warm], resid/b=4.31e-08
     99000   272.11267     -71.510458     -67.043446      2.8124214    
samqeq SOLVER-DIAG step 99200: CG 14 iters (=14 matvecs) [warm], resid/b=4.82e-08
samqeq SOLVER-DIAG step 99400: CG 14 iters (=14 matvecs) [warm], resid/b=6.56e-08
samqeq SOLVER-DIAG step 99600: CG 14 iters (=14 matvecs) [warm], resid/b=5.78e-08
samqeq SOLVER-DIAG step 99800: CG 13 iters (=13 matvecs) [warm], resid/b=9.59e-08
samqeq SOLVER-DIAG step 100000: CG 14 iters (=14 matvecs) [warm], resid/b=5.94e-08
    100000   296.38698     -71.818967     -66.953467      2.8061661    
Loop time of 813.369 on 1 procs for 100000 steps with 192 atoms

Performance: 10.622 ns/day, 2.259 hours/ns, 122.945 timesteps/s, 23.606 katom-step/s
100.0% CPU use with 1 MPI tasks x 1 OpenMP threads

MPI task timing breakdown:
Section |  min time  |  avg time  |  max time  |%varavg| %total
---------------------------------------------------------------
Pair    | 206.22     | 206.22     | 206.22     |   0.0 | 25.35
Bond    | 0.022603   | 0.022603   | 0.022603   |   0.0 |  0.00
Kspace  | 32.652     | 32.652     | 32.652     |   0.0 |  4.01
Neigh   | 7.8698     | 7.8698     | 7.8698     |   0.0 |  0.97
Comm    | 1.6218     | 1.6218     | 1.6218     |   0.0 |  0.20
Output  | 0.0021194  | 0.0021194  | 0.0021194  |   0.0 |  0.00
Modify  | 564.54     | 564.54     | 564.54     |   0.0 | 69.41
Other   |            | 0.4443     |            |       |  0.05

Nlocal:            192 ave         192 max         192 min
Histogram: 1 0 0 0 0 0 0 0 0 0
Nghost:           4638 ave        4638 max        4638 min
Histogram: 1 0 0 0 0 0 0 0 0 0
Neighs:          69689 ave       69689 max       69689 min
Histogram: 1 0 0 0 0 0 0 0 0 0
FullNghs:       139378 ave      139378 max      139378 min
Histogram: 1 0 0 0 0 0 0 0 0 0

Total # of neighbors = 139378
Ave neighs/atom = 725.92708
Ave special neighs/atom = 0
Neighbor list builds = 3448
Dangerous builds = 0
unfix        integ
reset_timestep 0
fix          integ all rigid/nve/small molecule
Fix rigid/nve/small setup ...
  create bodies CPU = 0.000 seconds
  64 rigid bodies with 192 atoms
  1.0000026 = max distance from body owner to body atom
thermo       100
run          200000
PPPM initialization ...
  using 12-bit tables for long-range coulomb
  G vector (1/distance) = 0.34581955
  grid = 20 20 20
  stencil order = 5
  estimated absolute RMS force accuracy = 1.2784844e-05
  estimated relative force accuracy = 8.8785831e-07
  using double precision FFTW3
  3d grid and FFT values/proc = 24389 8000
Generated 0 of 1 mixed pair_coeff terms from geometric mixing rule
samqeq: E_self = sum(chi q + 1/2 eta qs^2) INCLUDED in pe/etotal (fix_modify chg energy yes; eselfref qs = q - q0) -- pe + E_self is the energy the forces integrate
samqeq: recip_self ACTIVE at run start (step 0): 0.38207 raw = 5.5016 eV/e, K=16 deterministic-probe route, calibration #1 at step 0 on the 18x18x18 mesh; first at this mesh 0.38207 (step 0), drift +0.000%
samqeq: calibrated grid reciprocal self-term recip_self=0.38912 +/- 0.00000 (raw, K=16 deterministic probes) = 5.6031 eV/e (subtracted so the QEq diagonal stays = eta)
samqeq SOLVER-DIAG step 0: CG 6 iters (=6 matvecs) [warm], resid/b=4.21e-08
Per MPI rank memory allocation (min/avg/max) = 25.19 | 25.19 | 25.19 Mbytes
   Step          Temp          PotEng         TotEng         c_dip     
         0   296.38698     -71.818922     -66.953422      2.8061524    
       100   318.71023     -72.243834     -67.011875      2.9033612    
samqeq SOLVER-DIAG step 200: CG 14 iters (=14 matvecs) [warm], resid/b=5.26e-08
       200   334.42303     -72.488609     -66.998708      2.8860725    
       300   289.99724     -71.717974     -66.957368      2.7997709    
samqeq SOLVER-DIAG step 400: CG 13 iters (=13 matvecs) [warm], resid/b=7.32e-08
       400   278.41961     -71.508158     -66.937611      2.7667915    
       500   309.49555     -72.045023     -66.964333      2.8184559    
samqeq SOLVER-DIAG step 600: CG 14 iters (=14 matvecs) [warm], resid/b=4.43e-08
       600   292.15481     -71.740675     -66.94465       2.7957103    
       700   300.8564      -71.907314     -66.968444      2.8290734    
samqeq SOLVER-DIAG step 800: CG 14 iters (=14 matvecs) [warm], resid/b=8.84e-08
       800   307.14215     -72.019149     -66.977092      2.8249552    
       900   289.22438     -71.712783     -66.964865      2.7970794    
samqeq SOLVER-DIAG step 1000: CG 13 iters (=13 matvecs) [warm], resid/b=5.80e-08
      1000   313.89333     -72.122953     -66.970068      2.8457795    
      1100   310.3556      -72.049228     -66.954419      2.7997965    
samqeq SOLVER-DIAG step 1200: CG 13 iters (=13 matvecs) [warm], resid/b=8.75e-08
      1200   334.73144     -72.467722     -66.972758      2.8240289    
      1300   298.74685     -71.864998     -66.960758      2.7946079    
samqeq SOLVER-DIAG step 1400: CG 14 iters (=14 matvecs) [warm], resid/b=3.68e-08
      1400   309.46517     -72.051887     -66.971695      2.8065861    
      1500   322.01306     -72.269975     -66.983796      2.8344482    
samqeq SOLVER-DIAG step 1600: CG 14 iters (=14 matvecs) [warm], resid/b=7.40e-08
      1600   299.49061     -71.88725      -66.970801      2.8143278    
      1700   289.34199     -71.737166     -66.987317      2.8328437    
samqeq SOLVER-DIAG step 1800: CG 14 iters (=14 matvecs) [warm], resid/b=6.13e-08
      1800   301.72693     -71.945822     -66.992661      2.8302542    
      1900   308.70426     -72.013227     -66.945526      2.7992706    
samqeq SOLVER-DIAG step 2000: CG 13 iters (=13 matvecs) [warm], resid/b=9.88e-08
      2000   280.83924     -71.561348     -66.95108       2.7942561    
      2100   302.65406     -71.930145     -66.961765      2.8107964    
samqeq SOLVER-DIAG step 2200: CG 13 iters (=13 matvecs) [warm], resid/b=7.91e-08
      2200   289.41033     -71.706585     -66.955614      2.785927     
      2300   299.71586     -71.895409     -66.975262      2.8016655    
samqeq SOLVER-DIAG step 2400: CG 14 iters (=14 matvecs) [warm], resid/b=4.96e-08
      2400   325.05181     -72.305295     -66.969232      2.8102112    
      2500   306.55158     -72.005371     -66.973009      2.8295673    
samqeq SOLVER-DIAG step 2600: CG 13 iters (=13 matvecs) [warm], resid/b=9.27e-08
      2600   272.11601     -71.395488     -66.928421      2.764685     
      2700   295.64661     -71.81617      -66.962824      2.808588     
samqeq SOLVER-DIAG step 2800: CG 14 iters (=14 matvecs) [warm], resid/b=6.33e-08
      2800   288.73984     -71.722061     -66.982097      2.8418524    
      2900   328.19678     -72.363753     -66.976062      2.8257257    
samqeq SOLVER-DIAG step 3000: CG 14 iters (=14 matvecs) [warm], resid/b=8.25e-08
      3000   338.35697     -72.556888     -67.002407      2.8639618    
      3100   316.498       -72.208917     -67.013273      2.8776581    
samqeq SOLVER-DIAG step 3200: CG 14 iters (=14 matvecs) [warm], resid/b=4.44e-08
      3200   309.64667     -72.101976     -67.018805      2.8812167    
      3300   281.75472     -71.612934     -66.987637      2.8392471    
samqeq SOLVER-DIAG step 3400: CG 14 iters (=14 matvecs) [warm], resid/b=6.17e-08
      3400   272.49282     -71.479867     -67.006615      2.8748731    
      3500   324.25583     -72.303033     -66.980037      2.8244135    
samqeq SOLVER-DIAG step 3600: CG 14 iters (=14 matvecs) [warm], resid/b=3.81e-08
      3600   297.42873     -71.865351     -66.98275       2.828504     
      3700   283.09826     -71.599483     -66.952131      2.7728965    
samqeq SOLVER-DIAG step 3800: CG 13 iters (=13 matvecs) [warm], resid/b=8.98e-08
      3800   301.20037     -71.889705     -66.945188      2.7760992    
      3900   274.49447     -71.452846     -66.946735      2.7645186    
samqeq SOLVER-DIAG step 4000: CG 13 iters (=13 matvecs) [warm], resid/b=8.30e-08
      4000   294.5335      -71.772624     -66.937551      2.7446738    
      4100   272.45831     -71.394734     -66.922048      2.7408377    
samqeq SOLVER-DIAG step 4200: CG 14 iters (=14 matvecs) [warm], resid/b=4.13e-08
      4200   295.5773      -71.799504     -66.947296      2.7770268    
      4300   281.41206     -71.568824     -66.949153      2.7804501    
samqeq SOLVER-DIAG step 4400: CG 13 iters (=13 matvecs) [warm], resid/b=6.56e-08
      4400   287.88657     -71.659528     -66.933571      2.7619611    
      4500   289.24963     -71.685092     -66.936759      2.7514267    
samqeq SOLVER-DIAG step 4600: CG 13 iters (=13 matvecs) [warm], resid/b=7.09e-08
      4600   293.23088     -71.773723     -66.960034      2.763141     
      4700   305.90551     -72.014191     -66.992435      2.8510185    
samqeq SOLVER-DIAG step 4800: CG 14 iters (=14 matvecs) [warm], resid/b=3.58e-08
      4800   312.16064     -72.110642     -66.986201      2.8323568    
      4900   309.93602     -72.078785     -66.990863      2.8352394    
samqeq SOLVER-DIAG step 5000: CG 14 iters (=14 matvecs) [warm], resid/b=5.86e-08
      5000   289.32966     -71.737945     -66.988298      2.846342     
      5100   297.83476     -71.870019     -66.980752      2.8195419    
samqeq SOLVER-DIAG step 5200: CG 14 iters (=14 matvecs) [warm], resid/b=5.71e-08
      5200   273.16238     -71.441135     -66.956891      2.7930357    
      5300   307.3177      -71.993071     -66.948132      2.7776594    
samqeq SOLVER-DIAG step 5400: CG 13 iters (=13 matvecs) [warm], resid/b=8.85e-08
      5400   296.08594     -71.810325     -66.949767      2.7802503    
      5500   308.66809     -72.048238     -66.981131      2.8168472    
samqeq SOLVER-DIAG step 5600: CG 14 iters (=14 matvecs) [warm], resid/b=6.09e-08
      5600   283.05594     -71.627296     -66.980638      2.8135751    
      5700   285.84368     -71.66647      -66.974049      2.8045856    
samqeq SOLVER-DIAG step 5800: CG 13 iters (=13 matvecs) [warm], resid/b=6.59e-08
      5800   291.64893     -71.761562     -66.973842      2.8086921    
      5900   286.62223     -71.676135     -66.970933      2.802728     
samqeq SOLVER-DIAG step 6000: CG 14 iters (=14 matvecs) [warm], resid/b=5.27e-08
      6000   331.0529      -72.42056      -66.985982      2.8391662    
      6100   280.78087     -71.580178     -66.970869      2.833398     
samqeq SOLVER-DIAG step 6200: CG 14 iters (=14 matvecs) [warm], resid/b=6.22e-08
      6200   287.49038     -71.677568     -66.958115      2.8005259    
      6300   306.19396     -71.995936     -66.969444      2.8336739    
samqeq SOLVER-DIAG step 6400: CG 14 iters (=14 matvecs) [warm], resid/b=6.99e-08
      6400   320.87227     -72.234006     -66.966554      2.8121982    
      6500   267.24068     -71.343207     -66.956174      2.7943056    
samqeq SOLVER-DIAG step 6600: CG 12 iters (=12 matvecs) [warm], resid/b=8.07e-08
      6600   299.05398     -71.875173     -66.965891      2.7828007    
      6700   283.68967     -71.637046     -66.979985      2.8265245    
samqeq SOLVER-DIAG step 6800: CG 13 iters (=13 matvecs) [warm], resid/b=7.64e-08
      6800   292.42417     -71.751563     -66.951117      2.781881     
      6900   316.13374     -72.148682     -66.959019      2.7789743    
samqeq SOLVER-DIAG step 7000: CG 14 iters (=14 matvecs) [warm], resid/b=6.32e-08
      7000   291.37174     -71.775551     -66.992382      2.8497004    
      7100   314.8307      -72.162303     -66.99403       2.849621     
samqeq SOLVER-DIAG step 7200: CG 14 iters (=14 matvecs) [warm], resid/b=4.12e-08
      7200   294.69048     -71.819176     -66.981525      2.826912     
      7300   280.00222     -71.5717       -66.975172      2.8041032    
samqeq SOLVER-DIAG step 7400: CG 14 iters (=14 matvecs) [warm], resid/b=5.08e-08
      7400   291.88206     -71.770119     -66.978572      2.8093701    
      7500   321.09913     -72.240673     -66.969498      2.8246171    
samqeq SOLVER-DIAG step 7600: CG 14 iters (=14 matvecs) [warm], resid/b=7.03e-08
      7600   316.23639     -72.172245     -66.980896      2.8444665    
      7700   324.57132     -72.325496     -66.997321      2.8487599    
samqeq SOLVER-DIAG step 7800: CG 14 iters (=14 matvecs) [warm], resid/b=4.14e-08
      7800   313.05935     -72.123943     -66.984749      2.8332673    
      7900   264.11931     -71.278643     -66.942851      2.7690112    
samqeq SOLVER-DIAG step 8000: CG 14 iters (=14 matvecs) [warm], resid/b=5.83e-08
      8000   296.96629     -71.838347     -66.963337      2.8203748    
      8100   295.14652     -71.796693     -66.951556      2.7835584    
samqeq SOLVER-DIAG step 8200: CG 13 iters (=13 matvecs) [warm], resid/b=9.07e-08
      8200   315.44644     -72.127959     -66.949578      2.7843501    
      8300   286.7815      -71.685671     -66.977855      2.8243955    
samqeq SOLVER-DIAG step 8400: CG 13 iters (=13 matvecs) [warm], resid/b=9.88e-08
      8400   284.43874     -71.628184     -66.958827      2.7932156    
      8500   318.15493     -72.203502     -66.980658      2.807351     
samqeq SOLVER-DIAG step 8600: CG 13 iters (=13 matvecs) [warm], resid/b=4.70e-08
      8600   312.26575     -72.089268     -66.963102      2.7792704    
      8700   317.71729     -72.193422     -66.977763      2.8326915    
samqeq SOLVER-DIAG step 8800: CG 14 iters (=14 matvecs) [warm], resid/b=5.13e-08
      8800   298.09589     -71.862466     -66.968913      2.8164275    
      8900   321.29644     -72.240199     -66.965784      2.8237091    
samqeq SOLVER-DIAG step 9000: CG 14 iters (=14 matvecs) [warm], resid/b=4.73e-08
      9000   330.48588     -72.421331     -66.996062      2.8499594    
      9100   321.10978     -72.251233     -66.979882      2.8417757    
samqeq SOLVER-DIAG step 9200: CG 13 iters (=13 matvecs) [warm], resid/b=9.52e-08
      9200   309.08232     -72.047193     -66.973286      2.8462992    
      9300   268.99189     -71.357005     -66.941223      2.7878037    
samqeq SOLVER-DIAG step 9400: CG 13 iters (=13 matvecs) [warm], resid/b=5.80e-08
      9400   263.17126     -71.250039     -66.92981       2.772082     
      9500   307.65893     -72.001321     -66.95078       2.7899361    
samqeq SOLVER-DIAG step 9600: CG 14 iters (=14 matvecs) [warm], resid/b=4.65e-08
      9600   322.40075     -72.273751     -66.981208      2.8438841    
      9700   329.33839     -72.378721     -66.97229       2.8329677    
samqeq SOLVER-DIAG step 9800: CG 14 iters (=14 matvecs) [warm], resid/b=5.44e-08
      9800   279.06096     -71.563617     -66.982541      2.8318706    
      9900   282.84972     -71.602059     -66.958787      2.7803183    
samqeq SOLVER-DIAG step 10000: CG 13 iters (=13 matvecs) [warm], resid/b=9.21e-08
     10000   276.21125     -71.460195     -66.9259        2.7533378    
     10100   301.95983     -71.905968     -66.948983      2.7877454    
samqeq SOLVER-DIAG step 10200: CG 13 iters (=13 matvecs) [warm], resid/b=7.76e-08
     10200   287.51298     -71.695645     -66.975821      2.816398     
     10300   304.87437     -71.968164     -66.963335      2.7829034    
samqeq SOLVER-DIAG step 10400: CG 13 iters (=13 matvecs) [warm], resid/b=8.86e-08
     10400   280.26046     -71.555088     -66.954321      2.7862157    
     10500   318.48788     -72.211136     -66.982826      2.8070072    
samqeq SOLVER-DIAG step 10600: CG 14 iters (=14 matvecs) [warm], resid/b=5.10e-08
     10600   305.04465     -71.973615     -66.96599       2.8203151    
     10700   284.45848     -71.631591     -66.96191       2.7826561    
samqeq SOLVER-DIAG step 10800: CG 14 iters (=14 matvecs) [warm], resid/b=4.58e-08
     10800   297.72874     -71.845908     -66.958382      2.788082     
     10900   294.11229     -71.768775     -66.940616      2.7692279    
samqeq SOLVER-DIAG step 11000: CG 14 iters (=14 matvecs) [warm], resid/b=3.89e-08
     11000   320.40083     -72.248516     -66.988804      2.8727924    
     11100   320.62445     -72.249723     -66.986339      2.8392342    
samqeq SOLVER-DIAG step 11200: CG 14 iters (=14 matvecs) [warm], resid/b=5.02e-08
     11200   292.71706     -71.794209     -66.988954      2.8389636    
     11300   279.41796     -71.520643     -66.933707      2.7621256    
samqeq SOLVER-DIAG step 11400: CG 14 iters (=14 matvecs) [warm], resid/b=5.37e-08
     11400   319.16881     -72.228326     -66.988838      2.8236568    
     11500   299.85527     -71.912242     -66.989807      2.8287877    
samqeq SOLVER-DIAG step 11600: CG 14 iters (=14 matvecs) [warm], resid/b=5.05e-08
     11600   303.36346     -71.971959     -66.991933      2.8231918    
     11700   288.28297     -71.693292     -66.960828      2.7992361    
samqeq SOLVER-DIAG step 11800: CG 14 iters (=14 matvecs) [warm], resid/b=4.68e-08
     11800   283.20465     -71.614608     -66.965509      2.7737385    
     11900   326.08246     -72.35218      -66.999198      2.8338642    
samqeq SOLVER-DIAG step 12000: CG 13 iters (=13 matvecs) [warm], resid/b=8.29e-08
     12000   336.55492     -72.524824     -66.999925      2.8555304    
     12100   322.95918     -72.30755      -67.00584       2.8743238    
samqeq SOLVER-DIAG step 12200: CG 13 iters (=13 matvecs) [warm], resid/b=8.35e-08
     12200   325.56965     -72.365455     -67.020891      2.8666827    
     12300   327.45234     -72.389946     -67.014476      2.8719235    
samqeq SOLVER-DIAG step 12400: CG 14 iters (=14 matvecs) [warm], resid/b=5.95e-08
     12400   323.83176     -72.32563      -67.009596      2.8715324    
     12500   316.07603     -72.176778     -66.988061      2.8455415    
samqeq SOLVER-DIAG step 12600: CG 13 iters (=13 matvecs) [warm], resid/b=8.85e-08
     12600   311.55229     -72.091371     -66.976917      2.8217107    
     12700   301.44586     -71.944413     -66.995866      2.8363854    
samqeq SOLVER-DIAG step 12800: CG 13 iters (=13 matvecs) [warm], resid/b=7.04e-08
     12800   299.92021     -71.876252     -66.952751      2.8019899    
     12900   290.00202     -71.725498     -66.964814      2.8054649    
samqeq SOLVER-DIAG step 13000: CG 14 iters (=14 matvecs) [warm], resid/b=6.60e-08
     13000   315.52322     -72.174788     -66.995147      2.8467413    
     13100   308.59335     -72.035155     -66.969274      2.8110973    
samqeq SOLVER-DIAG step 13200: CG 14 iters (=14 matvecs) [warm], resid/b=5.03e-08
     13200   316.69705     -72.215673     -67.016762      2.8483313    
     13300   292.47903     -71.788844     -66.987497      2.8394659    
samqeq SOLVER-DIAG step 13400: CG 13 iters (=13 matvecs) [warm], resid/b=9.13e-08
     13400   334.6764      -72.491905     -66.997844      2.8371986    
     13500   302.53758     -71.946762     -66.980293      2.8078593    
samqeq SOLVER-DIAG step 13600: CG 13 iters (=13 matvecs) [warm], resid/b=9.65e-08
     13600   311.00335     -72.077525     -66.972082      2.7987256    
     13700   266.25693     -71.308846     -66.937962      2.7475869    
samqeq SOLVER-DIAG step 13800: CG 14 iters (=14 matvecs) [warm], resid/b=6.32e-08
     13800   309.94713     -72.064067     -66.975963      2.8105964    
     13900   280.5729      -71.567766     -66.96187       2.8299901    
samqeq SOLVER-DIAG step 14000: CG 13 iters (=13 matvecs) [warm], resid/b=8.84e-08
     14000   308.47775     -72.043702     -66.97972       2.8150364    
     14100   295.00937     -71.808541     -66.965656      2.7795171    
samqeq SOLVER-DIAG step 14200: CG 14 iters (=14 matvecs) [warm], resid/b=5.81e-08
     14200   305.2208      -71.990006     -66.97949       2.8189536    
     14300   291.17971     -71.752812     -66.972794      2.8121334    
samqeq SOLVER-DIAG step 14400: CG 13 iters (=13 matvecs) [warm], resid/b=9.31e-08
     14400   326.43178     -72.352429     -66.993712      2.86788      
     14500   306.21361     -72.013286     -66.986471      2.8528379    
samqeq SOLVER-DIAG step 14600: CG 13 iters (=13 matvecs) [warm], resid/b=8.37e-08
     14600   308.98297     -72.062195     -66.989919      2.823421     
     14700   318.16895     -72.23296      -67.009887      2.8686757    
samqeq SOLVER-DIAG step 14800: CG 14 iters (=14 matvecs) [warm], resid/b=3.83e-08
     14800   317.09515     -72.204346     -66.9989        2.8486448    
     14900   308.17732     -72.025904     -66.966853      2.8125646    
samqeq SOLVER-DIAG step 15000: CG 13 iters (=13 matvecs) [warm], resid/b=8.68e-08
     15000   298.95899     -71.858175     -66.950453      2.8001366    
     15100   318.77479     -72.208243     -66.975224      2.8240014    
samqeq SOLVER-DIAG step 15200: CG 14 iters (=14 matvecs) [warm], resid/b=5.42e-08
     15200   290.74468     -71.741762     -66.968886      2.8384672    
     15300   291.76886     -71.740378     -66.950689      2.813556     
samqeq SOLVER-DIAG step 15400: CG 14 iters (=14 matvecs) [warm], resid/b=4.66e-08
     15400   337.97094     -72.550018     -67.001874      2.8695314    
     15500   317.72368     -72.170665     -66.954901      2.8152975    
samqeq SOLVER-DIAG step 15600: CG 14 iters (=14 matvecs) [warm], resid/b=3.94e-08
     15600   340.82754     -72.605611     -67.010573      2.8799191    
     15700   301.06969     -71.915777     -66.973406      2.8409592    
samqeq SOLVER-DIAG step 15800: CG 14 iters (=14 matvecs) [warm], resid/b=5.22e-08
     15800   307.36388     -72.034037     -66.98834       2.8341988    
     15900   323.1203      -72.279157     -66.974802      2.8377959    
samqeq SOLVER-DIAG step 16000: CG 14 iters (=14 matvecs) [warm], resid/b=4.94e-08
     16000   267.01133     -71.329096     -66.945827      2.7954021    
     16100   266.28085     -71.319496     -66.948219      2.8219014    
samqeq SOLVER-DIAG step 16200: CG 14 iters (=14 matvecs) [warm], resid/b=4.71e-08
     16200   338.07401     -72.521503     -66.971667      2.8353861    
     16300   318.46399     -72.190216     -66.962299      2.8111566    
samqeq SOLVER-DIAG step 16400: CG 14 iters (=14 matvecs) [warm], resid/b=5.57e-08
     16400   293.04876     -71.779171     -66.968471      2.8222141    
     16500   311.31945     -72.085385     -66.974753      2.8354337    
samqeq SOLVER-DIAG step 16600: CG 14 iters (=14 matvecs) [warm], resid/b=4.18e-08
     16600   331.13685     -72.390374     -66.954419      2.8200891    
     16700   307.99008     -72.028292     -66.972315      2.8415812    
samqeq SOLVER-DIAG step 16800: CG 13 iters (=13 matvecs) [warm], resid/b=8.01e-08
     16800   286.41333     -71.651607     -66.949834      2.7991549    
     16900   306.87625     -72.038865     -67.001173      2.8870253    
samqeq SOLVER-DIAG step 17000: CG 14 iters (=14 matvecs) [warm], resid/b=4.50e-08
     17000   321.33444     -72.273763     -66.998725      2.8466661    
     17100   293.04227     -71.753895     -66.943302      2.772698     
samqeq SOLVER-DIAG step 17200: CG 14 iters (=14 matvecs) [warm], resid/b=4.62e-08
     17200   317.20585     -72.160749     -66.953486      2.8064946    
     17300   300.74148     -71.887758     -66.950774      2.8137324    
samqeq SOLVER-DIAG step 17400: CG 14 iters (=14 matvecs) [warm], resid/b=6.46e-08
     17400   298.60466     -71.869712     -66.967807      2.8409383    
     17500   306.40948     -71.987144     -66.957114      2.8299088    
samqeq SOLVER-DIAG step 17600: CG 13 iters (=13 matvecs) [warm], resid/b=8.56e-08
     17600   312.64434     -72.087206     -66.954824      2.8316428    
     17700   297.21147     -71.830385     -66.95135       2.8217139    
samqeq SOLVER-DIAG step 17800: CG 13 iters (=13 matvecs) [warm], resid/b=9.88e-08
     17800   303.94953     -71.952465     -66.962818      2.8315216    
     17900   290.81919     -71.720852     -66.946753      2.7934683    
samqeq SOLVER-DIAG step 18000: CG 13 iters (=13 matvecs) [warm], resid/b=7.74e-08
     18000   289.84796     -71.727084     -66.968929      2.8306705    
     18100   289.83181     -71.686118     -66.928227      2.8038351    
samqeq SOLVER-DIAG step 18200: CG 14 iters (=14 matvecs) [warm], resid/b=4.69e-08
     18200   286.49471     -71.656693     -66.953585      2.8276121    
     18300   298.93881     -71.885369     -66.977978      2.8698486    
samqeq SOLVER-DIAG step 18400: CG 13 iters (=13 matvecs) [warm], resid/b=8.74e-08
     18400   288.41177     -71.686344     -66.951765      2.8044467    
     18500   301.96895     -71.911674     -66.95454       2.837458     
samqeq SOLVER-DIAG step 18600: CG 13 iters (=13 matvecs) [warm], resid/b=7.67e-08
     18600   297.38697     -71.820618     -66.938703      2.8279403    
     18700   315.30746     -72.114072     -66.937973      2.8058988    
samqeq SOLVER-DIAG step 18800: CG 13 iters (=13 matvecs) [warm], resid/b=8.40e-08
     18800   304.6201      -71.928873     -66.928217      2.7879404    
     18900   276.19375     -71.46909      -66.935083      2.7818039    
samqeq SOLVER-DIAG step 19000: CG 13 iters (=13 matvecs) [warm], resid/b=8.57e-08
     19000   288.97269     -71.684304     -66.940517      2.8041806    
     19100   276.37298     -71.481982     -66.945033      2.7968959    
samqeq SOLVER-DIAG step 19200: CG 13 iters (=13 matvecs) [warm], resid/b=9.57e-08
     19200   328.82926     -72.357526     -66.959452      2.8304266    
     19300   286.82534     -71.622953     -66.914417      2.7882294    
samqeq SOLVER-DIAG step 19400: CG 14 iters (=14 matvecs) [warm], resid/b=5.04e-08
     19400   337.99008     -72.502258     -66.9538        2.8300254    
     19500   325.73308     -72.323459     -66.976212      2.8706462    
samqeq SOLVER-DIAG step 19600: CG 14 iters (=14 matvecs) [warm], resid/b=5.69e-08
     19600   342.17698     -72.610802     -66.993612      2.8800706    
     19700   304.738       -71.973812     -66.971221      2.8421736    
samqeq SOLVER-DIAG step 19800: CG 14 iters (=14 matvecs) [warm], resid/b=5.80e-08
     19800   303.37608     -71.944339     -66.964106      2.8357169    
     19900   297.24985     -71.82427      -66.944605      2.8361737    
samqeq SOLVER-DIAG step 20000: CG 14 iters (=14 matvecs) [warm], resid/b=8.60e-08
     20000   302.47608     -71.925572     -66.960113      2.8522791    
     20100   293.71908     -71.767378     -66.945674      2.8006757    
samqeq SOLVER-DIAG step 20200: CG 14 iters (=14 matvecs) [warm], resid/b=6.90e-08
     20200   316.73957     -72.162674     -66.963065      2.8629426    
     20300   344.1645      -72.622864     -66.973046      2.8545834    
samqeq SOLVER-DIAG step 20400: CG 14 iters (=14 matvecs) [warm], resid/b=5.32e-08
     20400   323.81161     -72.287789     -66.972086      2.8433026    
     20500   336.44128     -72.492513     -66.96948       2.8558944    
samqeq SOLVER-DIAG step 20600: CG 14 iters (=14 matvecs) [warm], resid/b=5.48e-08
     20600   329.06672     -72.357709     -66.955737      2.8354488    
     20700   341.17946     -72.561942     -66.961127      2.8427518    
samqeq SOLVER-DIAG step 20800: CG 14 iters (=14 matvecs) [warm], resid/b=3.45e-08
     20800   294.5336      -71.787355     -66.95228       2.8059332    
     20900   301.43073     -71.895673     -66.947375      2.8076981    
samqeq SOLVER-DIAG step 21000: CG 14 iters (=14 matvecs) [warm], resid/b=7.91e-08
     21000   283.49355     -71.601124     -66.947283      2.7990717    
     21100   313.54081     -72.084782     -66.937684      2.7849981    
samqeq SOLVER-DIAG step 21200: CG 13 iters (=13 matvecs) [warm], resid/b=9.54e-08
     21200   309.07065     -72.010936     -66.93722       2.787422     
     21300   297.21688     -71.845453     -66.966329      2.8312748    
samqeq SOLVER-DIAG step 21400: CG 13 iters (=13 matvecs) [warm], resid/b=8.22e-08
     21400   316.45857     -72.155428     -66.960432      2.8334441    
     21500   310.76828     -72.039137     -66.937553      2.8135716    
samqeq SOLVER-DIAG step 21600: CG 14 iters (=14 matvecs) [warm], resid/b=5.65e-08
     21600   302.7465      -71.941403     -66.971505      2.8474769    
     21700   300.00881     -71.868448     -66.943491      2.8356629    
samqeq SOLVER-DIAG step 21800: CG 14 iters (=14 matvecs) [warm], resid/b=4.24e-08
     21800   299.01724     -71.839737     -66.931059      2.8009245    
     21900   303.51449     -71.91192      -66.929415      2.7993911    
samqeq SOLVER-DIAG step 22000: CG 13 iters (=13 matvecs) [warm], resid/b=9.00e-08
     22000   300.62699     -71.882911     -66.947807      2.8194387    
     22100   292.81036     -71.754372     -66.947586      2.812311     
samqeq SOLVER-DIAG step 22200: CG 14 iters (=14 matvecs) [warm], resid/b=5.96e-08
     22200   304.48166     -71.943718     -66.945335      2.8202747    
     22300   265.07546     -71.294733     -66.943244      2.7997878    
samqeq SOLVER-DIAG step 22400: CG 14 iters (=14 matvecs) [warm], resid/b=6.19e-08
     22400   278.52246     -71.502542     -66.930307      2.7744894    
     22500   307.74993     -71.975182     -66.923148      2.7785469    
samqeq SOLVER-DIAG step 22600: CG 14 iters (=14 matvecs) [warm], resid/b=5.38e-08
     22600   263.44631     -71.274884     -66.950139      2.8075824    
     22700   266.30297     -71.328537     -66.956897      2.8274806    
samqeq SOLVER-DIAG step 22800: CG 13 iters (=13 matvecs) [warm], resid/b=8.53e-08
     22800   282.14537     -71.565551     -66.933842      2.7925278    
     22900   282.65801     -71.578997     -66.938872      2.7991169    
samqeq SOLVER-DIAG step 23000: CG 14 iters (=14 matvecs) [warm], resid/b=7.51e-08
     23000   310.84233     -72.055993     -66.953194      2.8272064    
     23100   343.74531     -72.594455     -66.951519      2.8227202    
samqeq SOLVER-DIAG step 23200: CG 14 iters (=14 matvecs) [warm], resid/b=3.82e-08
     23200   295.613       -71.765641     -66.912847      2.7539004    
     23300   296.66249     -71.815548     -66.945525      2.8066188    
samqeq SOLVER-DIAG step 23400: CG 14 iters (=14 matvecs) [warm], resid/b=5.92e-08
     23400   340.37549     -72.549532     -66.961915      2.858518     
     23500   297.41558     -71.816075     -66.933689      2.8062412    
samqeq SOLVER-DIAG step 23600: CG 14 iters (=14 matvecs) [warm], resid/b=6.65e-08
     23600   297.91049     -71.828091     -66.937581      2.8066487    
     23700   305.00519     -71.948669     -66.941692      2.8173097    
samqeq SOLVER-DIAG step 23800: CG 13 iters (=13 matvecs) [warm], resid/b=9.40e-08
     23800   313.80475     -72.087446     -66.936016      2.7919708    
     23900   289.03662     -71.678967     -66.934131      2.8075011    
samqeq SOLVER-DIAG step 24000: CG 14 iters (=14 matvecs) [warm], resid/b=4.64e-08
     24000   296.26006     -71.818119     -66.954702      2.8496499    
     24100   317.16778     -72.169661     -66.963023      2.8602866    
samqeq SOLVER-DIAG step 24200: CG 13 iters (=13 matvecs) [warm], resid/b=7.48e-08
     24200   315.57218     -72.12885      -66.948404      2.8079091    
     24300   310.95635     -72.068955     -66.964284      2.8392962    
samqeq SOLVER-DIAG step 24400: CG 13 iters (=13 matvecs) [warm], resid/b=9.32e-08
     24400   313.72105     -72.101291     -66.951234      2.8421501    
     24500   313.73689     -72.099205     -66.948888      2.8346953    
samqeq SOLVER-DIAG step 24600: CG 14 iters (=14 matvecs) [warm], resid/b=4.82e-08
     24600   323.58985     -72.2681       -66.956037      2.8261778    
     24700   315.07391     -72.139483     -66.967217      2.8479941    
samqeq SOLVER-DIAG step 24800: CG 14 iters (=14 matvecs) [warm], resid/b=7.73e-08
     24800   291.89412     -71.729307     -66.937562      2.8066088    
     24900   304.55614     -71.975209     -66.975604      2.8802839    
samqeq SOLVER-DIAG step 25000: CG 14 iters (=14 matvecs) [warm], resid/b=7.83e-08
     25000   297.31052     -71.847504     -66.966843      2.8649323    
     25100   283.06105     -71.56453      -66.917789      2.8344219    
samqeq SOLVER-DIAG step 25200: CG 13 iters (=13 matvecs) [warm], resid/b=6.48e-08
     25200   302.89402     -71.895396     -66.923076      2.8083768    
     25300   281.68169     -71.529722     -66.905624      2.7762637    
samqeq SOLVER-DIAG step 25400: CG 13 iters (=13 matvecs) [warm], resid/b=9.84e-08
     25400   286.47616     -71.61486      -66.912056      2.7774389    
     25500   276.64049     -71.425475     -66.884134      2.7625016    
samqeq SOLVER-DIAG step 25600: CG 13 iters (=13 matvecs) [warm], resid/b=7.76e-08
     25600   284.49462     -71.577226     -66.906952      2.7661112    
     25700   324.24201     -72.249059     -66.92629       2.7995871    
samqeq SOLVER-DIAG step 25800: CG 13 iters (=13 matvecs) [warm], resid/b=7.73e-08
     25800   324.77637     -72.27298      -66.941438      2.8116823    
     25900   297.63498     -71.818787     -66.932799      2.7848979    
samqeq SOLVER-DIAG step 26000: CG 14 iters (=14 matvecs) [warm], resid/b=8.08e-08
     26000   313.8833      -72.131302     -66.978581      2.8624297    
     26100   288.43837     -71.676374     -66.941359      2.8152294    
samqeq SOLVER-DIAG step 26200: CG 13 iters (=13 matvecs) [warm], resid/b=8.71e-08
     26200   275.21925     -71.442191     -66.924182      2.7854232    
     26300   286.73158     -71.644382     -66.937385      2.789229     
samqeq SOLVER-DIAG step 26400: CG 14 iters (=14 matvecs) [warm], resid/b=5.31e-08
     26400   331.9244      -72.392356     -66.943472      2.8155207    
     26500   300.64567     -71.861634     -66.926223      2.7931951    
samqeq SOLVER-DIAG step 26600: CG 13 iters (=13 matvecs) [warm], resid/b=9.07e-08
     26600   272.92834     -71.397324     -66.916922      2.7917315    
     26700   264.61688     -71.230638     -66.886678      2.7391816    
samqeq SOLVER-DIAG step 26800: CG 13 iters (=13 matvecs) [warm], resid/b=7.66e-08
     26800   289.97841     -71.664012     -66.903715      2.7598769    
     26900   307.70043     -71.961049     -66.909827      2.7550889    
samqeq SOLVER-DIAG step 27000: CG 13 iters (=13 matvecs) [warm], resid/b=7.52e-08
     27000   301.67991     -71.883585     -66.931196      2.7833789    
     27100   302.90632     -71.926886     -66.954364      2.8309379    
samqeq SOLVER-DIAG step 27200: CG 13 iters (=13 matvecs) [warm], resid/b=9.99e-08
     27200   301.03217     -71.872985     -66.93123       2.8242764    
     27300   300.71486     -71.891805     -66.955258      2.8273145    
samqeq SOLVER-DIAG step 27400: CG 14 iters (=14 matvecs) [warm], resid/b=5.16e-08
     27400   289.18523     -71.701074     -66.953798      2.8437108    
     27500   311.11869     -72.054215     -66.946878      2.850078     
samqeq SOLVER-DIAG step 27600: CG 14 iters (=14 matvecs) [warm], resid/b=5.47e-08
     27600   316.47643     -72.125515     -66.930226      2.8050538    
     27700   284.91952     -71.594684     -66.917435      2.7911169    
samqeq SOLVER-DIAG step 27800: CG 14 iters (=14 matvecs) [warm], resid/b=4.20e-08
     27800   270.67123     -71.372483     -66.929134      2.8137963    
     27900   271.8625      -71.381911     -66.919006      2.8136142    
samqeq SOLVER-DIAG step 28000: CG 13 iters (=13 matvecs) [warm], resid/b=8.63e-08
     28000   278.79008     -71.483465     -66.906836      2.7788177    
     28100   281.01387     -71.536738     -66.923603      2.7918975    
samqeq SOLVER-DIAG step 28200: CG 14 iters (=14 matvecs) [warm], resid/b=6.86e-08
     28200   328.61942     -72.329985     -66.935356      2.8412773    
     28300   297.81094     -71.831318     -66.942442      2.8167557    
samqeq SOLVER-DIAG step 28400: CG 14 iters (=14 matvecs) [warm], resid/b=5.44e-08
     28400   271.1954      -71.384941     -66.932987      2.8259568    
     28500   305.28376     -71.968008     -66.956458      2.8246915    
samqeq SOLVER-DIAG step 28600: CG 13 iters (=13 matvecs) [warm], resid/b=9.20e-08
     28600   273.2047      -71.418843     -66.933905      2.8132867    
     28700   265.78989     -71.287041     -66.923824      2.790937     
samqeq SOLVER-DIAG step 28800: CG 14 iters (=14 matvecs) [warm], resid/b=5.28e-08
     28800   296.20898     -71.782862     -66.920284      2.786815     
     28900   303.09853     -71.918184     -66.942507      2.815902     
samqeq SOLVER-DIAG step 29000: CG 14 iters (=14 matvecs) [warm], resid/b=6.03e-08
     29000   332.33492     -72.420602     -66.964979      2.8571681    
     29100   312.25706     -72.092391     -66.966367      2.832225     
samqeq SOLVER-DIAG step 29200: CG 14 iters (=14 matvecs) [warm], resid/b=5.94e-08
     29200   337.5888      -72.509708     -66.967838      2.861948     
     29300   343.95573     -72.625029     -66.978638      2.8535598    
samqeq SOLVER-DIAG step 29400: CG 14 iters (=14 matvecs) [warm], resid/b=5.98e-08
     29400   281.82022     -71.567603     -66.941232      2.7900402    
     29500   318.51563     -72.141321     -66.912556      2.7694685    
samqeq SOLVER-DIAG step 29600: CG 13 iters (=13 matvecs) [warm], resid/b=8.90e-08
     29600   294.79513     -71.790909     -66.95154       2.8170066    
     29700   291.38073     -71.720557     -66.93724       2.7936768    
samqeq SOLVER-DIAG step 29800: CG 14 iters (=14 matvecs) [warm], resid/b=8.13e-08
     29800   307.43177     -71.99772      -66.950909      2.8105639    
     29900   320.1894      -72.227477     -66.971236      2.8239075    
samqeq SOLVER-DIAG step 30000: CG 14 iters (=14 matvecs) [warm], resid/b=4.97e-08
     30000   292.91604     -71.759776     -66.951255      2.8314478    
     30100   316.73647     -72.147785     -66.948227      2.8156378    
samqeq SOLVER-DIAG step 30200: CG 14 iters (=14 matvecs) [warm], resid/b=6.33e-08
     30200   305.45072     -71.982011     -66.96772       2.8370558    
     30300   289.16826     -71.707903     -66.960906      2.8254298    
samqeq SOLVER-DIAG step 30400: CG 13 iters (=13 matvecs) [warm], resid/b=8.84e-08
     30400   308.04145     -72.004509     -66.947689      2.8075753    
     30500   303.98691     -71.944689     -66.954429      2.8426895    
samqeq SOLVER-DIAG step 30600: CG 14 iters (=14 matvecs) [warm], resid/b=6.32e-08
     30600   295.27694     -71.830191     -66.982913      2.8826615    
     30700   316.2667      -72.181109     -66.989263      2.8832451    
samqeq SOLVER-DIAG step 30800: CG 14 iters (=14 matvecs) [warm], resid/b=5.36e-08
     30800   317.07619     -72.184276     -66.979141      2.8628438    
     30900   310.80486     -72.076514     -66.97433       2.8557895    
samqeq SOLVER-DIAG step 31000: CG 14 iters (=14 matvecs) [warm], resid/b=5.09e-08
     31000   314.98724     -72.134181     -66.963338      2.8378801    
     31100   288.36474     -71.663347     -66.92954       2.7989141    
samqeq SOLVER-DIAG step 31200: CG 14 iters (=14 matvecs) [warm], resid/b=5.22e-08
     31200   302.0924      -71.905171     -66.946011      2.797523     
     31300   307.16179     -72.025903     -66.983523      2.859687     
samqeq SOLVER-DIAG step 31400: CG 14 iters (=14 matvecs) [warm], resid/b=5.06e-08
     31400   310.48487     -72.042117     -66.945185      2.7947007    
     31500   326.98317     -72.32725      -66.959481      2.8347481    
samqeq SOLVER-DIAG step 31600: CG 14 iters (=14 matvecs) [warm], resid/b=4.28e-08
     31600   330.95648     -72.36587      -66.932876      2.7865514    
     31700   279.70619     -71.526608     -66.934941      2.7935336    
samqeq SOLVER-DIAG step 31800: CG 14 iters (=14 matvecs) [warm], resid/b=5.99e-08
     31800   307.31159     -72.000354     -66.955515      2.8129614    
     31900   323.67628     -72.266473     -66.952991      2.8107698    
samqeq SOLVER-DIAG step 32000: CG 14 iters (=14 matvecs) [warm], resid/b=5.27e-08
     32000   297.96215     -71.846651     -66.955292      2.7889697    
     32100   303.95736     -71.932891     -66.943115      2.7989527    
samqeq SOLVER-DIAG step 32200: CG 14 iters (=14 matvecs) [warm], resid/b=5.97e-08
     32200   333.02562     -72.43506      -66.968098      2.8347025    
     32300   311.83725     -72.072524     -66.953391      2.8240579    
samqeq SOLVER-DIAG step 32400: CG 14 iters (=14 matvecs) [warm], resid/b=4.44e-08
     32400   314.36848     -72.131468     -66.970783      2.8502722    
     32500   322.61277     -72.270116     -66.974093      2.848363     
samqeq SOLVER-DIAG step 32600: CG 13 iters (=13 matvecs) [warm], resid/b=7.25e-08
     32600   296.54662     -71.813039     -66.944918      2.8105034    
     32700   279.14656     -71.528009     -66.945528      2.7927108    
samqeq SOLVER-DIAG step 32800: CG 14 iters (=14 matvecs) [warm], resid/b=6.53e-08
     32800   304.05772     -71.942158     -66.950735      2.7887196    
     32900   282.43343     -71.606956     -66.970518      2.8285789    
samqeq SOLVER-DIAG step 33000: CG 14 iters (=14 matvecs) [warm], resid/b=4.45e-08
     33000   314.47237     -72.093493     -66.931102      2.7926351    
     33100   299.76251     -71.833594     -66.912681      2.749728     
samqeq SOLVER-DIAG step 33200: CG 14 iters (=14 matvecs) [warm], resid/b=4.96e-08
     33200   277.4938      -71.506935     -66.951586      2.8050722    
     33300   302.26186     -71.901891     -66.939948      2.809192     
samqeq SOLVER-DIAG step 33400: CG 14 iters (=14 matvecs) [warm], resid/b=4.63e-08
     33400   318.04893     -72.163967     -66.942863      2.8044913    
     33500   295.34431     -71.787575     -66.939191      2.7892825    
samqeq SOLVER-DIAG step 33600: CG 13 iters (=13 matvecs) [warm], resid/b=8.80e-08
     33600   324.61023     -72.293095     -66.964281      2.8150185    
     33700   336.78049     -72.507986     -66.979385      2.8185993    
samqeq SOLVER-DIAG step 33800: CG 14 iters (=14 matvecs) [warm], resid/b=4.61e-08
     33800   271.21153     -71.40487      -66.952652      2.8059592    
     33900   313.13274     -72.116864     -66.976465      2.8300981    
samqeq SOLVER-DIAG step 34000: CG 14 iters (=14 matvecs) [warm], resid/b=5.61e-08
     34000   297.75544     -71.842865     -66.954901      2.8036388    
     34100   297.19264     -71.83081      -66.952084      2.8050302    
samqeq SOLVER-DIAG step 34200: CG 14 iters (=14 matvecs) [warm], resid/b=5.48e-08
     34200   318.2421      -72.196151     -66.971876      2.8308737    
     34300   332.60503     -72.455517     -66.99546       2.8792746    
samqeq SOLVER-DIAG step 34400: CG 14 iters (=14 matvecs) [warm], resid/b=5.50e-08
     34400   295.08078     -71.811957     -66.9679        2.8201293    
     34500   301.71374     -71.934692     -66.981748      2.8406993    
samqeq SOLVER-DIAG step 34600: CG 14 iters (=14 matvecs) [warm], resid/b=5.35e-08
     34600   304.98079     -71.978173     -66.971597      2.8310408    
     34700   304.71653     -71.949102     -66.946864      2.7865194    
samqeq SOLVER-DIAG step 34800: CG 14 iters (=14 matvecs) [warm], resid/b=6.45e-08
     34800   288.2988      -71.68213      -66.949406      2.7967388    
     34900   324.66333     -72.298586     -66.968901      2.8304971    
samqeq SOLVER-DIAG step 35000: CG 13 iters (=13 matvecs) [warm], resid/b=5.12e-08
     35000   281.38021     -71.573434     -66.954286      2.7884696    
     35100   312.88043     -72.080861     -66.944604      2.7906111    
samqeq SOLVER-DIAG step 35200: CG 14 iters (=14 matvecs) [warm], resid/b=3.63e-08
     35200   324.62301     -72.279462     -66.950438      2.8092603    
     35300   314.54108     -72.136614     -66.973096      2.83848      
samqeq SOLVER-DIAG step 35400: CG 13 iters (=13 matvecs) [warm], resid/b=9.65e-08
     35400   287.48093     -71.698291     -66.978993      2.8230918    
     35500   294.73249     -71.806072     -66.967733      2.7878771    
samqeq SOLVER-DIAG step 35600: CG 13 iters (=13 matvecs) [warm], resid/b=7.30e-08
     35600   301.91493     -71.906233     -66.949986      2.7937253    
     35700   352.58584     -72.77668      -66.988618      2.8652687    
samqeq SOLVER-DIAG step 35800: CG 13 iters (=13 matvecs) [warm], resid/b=9.99e-08
     35800   309.31936     -72.023699     -66.945901      2.7920251    
     35900   315.04004     -72.120963     -66.949254      2.8096287    
samqeq SOLVER-DIAG step 36000: CG 13 iters (=13 matvecs) [warm], resid/b=8.28e-08
     36000   302.59602     -71.911397     -66.943969      2.7913249    
     36100   322.41837     -72.269219     -66.976387      2.8575622    
samqeq SOLVER-DIAG step 36200: CG 13 iters (=13 matvecs) [warm], resid/b=7.71e-08
     36200   326.89637     -72.326681     -66.960337      2.8017339    
     36300   303.23687     -71.933347     -66.955399      2.8108942    
samqeq SOLVER-DIAG step 36400: CG 14 iters (=14 matvecs) [warm], resid/b=6.52e-08
     36400   300.90139     -71.923859     -66.98425       2.8421607    
     36500   298.44652     -71.860098     -66.960788      2.8312817    
samqeq SOLVER-DIAG step 36600: CG 14 iters (=14 matvecs) [warm], resid/b=6.45e-08
     36600   307.33436     -72.019774     -66.974561      2.8128814    
     36700   322.49395     -72.273945     -66.979872      2.8345959    
samqeq SOLVER-DIAG step 36800: CG 14 iters (=14 matvecs) [warm], resid/b=3.65e-08
     36800   267.81045     -71.339881     -66.943494      2.7966433    
     36900   308.01861     -72.002502     -66.946057      2.7805372    
samqeq SOLVER-DIAG step 37000: CG 14 iters (=14 matvecs) [warm], resid/b=5.88e-08
     37000   295.28594     -71.818946     -66.971521      2.8315654    
     37100   266.0236      -71.316072     -66.949019      2.8215571    
samqeq SOLVER-DIAG step 37200: CG 13 iters (=13 matvecs) [warm], resid/b=6.08e-08
     37200   297.47922     -71.809685     -66.926255      2.7661906    
     37300   289.45145     -71.658559     -66.906913      2.731255     
samqeq SOLVER-DIAG step 37400: CG 13 iters (=13 matvecs) [warm], resid/b=5.78e-08
     37400   288.2202      -71.65414      -66.922706      2.7515267    
     37500   291.13935     -71.727019     -66.947665      2.8055884    
samqeq SOLVER-DIAG step 37600: CG 14 iters (=14 matvecs) [warm], resid/b=5.86e-08
     37600   291.05811     -71.754485     -66.976464      2.8474464    
     37700   278.9014      -71.544878     -66.966422      2.8270604    
samqeq SOLVER-DIAG step 37800: CG 14 iters (=14 matvecs) [warm], resid/b=4.27e-08
     37800   311.44718     -72.06254      -66.949811      2.8194455    
     37900   291.33337     -71.762462     -66.979922      2.8703753    
samqeq SOLVER-DIAG step 38000: CG 14 iters (=14 matvecs) [warm], resid/b=5.44e-08
     38000   327.39311     -72.379711     -67.005213      2.8693882    
     38100   318.23313     -72.206707     -66.982579      2.8500562    
samqeq SOLVER-DIAG step 38200: CG 13 iters (=13 matvecs) [warm], resid/b=5.53e-08
     38200   315.59581     -72.151154     -66.970321      2.8028387    
     38300   312.64274     -72.102743     -66.970388      2.8065544    
samqeq SOLVER-DIAG step 38400: CG 13 iters (=13 matvecs) [warm], resid/b=6.11e-08
     38400   287.34267     -71.630969     -66.91394       2.7543796    
     38500   302.92918     -71.950868     -66.977971      2.8575946    
samqeq SOLVER-DIAG step 38600: CG 14 iters (=14 matvecs) [warm], resid/b=6.33e-08
     38600   317.51176     -72.169328     -66.957043      2.8096142    
     38700   296.63361     -71.839689     -66.97014       2.8429095    
samqeq SOLVER-DIAG step 38800: CG 13 iters (=13 matvecs) [warm], resid/b=5.69e-08
     38800   291.87886     -71.730295     -66.938801      2.8028969    
     38900   306.56976     -71.972066     -66.939405      2.7740077    
samqeq SOLVER-DIAG step 39000: CG 14 iters (=14 matvecs) [warm], resid/b=5.38e-08
     39000   280.6342      -71.551149     -66.944247      2.8016473    
     39100   305.09891     -71.956409     -66.947894      2.8035789    
samqeq SOLVER-DIAG step 39200: CG 13 iters (=13 matvecs) [warm], resid/b=6.81e-08
     39200   301.58868     -71.893814     -66.942922      2.8089528    
     39300   319.08346     -72.200248     -66.962161      2.831198     
samqeq SOLVER-DIAG step 39400: CG 14 iters (=14 matvecs) [warm], resid/b=6.21e-08
     39400   325.59106     -72.301677     -66.956762      2.8256988    
     39500   296.10778     -71.816497     -66.95558       2.8017065    
samqeq SOLVER-DIAG step 39600: CG 13 iters (=13 matvecs) [warm], resid/b=8.58e-08
     39600   321.0135      -72.235844     -66.966074      2.8113879    
     39700   293.72396     -71.746513     -66.924729      2.7677915    
samqeq SOLVER-DIAG step 39800: CG 14 iters (=14 matvecs) [warm], resid/b=4.94e-08
     39800   311.84919     -72.086953     -66.967625      2.819535     
     39900   310.07901     -72.068214     -66.977945      2.8357622    
samqeq SOLVER-DIAG step 40000: CG 13 iters (=13 matvecs) [warm], resid/b=9.84e-08
     40000   305.60582     -71.987948     -66.971111      2.8193892    
     40100   315.47002     -72.160384     -66.981616      2.8595128    
samqeq SOLVER-DIAG step 40200: CG 14 iters (=14 matvecs) [warm], resid/b=9.50e-08
     40200   338.76658     -72.539468     -66.978263      2.8732106    
     40300   313.49964     -72.118941     -66.972519      2.855536     
samqeq SOLVER-DIAG step 40400: CG 13 iters (=13 matvecs) [warm], resid/b=6.96e-08
     40400   302.14252     -71.902979     -66.942995      2.8026974    
     40500   274.59736     -71.471647     -66.963846      2.8301832    
samqeq SOLVER-DIAG step 40600: CG 13 iters (=13 matvecs) [warm], resid/b=6.19e-08
     40600   290.9337      -71.707495     -66.931516      2.7987026    
     40700   324.84769     -72.285975     -66.953262      2.8316321    
samqeq SOLVER-DIAG step 40800: CG 14 iters (=14 matvecs) [warm], resid/b=4.31e-08
     40800   316.09908     -72.133712     -66.944618      2.8105232    
     40900   275.37297     -71.483711     -66.963178      2.8169821    
samqeq SOLVER-DIAG step 41000: CG 14 iters (=14 matvecs) [warm], resid/b=4.23e-08
     41000   317.10698     -72.160476     -66.954835      2.8248515    
     41100   267.25633     -71.319184     -66.931894      2.790021     
samqeq SOLVER-DIAG step 41200: CG 13 iters (=13 matvecs) [warm], resid/b=8.09e-08
     41200   309.84698     -72.015421     -66.928961      2.7915598    
     41300   290.51148     -71.686104     -66.917056      2.7699899    
samqeq SOLVER-DIAG step 41400: CG 14 iters (=14 matvecs) [warm], resid/b=4.67e-08
     41400   295.09209     -71.783198     -66.938955      2.7966191    
     41500   308.44091     -72.011143     -66.947765      2.8083397    
samqeq SOLVER-DIAG step 41600: CG 14 iters (=14 matvecs) [warm], resid/b=3.72e-08
     41600   306.45008     -71.978057     -66.947361      2.8153371    
     41700   277.12539     -71.50357      -66.954269      2.806768     
samqeq SOLVER-DIAG step 41800: CG 14 iters (=14 matvecs) [warm], resid/b=4.74e-08
     41800   310.08517     -72.045645     -66.955275      2.7997289    
     41900   303.16988     -71.946704     -66.969856      2.8328103    
samqeq SOLVER-DIAG step 42000: CG 14 iters (=14 matvecs) [warm], resid/b=5.15e-08
     42000   306.47777     -72.002715     -66.971564      2.8484674    
     42100   298.51792     -71.866299     -66.965818      2.8477543    
samqeq SOLVER-DIAG step 42200: CG 14 iters (=14 matvecs) [warm], resid/b=7.32e-08
     42200   305.7996      -72.002569     -66.982551      2.8868353    
     42300   323.19643     -72.274414     -66.968809      2.8629606    
samqeq SOLVER-DIAG step 42400: CG 14 iters (=14 matvecs) [warm], resid/b=4.85e-08
     42400   273.76172     -71.44759      -66.953508      2.8306633    
     42500   276.66421     -71.488008     -66.946278      2.8190616    
samqeq SOLVER-DIAG step 42600: CG 14 iters (=14 matvecs) [warm], resid/b=5.86e-08
     42600   292.83482     -71.73252      -66.925332      2.8027486    
     42700   308.10281     -72.013766     -66.955939      2.8369277    
samqeq SOLVER-DIAG step 42800: CG 13 iters (=13 matvecs) [warm], resid/b=8.29e-08
     42800   278.41089     -71.507097     -66.936693      2.7935315    
     42900   310.46064     -72.060451     -66.963917      2.8322098    
samqeq SOLVER-DIAG step 43000: CG 14 iters (=14 matvecs) [warm], resid/b=4.23e-08
     43000   324.55404     -72.282006     -66.954114      2.8277073    
     43100   314.84918     -72.128115     -66.959538      2.8518918    
samqeq SOLVER-DIAG step 43200: CG 13 iters (=13 matvecs) [warm], resid/b=7.77e-08
     43200   310.22148     -72.029842     -66.937234      2.7991847    
     43300   310.82501     -72.048146     -66.945631      2.8066873    
samqeq SOLVER-DIAG step 43400: CG 13 iters (=13 matvecs) [warm], resid/b=6.31e-08
     43400   298.23994     -71.838911     -66.942993      2.8022444    
     43500   274.90397     -71.455465     -66.942631      2.796419     
samqeq SOLVER-DIAG step 43600: CG 13 iters (=13 matvecs) [warm], resid/b=9.29e-08
     43600   288.77849     -71.685851     -66.945252      2.8064986    
     43700   321.75424     -72.237772     -66.955842      2.8147014    
samqeq SOLVER-DIAG step 43800: CG 14 iters (=14 matvecs) [warm], resid/b=5.31e-08
     43800   285.80951     -71.643926     -66.952066      2.7830626    
     43900   310.19789     -72.047273     -66.955052      2.8037577    
samqeq SOLVER-DIAG step 44000: CG 13 iters (=13 matvecs) [warm], resid/b=8.04e-08
     44000   353.2793      -72.75788      -66.958433      2.8138218    
     44100   322.01301     -72.269758     -66.98358       2.8314883    
samqeq SOLVER-DIAG step 44200: CG 14 iters (=14 matvecs) [warm], resid/b=5.02e-08
     44200   296.69441     -71.82577      -66.955224      2.8181503    
     44300   292.21937     -71.726188     -66.929104      2.7966946    
samqeq SOLVER-DIAG step 44400: CG 13 iters (=13 matvecs) [warm], resid/b=7.86e-08
     44400   299.01629     -71.824252     -66.915589      2.792455     
     44500   304.84515     -71.93805      -66.9337        2.7962541    
samqeq SOLVER-DIAG step 44600: CG 14 iters (=14 matvecs) [warm], resid/b=6.64e-08
     44600   310.26511     -72.025717     -66.932393      2.8063319    
     44700   317.91946     -72.159881     -66.940903      2.7948215    
samqeq SOLVER-DIAG step 44800: CG 14 iters (=14 matvecs) [warm], resid/b=4.68e-08
     44800   333.49908     -72.429868     -66.955135      2.8258015    
     44900   321.91246     -72.239715     -66.955188      2.8237468    
samqeq SOLVER-DIAG step 45000: CG 14 iters (=14 matvecs) [warm], resid/b=6.57e-08
     45000   329.27468     -72.357938     -66.952552      2.8191262    
     45100   304.53435     -71.950412     -66.951164      2.8218461    
samqeq SOLVER-DIAG step 45200: CG 14 iters (=14 matvecs) [warm], resid/b=8.51e-08
     45200   345.46621     -72.665485     -66.994298      2.8838247    
     45300   322.54971     -72.282473     -66.987485      2.8922219    
samqeq SOLVER-DIAG step 45400: CG 14 iters (=14 matvecs) [warm], resid/b=6.47e-08
     45400   340.15061     -72.568608     -66.984682      2.8661599    
     45500   274.50141     -71.468921     -66.962695      2.8434858    
samqeq SOLVER-DIAG step 45600: CG 14 iters (=14 matvecs) [warm], resid/b=6.64e-08
     45600   318.87112     -72.215774     -66.981173      2.8484914    
     45700   316.29878     -72.157432     -66.965059      2.8390153    
samqeq SOLVER-DIAG step 45800: CG 13 iters (=13 matvecs) [warm], resid/b=7.76e-08
     45800   282.50301     -71.587224     -66.949644      2.7999799    
     45900   348.84692     -72.686716     -66.960032      2.8203122    
samqeq SOLVER-DIAG step 46000: CG 14 iters (=14 matvecs) [warm], resid/b=4.27e-08
     46000   310.0971      -72.029432     -66.938866      2.7902959    
     46100   311.50486     -72.050507     -66.936831      2.7762423    
samqeq SOLVER-DIAG step 46200: CG 14 iters (=14 matvecs) [warm], resid/b=4.70e-08
     46200   298.70404     -71.828079     -66.924542      2.7407665    
     46300   265.85928     -71.275971     -66.911615      2.7483045    
samqeq SOLVER-DIAG step 46400: CG 13 iters (=13 matvecs) [warm], resid/b=7.26e-08
     46400   290.48668     -71.68631      -66.917669      2.7677921    
     46500   290.51869     -71.695924     -66.926758      2.775212     
samqeq SOLVER-DIAG step 46600: CG 14 iters (=14 matvecs) [warm], resid/b=4.72e-08
     46600   281.52332     -71.545905     -66.924408      2.8028568    
     46700   279.97937     -71.506806     -66.910654      2.7540197    
samqeq SOLVER-DIAG step 46800: CG 14 iters (=14 matvecs) [warm], resid/b=3.36e-08
     46800   286.1734      -71.603592     -66.905759      2.7453496    
     46900   311.87729     -72.058107     -66.938318      2.7786243    
samqeq SOLVER-DIAG step 47000: CG 14 iters (=14 matvecs) [warm], resid/b=7.36e-08
     47000   300.40771     -71.908049     -66.976545      2.8594679    
     47100   335.37184     -72.46967      -66.964193      2.8384428    
samqeq SOLVER-DIAG step 47200: CG 14 iters (=14 matvecs) [warm], resid/b=6.47e-08
     47200   328.5528      -72.370752     -66.977217      2.8666175    
     47300   319.25931     -72.190891     -66.949918      2.8180726    
samqeq SOLVER-DIAG step 47400: CG 13 iters (=13 matvecs) [warm], resid/b=6.24e-08
     47400   281.23609     -71.554153     -66.937371      2.8146613    
     47500   285.40689     -71.634942     -66.949692      2.8317127    
samqeq SOLVER-DIAG step 47600: CG 14 iters (=14 matvecs) [warm], resid/b=6.02e-08
     47600   324.08822     -72.295426     -66.975182      2.8520994    
     47700   296.56138     -71.826961     -66.958598      2.8186198    
samqeq SOLVER-DIAG step 47800: CG 14 iters (=14 matvecs) [warm], resid/b=3.39e-08
     47800   273.12338     -71.419331     -66.935727      2.7971247    
     47900   278.74074     -71.532853     -66.957035      2.8385885    
samqeq SOLVER-DIAG step 48000: CG 13 iters (=13 matvecs) [warm], resid/b=9.07e-08
     48000   307.37023     -71.99829      -66.952488      2.813894     
     48100   290.20884     -71.699215     -66.935136      2.7756563    
samqeq SOLVER-DIAG step 48200: CG 13 iters (=13 matvecs) [warm], resid/b=8.54e-08
     48200   281.01283     -71.555306     -66.942188      2.7760703    
     48300   289.5563      -71.695609     -66.942241      2.7880553    
samqeq SOLVER-DIAG step 48400: CG 14 iters (=14 matvecs) [warm], resid/b=4.22e-08
     48400   290.94196     -71.710023     -66.933909      2.7799984    
     48500   309.98497     -72.016917     -66.928192      2.7505435    
samqeq SOLVER-DIAG step 48600: CG 13 iters (=13 matvecs) [warm], resid/b=7.31e-08
     48600   298.24023     -71.825009     -66.929086      2.7704198    
     48700   329.98033     -72.383218     -66.966249      2.8241812    
samqeq SOLVER-DIAG step 48800: CG 14 iters (=14 matvecs) [warm], resid/b=5.85e-08
     48800   302.84312     -71.944859     -66.973375      2.8488393    
     48900   305.59671     -71.998692     -66.982005      2.8531396    
samqeq SOLVER-DIAG step 49000: CG 13 iters (=13 matvecs) [warm], resid/b=9.99e-08
     49000   315.63654     -72.166671     -66.98517       2.855924     
     49100   293.37165     -71.788177     -66.972177      2.8336766    
samqeq SOLVER-DIAG step 49200: CG 14 iters (=14 matvecs) [warm], resid/b=6.59e-08
     49200   277.2156      -71.473227     -66.922445      2.7603086    
     49300   327.15356     -72.328602     -66.958037      2.8071768    
samqeq SOLVER-DIAG step 49400: CG 14 iters (=14 matvecs) [warm], resid/b=4.98e-08
     49400   298.39705     -71.836074     -66.937576      2.7872082    
     49500   271.91725     -71.429772     -66.965968      2.8131411    
samqeq SOLVER-DIAG step 49600: CG 13 iters (=13 matvecs) [warm], resid/b=8.85e-08
     49600   275.04003     -71.455458     -66.94039       2.7766557    
     49700   297.47124     -71.843656     -66.960357      2.8242725    
samqeq SOLVER-DIAG step 49800: CG 14 iters (=14 matvecs) [warm], resid/b=4.40e-08
     49800   303.29606     -71.939405     -66.960485      2.8418473    
     49900   288.94056     -71.689209     -66.94595       2.8150718    
samqeq SOLVER-DIAG step 50000: CG 13 iters (=13 matvecs) [warm], resid/b=9.04e-08
     50000   266.54054     -71.291549     -66.916009      2.7519404    
     50100   266.03293     -71.285052     -66.917845      2.7707877    
samqeq SOLVER-DIAG step 50200: CG 14 iters (=14 matvecs) [warm], resid/b=5.10e-08
     50200   270.72518     -71.37928      -66.935045      2.7739907    
     50300   281.77038     -71.564177     -66.938624      2.7881763    
samqeq SOLVER-DIAG step 50400: CG 13 iters (=13 matvecs) [warm], resid/b=8.12e-08
     50400   288.31339     -71.673912     -66.940948      2.7963849    
     50500   325.23065     -72.297715     -66.958716      2.8354131    
samqeq SOLVER-DIAG step 50600: CG 14 iters (=14 matvecs) [warm], resid/b=3.56e-08
     50600   324.14526     -72.293548     -66.972367      2.8577769    
     50700   318.89309     -72.219417     -66.984456      2.8599411    
samqeq SOLVER-DIAG step 50800: CG 13 iters (=13 matvecs) [warm], resid/b=4.59e-08
     50800   286.87414     -71.641174     -66.931837      2.7548994    
     50900   286.62443     -71.649273     -66.944035      2.8054003    
samqeq SOLVER-DIAG step 51000: CG 13 iters (=13 matvecs) [warm], resid/b=6.83e-08
     51000   291.92232     -71.745585     -66.953377      2.8072787    
     51100   333.99941     -72.449707     -66.96676       2.8155238    
samqeq SOLVER-DIAG step 51200: CG 14 iters (=14 matvecs) [warm], resid/b=4.79e-08
     51200   293.48724     -71.764712     -66.946814      2.8110117    
     51300   303.56277     -71.945751     -66.962453      2.8138568    
samqeq SOLVER-DIAG step 51400: CG 14 iters (=14 matvecs) [warm], resid/b=5.52e-08
     51400   297.39445     -71.867589     -66.98555       2.8364741    
     51500   328.85188     -72.366938     -66.968493      2.8251311    
samqeq SOLVER-DIAG step 51600: CG 13 iters (=13 matvecs) [warm], resid/b=6.01e-08
     51600   297.95523     -71.83723      -66.945985      2.7826237    
     51700   280.39804     -71.574521     -66.971496      2.8098661    
samqeq SOLVER-DIAG step 51800: CG 14 iters (=14 matvecs) [warm], resid/b=4.03e-08
     51800   320.77887     -72.22668      -66.960762      2.8018581    
     51900   292.61472     -71.748519     -66.944945      2.7895384    
samqeq SOLVER-DIAG step 52000: CG 14 iters (=14 matvecs) [warm], resid/b=5.58e-08
     52000   293.64129     -71.770894     -66.950467      2.793286     
     52100   308.77518     -72.038337     -66.969472      2.8360646    
samqeq SOLVER-DIAG step 52200: CG 13 iters (=13 matvecs) [warm], resid/b=7.72e-08
     52200   330.26467     -72.413243     -66.991605      2.8583253    
     52300   312.87957     -72.10487      -66.968627      2.8283105    
samqeq SOLVER-DIAG step 52400: CG 14 iters (=14 matvecs) [warm], resid/b=8.64e-08
     52400   307.59704     -72.020199     -66.970674      2.8218792    
     52500   318.10746     -72.210971     -66.988907      2.8521365    
samqeq SOLVER-DIAG step 52600: CG 13 iters (=13 matvecs) [warm], resid/b=9.02e-08
     52600   305.12718     -71.964383     -66.955403      2.8010267    
     52700   312.12151     -72.097859     -66.97406       2.8141199    
samqeq SOLVER-DIAG step 52800: CG 14 iters (=14 matvecs) [warm], resid/b=4.83e-08
     52800   268.75616     -71.368361     -66.956449      2.7995819    
     52900   305.98361     -71.988907     -66.965869      2.796266     
samqeq SOLVER-DIAG step 53000: CG 14 iters (=14 matvecs) [warm], resid/b=6.23e-08
     53000   281.15893     -71.584219     -66.968704      2.8141759    
     53100   294.65217     -71.783385     -66.946364      2.7801206    
samqeq SOLVER-DIAG step 53200: CG 14 iters (=14 matvecs) [warm], resid/b=3.61e-08
     53200   300.6288      -71.890288     -66.955154      2.7716875    
     53300   289.20936     -71.702259     -66.954588      2.7941013    
samqeq SOLVER-DIAG step 53400: CG 14 iters (=14 matvecs) [warm], resid/b=6.64e-08
     53400   321.87768     -72.25288      -66.968924      2.790206     
     53500   307.12758     -71.976533     -66.934715      2.7712192    
samqeq SOLVER-DIAG step 53600: CG 13 iters (=13 matvecs) [warm], resid/b=6.43e-08
     53600   293.7927      -71.760778     -66.937866      2.7910398    
     53700   325.32845     -72.302154     -66.96155       2.825377     
samqeq SOLVER-DIAG step 53800: CG 13 iters (=13 matvecs) [warm], resid/b=6.77e-08
     53800   316.98636     -72.175284     -66.971624      2.8161941    
     53900   316.27782     -72.147336     -66.955307      2.7836059    
samqeq SOLVER-DIAG step 54000: CG 13 iters (=13 matvecs) [warm], resid/b=9.64e-08
     54000   272.46977     -71.432798     -66.959924      2.8099775    
     54100   283.20888     -71.59806      -66.948892      2.7759752    
samqeq SOLVER-DIAG step 54200: CG 13 iters (=13 matvecs) [warm], resid/b=7.24e-08
     54200   292.96975     -71.771709     -66.962306      2.8074549    
     54300   315.97108     -72.136219     -66.949226      2.7807039    
samqeq SOLVER-DIAG step 54400: CG 13 iters (=13 matvecs) [warm], resid/b=7.78e-08
     54400   285.72004     -71.615653     -66.925262      2.7446715    
     54500   299.35822     -71.867383     -66.953107      2.763107     
samqeq SOLVER-DIAG step 54600: CG 14 iters (=14 matvecs) [warm], resid/b=4.15e-08
     54600   290.07191     -71.716628     -66.954796      2.795259     
     54700   325.70593     -72.302341     -66.95554       2.8097601    
samqeq SOLVER-DIAG step 54800: CG 14 iters (=14 matvecs) [warm], resid/b=7.12e-08
     54800   317.21572     -72.200682     -66.993257      2.8449623    
     54900   293.7278      -71.811073     -66.989226      2.8517458    
samqeq SOLVER-DIAG step 55000: CG 14 iters (=14 matvecs) [warm], resid/b=5.76e-08
     55000   284.87489     -71.639985     -66.963468      2.8218123    
     55100   310.10345     -72.049564     -66.958894      2.7996332    
samqeq SOLVER-DIAG step 55200: CG 13 iters (=13 matvecs) [warm], resid/b=7.88e-08
     55200   305.23069     -71.982988     -66.97231       2.8226849    
     55300   307.67828     -72.016651     -66.965792      2.796414     
samqeq SOLVER-DIAG step 55400: CG 13 iters (=13 matvecs) [warm], resid/b=7.43e-08
     55400   279.25257     -71.534313     -66.950092      2.7692219    
     55500   322.64411     -72.253793     -66.957255      2.7862126    
samqeq SOLVER-DIAG step 55600: CG 14 iters (=14 matvecs) [warm], resid/b=4.00e-08
     55600   292.903       -71.786346     -66.978039      2.8275703    
     55700   321.14896     -72.238859     -66.966866      2.7970816    
samqeq SOLVER-DIAG step 55800: CG 13 iters (=13 matvecs) [warm], resid/b=8.51e-08
     55800   288.05748     -71.69309      -66.964327      2.7961483    
     55900   309.43021     -72.070579     -66.990961      2.8476726    
samqeq SOLVER-DIAG step 56000: CG 14 iters (=14 matvecs) [warm], resid/b=4.30e-08
     56000   294.26618     -71.803169     -66.972484      2.8156688    
     56100   299.46381     -71.883725     -66.967715      2.7789484    
samqeq SOLVER-DIAG step 56200: CG 14 iters (=14 matvecs) [warm], resid/b=6.09e-08
     56200   301.10709     -71.90931      -66.966324      2.7748409    
     56300   296.09738     -71.811507     -66.950761      2.7540031    
samqeq SOLVER-DIAG step 56400: CG 13 iters (=13 matvecs) [warm], resid/b=7.25e-08
     56400   314.48116     -72.121771     -66.959236      2.7732221    
     56500   260.34821     -71.241088     -66.967202      2.7943116    
samqeq SOLVER-DIAG step 56600: CG 13 iters (=13 matvecs) [warm], resid/b=8.91e-08
     56600   293.71588     -71.784748     -66.963097      2.8000669    
     56700   274.74987     -71.454935     -66.944631      2.7688668    
samqeq SOLVER-DIAG step 56800: CG 13 iters (=13 matvecs) [warm], resid/b=7.48e-08
     56800   283.94795     -71.61411      -66.95281       2.7743518    
     56900   304.82685     -71.96957      -66.965521      2.7978699    
samqeq SOLVER-DIAG step 57000: CG 14 iters (=14 matvecs) [warm], resid/b=6.69e-08
     57000   293.13187     -71.754543     -66.942479      2.7752186    
     57100   309.8438      -72.068827     -66.98242       2.8454012    
samqeq SOLVER-DIAG step 57200: CG 14 iters (=14 matvecs) [warm], resid/b=4.78e-08
     57200   302.18804     -71.95482      -66.99409       2.8628482    
     57300   303.44606     -71.982341     -67.000959      2.8724573    
samqeq SOLVER-DIAG step 57400: CG 14 iters (=14 matvecs) [warm], resid/b=3.94e-08
     57400   288.63535     -71.707629     -66.96938       2.8177193    
     57500   279.50086     -71.537352     -66.949055      2.7870015    
samqeq SOLVER-DIAG step 57600: CG 13 iters (=13 matvecs) [warm], resid/b=6.31e-08
     57600   294.58676     -71.765496     -66.929548      2.7625373    
     57700   289.59923     -71.69451      -66.940438      2.7782007    
samqeq SOLVER-DIAG step 57800: CG 14 iters (=14 matvecs) [warm], resid/b=4.95e-08
     57800   304.032       -71.950036     -66.959035      2.8054789    
     57900   295.73118     -71.83774      -66.983005      2.8371968    
samqeq SOLVER-DIAG step 58000: CG 13 iters (=13 matvecs) [warm], resid/b=9.42e-08
     58000   292.29772     -71.745497     -66.947127      2.7789071    
     58100   296.54478     -71.820887     -66.952796      2.7722496    
samqeq SOLVER-DIAG step 58200: CG 13 iters (=13 matvecs) [warm], resid/b=9.46e-08
     58200   290.38134     -71.717034     -66.950123      2.7786723    
     58300   288.18376     -71.679503     -66.948667      2.7677863    
samqeq SOLVER-DIAG step 58400: CG 13 iters (=13 matvecs) [warm], resid/b=9.41e-08
     58400   319.74277     -72.212003     -66.963093      2.8295791    
     58500   283.51778     -71.611231     -66.956992      2.8176771    
samqeq SOLVER-DIAG step 58600: CG 13 iters (=13 matvecs) [warm], resid/b=9.08e-08
     58600   321.8944      -72.241861     -66.95763       2.8024355    
     58700   291.47444     -71.759397     -66.974541      2.8360988    
samqeq SOLVER-DIAG step 58800: CG 14 iters (=14 matvecs) [warm], resid/b=5.45e-08
     58800   303.3876      -71.956079     -66.975656      2.8079673    
     58900   296.85801     -71.856572     -66.983339      2.8335466    
samqeq SOLVER-DIAG step 59000: CG 14 iters (=14 matvecs) [warm], resid/b=5.35e-08
     59000   266.67539     -71.349108     -66.971355      2.8262527    
     59100   317.44407     -72.188232     -66.977058      2.8364471    
samqeq SOLVER-DIAG step 59200: CG 13 iters (=13 matvecs) [warm], resid/b=9.26e-08
     59200   316.21893     -72.170503     -66.979441      2.8344646    
     59300   285.14046     -71.653732     -66.972855      2.8133308    
samqeq SOLVER-DIAG step 59400: CG 14 iters (=14 matvecs) [warm], resid/b=4.14e-08
     59400   324.9758      -72.333415     -66.998599      2.8794259    
     59500   338.27094     -72.574054     -67.020985      2.9008601    
samqeq SOLVER-DIAG step 59600: CG 14 iters (=14 matvecs) [warm], resid/b=6.48e-08
     59600   291.53974     -71.752847     -66.96692       2.8236162    
     59700   276.80323     -71.502581     -66.958568      2.7993505    
samqeq SOLVER-DIAG step 59800: CG 14 iters (=14 matvecs) [warm], resid/b=5.77e-08
     59800   280.24365     -71.556864     -66.956373      2.7837935    
     59900   280.53635     -71.547655     -66.94236       2.7837897    
samqeq SOLVER-DIAG step 60000: CG 13 iters (=13 matvecs) [warm], resid/b=6.53e-08
     60000   288.27174     -71.677941     -66.945661      2.7569101    
     60100   301.27182     -71.922617     -66.976927      2.8514637    
samqeq SOLVER-DIAG step 60200: CG 13 iters (=13 matvecs) [warm], resid/b=9.68e-08
     60200   320.42231     -72.251476     -66.991411      2.8552947    
     60300   303.46963     -71.923744     -66.941975      2.768311     
samqeq SOLVER-DIAG step 60400: CG 13 iters (=13 matvecs) [warm], resid/b=5.93e-08
     60400   279.00942     -71.531362     -66.951133      2.7984554    
     60500   306.92021     -72.002035     -66.963621      2.7953397    
samqeq SOLVER-DIAG step 60600: CG 14 iters (=14 matvecs) [warm], resid/b=4.56e-08
     60600   292.09669     -71.738036     -66.942965      2.7827777    
     60700   306.26724     -71.978557     -66.950862      2.7808457    
samqeq SOLVER-DIAG step 60800: CG 14 iters (=14 matvecs) [warm], resid/b=5.01e-08
     60800   293.34682     -71.782138     -66.966546      2.8090604    
     60900   310.87632     -72.065964     -66.962606      2.7932921    
samqeq SOLVER-DIAG step 61000: CG 13 iters (=13 matvecs) [warm], resid/b=8.03e-08
     61000   301.4951      -71.932844     -66.983489      2.8458683    
     61100   307.5256      -71.99046      -66.942108      2.7965705    
samqeq SOLVER-DIAG step 61200: CG 14 iters (=14 matvecs) [warm], resid/b=7.49e-08
     61200   285.76207     -71.663563     -66.972482      2.8275535    
     61300   307.88799     -72.031789     -66.977488      2.8451199    
samqeq SOLVER-DIAG step 61400: CG 13 iters (=13 matvecs) [warm], resid/b=9.01e-08
     61400   297.62458     -71.873406     -66.98759       2.8434335    
     61500   293.87317     -71.787374     -66.963141      2.7938379    
samqeq SOLVER-DIAG step 61600: CG 14 iters (=14 matvecs) [warm], resid/b=4.91e-08
     61600   313.31297     -72.105029     -66.961671      2.7844379    
     61700   302.31887     -71.927202     -66.964323      2.8212696    
samqeq SOLVER-DIAG step 61800: CG 14 iters (=14 matvecs) [warm], resid/b=8.24e-08
     61800   322.94738     -72.265229     -66.963712      2.8281064    
     61900   308.57847     -72.01263      -66.946994      2.7849933    
samqeq SOLVER-DIAG step 62000: CG 13 iters (=13 matvecs) [warm], resid/b=8.60e-08
     62000   278.1551      -71.510089     -66.943884      2.7861341    
     62100   286.44786     -71.667449     -66.96511       2.8161135    
samqeq SOLVER-DIAG step 62200: CG 13 iters (=13 matvecs) [warm], resid/b=8.33e-08
     62200   291.77751     -71.748153     -66.958322      2.811793     
     62300   301.32936     -71.896644     -66.950009      2.7833545    
samqeq SOLVER-DIAG step 62400: CG 14 iters (=14 matvecs) [warm], resid/b=4.71e-08
     62400   313.72861     -72.085535     -66.935354      2.7755613    
     62500   303.06832     -71.90412      -66.928939      2.7688955    
samqeq SOLVER-DIAG step 62600: CG 13 iters (=13 matvecs) [warm], resid/b=9.48e-08
     62600   265.59504     -71.298518     -66.9385        2.7879262    
     62700   308.1442      -71.972564     -66.914057      2.7446692    
samqeq SOLVER-DIAG step 62800: CG 13 iters (=13 matvecs) [warm], resid/b=9.70e-08
     62800   275.56216     -71.446635     -66.922996      2.7764841    
     62900   269.20709     -71.330127     -66.910814      2.7240007    
samqeq SOLVER-DIAG step 63000: CG 13 iters (=13 matvecs) [warm], resid/b=6.07e-08
     63000   285.8752      -71.605099     -66.912161      2.7214733    
     63100   268.4589      -71.349584     -66.942553      2.7812776    
samqeq SOLVER-DIAG step 63200: CG 13 iters (=13 matvecs) [warm], resid/b=6.81e-08
     63200   269.64951     -71.408861     -66.982284      2.8263217    
     63300   294.61983     -71.775822     -66.939332      2.7708595    
samqeq SOLVER-DIAG step 63400: CG 14 iters (=14 matvecs) [warm], resid/b=5.73e-08
     63400   340.79602     -72.552728     -66.958208      2.8396575    
     63500   306.22377     -71.997571     -66.970589      2.8420858    
samqeq SOLVER-DIAG step 63600: CG 14 iters (=14 matvecs) [warm], resid/b=6.32e-08
     63600   335.57379     -72.498429     -66.989637      2.8504339    
     63700   308.66749     -72.042903     -66.975805      2.8201921    
samqeq SOLVER-DIAG step 63800: CG 14 iters (=14 matvecs) [warm], resid/b=6.94e-08
     63800   309.02217     -72.038067     -66.965147      2.8182919    
     63900   304.8824      -71.946276     -66.941315      2.7692971    
samqeq SOLVER-DIAG step 64000: CG 14 iters (=14 matvecs) [warm], resid/b=4.81e-08
     64000   267.30212     -71.315728     -66.927686      2.7648297    
     64100   296.32179     -71.807519     -66.943089      2.7721029    
samqeq SOLVER-DIAG step 64200: CG 13 iters (=13 matvecs) [warm], resid/b=8.55e-08
     64200   316.96777     -72.177075     -66.97372       2.8242551    
     64300   297.84278     -71.823152     -66.933754      2.7800992    
samqeq SOLVER-DIAG step 64400: CG 14 iters (=14 matvecs) [warm], resid/b=5.73e-08
     64400   326.88053     -72.334939     -66.968855      2.8293965    
     64500   280.6084      -71.567826     -66.961348      2.8081305    
samqeq SOLVER-DIAG step 64600: CG 14 iters (=14 matvecs) [warm], resid/b=4.82e-08
     64600   294.75009     -71.793736     -66.955107      2.804421     
     64700   265.79392     -71.309107     -66.945823      2.7991011    
samqeq SOLVER-DIAG step 64800: CG 13 iters (=13 matvecs) [warm], resid/b=9.85e-08
     64800   317.04473     -72.178061     -66.973443      2.8265454    
     64900   310.66403     -72.064362     -66.964489      2.8244728    
samqeq SOLVER-DIAG step 65000: CG 13 iters (=13 matvecs) [warm], resid/b=9.64e-08
     65000   305.53668     -72.007619     -66.991917      2.8437027    
     65100   323.8304      -72.284096     -66.968084      2.8130606    
samqeq SOLVER-DIAG step 65200: CG 13 iters (=13 matvecs) [warm], resid/b=9.95e-08
     65200   293.74315     -71.797325     -66.975226      2.8205736    
     65300   313.77483     -72.116758     -66.965818      2.8212776    
samqeq SOLVER-DIAG step 65400: CG 13 iters (=13 matvecs) [warm], resid/b=9.20e-08
     65400   324.11528     -72.277912     -66.957223      2.8093227    
     65500   350.31602     -72.713345     -66.962544      2.834063     
samqeq SOLVER-DIAG step 65600: CG 13 iters (=13 matvecs) [warm], resid/b=9.24e-08
     65600   307.21241     -72.01328      -66.970069      2.8422031    
     65700   304.61044     -71.975043     -66.974546      2.8400616    
samqeq SOLVER-DIAG step 65800: CG 13 iters (=13 matvecs) [warm], resid/b=9.06e-08
     65800   308.49587     -72.033231     -66.968951      2.8067963    
     65900   297.18316     -71.858111     -66.979541      2.825642     
samqeq SOLVER-DIAG step 66000: CG 13 iters (=13 matvecs) [warm], resid/b=7.47e-08
     66000   308.03567     -72.023611     -66.966885      2.821262     
     66100   324.37458     -72.315379     -66.990434      2.8800014    
samqeq SOLVER-DIAG step 66200: CG 13 iters (=13 matvecs) [warm], resid/b=9.22e-08
     66200   276.6896      -71.463904     -66.921757      2.7691752    
     66300   322.30303     -72.233505     -66.942566      2.7922377    
samqeq SOLVER-DIAG step 66400: CG 13 iters (=13 matvecs) [warm], resid/b=5.63e-08
     66400   277.76516     -71.510504     -66.950701      2.7973036    
     66500   299.4537      -71.869509     -66.953665      2.8109329    
samqeq SOLVER-DIAG step 66600: CG 14 iters (=14 matvecs) [warm], resid/b=5.58e-08
     66600   279.12639     -71.542341     -66.960191      2.824998     
     66700   289.78394     -71.706709     -66.949605      2.8110715    
samqeq SOLVER-DIAG step 66800: CG 14 iters (=14 matvecs) [warm], resid/b=4.64e-08
     66800   312.20162     -72.084692     -66.959578      2.8377197    
     66900   282.82345     -71.61115      -66.968309      2.8296051    
samqeq SOLVER-DIAG step 67000: CG 14 iters (=14 matvecs) [warm], resid/b=4.41e-08
     67000   302.12122     -71.912079     -66.952445      2.7947927    
     67100   302.26022     -71.915779     -66.953864      2.803093     
samqeq SOLVER-DIAG step 67200: CG 14 iters (=14 matvecs) [warm], resid/b=7.65e-08
     67200   320.68394     -72.231095     -66.966735      2.8389437    
     67300   291.62656     -71.78895      -67.001597      2.8544102    
samqeq SOLVER-DIAG step 67400: CG 14 iters (=14 matvecs) [warm], resid/b=4.42e-08
     67400   338.00651     -72.536461     -66.987733      2.8644546    
     67500   303.05973     -71.954132     -66.979091      2.8418473    
samqeq SOLVER-DIAG step 67600: CG 13 iters (=13 matvecs) [warm], resid/b=8.15e-08
     67600   311.48032     -72.078971     -66.965698      2.8121611    
     67700   312.8977      -72.10381      -66.96727       2.8190094    
samqeq SOLVER-DIAG step 67800: CG 14 iters (=14 matvecs) [warm], resid/b=4.45e-08
     67800   304.09064     -71.93373      -66.941766      2.769951     
     67900   312.82295     -72.076689     -66.941375      2.7657941    
samqeq SOLVER-DIAG step 68000: CG 13 iters (=13 matvecs) [warm], resid/b=8.11e-08
     68000   314.02652     -72.120538     -66.965467      2.7859696    
     68100   316.98348     -72.1756       -66.971987      2.8274914    
samqeq SOLVER-DIAG step 68200: CG 14 iters (=14 matvecs) [warm], resid/b=5.18e-08
     68200   304.73247     -71.957417     -66.954917      2.7856815    
     68300   290.97701     -71.719179     -66.942489      2.7779399    
samqeq SOLVER-DIAG step 68400: CG 13 iters (=13 matvecs) [warm], resid/b=7.43e-08
     68400   286.44046     -71.633509     -66.931292      2.7355754    
     68500   303.06588     -71.934934     -66.959793      2.7884635    
samqeq SOLVER-DIAG step 68600: CG 13 iters (=13 matvecs) [warm], resid/b=9.72e-08
     68600   312.47566     -72.121111     -66.991498      2.8370477    
     68700   264.89407     -71.329367     -66.980856      2.8426086    
samqeq SOLVER-DIAG step 68800: CG 14 iters (=14 matvecs) [warm], resid/b=4.87e-08
     68800   314.12378     -72.160713     -67.004045      2.8594447    
     68900   281.95487     -71.597901     -66.969319      2.8054794    
samqeq SOLVER-DIAG step 69000: CG 14 iters (=14 matvecs) [warm], resid/b=4.19e-08
     69000   322.72126     -72.267334     -66.969529      2.7914349    
     69100   322.1116      -72.256283     -66.968486      2.8094657    
samqeq SOLVER-DIAG step 69200: CG 14 iters (=14 matvecs) [warm], resid/b=5.87e-08
     69200   303.0389      -71.947464     -66.972766      2.8325778    
     69300   297.86782     -71.860708     -66.970898      2.8337906    
samqeq SOLVER-DIAG step 69400: CG 14 iters (=14 matvecs) [warm], resid/b=4.66e-08
     69400   288.46948     -71.717573     -66.982047      2.8390156    
     69500   280.79558     -71.580002     -66.970451      2.8312826    
samqeq SOLVER-DIAG step 69600: CG 14 iters (=14 matvecs) [warm], resid/b=4.18e-08
     69600   292.79213     -71.753531     -66.947044      2.7786293    
     69700   275.22753     -71.453113     -66.934967      2.7488032    
samqeq SOLVER-DIAG step 69800: CG 13 iters (=13 matvecs) [warm], resid/b=8.66e-08
     69800   302.21507     -71.921668     -66.960494      2.8213512    
     69900   321.23845     -72.251312     -66.97785       2.8326867    
samqeq SOLVER-DIAG step 70000: CG 14 iters (=14 matvecs) [warm], resid/b=6.19e-08
     70000   350.55827     -72.710973     -66.956195      2.8141527    
     70100   275.75745     -71.467209     -66.940364      2.7783459    
samqeq SOLVER-DIAG step 70200: CG 14 iters (=14 matvecs) [warm], resid/b=6.17e-08
     70200   340.67066     -72.566803     -66.97434       2.8396944    
     70300   302.70319     -71.925057     -66.955869      2.7993282    
samqeq SOLVER-DIAG step 70400: CG 14 iters (=14 matvecs) [warm], resid/b=4.93e-08
     70400   314.3395      -72.140421     -66.980211      2.8380847    
     70500   357.29633     -72.835094     -66.969704      2.8150531    
samqeq SOLVER-DIAG step 70600: CG 13 iters (=13 matvecs) [warm], resid/b=6.39e-08
     70600   274.17946     -71.447442     -66.946501      2.7552064    
     70700   328.81702     -72.357601     -66.959728      2.8098966    
samqeq SOLVER-DIAG step 70800: CG 14 iters (=14 matvecs) [warm], resid/b=5.56e-08
     70800   304.17839     -71.93685      -66.943446      2.7984035    
     70900   307.19102     -72.007899     -66.96504       2.8121622    
samqeq SOLVER-DIAG step 71000: CG 13 iters (=13 matvecs) [warm], resid/b=8.96e-08
     71000   306.49928     -72.005339     -66.973835      2.833775     
     71100   331.90997     -72.410646     -66.961999      2.8243871    
samqeq SOLVER-DIAG step 71200: CG 14 iters (=14 matvecs) [warm], resid/b=5.75e-08
     71200   299.70733     -71.915761     -66.995754      2.8520974    
     71300   326.31032     -72.330128     -66.973405      2.837629     
samqeq SOLVER-DIAG step 71400: CG 14 iters (=14 matvecs) [warm], resid/b=6.14e-08
     71400   304.49642     -72.011678     -67.013053      2.8715426    
     71500   287.99035     -71.693519     -66.965859      2.8019574    
samqeq SOLVER-DIAG step 71600: CG 13 iters (=13 matvecs) [warm], resid/b=7.72e-08
     71600   271.73283     -71.406794     -66.946018      2.7730744    
     71700   307.18458     -72.004449     -66.961696      2.802816     
samqeq SOLVER-DIAG step 71800: CG 13 iters (=13 matvecs) [warm], resid/b=7.61e-08
     71800   311.0612      -72.062767     -66.956374      2.807795     
     71900   329.42128     -72.404013     -66.996221      2.8678518    
samqeq SOLVER-DIAG step 72000: CG 13 iters (=13 matvecs) [warm], resid/b=8.49e-08
     72000   274.48741     -71.486116     -66.98012       2.8327956    
     72100   313.5953      -72.116634     -66.968641      2.8141653    
samqeq SOLVER-DIAG step 72200: CG 14 iters (=14 matvecs) [warm], resid/b=6.06e-08
     72200   322.89769     -72.276094     -66.975393      2.8426671    
     72300   308.57486     -72.058194     -66.992617      2.861557     
samqeq SOLVER-DIAG step 72400: CG 14 iters (=14 matvecs) [warm], resid/b=6.10e-08
     72400   301.11442     -71.907675     -66.964569      2.8046599    
     72500   286.00194     -71.670385     -66.975366      2.8507325    
samqeq SOLVER-DIAG step 72600: CG 14 iters (=14 matvecs) [warm], resid/b=4.97e-08
     72600   317.51773     -72.183757     -66.971374      2.8259913    
     72700   298.89046     -71.881317     -66.97472       2.8433205    
samqeq SOLVER-DIAG step 72800: CG 14 iters (=14 matvecs) [warm], resid/b=6.14e-08
     72800   319.00502     -72.228318     -66.991519      2.8718136    
     72900   328.8904      -72.396253     -66.997176      2.8667147    
samqeq SOLVER-DIAG step 73000: CG 14 iters (=14 matvecs) [warm], resid/b=5.66e-08
     73000   330.79624     -72.438211     -67.007847      2.8866811    
     73100   322.42291     -72.279686     -66.986779      2.8693517    
samqeq SOLVER-DIAG step 73200: CG 13 iters (=13 matvecs) [warm], resid/b=5.87e-08
     73200   278.82478     -71.514558     -66.93736       2.7713022    
     73300   271.84269     -71.415062     -66.952482      2.790564     
samqeq SOLVER-DIAG step 73400: CG 13 iters (=13 matvecs) [warm], resid/b=8.27e-08
     73400   307.68296     -71.991914     -66.940979      2.7865936    
     73500   297.36715     -71.848384     -66.966794      2.8013077    
samqeq SOLVER-DIAG step 73600: CG 14 iters (=14 matvecs) [warm], resid/b=7.26e-08
     73600   292.21025     -71.764264     -66.967329      2.8029237    
     73700   275.94489     -71.500938     -66.971016      2.8100327    
samqeq SOLVER-DIAG step 73800: CG 14 iters (=14 matvecs) [warm], resid/b=7.31e-08
     73800   298.30242     -71.891225     -66.994281      2.844588     
     73900   304.34062     -71.954258     -66.958191      2.8066966    
samqeq SOLVER-DIAG step 74000: CG 14 iters (=14 matvecs) [warm], resid/b=4.92e-08
     74000   306.25396     -71.98506      -66.957583      2.7818974    
     74100   322.66053     -72.288113     -66.991306      2.8274073    
samqeq SOLVER-DIAG step 74200: CG 13 iters (=13 matvecs) [warm], resid/b=8.70e-08
     74200   295.51916     -71.845039     -66.993785      2.8512363    
     74300   309.76683     -72.089242     -67.004098      2.8511083    
samqeq SOLVER-DIAG step 74400: CG 14 iters (=14 matvecs) [warm], resid/b=7.96e-08
     74400   344.2329      -72.646699     -66.995758      2.8418161    
     74500   281.54956     -71.601188     -66.97926       2.8202153    
samqeq SOLVER-DIAG step 74600: CG 13 iters (=13 matvecs) [warm], resid/b=6.53e-08
     74600   313.39748     -72.108265     -66.963519      2.8198128    
     74700   307.2507      -72.009287     -66.965448      2.8179307    
samqeq SOLVER-DIAG step 74800: CG 14 iters (=14 matvecs) [warm], resid/b=4.70e-08
     74800   277.04221     -71.489106     -66.94117       2.778365     
     74900   298.99207     -71.872821     -66.964556      2.8045746    
samqeq SOLVER-DIAG step 75000: CG 14 iters (=14 matvecs) [warm], resid/b=3.43e-08
     75000   295.87951     -71.84691      -66.989741      2.8267808    
     75100   300.36267     -71.920698     -66.989933      2.8455485    
samqeq SOLVER-DIAG step 75200: CG 14 iters (=14 matvecs) [warm], resid/b=5.82e-08
     75200   292.46107     -71.775596     -66.974544      2.8211309    
     75300   302.40044     -71.917259     -66.953042      2.7895541    
samqeq SOLVER-DIAG step 75400: CG 14 iters (=14 matvecs) [warm], resid/b=4.03e-08
     75400   289.31799     -71.714838     -66.965383      2.8082334    
     75500   258.36995     -71.182898     -66.941487      2.7667621    
samqeq SOLVER-DIAG step 75600: CG 13 iters (=13 matvecs) [warm], resid/b=5.85e-08
     75600   267.21105     -71.314863     -66.928316      2.7463846    
     75700   324.07551     -72.291508     -66.971472      2.808106     
samqeq SOLVER-DIAG step 75800: CG 13 iters (=13 matvecs) [warm], resid/b=8.83e-08
     75800   298.35407     -71.852888     -66.955096      2.7989288    
     75900   299.06254     -71.884125     -66.974703      2.8092653    
samqeq SOLVER-DIAG step 76000: CG 13 iters (=13 matvecs) [warm], resid/b=9.71e-08
     76000   295.99349     -71.827888     -66.968848      2.7979672    
     76100   278.84475     -71.542785     -66.965259      2.7877557    
samqeq SOLVER-DIAG step 76200: CG 13 iters (=13 matvecs) [warm], resid/b=9.95e-08
     76200   296.46892     -71.836309     -66.969464      2.812339     
     76300   304.26102     -71.963646     -66.968886      2.81563      
samqeq SOLVER-DIAG step 76400: CG 14 iters (=14 matvecs) [warm], resid/b=4.94e-08
     76400   302.67041     -71.909894     -66.941245      2.7669943    
     76500   273.30278     -71.433072     -66.946524      2.7809791    
samqeq SOLVER-DIAG step 76600: CG 14 iters (=14 matvecs) [warm], resid/b=5.35e-08
     76600   300.6075      -71.87603      -66.941246      2.7961717    
     76700   263.22679     -71.262979     -66.941838      2.7614078    
samqeq SOLVER-DIAG step 76800: CG 14 iters (=14 matvecs) [warm], resid/b=4.82e-08
     76800   305.1171      -71.96914      -66.960326      2.7817302    
     76900   302.44983     -71.922116     -66.957088      2.7861292    
samqeq SOLVER-DIAG step 77000: CG 14 iters (=14 matvecs) [warm], resid/b=3.99e-08
     77000   292.44352     -71.759532     -66.958768      2.8045563    
     77100   338.82149     -72.556471     -66.994365      2.8616988    
samqeq SOLVER-DIAG step 77200: CG 13 iters (=13 matvecs) [warm], resid/b=7.82e-08
     77200   274.07225     -71.445303     -66.946122      2.7956323    
     77300   283.30739     -71.602607     -66.951822      2.8141091    
samqeq SOLVER-DIAG step 77400: CG 14 iters (=14 matvecs) [warm], resid/b=6.42e-08
     77400   339.21432     -72.551412     -66.982856      2.8248828    
     77500   286.95716     -71.66382      -66.95312       2.785524     
samqeq SOLVER-DIAG step 77600: CG 14 iters (=14 matvecs) [warm], resid/b=4.93e-08
     77600   323.0119      -72.288206     -66.98563       2.8592714    
     77700   323.88141     -72.290247     -66.973398      2.8220493    
samqeq SOLVER-DIAG step 77800: CG 13 iters (=13 matvecs) [warm], resid/b=8.89e-08
     77800   309.57772     -72.018574     -66.936534      2.7655643    
     77900   307.85525     -72.006292     -66.952529      2.794245     
samqeq SOLVER-DIAG step 78000: CG 14 iters (=14 matvecs) [warm], resid/b=6.30e-08
     78000   327.61811     -72.342657     -66.964466      2.8165646    
     78100   281.53297     -71.586111     -66.964455      2.7849089    
samqeq SOLVER-DIAG step 78200: CG 13 iters (=13 matvecs) [warm], resid/b=7.64e-08
     78200   247.05056     -70.985658     -66.930066      2.7392324    
     78300   282.33904     -71.586189     -66.9513        2.8027691    
samqeq SOLVER-DIAG step 78400: CG 13 iters (=13 matvecs) [warm], resid/b=7.29e-08
     78400   297.68429     -71.844376     -66.957579      2.8186767    
     78500   315.34265     -72.156354     -66.979677      2.8423832    
samqeq SOLVER-DIAG step 78600: CG 14 iters (=14 matvecs) [warm], resid/b=7.83e-08
     78600   322.21201     -72.29844      -67.008995      2.8715509    
     78700   293.59685     -71.815782     -66.996085      2.8765502    
samqeq SOLVER-DIAG step 78800: CG 14 iters (=14 matvecs) [warm], resid/b=5.96e-08
     78800   325.74089     -72.297558     -66.950183      2.8050996    
     78900   316.53547     -72.167151     -66.970893      2.8326718    
samqeq SOLVER-DIAG step 79000: CG 14 iters (=14 matvecs) [warm], resid/b=6.88e-08
     79000   305.23925     -71.976921     -66.966102      2.8184228    
     79100   282.11518     -71.557566     -66.926353      2.7528265    
samqeq SOLVER-DIAG step 79200: CG 14 iters (=14 matvecs) [warm], resid/b=5.41e-08
     79200   269.54844     -71.356793     -66.931876      2.7597238    
     79300   313.76611     -72.098404     -66.947608      2.7862702    
samqeq SOLVER-DIAG step 79400: CG 14 iters (=14 matvecs) [warm], resid/b=4.18e-08
     79400   314.80964     -72.133703     -66.965776      2.8177535    
     79500   310.81719     -72.04801      -66.945623      2.7991015    
samqeq SOLVER-DIAG step 79600: CG 14 iters (=14 matvecs) [warm], resid/b=4.10e-08
     79600   263.12098     -71.274646     -66.955242      2.8070017    
     79700   290.73282     -71.739522     -66.966841      2.8067944    
samqeq SOLVER-DIAG step 79800: CG 13 iters (=13 matvecs) [warm], resid/b=7.89e-08
     79800   326.17216     -72.310228     -66.955773      2.8097871    
     79900   291.14043     -71.75863      -66.979258      2.8554616    
samqeq SOLVER-DIAG step 80000: CG 14 iters (=14 matvecs) [warm], resid/b=7.38e-08
     80000   306.12546     -71.985904     -66.960537      2.8370368    
     80100   317.81061     -72.202875     -66.985684      2.8630229    
samqeq SOLVER-DIAG step 80200: CG 14 iters (=14 matvecs) [warm], resid/b=6.54e-08
     80200   284.26699     -71.61471      -66.948172      2.7981546    
     80300   296.83915     -71.814386     -66.941464      2.8104239    
samqeq SOLVER-DIAG step 80400: CG 13 iters (=13 matvecs) [warm], resid/b=8.30e-08
     80400   307.38309     -71.98378      -66.937767      2.7837918    
     80500   313.94474     -72.120837     -66.967108      2.8352875    
samqeq SOLVER-DIAG step 80600: CG 14 iters (=14 matvecs) [warm], resid/b=5.67e-08
     80600   295.75292     -71.798251     -66.943159      2.7948465    
     80700   287.7287      -71.636737     -66.913371      2.7636708    
samqeq SOLVER-DIAG step 80800: CG 13 iters (=13 matvecs) [warm], resid/b=6.92e-08
     80800   269.03051     -71.342321     -66.925906      2.7669717    
     80900   321.06646     -72.227283     -66.956644      2.8262447    
samqeq SOLVER-DIAG step 81000: CG 14 iters (=14 matvecs) [warm], resid/b=5.69e-08
     81000   304.3968      -71.948521     -66.951532      2.8037707    
     81100   297.64112     -71.822032     -66.935944      2.7866865    
samqeq SOLVER-DIAG step 81200: CG 14 iters (=14 matvecs) [warm], resid/b=4.24e-08
     81200   328.73281     -72.388056     -66.991566      2.8668667    
     81300   334.98263     -72.474583     -66.975495      2.8388046    
samqeq SOLVER-DIAG step 81400: CG 14 iters (=14 matvecs) [warm], resid/b=4.13e-08
     81400   308.55798     -72.012424     -66.947125      2.7901348    
     81500   292.06071     -71.766144     -66.971664      2.8234941    
samqeq SOLVER-DIAG step 81600: CG 14 iters (=14 matvecs) [warm], resid/b=5.37e-08
     81600   319.11188     -72.226574     -66.988021      2.8837775    
     81700   302.71393     -71.947045     -66.977681      2.8465361    
samqeq SOLVER-DIAG step 81800: CG 13 iters (=13 matvecs) [warm], resid/b=8.28e-08
     81800   293.71208     -71.777984     -66.956395      2.8235183    
     81900   305.35463     -71.989909     -66.977196      2.8383211    
samqeq SOLVER-DIAG step 82000: CG 14 iters (=14 matvecs) [warm], resid/b=4.73e-08
     82000   287.855       -71.689012     -66.963573      2.8293877    
     82100   286.13456     -71.626669     -66.929473      2.7910641    
samqeq SOLVER-DIAG step 82200: CG 15 iters (=15 matvecs) [warm], resid/b=2.84e-08
     82200   334.03742     -72.452275     -66.968704      2.8536409    
     82300   287.40777     -71.688039     -66.969942      2.8577905    
samqeq SOLVER-DIAG step 82400: CG 14 iters (=14 matvecs) [warm], resid/b=5.57e-08
     82400   273.15517     -71.419866     -66.935741      2.7971487    
     82500   283.87478     -71.581842     -66.921742      2.7693927    
samqeq SOLVER-DIAG step 82600: CG 13 iters (=13 matvecs) [warm], resid/b=8.85e-08
     82600   292.97552     -71.757944     -66.948447      2.8170413    
     82700   262.97163     -71.25292      -66.935967      2.789397     
samqeq SOLVER-DIAG step 82800: CG 13 iters (=13 matvecs) [warm], resid/b=9.58e-08
     82800   296.26939     -71.803723     -66.940153      2.7918433    
     82900   305.50954     -71.978283     -66.963026      2.8201535    
samqeq SOLVER-DIAG step 83000: CG 14 iters (=14 matvecs) [warm], resid/b=4.91e-08
     83000   312.28482     -72.103852     -66.977372      2.8595867    
     83100   261.56141     -71.222996     -66.929194      2.7762576    
samqeq SOLVER-DIAG step 83200: CG 13 iters (=13 matvecs) [warm], resid/b=9.19e-08
     83200   293.84394     -71.782049     -66.958296      2.7928292    
     83300   291.12024     -71.724899     -66.945858      2.8175546    
samqeq SOLVER-DIAG step 83400: CG 14 iters (=14 matvecs) [warm], resid/b=5.47e-08
     83400   342.07524     -72.612178     -66.996658      2.8652544    
     83500   301.10544     -71.929679     -66.986721      2.8868095    
samqeq SOLVER-DIAG step 83600: CG 14 iters (=14 matvecs) [warm], resid/b=8.03e-08
     83600   294.30339     -71.77302      -66.941724      2.8219839    
     83700   290.24434     -71.706407     -66.941745      2.7896726    
samqeq SOLVER-DIAG step 83800: CG 14 iters (=14 matvecs) [warm], resid/b=6.13e-08
     83800   277.22664     -71.509646     -66.958683      2.8114152    
     83900   290.18856     -71.702574     -66.938828      2.7858317    
samqeq SOLVER-DIAG step 84000: CG 13 iters (=13 matvecs) [warm], resid/b=6.93e-08
     84000   290.11022     -71.698667     -66.936207      2.777521     
     84100   297.98785     -71.833174     -66.941393      2.786621     
samqeq SOLVER-DIAG step 84200: CG 13 iters (=13 matvecs) [warm], resid/b=8.78e-08
     84200   319.53738     -72.174977     -66.929439      2.7914993    
     84300   286.32955     -71.656032     -66.955635      2.8182664    
samqeq SOLVER-DIAG step 84400: CG 13 iters (=13 matvecs) [warm], resid/b=9.38e-08
     84400   280.08888     -71.559421     -66.961471      2.8221435    
     84500   296.81807     -71.79887      -66.926293      2.7638492    
samqeq SOLVER-DIAG step 84600: CG 13 iters (=13 matvecs) [warm], resid/b=9.66e-08
     84600   298.95694     -71.859246     -66.951557      2.8114997    
     84700   284.34203     -71.596993     -66.929223      2.7756114    
samqeq SOLVER-DIAG step 84800: CG 13 iters (=13 matvecs) [warm], resid/b=9.17e-08
     84800   288.80132     -71.673255     -66.932282      2.7598419    
     84900   307.15838     -71.973802     -66.931479      2.7647597    
samqeq SOLVER-DIAG step 85000: CG 14 iters (=14 matvecs) [warm], resid/b=4.20e-08
     85000   272.73978     -71.402421     -66.925115      2.7769752    
     85100   318.89605     -72.184978     -66.949968      2.8170909    
samqeq SOLVER-DIAG step 85200: CG 13 iters (=13 matvecs) [warm], resid/b=7.48e-08
     85200   294.76385     -71.784159     -66.945304      2.8030482    
     85300   270.30047     -71.385751     -66.948488      2.7988662    
samqeq SOLVER-DIAG step 85400: CG 14 iters (=14 matvecs) [warm], resid/b=4.67e-08
     85400   294.4087      -71.803362     -66.970337      2.8432341    
     85500   281.11159     -71.577053     -66.962314      2.8119891    
samqeq SOLVER-DIAG step 85600: CG 14 iters (=14 matvecs) [warm], resid/b=5.05e-08
     85600   289.15247     -71.687377     -66.940639      2.7997653    
     85700   302.9022      -71.919742     -66.947288      2.7974956    
samqeq SOLVER-DIAG step 85800: CG 13 iters (=13 matvecs) [warm], resid/b=9.91e-08
     85800   310.31388     -72.019493     -66.925368      2.7760253    
     85900   293.88156     -71.772203     -66.947832      2.8170169    
samqeq SOLVER-DIAG step 86000: CG 14 iters (=14 matvecs) [warm], resid/b=7.03e-08
     86000   318.90953     -72.192296     -66.957065      2.8281426    
     86100   326.30788     -72.30417      -66.947487      2.8089728    
samqeq SOLVER-DIAG step 86200: CG 14 iters (=14 matvecs) [warm], resid/b=7.25e-08
     86200   300.3428      -71.897993     -66.967554      2.8427859    
     86300   315.37101     -72.129634     -66.952492      2.8063329    
samqeq SOLVER-DIAG step 86400: CG 14 iters (=14 matvecs) [warm], resid/b=7.98e-08
     86400   312.55346     -72.087357     -66.956467      2.838489     
     86500   273.83376     -71.41903      -66.923764      2.7780253    
samqeq SOLVER-DIAG step 86600: CG 13 iters (=13 matvecs) [warm], resid/b=8.20e-08
     86600   301.69469     -71.882727     -66.930096      2.8028378    
     86700   294.28465     -71.761131     -66.930143      2.7885878    
samqeq SOLVER-DIAG step 86800: CG 13 iters (=13 matvecs) [warm], resid/b=6.36e-08
     86800   288.36861     -71.676094     -66.942224      2.7892907    
     86900   289.46684     -71.669047     -66.917148      2.7776779    
samqeq SOLVER-DIAG step 87000: CG 14 iters (=14 matvecs) [warm], resid/b=4.94e-08
     87000   313.08378     -72.095407     -66.955811      2.814081     
     87100   339.28195     -72.515746     -66.946081      2.81645      
samqeq SOLVER-DIAG step 87200: CG 14 iters (=14 matvecs) [warm], resid/b=4.43e-08
     87200   289.3682      -71.67853      -66.92825       2.7599385    
     87300   275.27248     -71.431651     -66.912768      2.7424722    
samqeq SOLVER-DIAG step 87400: CG 14 iters (=14 matvecs) [warm], resid/b=4.93e-08
     87400   284.96243     -71.617846     -66.939892      2.7902432    
     87500   255.90183     -71.12759      -66.926696      2.7652343    
samqeq SOLVER-DIAG step 87600: CG 13 iters (=13 matvecs) [warm], resid/b=7.44e-08
     87600   268.44671     -71.321804     -66.914972      2.7302969    
     87700   282.3773      -71.546783     -66.911267      2.7497585    
samqeq SOLVER-DIAG step 87800: CG 14 iters (=14 matvecs) [warm], resid/b=3.98e-08
     87800   314.57999     -72.091836     -66.927679      2.7922399    
     87900   322.05064     -72.242507     -66.955711      2.799625     
samqeq SOLVER-DIAG step 88000: CG 13 iters (=13 matvecs) [warm], resid/b=7.67e-08
     88000   297.82605     -71.816062     -66.926938      2.7654039    
     88100   312.54169     -72.058907     -66.92821       2.7765425    
samqeq SOLVER-DIAG step 88200: CG 13 iters (=13 matvecs) [warm], resid/b=7.26e-08
     88200   287.66606     -71.624842     -66.902505      2.7416332    
     88300   299.55152     -71.857149     -66.9397        2.7698793    
samqeq SOLVER-DIAG step 88400: CG 13 iters (=13 matvecs) [warm], resid/b=7.57e-08
     88400   268.66222     -71.309516     -66.899146      2.7301693    
     88500   345.51949     -72.624346     -66.952285      2.823614     
samqeq SOLVER-DIAG step 88600: CG 14 iters (=14 matvecs) [warm], resid/b=5.94e-08
     88600   319.24905     -72.195992     -66.955187      2.8237927    
     88700   301.37872     -71.909365     -66.961921      2.8541056    
samqeq SOLVER-DIAG step 88800: CG 13 iters (=13 matvecs) [warm], resid/b=9.25e-08
     88800   323.0283      -72.280832     -66.977987      2.853469     
     88900   341.51966     -72.575265     -66.968865      2.8363957    
samqeq SOLVER-DIAG step 89000: CG 14 iters (=14 matvecs) [warm], resid/b=3.80e-08
     89000   325.52699     -72.305939     -66.962075      2.8280024    
     89100   297.81382     -71.816579     -66.927656      2.7927752    
samqeq SOLVER-DIAG step 89200: CG 14 iters (=14 matvecs) [warm], resid/b=6.94e-08
     89200   298.51286     -71.853756     -66.953357      2.8401269    
     89300   298.92555     -71.84607      -66.938896      2.7938247    
samqeq SOLVER-DIAG step 89400: CG 14 iters (=14 matvecs) [warm], resid/b=5.56e-08
     89400   303.14072     -71.89472      -66.91835       2.7724449    
     89500   289.56158     -71.69029      -66.936836      2.7834637    
samqeq SOLVER-DIAG step 89600: CG 14 iters (=14 matvecs) [warm], resid/b=6.69e-08
     89600   307.79495     -72.002863     -66.950089      2.8151068    
     89700   288.91645     -71.682711     -66.939848      2.8098764    
samqeq SOLVER-DIAG step 89800: CG 14 iters (=14 matvecs) [warm], resid/b=5.96e-08
     89800   302.10554     -71.905376     -66.946         2.8208678    
     89900   314.53624     -72.098289     -66.93485       2.7904672    
samqeq SOLVER-DIAG step 90000: CG 14 iters (=14 matvecs) [warm], resid/b=4.17e-08
     90000   271.91623     -71.401255     -66.937468      2.7932388    
     90100   322.86693     -72.242249     -66.942053      2.8151578    
samqeq SOLVER-DIAG step 90200: CG 13 iters (=13 matvecs) [warm], resid/b=9.08e-08
     90200   304.77974     -71.940752     -66.937476      2.7837685    
     90300   305.96308     -71.965649     -66.942947      2.8166966    
samqeq SOLVER-DIAG step 90400: CG 13 iters (=13 matvecs) [warm], resid/b=9.35e-08
     90400   283.4475      -71.587589     -66.934504      2.8097776    
     90500   310.00006     -72.023418     -66.934445      2.7980084    
samqeq SOLVER-DIAG step 90600: CG 13 iters (=13 matvecs) [warm], resid/b=7.68e-08
     90600   308.05997     -72.005945     -66.94882       2.8260361    
     90700   296.2545      -71.775538     -66.912213      2.7699486    
samqeq SOLVER-DIAG step 90800: CG 13 iters (=13 matvecs) [warm], resid/b=6.40e-08
     90800   270.03892     -71.340844     -66.907875      2.7591455    
     90900   286.00347     -71.629813     -66.934769      2.7780725    
samqeq SOLVER-DIAG step 91000: CG 14 iters (=14 matvecs) [warm], resid/b=4.11e-08
     91000   274.819       -71.44546      -66.934021      2.8020495    
     91100   330.44021     -72.369104     -66.944584      2.8117308    
samqeq SOLVER-DIAG step 91200: CG 13 iters (=13 matvecs) [warm], resid/b=9.25e-08
     91200   286.76861     -71.633627     -66.926022      2.7990037    
     91300   287.52199     -71.65348      -66.933508      2.7958512    
samqeq SOLVER-DIAG step 91400: CG 13 iters (=13 matvecs) [warm], resid/b=7.76e-08
     91400   281.11025     -71.518921     -66.904204      2.7541956    
     91500   283.63142     -71.587003     -66.930898      2.8024886    
samqeq SOLVER-DIAG step 91600: CG 13 iters (=13 matvecs) [warm], resid/b=5.42e-08
     91600   264.83841     -71.268915     -66.921317      2.7926137    
     91700   258.88655     -71.188213     -66.938322      2.8037194    
samqeq SOLVER-DIAG step 91800: CG 13 iters (=13 matvecs) [warm], resid/b=6.80e-08
     91800   294.67649     -71.787801     -66.950381      2.8461764    
     91900   290.8802      -71.689639     -66.914539      2.7741607    
samqeq SOLVER-DIAG step 92000: CG 13 iters (=13 matvecs) [warm], resid/b=7.65e-08
     92000   283.86606     -71.602762     -66.942806      2.7940281    
     92100   323.87046     -72.262347     -66.945677      2.8166851    
samqeq SOLVER-DIAG step 92200: CG 13 iters (=13 matvecs) [warm], resid/b=8.59e-08
     92200   281.2289      -71.519857     -66.903193      2.7645259    
     92300   289.77961     -71.702424     -66.945391      2.7959548    
samqeq SOLVER-DIAG step 92400: CG 13 iters (=13 matvecs) [warm], resid/b=9.79e-08
     92400   287.42575     -71.64062      -66.922228      2.7819023    
     92500   298.69362     -71.813934     -66.910568      2.7784475    
samqeq SOLVER-DIAG step 92600: CG 14 iters (=14 matvecs) [warm], resid/b=5.61e-08
     92600   283.53531     -71.574972     -66.920445      2.7854802    
     92700   313.13109     -72.064409     -66.924037      2.8116412    
samqeq SOLVER-DIAG step 92800: CG 14 iters (=14 matvecs) [warm], resid/b=4.10e-08
     92800   273.99028     -71.413042     -66.915207      2.7706917    
     92900   310.3199      -72.019106     -66.924882      2.7865273    
samqeq SOLVER-DIAG step 93000: CG 13 iters (=13 matvecs) [warm], resid/b=8.52e-08
     93000   312.82343     -72.052433     -66.917111      2.777743     
     93100   269.76386     -71.365615     -66.937161      2.793937     
samqeq SOLVER-DIAG step 93200: CG 14 iters (=14 matvecs) [warm], resid/b=6.09e-08
     93200   313.70104     -72.101279     -66.951551      2.8307734    
     93300   309.1346      -72.012552     -66.937786      2.8352922    
samqeq SOLVER-DIAG step 93400: CG 14 iters (=14 matvecs) [warm], resid/b=5.22e-08
     93400   320.38209     -72.201913     -66.942508      2.813385     
     93500   317.54535     -72.155988     -66.943151      2.8159074    
samqeq SOLVER-DIAG step 93600: CG 14 iters (=14 matvecs) [warm], resid/b=6.49e-08
     93600   334.87844     -72.443716     -66.946338      2.8356735    
     93700   300.98659     -71.902325     -66.961317      2.8549133    
samqeq SOLVER-DIAG step 93800: CG 14 iters (=14 matvecs) [warm], resid/b=6.20e-08
     93800   312.3096      -72.084344     -66.957458      2.8533912    
     93900   288.07199     -71.671335     -66.942334      2.83944      
samqeq SOLVER-DIAG step 94000: CG 13 iters (=13 matvecs) [warm], resid/b=7.76e-08
     94000   297.84487     -71.809608     -66.920175      2.8081877    
     94100   304.02238     -71.937585     -66.946742      2.8326522    
samqeq SOLVER-DIAG step 94200: CG 14 iters (=14 matvecs) [warm], resid/b=5.09e-08
     94200   325.51181     -72.279913     -66.936298      2.7971203    
     94300   295.96786     -71.807062     -66.948442      2.8424106    
samqeq SOLVER-DIAG step 94400: CG 14 iters (=14 matvecs) [warm], resid/b=4.43e-08
     94400   303.68405     -71.931153     -66.945864      2.8295768    
     94500   287.27198     -71.643643     -66.927775      2.8099307    
samqeq SOLVER-DIAG step 94600: CG 13 iters (=13 matvecs) [warm], resid/b=7.71e-08
     94600   267.81556     -71.310633     -66.914163      2.7798761    
     94700   266.37248     -71.283039     -66.910258      2.7814538    
samqeq SOLVER-DIAG step 94800: CG 14 iters (=14 matvecs) [warm], resid/b=4.59e-08
     94800   290.08872     -71.678127     -66.916019      2.8104918    
     94900   305.00817     -71.952573     -66.945548      2.818941     
samqeq SOLVER-DIAG step 95000: CG 14 iters (=14 matvecs) [warm], resid/b=2.96e-08
     95000   291.0535      -71.71525      -66.937305      2.8036473    
     95100   319.91387     -72.196564     -66.944845      2.800081     
samqeq SOLVER-DIAG step 95200: CG 14 iters (=14 matvecs) [warm], resid/b=6.09e-08
     95200   290.11733     -71.684675     -66.922097      2.7809004    
     95300   289.21067     -71.66475      -66.917056      2.7724061    
samqeq SOLVER-DIAG step 95400: CG 13 iters (=13 matvecs) [warm], resid/b=9.27e-08
     95400   290.39278     -71.678        -66.910901      2.7831342    
     95500   283.55547     -71.578474     -66.923616      2.781237     
samqeq SOLVER-DIAG step 95600: CG 13 iters (=13 matvecs) [warm], resid/b=9.42e-08
     95600   288.3769      -71.623811     -66.889805      2.7414365    
     95700   280.36167     -71.505706     -66.903278      2.7341094    
samqeq SOLVER-DIAG step 95800: CG 14 iters (=14 matvecs) [warm], resid/b=3.03e-08
     95800   303.25029     -71.892696     -66.914527      2.7783206    
     95900   295.50869     -71.756276     -66.905194      2.7569429    
samqeq SOLVER-DIAG step 96000: CG 13 iters (=13 matvecs) [warm], resid/b=7.52e-08
     96000   315.70825     -72.09859      -66.915911      2.7871928    
     96100   308.66679     -71.982593     -66.915507      2.7976667    
samqeq SOLVER-DIAG step 96200: CG 13 iters (=13 matvecs) [warm], resid/b=7.23e-08
     96200   284.45802     -71.595093     -66.925419      2.7889364    
     96300   318.27968     -72.145378     -66.920487      2.8005577    
samqeq SOLVER-DIAG step 96400: CG 13 iters (=13 matvecs) [warm], resid/b=7.99e-08
     96400   293.69963     -71.731451     -66.910067      2.7782493    
     96500   283.28449     -71.571815     -66.921406      2.8020494    
samqeq SOLVER-DIAG step 96600: CG 14 iters (=14 matvecs) [warm], resid/b=6.60e-08
     96600   297.47828     -71.790529     -66.907114      2.7946639    
     96700   277.12792     -71.456804     -66.907462      2.7943715    
samqeq SOLVER-DIAG step 96800: CG 14 iters (=14 matvecs) [warm], resid/b=6.64e-08
     96800   277.11675     -71.440364     -66.891205      2.7602676    
     96900   300.52865     -71.886514     -66.953024      2.84602      
samqeq SOLVER-DIAG step 97000: CG 13 iters (=13 matvecs) [warm], resid/b=6.39e-08
     97000   284.90744     -71.601146     -66.924095      2.7973454    
     97100   256.3038      -71.139176     -66.931683      2.7978677    
samqeq SOLVER-DIAG step 97200: CG 13 iters (=13 matvecs) [warm], resid/b=7.90e-08
     97200   264.20304     -71.252701     -66.915534      2.7591582    
     97300   266.56525     -71.31702      -66.941075      2.8206615    
samqeq SOLVER-DIAG step 97400: CG 14 iters (=14 matvecs) [warm], resid/b=5.42e-08
     97400   295.29775     -71.764237     -66.916618      2.7963778    
     97500   283.33163     -71.539995     -66.888812      2.7647211    
samqeq SOLVER-DIAG step 97600: CG 13 iters (=13 matvecs) [warm], resid/b=6.91e-08
     97600   272.68488     -71.387465     -66.91106       2.7575631    
     97700   302.78616     -71.895779     -66.925229      2.7670858    
samqeq SOLVER-DIAG step 97800: CG 14 iters (=14 matvecs) [warm], resid/b=4.74e-08
     97800   283.35239     -71.608985     -66.957461      2.835385     
     97900   319.75535     -72.232439     -66.983322      2.8766155    
samqeq SOLVER-DIAG step 98000: CG 14 iters (=14 matvecs) [warm], resid/b=4.20e-08
     98000   310.27939     -72.05039      -66.956831      2.8272242    
     98100   314.34844     -72.102468     -66.942112      2.8057501    
samqeq SOLVER-DIAG step 98200: CG 13 iters (=13 matvecs) [warm], resid/b=6.26e-08
     98200   317.35967     -72.167486     -66.957698      2.8464212    
     98300   309.85427     -72.049063     -66.962483      2.8560393    
samqeq SOLVER-DIAG step 98400: CG 14 iters (=14 matvecs) [warm], resid/b=5.64e-08
     98400   320.20487     -72.228137     -66.971642      2.8709977    
     98500   303.14797     -71.948304     -66.971815      2.8546925    
samqeq SOLVER-DIAG step 98600: CG 14 iters (=14 matvecs) [warm], resid/b=7.29e-08
     98600   291.36571     -71.710334     -66.927263      2.8244703    
     98700   339.09628     -72.529792     -66.963175      2.8650597    
samqeq SOLVER-DIAG step 98800: CG 14 iters (=14 matvecs) [warm], resid/b=5.15e-08
     98800   291.5462      -71.72045      -66.934417      2.8384234    
     98900   322.49144     -72.227447     -66.933415      2.8532614    
samqeq SOLVER-DIAG step 99000: CG 14 iters (=14 matvecs) [warm], resid/b=5.13e-08
     99000   299.79688     -71.852182     -66.930705      2.8220513    
     99100   315.78081     -72.124558     -66.940688      2.8209833    
samqeq SOLVER-DIAG step 99200: CG 14 iters (=14 matvecs) [warm], resid/b=6.38e-08
     99200   317.22993     -72.160931     -66.953273      2.8470955    
     99300   315.85107     -72.103167     -66.918144      2.7957529    
samqeq SOLVER-DIAG step 99400: CG 13 iters (=13 matvecs) [warm], resid/b=7.95e-08
     99400   301.24427     -71.863922     -66.918685      2.8092358    
     99500   315.61763     -72.13807      -66.956879      2.8604843    
samqeq SOLVER-DIAG step 99600: CG 14 iters (=14 matvecs) [warm], resid/b=7.40e-08
     99600   317.31559     -72.163449     -66.954384      2.8666879    
     99700   314.82223     -72.098351     -66.930217      2.8151954    
samqeq SOLVER-DIAG step 99800: CG 14 iters (=14 matvecs) [warm], resid/b=4.02e-08
     99800   291.72659     -71.719576     -66.930581      2.8017979    
     99900   320.81947     -72.200634     -66.934049      2.830396     
samqeq SOLVER-DIAG step 100000: CG 14 iters (=14 matvecs) [warm], resid/b=6.61e-08
    100000   306.8081      -71.958923     -66.922349      2.8023145    
    100100   321.12048     -72.203996     -66.93247       2.8465395    
samqeq SOLVER-DIAG step 100200: CG 14 iters (=14 matvecs) [warm], resid/b=5.76e-08
    100200   316.06366     -72.135792     -66.947279      2.8512287    
    100300   313.78184     -72.070606     -66.919551      2.8125981    
samqeq SOLVER-DIAG step 100400: CG 14 iters (=14 matvecs) [warm], resid/b=5.99e-08
    100400   306.64639     -71.965498     -66.931579      2.8093799    
    100500   319.99567     -72.208236     -66.955174      2.8366409    
samqeq SOLVER-DIAG step 100600: CG 14 iters (=14 matvecs) [warm], resid/b=4.94e-08
    100600   282.14547     -71.586106     -66.954395      2.8534029    
    100700   320.72327     -72.19566      -66.930654      2.8029422    
samqeq SOLVER-DIAG step 100800: CG 14 iters (=14 matvecs) [warm], resid/b=5.96e-08
    100800   307.1615      -71.96609      -66.923715      2.7973805    
    100900   299.28235     -71.842956     -66.929925      2.8343719    
samqeq SOLVER-DIAG step 101000: CG 14 iters (=14 matvecs) [warm], resid/b=5.80e-08
    101000   298.19731     -71.849366     -66.954148      2.8948358    
    101100   289.02925     -71.65233      -66.907615      2.8055306    
samqeq SOLVER-DIAG step 101200: CG 14 iters (=14 matvecs) [warm], resid/b=6.65e-08
    101200   294.3348      -71.742633     -66.910821      2.7978422    
    101300   295.4521      -71.74164      -66.891487      2.7735709    
samqeq SOLVER-DIAG step 101400: CG 14 iters (=14 matvecs) [warm], resid/b=6.80e-08
    101400   298.35195     -71.811307     -66.91355       2.8000132    
    101500   314.30001     -72.068421     -66.90886       2.7984996    
samqeq SOLVER-DIAG step 101600: CG 13 iters (=13 matvecs) [warm], resid/b=9.73e-08
    101600   316.59507     -72.120455     -66.923218      2.7999001    
    101700   302.89695     -71.895342     -66.922974      2.7973139    
samqeq SOLVER-DIAG step 101800: CG 14 iters (=14 matvecs) [warm], resid/b=6.37e-08
    101800   335.64094     -72.452558     -66.942663      2.8659652    
    101900   290.40278     -71.710152     -66.942889      2.8453888    
samqeq SOLVER-DIAG step 102000: CG 13 iters (=13 matvecs) [warm], resid/b=7.08e-08
    102000   293.48678     -71.745869     -66.927979      2.8119643    
    102100   314.09136     -72.078467     -66.922331      2.811782     
samqeq SOLVER-DIAG step 102200: CG 14 iters (=14 matvecs) [warm], resid/b=5.43e-08
    102200   284.20023     -71.557474     -66.892032      2.7601084    
    102300   310.20564     -72.004542     -66.912195      2.791214     
samqeq SOLVER-DIAG step 102400: CG 13 iters (=13 matvecs) [warm], resid/b=9.98e-08
    102400   285.81125     -71.614076     -66.922187      2.7920124    
    102500   298.14484     -71.802886     -66.908528      2.7682877    
samqeq SOLVER-DIAG step 102600: CG 13 iters (=13 matvecs) [warm], resid/b=8.91e-08
    102600   293.83944     -71.728323     -66.904643      2.7784905    
    102700   299.66343     -71.817851     -66.898565      2.7641776    
samqeq SOLVER-DIAG step 102800: CG 13 iters (=13 matvecs) [warm], resid/b=7.78e-08
    102800   292.02553     -71.702878     -66.908976      2.7781419    
    102900   282.31534     -71.517777     -66.883277      2.7400811    
samqeq SOLVER-DIAG step 103000: CG 14 iters (=14 matvecs) [warm], resid/b=5.67e-08
    103000   300.67778     -71.830218     -66.89428       2.7606926    
    103100   287.62324     -71.611457     -66.889823      2.7526396    
samqeq SOLVER-DIAG step 103200: CG 14 iters (=14 matvecs) [warm], resid/b=5.78e-08
    103200   291.32643     -71.698438     -66.916012      2.7922835    
    103300   296.32519     -71.804214     -66.939728      2.8279155    
samqeq SOLVER-DIAG step 103400: CG 14 iters (=14 matvecs) [warm], resid/b=4.33e-08
    103400   272.95776     -71.384616     -66.903731      2.7837192    
    103500   294.35922     -71.723825     -66.891613      2.7684226    
samqeq SOLVER-DIAG step 103600: CG 13 iters (=13 matvecs) [warm], resid/b=8.19e-08
    103600   250.68728     -71.040739     -66.925447      2.8029905    
    103700   291.17173     -71.687998     -66.908111      2.7908977    
samqeq SOLVER-DIAG step 103800: CG 14 iters (=14 matvecs) [warm], resid/b=6.04e-08
    103800   279.8419      -71.528392     -66.934496      2.8034271    
    103900   303.96224     -71.933248     -66.943393      2.8594708    
samqeq SOLVER-DIAG step 104000: CG 14 iters (=14 matvecs) [warm], resid/b=4.83e-08
    104000   318.5435      -72.169189     -66.939967      2.8150524    
    104100   293.90046     -71.744591     -66.919909      2.8186975    
samqeq SOLVER-DIAG step 104200: CG 14 iters (=14 matvecs) [warm], resid/b=4.67e-08
    104200   314.13586     -72.094408     -66.937541      2.8265882    
    104300   323.45745     -72.236981     -66.927091      2.7956612    
samqeq SOLVER-DIAG step 104400: CG 13 iters (=13 matvecs) [warm], resid/b=9.52e-08
    104400   280.64822     -71.514686     -66.907554      2.769161     
    104500   304.77067     -71.934309     -66.931182      2.7905538    
samqeq SOLVER-DIAG step 104600: CG 13 iters (=13 matvecs) [warm], resid/b=9.58e-08
    104600   324.64069     -72.272921     -66.943607      2.8293733    
    104700   304.19857     -71.926312     -66.932577      2.8300904    
samqeq SOLVER-DIAG step 104800: CG 14 iters (=14 matvecs) [warm], resid/b=7.78e-08
    104800   341.69494     -72.548536     -66.939259      2.8232266    
    104900   324.5424      -72.272745     -66.945045      2.8346874    
samqeq SOLVER-DIAG step 105000: CG 13 iters (=13 matvecs) [warm], resid/b=8.68e-08
    105000   287.80916     -71.678391     -66.953705      2.8288757    
    105100   322.13688     -72.240664     -66.952453      2.8418294    
samqeq SOLVER-DIAG step 105200: CG 13 iters (=13 matvecs) [warm], resid/b=9.68e-08
    105200   300.73098     -71.846043     -66.909232      2.7892495    
    105300   263.37926     -71.235354     -66.91171       2.7853753    
samqeq SOLVER-DIAG step 105400: CG 13 iters (=13 matvecs) [warm], resid/b=7.32e-08
    105400   306.19626     -71.943807     -66.917278      2.8006589    
    105500   304.48122     -71.949308     -66.950933      2.8548076    
samqeq SOLVER-DIAG step 105600: CG 13 iters (=13 matvecs) [warm], resid/b=9.08e-08
    105600   303.2215      -71.915348     -66.937652      2.8351549    
    105700   326.36817     -72.304299     -66.946627      2.8302804    
samqeq SOLVER-DIAG step 105800: CG 14 iters (=14 matvecs) [warm], resid/b=4.97e-08
    105800   343.20379     -72.60228      -66.968234      2.8843644    
    105900   297.92685     -71.847772     -66.956993      2.8830049    
samqeq SOLVER-DIAG step 106000: CG 13 iters (=13 matvecs) [warm], resid/b=9.80e-08
    106000   308.87035     -72.0195       -66.949073      2.873716     
    106100   279.31794     -71.52652      -66.941226      2.8312366    
samqeq SOLVER-DIAG step 106200: CG 14 iters (=14 matvecs) [warm], resid/b=5.94e-08
    106200   334.4961      -72.46101      -66.969909      2.8634718    
    106300   297.97658     -71.849206     -66.957611      2.8554001    
samqeq SOLVER-DIAG step 106400: CG 14 iters (=14 matvecs) [warm], resid/b=8.93e-08
    106400   279.75971     -71.541822     -66.949276      2.8526565    
    106500   310.72735     -72.052689     -66.951777      2.8586464    
samqeq SOLVER-DIAG step 106600: CG 14 iters (=14 matvecs) [warm], resid/b=6.44e-08
    106600   333.96432     -72.441518     -66.959147      2.8447755    
    106700   278.20272     -71.537091     -66.970104      2.8713239    
samqeq SOLVER-DIAG step 106800: CG 14 iters (=14 matvecs) [warm], resid/b=6.59e-08
    106800   314.17893     -72.12975      -66.972176      2.8764365    
    106900   321.28444     -72.229284     -66.955066      2.8620377    
samqeq SOLVER-DIAG step 107000: CG 14 iters (=14 matvecs) [warm], resid/b=3.50e-08
    107000   344.75053     -72.613735     -66.954297      2.8707315    
    107100   322.79422     -72.232461     -66.933459      2.8348917    
samqeq SOLVER-DIAG step 107200: CG 13 iters (=13 matvecs) [warm], resid/b=8.15e-08
    107200   281.40661     -71.540495     -66.920913      2.8078017    
    107300   280.87336     -71.530446     -66.919618      2.7864535    
samqeq SOLVER-DIAG step 107400: CG 13 iters (=13 matvecs) [warm], resid/b=9.98e-08
    107400   297.67107     -71.807869     -66.921289      2.7934952    
    107500   302.15391     -71.896382     -66.936212      2.8246276    
samqeq SOLVER-DIAG step 107600: CG 14 iters (=14 matvecs) [warm], resid/b=3.56e-08
    107600   278.88482     -71.500886     -66.922703      2.7929033    
    107700   284.28366     -71.586799     -66.919987      2.8021976    
samqeq SOLVER-DIAG step 107800: CG 13 iters (=13 matvecs) [warm], resid/b=8.16e-08
    107800   274.12926     -71.406556     -66.90644       2.7640922    
    107900   284.23594     -71.552802     -66.886774      2.7379034    
samqeq SOLVER-DIAG step 108000: CG 13 iters (=13 matvecs) [warm], resid/b=7.45e-08
    108000   303.35634     -71.882643     -66.902733      2.7811659    
    108100   306.62304     -71.971376     -66.937841      2.8247719    
samqeq SOLVER-DIAG step 108200: CG 14 iters (=14 matvecs) [warm], resid/b=6.37e-08
    108200   306.55128     -71.96762      -66.935262      2.8423966    
    108300   319.66832     -72.153002     -66.905314      2.7751474    
samqeq SOLVER-DIAG step 108400: CG 14 iters (=14 matvecs) [warm], resid/b=6.96e-08
    108400   321.35704     -72.215873     -66.940464      2.8364127    
    108500   339.68232     -72.531313     -66.955075      2.863404     
samqeq SOLVER-DIAG step 108600: CG 14 iters (=14 matvecs) [warm], resid/b=5.50e-08
    108600   301.61569     -71.912936     -66.961601      2.8539175    
    108700   335.15801     -72.443254     -66.941287      2.8299551    
samqeq SOLVER-DIAG step 108800: CG 14 iters (=14 matvecs) [warm], resid/b=6.27e-08
    108800   314.40208     -72.105989     -66.944753      2.8317078    
    108900   309.88        -72.052895     -66.965893      2.8457454    
samqeq SOLVER-DIAG step 109000: CG 13 iters (=13 matvecs) [warm], resid/b=8.91e-08
    109000   284.73586     -71.559226     -66.884991      2.7355743    
    109100   292.44737     -71.70452      -66.903693      2.783681     
samqeq SOLVER-DIAG step 109200: CG 14 iters (=14 matvecs) [warm], resid/b=5.45e-08
    109200   329.04187     -72.340082     -66.938518      2.8284094    
    109300   281.98744     -71.544031     -66.914914      2.8042939    
samqeq SOLVER-DIAG step 109400: CG 14 iters (=14 matvecs) [warm], resid/b=6.15e-08
    109400   296.42244     -71.816479     -66.950397      2.8257864    
    109500   326.25935     -72.280874     -66.924988      2.8165585    
samqeq SOLVER-DIAG step 109600: CG 13 iters (=13 matvecs) [warm], resid/b=3.87e-08
    109600   268.1148      -71.297404     -66.896021      2.7687786    
    109700   321.97069     -72.222989     -66.937506      2.8287128    
samqeq SOLVER-DIAG step 109800: CG 14 iters (=14 matvecs) [warm], resid/b=4.74e-08
    109800   290.68478     -71.691646     -66.919754      2.8181484    
    109900   286.12155     -71.607392     -66.91041       2.8226881    
samqeq SOLVER-DIAG step 110000: CG 14 iters (=14 matvecs) [warm], resid/b=5.64e-08
    110000   306.0802      -71.948382     -66.923757      2.8323185    
    110100   288.52165     -71.665932     -66.92955       2.8113222    
samqeq SOLVER-DIAG step 110200: CG 14 iters (=14 matvecs) [warm], resid/b=7.99e-08
    110200   319.49271     -72.181805     -66.937001      2.820712     
    110300   311.54268     -72.047289     -66.932992      2.8114909    
samqeq SOLVER-DIAG step 110400: CG 14 iters (=14 matvecs) [warm], resid/b=6.06e-08
    110400   308.31408     -71.982577     -66.921282      2.8115105    
    110500   297.82988     -71.829217     -66.94003       2.8368412    
samqeq SOLVER-DIAG step 110600: CG 14 iters (=14 matvecs) [warm], resid/b=5.61e-08
    110600   318.95332     -72.19488      -66.95893       2.8384115    
    110700   317.5387      -72.13664      -66.923913      2.8180657    
samqeq SOLVER-DIAG step 110800: CG 14 iters (=14 matvecs) [warm], resid/b=4.20e-08
    110800   332.8635      -72.402719     -66.938419      2.8497262    
    110900   287.1938      -71.624381     -66.909796      2.7948905    
samqeq SOLVER-DIAG step 111000: CG 14 iters (=14 matvecs) [warm], resid/b=3.47e-08
    111000   309.23908     -72.029056     -66.952575      2.8528069    
    111100   295.3956      -71.788433     -66.939208      2.8254859    
samqeq SOLVER-DIAG step 111200: CG 14 iters (=14 matvecs) [warm], resid/b=5.16e-08
    111200   327.04582     -72.328914     -66.960117      2.8525329    
    111300   322.4801      -72.26204      -66.968194      2.8432568    
samqeq SOLVER-DIAG step 111400: CG 14 iters (=14 matvecs) [warm], resid/b=5.83e-08
    111400   298.12594     -71.839392     -66.945346      2.821801     
    111500   338.28189     -72.505777     -66.952529      2.8437645    
samqeq SOLVER-DIAG step 111600: CG 13 iters (=13 matvecs) [warm], resid/b=7.18e-08
    111600   295.17961     -71.780443     -66.934763      2.8221767    
    111700   266.62651     -71.306019     -66.929068      2.7997798    
samqeq SOLVER-DIAG step 111800: CG 14 iters (=14 matvecs) [warm], resid/b=3.82e-08
    111800   309.0228      -72.001075     -66.928145      2.8127992    
    111900   306.22568     -71.976544     -66.949531      2.8431062    
samqeq SOLVER-DIAG step 112000: CG 13 iters (=13 matvecs) [warm], resid/b=7.02e-08
    112000   306.69441     -71.953562     -66.918855      2.7995141    
    112100   301.09019     -71.87409      -66.931382      2.792095     
samqeq SOLVER-DIAG step 112200: CG 14 iters (=14 matvecs) [warm], resid/b=5.31e-08
    112200   312.25861     -72.064026     -66.937977      2.822163     
    112300   276.89114     -71.477363     -66.931907      2.8001676    
samqeq SOLVER-DIAG step 112400: CG 14 iters (=14 matvecs) [warm], resid/b=6.40e-08
    112400   304.5973      -71.929908     -66.929627      2.8136116    
    112500   313.40022     -72.097803     -66.953013      2.8656539    
samqeq SOLVER-DIAG step 112600: CG 14 iters (=14 matvecs) [warm], resid/b=5.04e-08
    112600   307.04465     -71.958572     -66.918115      2.7973565    
    112700   260.06173     -71.151371     -66.882187      2.7416561    
samqeq SOLVER-DIAG step 112800: CG 13 iters (=13 matvecs) [warm], resid/b=9.12e-08
    112800   274.46943     -71.397937     -66.892236      2.7542698    
    112900   268.56194     -71.316469     -66.907746      2.7654226    
samqeq SOLVER-DIAG step 113000: CG 14 iters (=14 matvecs) [warm], resid/b=5.32e-08
    113000   303.90533     -71.918395     -66.929474      2.8035556    
    113100   269.24048     -71.310468     -66.890606      2.7484823    
samqeq SOLVER-DIAG step 113200: CG 13 iters (=13 matvecs) [warm], resid/b=6.15e-08
    113200   288.39951     -71.63075      -66.896373      2.76005      
    113300   298.32456     -71.823176     -66.925869      2.8186936    
samqeq SOLVER-DIAG step 113400: CG 14 iters (=14 matvecs) [warm], resid/b=6.92e-08
    113400   297.50218     -71.81977      -66.935963      2.8022271    
    113500   289.9061      -71.661313     -66.902203      2.7711891    
samqeq SOLVER-DIAG step 113600: CG 13 iters (=13 matvecs) [warm], resid/b=6.97e-08
    113600   299.30859     -71.835341     -66.921879      2.7928006    
    113700   329.55478     -72.369999     -66.960016      2.8426686    
samqeq SOLVER-DIAG step 113800: CG 14 iters (=14 matvecs) [warm], resid/b=4.94e-08
    113800   297.51356     -71.817113     -66.933119      2.823149     
    113900   310.98805     -72.047595     -66.942403      2.8433358    
samqeq SOLVER-DIAG step 114000: CG 14 iters (=14 matvecs) [warm], resid/b=6.22e-08
    114000   293.56717     -71.802361     -66.983152      2.8867567    
    114100   328.07341     -72.326568     -66.940902      2.8381411    
samqeq SOLVER-DIAG step 114200: CG 14 iters (=14 matvecs) [warm], resid/b=4.28e-08
    114200   303.71902     -71.94458      -66.958716      2.8609389    
    114300   292.26602     -71.726701     -66.928851      2.8098029    
samqeq SOLVER-DIAG step 114400: CG 13 iters (=13 matvecs) [warm], resid/b=9.12e-08
    114400   295.29712     -71.786363     -66.938755      2.7999542    
    114500   279.1937      -71.517638     -66.934383      2.8086204    
samqeq SOLVER-DIAG step 114600: CG 14 iters (=14 matvecs) [warm], resid/b=5.59e-08
    114600   308.66854     -72.016583     -66.949468      2.8245592    
    114700   284.55198     -71.620982     -66.949766      2.8353854    
samqeq SOLVER-DIAG step 114800: CG 13 iters (=13 matvecs) [warm], resid/b=8.73e-08
    114800   313.40375     -72.076649     -66.9318        2.8160545    
    114900   292.90779     -71.745486     -66.9371        2.8161204    
samqeq SOLVER-DIAG step 115000: CG 13 iters (=13 matvecs) [warm], resid/b=6.10e-08
    115000   265.4294      -71.272808     -66.915509      2.7632885    
    115100   285.07569     -71.588507     -66.908694      2.7817025    
samqeq SOLVER-DIAG step 115200: CG 14 iters (=14 matvecs) [warm], resid/b=5.02e-08
    115200   327.83075     -72.290186     -66.908504      2.8089766    
    115300   311.67631     -72.03722      -66.920729      2.8237702    
samqeq SOLVER-DIAG step 115400: CG 13 iters (=13 matvecs) [warm], resid/b=8.23e-08
    115400   299.69649     -71.830742     -66.910913      2.7794509    
    115500   301.10988     -71.884031     -66.941         2.8102212    
samqeq SOLVER-DIAG step 115600: CG 14 iters (=14 matvecs) [warm], resid/b=4.86e-08
    115600   314.92853     -72.102932     -66.933053      2.811179     
    115700   300.21404     -71.837437     -66.909112      2.7810404    
samqeq SOLVER-DIAG step 115800: CG 14 iters (=14 matvecs) [warm], resid/b=5.36e-08
    115800   301.73985     -71.876157     -66.922784      2.7889225    
    115900   317.5514      -72.152415     -66.939479      2.8335446    
samqeq SOLVER-DIAG step 116000: CG 13 iters (=13 matvecs) [warm], resid/b=7.69e-08
    116000   296.9388      -71.800932     -66.926374      2.813462     
    116100   301.14968     -71.888023     -66.944339      2.8106618    
samqeq SOLVER-DIAG step 116200: CG 13 iters (=13 matvecs) [warm], resid/b=9.31e-08
    116200   317.76941     -72.143231     -66.926716      2.8062194    
    116300   308.69093     -72.020926     -66.953444      2.8458862    
samqeq SOLVER-DIAG step 116400: CG 14 iters (=14 matvecs) [warm], resid/b=6.08e-08
    116400   299.68275     -71.831796     -66.912192      2.7929466    
    116500   305.76534     -71.945354     -66.925898      2.8143771    
samqeq SOLVER-DIAG step 116600: CG 13 iters (=13 matvecs) [warm], resid/b=8.84e-08
    116600   331.22056     -72.395581     -66.958252      2.8633087    
    116700   301.24533     -71.89742      -66.952165      2.8420815    
samqeq SOLVER-DIAG step 116800: CG 13 iters (=13 matvecs) [warm], resid/b=9.90e-08
    116800   304.51961     -71.927594     -66.928588      2.8017576    
    116900   292.22401     -71.703098     -66.905938      2.7801619    
samqeq SOLVER-DIAG step 117000: CG 14 iters (=14 matvecs) [warm], resid/b=6.85e-08
    117000   314.89563     -72.113617     -66.944279      2.8366158    
    117100   321.42685     -72.200513     -66.923958      2.8111657    
samqeq SOLVER-DIAG step 117200: CG 14 iters (=14 matvecs) [warm], resid/b=6.74e-08
    117200   292.85839     -71.706718     -66.899144      2.7729766    
    117300   289.47415     -71.648984     -66.896965      2.7671753    
samqeq SOLVER-DIAG step 117400: CG 14 iters (=14 matvecs) [warm], resid/b=4.49e-08
    117400   270.59018     -71.335744     -66.893726      2.7513053    
    117500   285.49569     -71.586115     -66.899406      2.7626418    
samqeq SOLVER-DIAG step 117600: CG 13 iters (=13 matvecs) [warm], resid/b=8.87e-08
    117600   319.82586     -72.190996     -66.940723      2.8174481    
    117700   306.78036     -71.96795      -66.931832      2.8167501    
samqeq SOLVER-DIAG step 117800: CG 14 iters (=14 matvecs) [warm], resid/b=5.68e-08
    117800   347.0172      -72.636486     -66.939839      2.847085     
    117900   297.93491     -71.799701     -66.90879       2.7774116    
samqeq SOLVER-DIAG step 118000: CG 14 iters (=14 matvecs) [warm], resid/b=5.52e-08
    118000   287.22661     -71.628645     -66.913522      2.7965406    
    118100   318.57664     -72.199838     -66.970071      2.8964755    
samqeq SOLVER-DIAG step 118200: CG 14 iters (=14 matvecs) [warm], resid/b=5.89e-08
    118200   314.99998     -72.129726     -66.958674      2.864412     
    118300   334.83669     -72.487869     -66.991177      2.9140483    
samqeq SOLVER-DIAG step 118400: CG 14 iters (=14 matvecs) [warm], resid/b=6.16e-08
    118400   338.69011     -72.520599     -66.960649      2.8896274    
    118500   305.79072     -71.91172      -66.891847      2.7847564    
samqeq SOLVER-DIAG step 118600: CG 14 iters (=14 matvecs) [warm], resid/b=4.65e-08
    118600   289.9554      -71.69444      -66.934521      2.837699     
    118700   287.73388     -71.657288     -66.933837      2.8314007    
samqeq SOLVER-DIAG step 118800: CG 13 iters (=13 matvecs) [warm], resid/b=5.66e-08
    118800   299.84335     -71.832907     -66.910667      2.7851033    
    118900   279.02334     -71.452464     -66.872006      2.7187428    
samqeq SOLVER-DIAG step 119000: CG 13 iters (=13 matvecs) [warm], resid/b=5.67e-08
    119000   267.98941     -71.284347     -66.885023      2.7757884    
    119100   312.33668     -72.049406     -66.922075      2.8079438    
samqeq SOLVER-DIAG step 119200: CG 14 iters (=14 matvecs) [warm], resid/b=4.51e-08
    119200   297.94833     -71.799323     -66.908192      2.7752645    
    119300   297.01395     -71.796534     -66.920741      2.7962872    
samqeq SOLVER-DIAG step 119400: CG 13 iters (=13 matvecs) [warm], resid/b=9.60e-08
    119400   316.95555     -72.118864     -66.91571       2.7903372    
    119500   286.31063     -71.588312     -66.888226      2.7702787    
samqeq SOLVER-DIAG step 119600: CG 13 iters (=13 matvecs) [warm], resid/b=9.14e-08
    119600   286.16889     -71.573854     -66.876094      2.7269754    
    119700   299.22051     -71.818511     -66.906495      2.7854892    
samqeq SOLVER-DIAG step 119800: CG 13 iters (=13 matvecs) [warm], resid/b=9.99e-08
    119800   307.75606     -71.960801     -66.908665      2.797529     
    119900   286.3108      -71.601201     -66.901112      2.7748626    
samqeq SOLVER-DIAG step 120000: CG 13 iters (=13 matvecs) [warm], resid/b=9.03e-08
    120000   325.22328     -72.272226     -66.933348      2.8383843    
    120100   312.16691     -72.057009     -66.932465      2.8381818    
samqeq SOLVER-DIAG step 120200: CG 13 iters (=13 matvecs) [warm], resid/b=7.76e-08
    120200   291.60523     -71.673716     -66.886713      2.7631554    
    120300   275.19917     -71.399142     -66.881462      2.7624886    
samqeq SOLVER-DIAG step 120400: CG 14 iters (=14 matvecs) [warm], resid/b=6.28e-08
    120400   298.11595     -71.784997     -66.891114      2.7619799    
    120500   320.66036     -72.187535     -66.923562      2.8259686    
samqeq SOLVER-DIAG step 120600: CG 14 iters (=14 matvecs) [warm], resid/b=4.94e-08
    120600   310.15991     -72.004961     -66.913364      2.7927278    
    120700   296.70665     -71.78592      -66.915172      2.8191068    
samqeq SOLVER-DIAG step 120800: CG 13 iters (=13 matvecs) [warm], resid/b=8.88e-08
    120800   307.48069     -71.969307     -66.921692      2.8262483    
    120900   299.17941     -71.806473     -66.895132      2.782276     
samqeq SOLVER-DIAG step 121000: CG 13 iters (=13 matvecs) [warm], resid/b=9.43e-08
    121000   304.86309     -71.900477     -66.895833      2.7786755    
    121100   274.46942     -71.37731      -66.87161       2.7345542    
samqeq SOLVER-DIAG step 121200: CG 14 iters (=14 matvecs) [warm], resid/b=4.12e-08
    121200   309.6081      -71.974134     -66.891595      2.7788529    
    121300   299.0248      -71.84768      -66.938877      2.8224102    
samqeq SOLVER-DIAG step 121400: CG 13 iters (=13 matvecs) [warm], resid/b=6.46e-08
    121400   278.85311     -71.447498     -66.869834      2.727907     
    121500   316.23578     -72.116853     -66.925514      2.8213317    
samqeq SOLVER-DIAG step 121600: CG 15 iters (=15 matvecs) [warm], resid/b=3.44e-08
    121600   282.11093     -71.575342     -66.944198      2.8338818    
    121700   299.1982      -71.838742     -66.927093      2.8212079    
samqeq SOLVER-DIAG step 121800: CG 14 iters (=14 matvecs) [warm], resid/b=6.24e-08
    121800   283.52503     -71.597212     -66.942854      2.8177122    
    121900   305.26379     -71.934593     -66.923371      2.8040939    
samqeq SOLVER-DIAG step 122000: CG 14 iters (=14 matvecs) [warm], resid/b=3.87e-08
    122000   309.39865     -72.000847     -66.921747      2.80351      
    122100   326.78931     -72.29075      -66.926164      2.8183689    
samqeq SOLVER-DIAG step 122200: CG 13 iters (=13 matvecs) [warm], resid/b=5.68e-08
    122200   324.7892      -72.261083     -66.929331      2.8212377    
    122300   310.22261     -72.014649     -66.922023      2.8212857    
samqeq SOLVER-DIAG step 122400: CG 13 iters (=13 matvecs) [warm], resid/b=8.73e-08
    122400   293.33916     -71.748058     -66.932591      2.810218     
    122500   315.83914     -72.11944      -66.934612      2.8327458    
samqeq SOLVER-DIAG step 122600: CG 14 iters (=14 matvecs) [warm], resid/b=7.71e-08
    122600   320.58486     -72.187085     -66.924352      2.8414984    
    122700   300.38872     -71.842114     -66.910921      2.8169014    
samqeq SOLVER-DIAG step 122800: CG 13 iters (=13 matvecs) [warm], resid/b=9.24e-08
    122800   281.07726     -71.536468     -66.922293      2.8271966    
    122900   330.40616     -72.341608     -66.917648      2.8221144    
samqeq SOLVER-DIAG step 123000: CG 13 iters (=13 matvecs) [warm], resid/b=9.00e-08
    123000   267.52289     -71.301254     -66.909588      2.7898148    
    123100   304.16668     -71.891046     -66.897834      2.7946313    
samqeq SOLVER-DIAG step 123200: CG 13 iters (=13 matvecs) [warm], resid/b=7.78e-08
    123200   300.10315     -71.829437     -66.902932      2.7969271    
    123300   304.37533     -71.939293     -66.942656      2.8503095    
samqeq SOLVER-DIAG step 123400: CG 14 iters (=14 matvecs) [warm], resid/b=4.59e-08
    123400   301.52234     -71.881404     -66.931602      2.8229802    
    123500   287.96665     -71.642074     -66.914802      2.810302     
samqeq SOLVER-DIAG step 123600: CG 14 iters (=14 matvecs) [warm], resid/b=6.17e-08
    123600   266.75596     -71.288996     -66.90992       2.7872383    
    123700   274.63753     -71.394741     -66.886281      2.7524517    
samqeq SOLVER-DIAG step 123800: CG 14 iters (=14 matvecs) [warm], resid/b=5.79e-08
    123800   286.28521     -71.604876     -66.905207      2.8088728    
    123900   318.69285     -72.129119     -66.897445      2.7942071    
samqeq SOLVER-DIAG step 124000: CG 13 iters (=13 matvecs) [warm], resid/b=9.56e-08
    124000   323.2345      -72.225036     -66.918806      2.8065019    
    124100   314.6829      -72.09532      -66.929474      2.8410077    
samqeq SOLVER-DIAG step 124200: CG 13 iters (=13 matvecs) [warm], resid/b=8.21e-08
    124200   334.29878     -72.4104       -66.922539      2.8448697    
    124300   308.19342     -71.99256      -66.933245      2.8411284    
samqeq SOLVER-DIAG step 124400: CG 14 iters (=14 matvecs) [warm], resid/b=4.87e-08
    124400   319.10674     -72.191802     -66.953333      2.863979     
    124500   315.05834     -72.096605     -66.924595      2.8217034    
samqeq SOLVER-DIAG step 124600: CG 14 iters (=14 matvecs) [warm], resid/b=8.34e-08
    124600   302.36357     -71.928045     -66.964433      2.8817757    
    124700   284.31417     -71.547729     -66.880417      2.7796808    
samqeq SOLVER-DIAG step 124800: CG 14 iters (=14 matvecs) [warm], resid/b=5.98e-08
    124800   292.61773     -71.711853     -66.908229      2.8089885    
    124900   302.84145     -71.87195      -66.900493      2.8045344    
samqeq SOLVER-DIAG step 125000: CG 14 iters (=14 matvecs) [warm], resid/b=5.32e-08
    125000   304.15188     -71.92579      -66.932821      2.8292311    
    125100   337.48752     -72.482727     -66.942519      2.8543645    
samqeq SOLVER-DIAG step 125200: CG 13 iters (=13 matvecs) [warm], resid/b=8.50e-08
    125200   292.31967     -71.688051     -66.88932       2.7823256    
    125300   290.35646     -71.673171     -66.906668      2.7965771    
samqeq SOLVER-DIAG step 125400: CG 14 iters (=14 matvecs) [warm], resid/b=5.25e-08
    125400   313.57386     -72.077473     -66.929832      2.8410519    
    125500   298.46441     -71.810077     -66.910474      2.790704     
samqeq SOLVER-DIAG step 125600: CG 14 iters (=14 matvecs) [warm], resid/b=4.99e-08
    125600   299.48171     -71.837369     -66.921065      2.8259236    
    125700   290.62113     -71.682433     -66.911586      2.8179547    
samqeq SOLVER-DIAG step 125800: CG 13 iters (=13 matvecs) [warm], resid/b=8.56e-08
    125800   310.04557     -72.008949     -66.919229      2.8344842    
    125900   305.32526     -71.921239     -66.909007      2.8012497    
samqeq SOLVER-DIAG step 126000: CG 14 iters (=14 matvecs) [warm], resid/b=8.36e-08
    126000   322.23327     -72.228387     -66.938593      2.8562881    
    126100   320.71892     -72.208615     -66.943681      2.836657     
samqeq SOLVER-DIAG step 126200: CG 14 iters (=14 matvecs) [warm], resid/b=5.14e-08
    126200   308.11337     -71.980294     -66.922293      2.8235764    
    126300   303.08935     -71.892993     -66.917467      2.813546     
samqeq SOLVER-DIAG step 126400: CG 14 iters (=14 matvecs) [warm], resid/b=4.47e-08
    126400   307.2388      -71.938157     -66.894514      2.7883055    
    126500   306.57748     -71.960715     -66.927927      2.8475896    
samqeq SOLVER-DIAG step 126600: CG 14 iters (=14 matvecs) [warm], resid/b=7.28e-08
    126600   309.56243     -71.980621     -66.898832      2.8073131    
    126700   303.12343     -71.892001     -66.915915      2.8151944    
samqeq SOLVER-DIAG step 126800: CG 13 iters (=13 matvecs) [warm], resid/b=8.88e-08
    126800   283.25302     -71.538645     -66.888753      2.7920432    
    126900   270.03864     -71.324198     -66.891234      2.7982475    
samqeq SOLVER-DIAG step 127000: CG 13 iters (=13 matvecs) [warm], resid/b=8.49e-08
    127000   286.51685     -71.601927     -66.898456      2.7851956    
    127100   308.49674     -71.990374     -66.926079      2.8246442    
samqeq SOLVER-DIAG step 127200: CG 13 iters (=13 matvecs) [warm], resid/b=8.15e-08
    127200   285.75683     -71.575986     -66.884991      2.8027466    
    127300   269.22393     -71.313511     -66.893921      2.806429     
samqeq SOLVER-DIAG step 127400: CG 14 iters (=14 matvecs) [warm], resid/b=5.35e-08
    127400   311.5135      -72.006999     -66.893181      2.8041577    
    127500   320.59949     -72.150775     -66.887802      2.7857812    
samqeq SOLVER-DIAG step 127600: CG 13 iters (=13 matvecs) [warm], resid/b=8.99e-08
    127600   319.44892     -72.137547     -66.893462      2.78375      
    127700   329.73121     -72.351144     -66.938264      2.8519055    
samqeq SOLVER-DIAG step 127800: CG 13 iters (=13 matvecs) [warm], resid/b=9.71e-08
    127800   321.01939     -72.162652     -66.892785      2.7969289    
    127900   327.32925     -72.290927     -66.917478      2.8289368    
samqeq SOLVER-DIAG step 128000: CG 14 iters (=14 matvecs) [warm], resid/b=6.43e-08
    128000   308.53483     -72.004165     -66.939246      2.8497715    
    128100   321.27742     -72.206255     -66.932153      2.8503645    
samqeq SOLVER-DIAG step 128200: CG 13 iters (=13 matvecs) [warm], resid/b=9.80e-08
    128200   295.99751     -71.78571      -66.926604      2.8280325    
    128300   336.02877     -72.41939      -66.903129      2.7918676    
samqeq SOLVER-DIAG step 128400: CG 14 iters (=14 matvecs) [warm], resid/b=6.20e-08
    128400   303.30798     -71.877974     -66.898858      2.7883273    
    128500   289.84143     -71.678403     -66.920355      2.8056709    
samqeq SOLVER-DIAG step 128600: CG 13 iters (=13 matvecs) [warm], resid/b=6.66e-08
    128600   297.41051     -71.773914     -66.891612      2.7637175    
    128700   288.1048      -71.621364     -66.891825      2.7820144    
samqeq SOLVER-DIAG step 128800: CG 14 iters (=14 matvecs) [warm], resid/b=6.49e-08
    128800   283.07967     -71.560793     -66.913746      2.7937597    
    128900   292.50765     -71.729379     -66.927562      2.82489      
samqeq SOLVER-DIAG step 129000: CG 13 iters (=13 matvecs) [warm], resid/b=9.41e-08
    129000   293.89487     -71.734038     -66.909449      2.8055102    
    129100   293.34555     -71.758432     -66.94286       2.861461     
samqeq SOLVER-DIAG step 129200: CG 14 iters (=14 matvecs) [warm], resid/b=7.38e-08
    129200   327.82278     -72.313843     -66.932292      2.8510805    
    129300   294.93369     -71.741766     -66.900123      2.8098104    
samqeq SOLVER-DIAG step 129400: CG 14 iters (=14 matvecs) [warm], resid/b=6.32e-08
    129400   317.58869     -72.143213     -66.929665      2.8378788    
    129500   312.08202     -72.067341     -66.944191      2.8526066    
samqeq SOLVER-DIAG step 129600: CG 14 iters (=14 matvecs) [warm], resid/b=6.11e-08
    129600   294.27122     -71.760299     -66.929531      2.8268219    
    129700   328.84688     -72.340606     -66.942243      2.8555833    
samqeq SOLVER-DIAG step 129800: CG 13 iters (=13 matvecs) [warm], resid/b=9.36e-08
    129800   296.52631     -71.751921     -66.884133      2.7660507    
    129900   297.37369     -71.794419     -66.912721      2.8133059    
samqeq SOLVER-DIAG step 130000: CG 14 iters (=14 matvecs) [warm], resid/b=9.09e-08
    130000   289.37067     -71.668493     -66.918173      2.8022587    
    130100   302.12128     -71.874111     -66.914477      2.7992602    
samqeq SOLVER-DIAG step 130200: CG 14 iters (=14 matvecs) [warm], resid/b=5.40e-08
    130200   289.90322     -71.670145     -66.911083      2.7900058    
    130300   317.55751     -72.12206      -66.909023      2.7989891    
samqeq SOLVER-DIAG step 130400: CG 14 iters (=14 matvecs) [warm], resid/b=4.46e-08
    130400   322.07756     -72.230036     -66.942799      2.8444459    
    130500   279.52115     -71.495858     -66.907228      2.7930932    
samqeq SOLVER-DIAG step 130600: CG 14 iters (=14 matvecs) [warm], resid/b=6.07e-08
    130600   288.33703     -71.633955     -66.900604      2.785758     
    130700   309.77405     -72.034456     -66.949193      2.8355727    
samqeq SOLVER-DIAG step 130800: CG 13 iters (=13 matvecs) [warm], resid/b=7.10e-08
    130800   318.32916     -72.139962     -66.914259      2.7933153    
    130900   315.69605     -72.08339      -66.900912      2.8105378    
samqeq SOLVER-DIAG step 131000: CG 13 iters (=13 matvecs) [warm], resid/b=6.52e-08
    131000   311.956       -72.031101     -66.910019      2.8186946    
    131100   313.66966     -72.04983      -66.900617      2.7934352    
samqeq SOLVER-DIAG step 131200: CG 13 iters (=13 matvecs) [warm], resid/b=8.92e-08
    131200   320.81211     -72.184504     -66.91804       2.8282956    
    131300   310.90669     -72.036526     -66.93267       2.853579     
samqeq SOLVER-DIAG step 131400: CG 14 iters (=14 matvecs) [warm], resid/b=4.76e-08
    131400   306.27525     -71.965119     -66.937292      2.8436469    
    131500   346.21483     -72.606504     -66.923028      2.859464     
samqeq SOLVER-DIAG step 131600: CG 14 iters (=14 matvecs) [warm], resid/b=4.68e-08
    131600   292.8093      -71.736256     -66.929487      2.831696     
    131700   329.06988     -72.345215     -66.943191      2.8324804    
samqeq SOLVER-DIAG step 131800: CG 14 iters (=14 matvecs) [warm], resid/b=8.22e-08
    131800   314.44743     -72.094054     -66.932072      2.8451902    
    131900   291.89468     -71.699641     -66.907886      2.80886      
samqeq SOLVER-DIAG step 132000: CG 14 iters (=14 matvecs) [warm], resid/b=4.08e-08
    132000   306.67401     -71.936931     -66.902559      2.8144992    
    132100   292.86694     -71.731783     -66.924068      2.841565     
samqeq SOLVER-DIAG step 132200: CG 14 iters (=14 matvecs) [warm], resid/b=4.72e-08
    132200   307.76918     -71.974415     -66.922064      2.8319331    
    132300   297.81951     -71.774282     -66.885266      2.7625297    
samqeq SOLVER-DIAG step 132400: CG 13 iters (=13 matvecs) [warm], resid/b=8.62e-08
    132400   292.88049     -71.709215     -66.901278      2.779438     
    132500   284.13649     -71.572094     -66.907698      2.7964206    
samqeq SOLVER-DIAG step 132600: CG 14 iters (=14 matvecs) [warm], resid/b=5.47e-08
    132600   291.45658     -71.689409     -66.904847      2.7855891    
    132700   332.59138     -72.357286     -66.897453      2.7947621    
samqeq SOLVER-DIAG step 132800: CG 14 iters (=14 matvecs) [warm], resid/b=6.24e-08
    132800   284.754       -71.559394     -66.884861      2.7736218    
    132900   306.04407     -71.894676     -66.870645      2.745344     
samqeq SOLVER-DIAG step 133000: CG 13 iters (=13 matvecs) [warm], resid/b=8.41e-08
    133000   278.17665     -71.458565     -66.892007      2.7448623    
    133100   286.94094     -71.601908     -66.891475      2.7887492    
samqeq SOLVER-DIAG step 133200: CG 13 iters (=13 matvecs) [warm], resid/b=7.00e-08
    133200   337.52294     -72.458114     -66.917324      2.8161355    
    133300   291.37731     -71.702524     -66.919263      2.812998     
samqeq SOLVER-DIAG step 133400: CG 14 iters (=14 matvecs) [warm], resid/b=5.27e-08
    133400   322.11003     -72.2204       -66.932629      2.8297862    
    133500   296.46135     -71.814811     -66.94809       2.8720464    
samqeq SOLVER-DIAG step 133600: CG 15 iters (=15 matvecs) [warm], resid/b=3.36e-08
    133600   331.09288     -72.381009     -66.945776      2.8784209    
    133700   324.98332     -72.294231     -66.959292      2.8884161    
samqeq SOLVER-DIAG step 133800: CG 14 iters (=14 matvecs) [warm], resid/b=4.02e-08
    133800   311.17653     -72.03173      -66.923444      2.8182454    
    133900   292.57924     -71.710664     -66.907672      2.804135     
samqeq SOLVER-DIAG step 134000: CG 14 iters (=14 matvecs) [warm], resid/b=4.58e-08
    134000   307.91156     -71.977825     -66.923137      2.8251234    
    134100   293.32654     -71.710181     -66.894921      2.8002196    
samqeq SOLVER-DIAG step 134200: CG 13 iters (=13 matvecs) [warm], resid/b=5.63e-08
    134200   273.68158     -71.38497      -66.892202      2.7672211    
    134300   300.32567     -71.832439     -66.902281      2.8022171    
samqeq SOLVER-DIAG step 134400: CG 13 iters (=13 matvecs) [warm], resid/b=7.86e-08
    134400   304.03354     -71.890871     -66.899844      2.8009091    
    134500   300.35501     -71.832261     -66.901622      2.7907384    
samqeq SOLVER-DIAG step 134600: CG 13 iters (=13 matvecs) [warm], resid/b=9.79e-08
    134600   283.73015     -71.579301     -66.921576      2.833301     
    134700   296.94344     -71.780085     -66.905451      2.8219922    
samqeq SOLVER-DIAG step 134800: CG 13 iters (=13 matvecs) [warm], resid/b=9.08e-08
    134800   302.82935     -71.86364      -66.892382      2.7872005    
    134900   311.33979     -72.003463     -66.892497      2.7558414    
samqeq SOLVER-DIAG step 135000: CG 13 iters (=13 matvecs) [warm], resid/b=8.03e-08
    135000   265.84609     -71.244215     -66.880076      2.7473196    
    135100   300.83217     -71.828393     -66.88992       2.7830975    
samqeq SOLVER-DIAG step 135200: CG 14 iters (=14 matvecs) [warm], resid/b=3.78e-08
    135200   285.3323      -71.592851     -66.908825      2.8174332    
    135300   293.73495     -71.719096     -66.897132      2.7837479    
samqeq SOLVER-DIAG step 135400: CG 14 iters (=14 matvecs) [warm], resid/b=3.92e-08
    135400   316.2262      -72.124643     -66.933461      2.8302057    
    135500   296.7976      -71.768141     -66.895901      2.7863693    
samqeq SOLVER-DIAG step 135600: CG 14 iters (=14 matvecs) [warm], resid/b=4.60e-08
    135600   347.54956     -72.623965     -66.918578      2.8237731    
    135700   312.55781     -72.056994     -66.926033      2.8256887    
samqeq SOLVER-DIAG step 135800: CG 14 iters (=14 matvecs) [warm], resid/b=2.85e-08
    135800   298.17909     -71.81996      -66.925041      2.8250861    
    135900   327.03883     -72.316055     -66.947373      2.8582556    
samqeq SOLVER-DIAG step 136000: CG 14 iters (=14 matvecs) [warm], resid/b=5.28e-08
    136000   299.72738     -71.831133     -66.910797      2.8001428    
    136100   288.37863     -71.654587     -66.920552      2.8077175    
samqeq SOLVER-DIAG step 136200: CG 14 iters (=14 matvecs) [warm], resid/b=5.95e-08
    136200   285.87383     -71.599844     -66.906928      2.8014566    
    136300   289.87999     -71.634124     -66.875442      2.7813345    
samqeq SOLVER-DIAG step 136400: CG 13 iters (=13 matvecs) [warm], resid/b=8.76e-08
    136400   274.90083     -71.410403     -66.897621      2.8006611    
    136500   304.05175     -71.891597     -66.900272      2.7907389    
samqeq SOLVER-DIAG step 136600: CG 13 iters (=13 matvecs) [warm], resid/b=5.88e-08
    136600   301.47497     -71.886376     -66.937352      2.8216013    
    136700   268.18683     -71.318649     -66.916083      2.8101513    
samqeq SOLVER-DIAG step 136800: CG 13 iters (=13 matvecs) [warm], resid/b=9.88e-08
    136800   311.53879     -72.032128     -66.917895      2.8095665    
    136900   279.25213     -71.462038     -66.877825      2.7693856    
samqeq SOLVER-DIAG step 137000: CG 13 iters (=13 matvecs) [warm], resid/b=5.56e-08
    137000   316.58553     -72.079415     -66.882335      2.7722317    
    137100   307.0106      -71.912876     -66.872979      2.7421497    
samqeq SOLVER-DIAG step 137200: CG 13 iters (=13 matvecs) [warm], resid/b=8.65e-08
    137200   287.84503     -71.628835     -66.90356       2.7735828    
    137300   300.60047     -71.848087     -66.913418      2.8161849    
samqeq SOLVER-DIAG step 137400: CG 13 iters (=13 matvecs) [warm], resid/b=7.98e-08
    137400   268.56395     -71.306947     -66.898191      2.7754378    
    137500   291.08742     -71.653341     -66.874839      2.7591635    
samqeq SOLVER-DIAG step 137600: CG 13 iters (=13 matvecs) [warm], resid/b=9.93e-08
    137600   327.35654     -72.274952     -66.901054      2.8144968    
    137700   290.62331     -71.664831     -66.893947      2.7839184    
samqeq SOLVER-DIAG step 137800: CG 14 iters (=14 matvecs) [warm], resid/b=6.10e-08
    137800   305.66666     -71.953487     -66.935651      2.8172183    
    137900   297.04782     -71.804599     -66.92825       2.8159988    
samqeq SOLVER-DIAG step 138000: CG 14 iters (=14 matvecs) [warm], resid/b=7.00e-08
    138000   288.45775     -71.655155     -66.919822      2.8096696    
    138100   324.05154     -72.227417     -66.907774      2.7763123    
samqeq SOLVER-DIAG step 138200: CG 14 iters (=14 matvecs) [warm], resid/b=5.68e-08
    138200   307.09985     -71.955475     -66.914113      2.8271903    
    138300   288.24188     -71.670479     -66.93869       2.8482554    
samqeq SOLVER-DIAG step 138400: CG 13 iters (=13 matvecs) [warm], resid/b=6.66e-08
    138400   303.38342     -71.905215     -66.924861      2.8216896    
    138500   314.98062     -72.095343     -66.924609      2.796358     
samqeq SOLVER-DIAG step 138600: CG 13 iters (=13 matvecs) [warm], resid/b=6.90e-08
    138600   289.8355      -71.64294      -66.884989      2.7405521    
    138700   294.59483     -71.754216     -66.918136      2.8154337    
samqeq SOLVER-DIAG step 138800: CG 13 iters (=13 matvecs) [warm], resid/b=7.29e-08
    138800   280.68768     -71.502507     -66.894728      2.7491812    
    138900   315.87682     -72.086446     -66.901         2.78115      
samqeq SOLVER-DIAG step 139000: CG 13 iters (=13 matvecs) [warm], resid/b=7.63e-08
    139000   284.08512     -71.574921     -66.911369      2.7829982    
    139100   288.8332      -71.637878     -66.896381      2.7467071    
samqeq SOLVER-DIAG step 139200: CG 14 iters (=14 matvecs) [warm], resid/b=4.42e-08
    139200   301.66754     -71.858065     -66.905879      2.7795103    
    139300   300.56487     -71.817419     -66.883334      2.7670479    
samqeq SOLVER-DIAG step 139400: CG 14 iters (=14 matvecs) [warm], resid/b=4.84e-08
    139400   301.46112     -71.839777     -66.89098       2.7786608    
    139500   310.24318     -72.018953     -66.925989      2.8193293    
samqeq SOLVER-DIAG step 139600: CG 13 iters (=13 matvecs) [warm], resid/b=9.21e-08
    139600   277.18034     -71.448763     -66.89856       2.7704486    
    139700   306.44119     -71.951942     -66.921392      2.8115289    
samqeq SOLVER-DIAG step 139800: CG 14 iters (=14 matvecs) [warm], resid/b=4.99e-08
    139800   310.31788     -72.03971      -66.94552       2.8553165    
    139900   322.66509     -72.234765     -66.937882      2.8538885    
samqeq SOLVER-DIAG step 140000: CG 14 iters (=14 matvecs) [warm], resid/b=6.36e-08
    140000   335.99346     -72.44867      -66.932989      2.8400114    
    140100   319.61622     -72.162768     -66.915935      2.8176214    
samqeq SOLVER-DIAG step 140200: CG 14 iters (=14 matvecs) [warm], resid/b=5.06e-08
    140200   309.96428     -72.014719     -66.926334      2.8191109    
    140300   285.80972     -71.591492     -66.899628      2.7765186    
samqeq SOLVER-DIAG step 140400: CG 14 iters (=14 matvecs) [warm], resid/b=4.28e-08
    140400   318.96349     -72.137962     -66.901845      2.79089      
    140500   308.03829     -71.990028     -66.933259      2.8011398    
samqeq SOLVER-DIAG step 140600: CG 13 iters (=13 matvecs) [warm], resid/b=7.45e-08
    140600   298.79785     -71.832491     -66.927414      2.8298693    
    140700   298.92668     -71.848538     -66.941346      2.8533734    
samqeq SOLVER-DIAG step 140800: CG 13 iters (=13 matvecs) [warm], resid/b=9.76e-08
    140800   335.51115     -72.430447     -66.922683      2.8244219    
    140900   278.54009     -71.475472     -66.902947      2.7967026    
samqeq SOLVER-DIAG step 141000: CG 13 iters (=13 matvecs) [warm], resid/b=6.89e-08
    141000   271.09019     -71.364605     -66.914378      2.8063727    
    141100   283.39356     -71.557122     -66.904922      2.782209     
samqeq SOLVER-DIAG step 141200: CG 14 iters (=14 matvecs) [warm], resid/b=5.44e-08
    141200   327.42461     -72.314439     -66.939424      2.8351218    
    141300   291.91322     -71.669788     -66.87773       2.7698728    
samqeq SOLVER-DIAG step 141400: CG 14 iters (=14 matvecs) [warm], resid/b=4.12e-08
    141400   311.20521     -71.993549     -66.884792      2.785574     
    141500   299.16245     -71.804493     -66.893431      2.7964388    
samqeq SOLVER-DIAG step 141600: CG 14 iters (=14 matvecs) [warm], resid/b=7.33e-08
    141600   330.05058     -72.345072     -66.926949      2.8428391    
    141700   299.93207     -71.869026     -66.94533       2.8328432    
samqeq SOLVER-DIAG step 141800: CG 14 iters (=14 matvecs) [warm], resid/b=6.48e-08
    141800   322.4866      -72.23789      -66.943938      2.8306641    
    141900   317.27661     -72.122129     -66.913704      2.7918434    
samqeq SOLVER-DIAG step 142000: CG 14 iters (=14 matvecs) [warm], resid/b=6.30e-08
    142000   314.99524     -72.059314     -66.88834       2.7774062    
    142100   320.25248     -72.192761     -66.935484      2.8260834    
samqeq SOLVER-DIAG step 142200: CG 14 iters (=14 matvecs) [warm], resid/b=7.17e-08
    142200   306.22599     -71.97056      -66.943542      2.8425155    
    142300   296.01796     -71.78681      -66.927368      2.8127776    
samqeq SOLVER-DIAG step 142400: CG 13 iters (=13 matvecs) [warm], resid/b=9.98e-08
    142400   300.94591     -71.87667      -66.93633       2.8075553    
    142500   296.2368      -71.786505     -66.923471      2.796196     
samqeq SOLVER-DIAG step 142600: CG 13 iters (=13 matvecs) [warm], resid/b=5.67e-08
    142600   301.70193     -71.844502     -66.891751      2.7613991    
    142700   298.67227     -71.83283      -66.929814      2.8155686    
samqeq SOLVER-DIAG step 142800: CG 13 iters (=13 matvecs) [warm], resid/b=9.52e-08
    142800   296.64508     -71.764617     -66.89488       2.7642137    
    142900   310.22995     -71.990136     -66.897389      2.7903462    
samqeq SOLVER-DIAG step 143000: CG 13 iters (=13 matvecs) [warm], resid/b=6.56e-08
    143000   331.20832     -72.345988     -66.908859      2.7938145    
    143100   312.88265     -72.053929     -66.917636      2.8114805    
samqeq SOLVER-DIAG step 143200: CG 14 iters (=14 matvecs) [warm], resid/b=4.79e-08
    143200   271.38193     -71.348378     -66.893362      2.7736453    
    143300   278.07911     -71.448777     -66.88382       2.7493791    
samqeq SOLVER-DIAG step 143400: CG 14 iters (=14 matvecs) [warm], resid/b=5.59e-08
    143400   310.36015     -72.00987      -66.914985      2.808154     
    143500   320.81389     -72.224853     -66.95836       2.8748081    
samqeq SOLVER-DIAG step 143600: CG 13 iters (=13 matvecs) [warm], resid/b=7.75e-08
    143600   321.02968     -72.209011     -66.938976      2.8358983    
    143700   311.43366     -72.045016     -66.932509      2.8253604    
samqeq SOLVER-DIAG step 143800: CG 14 iters (=14 matvecs) [warm], resid/b=7.51e-08
    143800   303.88042     -71.912868     -66.924355      2.8316614    
    143900   300.18799     -71.85665      -66.928752      2.8282349    
samqeq SOLVER-DIAG step 144000: CG 13 iters (=13 matvecs) [warm], resid/b=6.86e-08
    144000   295.76807     -71.759773     -66.904433      2.8298072    
    144100   263.60516     -71.210389     -66.883037      2.7666702    
samqeq SOLVER-DIAG step 144200: CG 13 iters (=13 matvecs) [warm], resid/b=9.76e-08
    144200   292.00594     -71.704988     -66.911407      2.8146664    
    144300   304.62968     -71.920223     -66.91941       2.812779     
samqeq SOLVER-DIAG step 144400: CG 14 iters (=14 matvecs) [warm], resid/b=6.68e-08
    144400   310.22507     -71.999946     -66.907279      2.7992395    
    144500   276.9225      -71.466959     -66.920988      2.8333704    
samqeq SOLVER-DIAG step 144600: CG 14 iters (=14 matvecs) [warm], resid/b=5.64e-08
    144600   286.91566     -71.624342     -66.914324      2.8185768    
    144700   293.16351     -71.752693     -66.940109      2.8217374    
samqeq SOLVER-DIAG step 144800: CG 14 iters (=14 matvecs) [warm], resid/b=7.01e-08
    144800   327.96948     -72.33653      -66.952571      2.8939154    
    144900   296.14493     -71.775711     -66.914184      2.825953     
samqeq SOLVER-DIAG step 145000: CG 14 iters (=14 matvecs) [warm], resid/b=5.30e-08
    145000   302.80894     -71.897377     -66.926454      2.8237736    
    145100   319.58131     -72.155802     -66.909543      2.8043724    
samqeq SOLVER-DIAG step 145200: CG 14 iters (=14 matvecs) [warm], resid/b=5.41e-08
    145200   297.20542     -71.79672      -66.917784      2.8229992    
    145300   314.41104     -72.077571     -66.916187      2.8329296    
samqeq SOLVER-DIAG step 145400: CG 14 iters (=14 matvecs) [warm], resid/b=3.93e-08
    145400   286.02241     -71.628869     -66.933514      2.8350599    
    145500   281.58771     -71.526079     -66.903524      2.7947736    
samqeq SOLVER-DIAG step 145600: CG 14 iters (=14 matvecs) [warm], resid/b=6.99e-08
    145600   329.4715      -72.345389     -66.936772      2.8562445    
    145700   285.84897     -71.613865     -66.921357      2.8271499    
samqeq SOLVER-DIAG step 145800: CG 14 iters (=14 matvecs) [warm], resid/b=4.83e-08
    145800   313.44241     -72.075173     -66.92969       2.843124     
    145900   304.50685     -71.9619       -66.963104      2.8958513    
samqeq SOLVER-DIAG step 146000: CG 14 iters (=14 matvecs) [warm], resid/b=6.39e-08
    146000   311.08972     -72.035962     -66.929101      2.8293924    
    146100   311.54389     -72.050943     -66.936627      2.8289435    
samqeq SOLVER-DIAG step 146200: CG 14 iters (=14 matvecs) [warm], resid/b=4.45e-08
    146200   304.86941     -71.948557     -66.943809      2.8258063    
    146300   327.36962     -72.297078     -66.922966      2.8122758    
samqeq SOLVER-DIAG step 146400: CG 14 iters (=14 matvecs) [warm], resid/b=6.63e-08
    146400   317.95145     -72.156165     -66.936662      2.8364732    
    146500   296.09492     -71.766008     -66.905303      2.7887415    
samqeq SOLVER-DIAG step 146600: CG 13 iters (=13 matvecs) [warm], resid/b=8.63e-08
    146600   299.41781     -71.830983     -66.915728      2.7972119    
    146700   290.27128     -71.66216      -66.897056      2.7689214    
samqeq SOLVER-DIAG step 146800: CG 13 iters (=13 matvecs) [warm], resid/b=7.10e-08
    146800   283.4705      -71.570868     -66.917406      2.8020824    
    146900   303.6909      -71.879953     -66.894552      2.7613997    
samqeq SOLVER-DIAG step 147000: CG 14 iters (=14 matvecs) [warm], resid/b=4.10e-08
    147000   287.2966      -71.626586     -66.910314      2.7845172    
    147100   328.82296     -72.356215     -66.958245      2.8534186    
samqeq SOLVER-DIAG step 147200: CG 14 iters (=14 matvecs) [warm], resid/b=6.90e-08
    147200   329.00366     -72.336005     -66.935068      2.830416     
    147300   325.27379     -72.297411     -66.957704      2.8653507    
samqeq SOLVER-DIAG step 147400: CG 14 iters (=14 matvecs) [warm], resid/b=4.91e-08
    147400   307.12804     -71.969588     -66.927762      2.8233535    
    147500   310.73976     -72.046043     -66.944927      2.8427422    
samqeq SOLVER-DIAG step 147600: CG 14 iters (=14 matvecs) [warm], resid/b=4.31e-08
    147600   251.72562     -71.038933     -66.906595      2.7966329    
    147700   319.34772     -72.176887     -66.934463      2.8412424    
samqeq SOLVER-DIAG step 147800: CG 13 iters (=13 matvecs) [warm], resid/b=8.41e-08
    147800   295.23666     -71.76816      -66.921544      2.7921595    
    147900   318.78955     -72.155243     -66.921981      2.80055      
samqeq SOLVER-DIAG step 148000: CG 14 iters (=14 matvecs) [warm], resid/b=6.11e-08
    148000   306.91567     -71.970976     -66.932636      2.8280657    
    148100   309.549       -71.993546     -66.911978      2.8069769    
samqeq SOLVER-DIAG step 148200: CG 13 iters (=13 matvecs) [warm], resid/b=6.87e-08
    148200   288.25662     -71.639889     -66.907857      2.7891561    
    148300   292.25025     -71.702511     -66.90492       2.7831781    
samqeq SOLVER-DIAG step 148400: CG 14 iters (=14 matvecs) [warm], resid/b=4.85e-08
    148400   282.84256     -71.550205     -66.907051      2.7978578    
    148500   323.56013     -72.253793     -66.942217      2.8302283    
samqeq SOLVER-DIAG step 148600: CG 14 iters (=14 matvecs) [warm], resid/b=4.66e-08
    148600   317.50279     -72.144986     -66.932848      2.82864      
    148700   313.84004     -72.091105     -66.939094      2.8392404    
samqeq SOLVER-DIAG step 148800: CG 13 iters (=13 matvecs) [warm], resid/b=8.22e-08
    148800   310.29025     -72.003927     -66.91019       2.7927578    
    148900   306.29687     -71.948784     -66.920603      2.8053779    
samqeq SOLVER-DIAG step 149000: CG 14 iters (=14 matvecs) [warm], resid/b=4.60e-08
    149000   331.13453     -72.379959     -66.944042      2.8535756    
    149100   301.20669     -71.886387     -66.941766      2.8354697    
samqeq SOLVER-DIAG step 149200: CG 13 iters (=13 matvecs) [warm], resid/b=6.71e-08
    149200   323.78869     -72.265179     -66.949851      2.8297651    
    149300   322.66982     -72.237157     -66.940197      2.8444856    
samqeq SOLVER-DIAG step 149400: CG 14 iters (=14 matvecs) [warm], resid/b=4.97e-08
    149400   316.14355     -72.134663     -66.944839      2.8520487    
    149500   311.56133     -72.054905     -66.940302      2.8381401    
samqeq SOLVER-DIAG step 149600: CG 14 iters (=14 matvecs) [warm], resid/b=4.20e-08
    149600   294.96198     -71.772646     -66.930539      2.8294892    
    149700   310.21361     -72.0154       -66.922922      2.7696378    
samqeq SOLVER-DIAG step 149800: CG 13 iters (=13 matvecs) [warm], resid/b=8.62e-08
    149800   291.41016     -71.718826     -66.935026      2.8083905    
    149900   277.71249     -71.46425      -66.905311      2.7632623    
samqeq SOLVER-DIAG step 150000: CG 14 iters (=14 matvecs) [warm], resid/b=5.57e-08
    150000   305.8499      -71.969035     -66.948192      2.828515     
    150100   315.25663     -72.149093     -66.973828      2.8666986    
samqeq SOLVER-DIAG step 150200: CG 14 iters (=14 matvecs) [warm], resid/b=5.43e-08
    150200   305.2422      -71.98875      -66.977883      2.8684327    
    150300   288.36279     -71.669996     -66.936222      2.8252585    
samqeq SOLVER-DIAG step 150400: CG 14 iters (=14 matvecs) [warm], resid/b=3.67e-08
    150400   274.06731     -71.433701     -66.934601      2.7923183    
    150500   270.52403     -71.3333       -66.892367      2.752998     
samqeq SOLVER-DIAG step 150600: CG 14 iters (=14 matvecs) [warm], resid/b=4.72e-08
    150600   303.49754     -71.880716     -66.898489      2.7623391    
    150700   284.84031     -71.592499     -66.91655       2.797359     
samqeq SOLVER-DIAG step 150800: CG 14 iters (=14 matvecs) [warm], resid/b=5.28e-08
    150800   310.89563     -72.013223     -66.909548      2.7861766    
    150900   296.39031     -71.801296     -66.935742      2.8114902    
samqeq SOLVER-DIAG step 151000: CG 13 iters (=13 matvecs) [warm], resid/b=9.94e-08
    151000   302.56028     -71.876897     -66.910056      2.8071522    
    151100   319.956       -72.184602     -66.932192      2.8175872    
samqeq SOLVER-DIAG step 151200: CG 13 iters (=13 matvecs) [warm], resid/b=8.30e-08
    151200   289.74788     -71.664086     -66.907573      2.7973331    
    151300   281.65129     -71.527847     -66.904249      2.770021     
samqeq SOLVER-DIAG step 151400: CG 14 iters (=14 matvecs) [warm], resid/b=6.86e-08
    151400   276.47942     -71.428142     -66.889445      2.7697481    
    151500   281.01852     -71.530233     -66.917022      2.8152245    
samqeq SOLVER-DIAG step 151600: CG 14 iters (=14 matvecs) [warm], resid/b=5.27e-08
    151600   304.93975     -71.937266     -66.931363      2.8109737    
    151700   291.00006     -71.695472     -66.918404      2.797856     
samqeq SOLVER-DIAG step 151800: CG 14 iters (=14 matvecs) [warm], resid/b=6.88e-08
    151800   296.54205     -71.765393     -66.897347      2.7683866    
    151900   313.54109     -72.078332     -66.93123       2.843929     
samqeq SOLVER-DIAG step 152000: CG 14 iters (=14 matvecs) [warm], resid/b=4.53e-08
    152000   292.58321     -71.714896     -66.911838      2.7968172    
    152100   300.19955     -71.830091     -66.902004      2.8031781    
samqeq SOLVER-DIAG step 152200: CG 14 iters (=14 matvecs) [warm], resid/b=5.03e-08
    152200   289.89375     -71.672107     -66.9132        2.7985432    
    152300   307.83356     -71.956364     -66.902957      2.7911149    
samqeq SOLVER-DIAG step 152400: CG 13 iters (=13 matvecs) [warm], resid/b=9.98e-08
    152400   306.50729     -71.946318     -66.914682      2.7995793    
    152500   316.74686     -72.126713     -66.926985      2.8182013    
samqeq SOLVER-DIAG step 152600: CG 13 iters (=13 matvecs) [warm], resid/b=8.47e-08
    152600   287.90831     -71.681302     -66.954988      2.87325      
    152700   320.11646     -72.167659     -66.912614      2.8037495    
samqeq SOLVER-DIAG step 152800: CG 14 iters (=14 matvecs) [warm], resid/b=4.62e-08
    152800   325.22109     -72.263803     -66.924961      2.8484649    
    152900   264.90545     -71.239574     -66.890876      2.7809227    
samqeq SOLVER-DIAG step 153000: CG 13 iters (=13 matvecs) [warm], resid/b=7.48e-08
    153000   269.24587     -71.32171      -66.90176       2.7679351    
    153100   304.58865     -71.900621     -66.900482      2.7886538    
samqeq SOLVER-DIAG step 153200: CG 13 iters (=13 matvecs) [warm], resid/b=7.59e-08
    153200   306.96336     -71.939038     -66.899915      2.7850112    
    153300   312.43439     -72.04335      -66.914415      2.8006819    
samqeq SOLVER-DIAG step 153400: CG 13 iters (=13 matvecs) [warm], resid/b=7.66e-08
    153400   322.00218     -72.212743     -66.926743      2.8276883    
    153500   299.16787     -71.818892     -66.907741      2.8056582    
samqeq SOLVER-DIAG step 153600: CG 14 iters (=14 matvecs) [warm], resid/b=6.92e-08
    153600   305.85661     -71.941844     -66.920891      2.8147835    
    153700   286.48468     -71.598347     -66.895404      2.7559958    
samqeq SOLVER-DIAG step 153800: CG 13 iters (=13 matvecs) [warm], resid/b=7.80e-08
    153800   277.1972      -71.436191     -66.885711      2.7595185    
    153900   317.31998     -72.12456      -66.915423      2.8103645    
samqeq SOLVER-DIAG step 154000: CG 14 iters (=14 matvecs) [warm], resid/b=5.45e-08
    154000   301.7212      -71.822336     -66.869269      2.7598516    
    154100   276.26606     -71.44003      -66.904836      2.7925257    
samqeq SOLVER-DIAG step 154200: CG 14 iters (=14 matvecs) [warm], resid/b=4.55e-08
    154200   314.05853     -72.08737      -66.931774      2.836572     
    154300   323.1864      -72.233963     -66.928522      2.8397416    
samqeq SOLVER-DIAG step 154400: CG 14 iters (=14 matvecs) [warm], resid/b=6.93e-08
    154400   324.63119     -72.275689     -66.94653       2.867891     
    154500   327.21625     -72.299662     -66.928067      2.8443374    
samqeq SOLVER-DIAG step 154600: CG 14 iters (=14 matvecs) [warm], resid/b=4.21e-08
    154600   293.90965     -71.718935     -66.894103      2.783438     
    154700   315.16744     -72.095153     -66.921353      2.8235404    
samqeq SOLVER-DIAG step 154800: CG 13 iters (=13 matvecs) [warm], resid/b=9.25e-08
    154800   313.89282     -72.078821     -66.925945      2.8426368    
    154900   281.02488     -71.51494      -66.901625      2.7743215    
samqeq SOLVER-DIAG step 155000: CG 13 iters (=13 matvecs) [warm], resid/b=7.94e-08
    155000   317.68068     -72.137589     -66.922531      2.8128917    
    155100   292.23672     -71.687806     -66.890436      2.7702156    
samqeq SOLVER-DIAG step 155200: CG 14 iters (=14 matvecs) [warm], resid/b=6.91e-08
    155200   278.79381     -71.472569     -66.895879      2.8108286    
    155300   291.02086     -71.672964     -66.895555      2.7619286    
samqeq SOLVER-DIAG step 155400: CG 13 iters (=13 matvecs) [warm], resid/b=8.21e-08
    155400   277.60776     -71.454385     -66.897166      2.7725525    
    155500   301.75901     -71.840343     -66.886656      2.7668305    
samqeq SOLVER-DIAG step 155600: CG 14 iters (=14 matvecs) [warm], resid/b=5.33e-08
    155600   319.79063     -72.183789     -66.934094      2.8514504    
    155700   307.07011     -71.956572     -66.915697      2.8372821    
samqeq SOLVER-DIAG step 155800: CG 14 iters (=14 matvecs) [warm], resid/b=4.46e-08
    155800   317.55996     -72.118834     -66.905757      2.8250746    
    155900   312.97078     -72.048603     -66.910863      2.8094733    
samqeq SOLVER-DIAG step 156000: CG 14 iters (=14 matvecs) [warm], resid/b=5.50e-08
    156000   316.71487     -72.141989     -66.942786      2.8680257    
    156100   296.44256     -71.792835     -66.926423      2.831177     
samqeq SOLVER-DIAG step 156200: CG 13 iters (=13 matvecs) [warm], resid/b=7.13e-08
    156200   289.4475      -71.671939     -66.920358      2.8150923    
    156300   303.39768     -71.886869     -66.906281      2.8105691    
samqeq SOLVER-DIAG step 156400: CG 14 iters (=14 matvecs) [warm], resid/b=6.69e-08
    156400   268.55286     -71.316529     -66.907955      2.7989698    
    156500   315.42164     -72.124835     -66.946861      2.8543859    
samqeq SOLVER-DIAG step 156600: CG 14 iters (=14 matvecs) [warm], resid/b=6.10e-08
    156600   294.38485     -71.769003     -66.93637       2.8433963    
    156700   292.98355     -71.718641     -66.909012      2.8019099    
samqeq SOLVER-DIAG step 156800: CG 14 iters (=14 matvecs) [warm], resid/b=5.22e-08
    156800   298.29479     -71.797494     -66.900676      2.7972325    
    156900   308.81297     -71.966747     -66.897261      2.7827403    
samqeq SOLVER-DIAG step 157000: CG 14 iters (=14 matvecs) [warm], resid/b=5.54e-08
    157000   268.01014     -71.284896     -66.885232      2.7555824    
    157100   313.09923     -72.054608     -66.914759      2.8242834    
samqeq SOLVER-DIAG step 157200: CG 14 iters (=14 matvecs) [warm], resid/b=4.75e-08
    157200   291.70273     -71.706307     -66.917704      2.8354738    
    157300   297.17201     -71.782156     -66.903769      2.8065208    
samqeq SOLVER-DIAG step 157400: CG 13 iters (=13 matvecs) [warm], resid/b=4.89e-08
    157400   310.40279     -71.999786     -66.904202      2.8051298    
    157500   288.10395     -71.658914     -66.929388      2.8409625    
samqeq SOLVER-DIAG step 157600: CG 14 iters (=14 matvecs) [warm], resid/b=5.03e-08
    157600   291.31361     -71.719923     -66.937708      2.842405     
    157700   278.18051     -71.480269     -66.913647      2.8148597    
samqeq SOLVER-DIAG step 157800: CG 13 iters (=13 matvecs) [warm], resid/b=7.61e-08
    157800   281.26639     -71.524203     -66.906923      2.7933685    
    157900   318.09452     -72.119852     -66.898         2.8069267    
samqeq SOLVER-DIAG step 158000: CG 13 iters (=13 matvecs) [warm], resid/b=6.98e-08
    158000   311.51256     -72.012951     -66.899149      2.7581618    
    158100   298.12382     -71.812176     -66.918164      2.7906289    
samqeq SOLVER-DIAG step 158200: CG 14 iters (=14 matvecs) [warm], resid/b=5.70e-08
    158200   293.97616     -71.759795     -66.933871      2.8450635    
    158300   334.61814     -72.399108     -66.906004      2.8011549    
samqeq SOLVER-DIAG step 158400: CG 13 iters (=13 matvecs) [warm], resid/b=9.90e-08
    158400   316.39176     -72.102787     -66.908888      2.8018087    
    158500   293.98574     -71.719405     -66.893324      2.7992671    
samqeq SOLVER-DIAG step 158600: CG 14 iters (=14 matvecs) [warm], resid/b=8.48e-08
    158600   292.08166     -71.720185     -66.925362      2.815121     
    158700   301.32913     -71.873957     -66.927327      2.8301254    
samqeq SOLVER-DIAG step 158800: CG 13 iters (=13 matvecs) [warm], resid/b=8.49e-08
    158800   322.65647     -72.221808     -66.925067      2.829952     
    158900   324.0028      -72.256202     -66.93736       2.8425084    
samqeq SOLVER-DIAG step 159000: CG 14 iters (=14 matvecs) [warm], resid/b=5.68e-08
    159000   324.6069      -72.299117     -66.970358      2.8929035    
    159100   289.23998     -71.654211     -66.906037      2.7758064    
samqeq SOLVER-DIAG step 159200: CG 13 iters (=13 matvecs) [warm], resid/b=8.86e-08
    159200   278.67152     -71.524183     -66.949501      2.8376445    
    159300   326.6727      -72.302386     -66.939715      2.8396615    
samqeq SOLVER-DIAG step 159400: CG 13 iters (=13 matvecs) [warm], resid/b=8.15e-08
    159400   316.23071     -72.105854     -66.914598      2.7927989    
    159500   283.80894     -71.591791     -66.932773      2.8356495    
samqeq SOLVER-DIAG step 159600: CG 13 iters (=13 matvecs) [warm], resid/b=5.20e-08
    159600   294.58614     -71.761482     -66.925545      2.7999738    
    159700   302.46313     -71.903383     -66.938137      2.8407991    
samqeq SOLVER-DIAG step 159800: CG 13 iters (=13 matvecs) [warm], resid/b=6.76e-08
    159800   300.16756     -71.823739     -66.896177      2.789646     
    159900   296.14175     -71.783284     -66.92181       2.8060873    
samqeq SOLVER-DIAG step 160000: CG 14 iters (=14 matvecs) [warm], resid/b=6.57e-08
    160000   288.05669     -71.646021     -66.917271      2.7910007    
    160100   296.67955     -71.809441     -66.939138      2.8367695    
samqeq SOLVER-DIAG step 160200: CG 14 iters (=14 matvecs) [warm], resid/b=4.29e-08
    160200   303.58972     -71.940137     -66.956396      2.8492356    
    160300   305.97427     -71.971616     -66.948731      2.8278622    
samqeq SOLVER-DIAG step 160400: CG 13 iters (=13 matvecs) [warm], resid/b=9.07e-08
    160400   279.08101     -71.487514     -66.90611       2.779738     
    160500   294.28381     -71.742538     -66.911563      2.7946513    
samqeq SOLVER-DIAG step 160600: CG 13 iters (=13 matvecs) [warm], resid/b=5.52e-08
    160600   295.01232     -71.765894     -66.92296       2.8083281    
    160700   322.29699     -72.220851     -66.930011      2.8389687    
samqeq SOLVER-DIAG step 160800: CG 14 iters (=14 matvecs) [warm], resid/b=5.39e-08
    160800   282.18674     -71.537665     -66.905277      2.7947532    
    160900   312.82149     -72.08068      -66.945391      2.8276747    
samqeq SOLVER-DIAG step 161000: CG 13 iters (=13 matvecs) [warm], resid/b=7.28e-08
    161000   267.66938     -71.304488     -66.910417      2.7734702    
    161100   312.20479     -72.035225     -66.910059      2.8076794    
samqeq SOLVER-DIAG step 161200: CG 13 iters (=13 matvecs) [warm], resid/b=9.97e-08
    161200   307.32286     -71.965187     -66.920163      2.8099891    
    161300   312.21288     -72.068498     -66.943199      2.8715985    
samqeq SOLVER-DIAG step 161400: CG 14 iters (=14 matvecs) [warm], resid/b=4.45e-08
    161400   311.70058     -72.054873     -66.937985      2.8316019    
    161500   290.33687     -71.684255     -66.918074      2.8175326    
samqeq SOLVER-DIAG step 161600: CG 14 iters (=14 matvecs) [warm], resid/b=5.38e-08
    161600   287.30279     -71.613663     -66.897289      2.7772655    
    161700   285.75199     -71.605298     -66.914382      2.7969676    
samqeq SOLVER-DIAG step 161800: CG 14 iters (=14 matvecs) [warm], resid/b=5.09e-08
    161800   298.56755     -71.814111     -66.912815      2.7920722    
    161900   257.71201     -71.130381     -66.899771      2.7534072    
samqeq SOLVER-DIAG step 162000: CG 14 iters (=14 matvecs) [warm], resid/b=7.86e-08
    162000   319.10583     -72.181352     -66.942899      2.8258691    
    162100   328.39539     -72.343297     -66.952345      2.8666912    
samqeq SOLVER-DIAG step 162200: CG 14 iters (=14 matvecs) [warm], resid/b=3.30e-08
    162200   318.57867     -72.17447      -66.94467       2.8581549    
    162300   314.63175     -72.093766     -66.928759      2.8030091    
samqeq SOLVER-DIAG step 162400: CG 13 iters (=13 matvecs) [warm], resid/b=8.56e-08
    162400   297.06805     -71.797664     -66.920984      2.7926257    
    162500   277.53159     -71.485344     -66.929374      2.8031103    
samqeq SOLVER-DIAG step 162600: CG 13 iters (=13 matvecs) [warm], resid/b=8.47e-08
    162600   296.06453     -71.78571      -66.925504      2.8037864    
    162700   272.90085     -71.382077     -66.902126      2.7687088    
samqeq SOLVER-DIAG step 162800: CG 13 iters (=13 matvecs) [warm], resid/b=7.64e-08
    162800   279.58172     -71.47775      -66.888126      2.7563339    
    162900   325.17878     -72.228448     -66.8903        2.7718557    
samqeq SOLVER-DIAG step 163000: CG 14 iters (=14 matvecs) [warm], resid/b=5.16e-08
    163000   291.7768      -71.704641     -66.914821      2.7987523    
    163100   282.08258     -71.532982     -66.902304      2.7809971    
samqeq SOLVER-DIAG step 163200: CG 13 iters (=13 matvecs) [warm], resid/b=9.03e-08
    163200   306.09615     -71.95873      -66.933844      2.817        
    163300   290.68207     -71.704046     -66.932198      2.829017     
samqeq SOLVER-DIAG step 163400: CG 14 iters (=14 matvecs) [warm], resid/b=5.42e-08
    163400   311.21742     -72.043258     -66.934301      2.8463618    
    163500   303.91461     -71.928558     -66.939484      2.8436422    
samqeq SOLVER-DIAG step 163600: CG 14 iters (=14 matvecs) [warm], resid/b=3.79e-08
    163600   333.6801      -72.442965     -66.965259      2.875533     
    163700   307.4195      -71.976826     -66.930216      2.8228532    
samqeq SOLVER-DIAG step 163800: CG 13 iters (=13 matvecs) [warm], resid/b=7.39e-08
    163800   273.37064     -71.386741     -66.899078      2.7555       
    163900   282.92596     -71.551275     -66.906752      2.77364      
samqeq SOLVER-DIAG step 164000: CG 13 iters (=13 matvecs) [warm], resid/b=9.12e-08
    164000   288.39616     -71.625866     -66.891544      2.7540499    
    164100   274.43399     -71.389639     -66.88452       2.783004     
samqeq SOLVER-DIAG step 164200: CG 13 iters (=13 matvecs) [warm], resid/b=9.07e-08
    164200   288.12129     -71.644462     -66.914652      2.8122978    
    164300   316.01303     -72.106574     -66.918892      2.8180862    
samqeq SOLVER-DIAG step 164400: CG 14 iters (=14 matvecs) [warm], resid/b=4.14e-08
    164400   293.37247     -71.72699      -66.910976      2.8251308    
    164500   288.68957     -71.68291      -66.94377       2.835266     
samqeq SOLVER-DIAG step 164600: CG 13 iters (=13 matvecs) [warm], resid/b=9.62e-08
    164600   273.84973     -71.400031     -66.904503      2.7908426    
    164700   302.04431     -71.844742     -66.886371      2.7528652    
samqeq SOLVER-DIAG step 164800: CG 14 iters (=14 matvecs) [warm], resid/b=5.76e-08
    164800   279.39624     -71.484251     -66.897672      2.7889954    
    164900   315.20883     -72.107123     -66.932643      2.8328188    
samqeq SOLVER-DIAG step 165000: CG 14 iters (=14 matvecs) [warm], resid/b=7.84e-08
    165000   301.8575      -71.880618     -66.925313      2.8065385    
    165100   312.78503     -72.067225     -66.932534      2.8126332    
samqeq SOLVER-DIAG step 165200: CG 13 iters (=13 matvecs) [warm], resid/b=7.65e-08
    165200   293.28625     -71.722209     -66.907611      2.7735732    
    165300   321.81402     -72.220258     -66.937346      2.8554251    
samqeq SOLVER-DIAG step 165400: CG 14 iters (=14 matvecs) [warm], resid/b=5.68e-08
    165400   275.65308     -71.436102     -66.91097       2.7744966    
    165500   320.16772     -72.185061     -66.929176      2.8180317    
samqeq SOLVER-DIAG step 165600: CG 14 iters (=14 matvecs) [warm], resid/b=3.92e-08
    165600   309.33613     -72.012731     -66.934658      2.8166636    
    165700   301.20492     -71.857717     -66.913126      2.7823177    
samqeq SOLVER-DIAG step 165800: CG 13 iters (=13 matvecs) [warm], resid/b=8.61e-08
    165800   313.95615     -72.091089     -66.937173      2.8145491    
    165900   305.83046     -71.947193     -66.926668      2.8056234    
samqeq SOLVER-DIAG step 166000: CG 14 iters (=14 matvecs) [warm], resid/b=4.14e-08
    166000   290.73619     -71.716776     -66.944039      2.8232447    
    166100   284.88564     -71.577729     -66.901035      2.7540805    
samqeq SOLVER-DIAG step 166200: CG 14 iters (=14 matvecs) [warm], resid/b=5.61e-08
    166200   273.3222      -71.401998     -66.915131      2.7913936    
    166300   294.88283     -71.758998     -66.91819       2.8007371    
samqeq SOLVER-DIAG step 166400: CG 14 iters (=14 matvecs) [warm], resid/b=5.40e-08
    166400   306.8545      -71.974028     -66.936693      2.820034     
    166500   301.71763     -71.905935     -66.952927      2.8365693    
samqeq SOLVER-DIAG step 166600: CG 13 iters (=13 matvecs) [warm], resid/b=6.45e-08
    166600   266.95546     -71.27538      -66.893029      2.7528242    
    166700   294.4229      -71.735273     -66.902016      2.7627817    
samqeq SOLVER-DIAG step 166800: CG 13 iters (=13 matvecs) [warm], resid/b=9.09e-08
    166800   302.64129     -71.903037     -66.934866      2.8334475    
    166900   297.7369      -71.787905     -66.900245      2.7631993    
samqeq SOLVER-DIAG step 167000: CG 13 iters (=13 matvecs) [warm], resid/b=8.70e-08
    167000   270.70187     -71.36024      -66.916387      2.7803569    
    167100   293.48544     -71.761436     -66.943567      2.8125724    
samqeq SOLVER-DIAG step 167200: CG 14 iters (=14 matvecs) [warm], resid/b=4.57e-08
    167200   291.50401     -71.714487     -66.929146      2.7848936    
    167300   302.50981     -71.874523     -66.908511      2.7755586    
samqeq SOLVER-DIAG step 167400: CG 14 iters (=14 matvecs) [warm], resid/b=4.39e-08
    167400   305.62753     -71.94939      -66.932196      2.8183403    
    167500   319.21936     -72.155469     -66.915152      2.7981942    
samqeq SOLVER-DIAG step 167600: CG 13 iters (=13 matvecs) [warm], resid/b=9.59e-08
    167600   301.97697     -71.874782     -66.917517      2.7795654    
    167700   266.97823     -71.294579     -66.911854      2.7721179    
samqeq SOLVER-DIAG step 167800: CG 14 iters (=14 matvecs) [warm], resid/b=5.29e-08
    167800   280.08004     -71.490531     -66.892726      2.7747192    
    167900   326.29553     -72.275282     -66.918802      2.8122444    
samqeq SOLVER-DIAG step 168000: CG 14 iters (=14 matvecs) [warm], resid/b=7.00e-08
    168000   323.0287      -72.24527      -66.942419      2.8406811    
    168100   287.83235     -71.664489     -66.939423      2.8355949    
samqeq SOLVER-DIAG step 168200: CG 14 iters (=14 matvecs) [warm], resid/b=3.22e-08
    168200   325.72472     -72.275107     -66.927997      2.8402039    
    168300   306.38027     -71.91928      -66.88973       2.7588187    
samqeq SOLVER-DIAG step 168400: CG 14 iters (=14 matvecs) [warm], resid/b=3.78e-08
    168400   293.16757     -71.726642     -66.913992      2.7918036    
    168500   249.38142     -71.008661     -66.914806      2.7773357    
samqeq SOLVER-DIAG step 168600: CG 14 iters (=14 matvecs) [warm], resid/b=4.20e-08
    168600   327.77027     -72.325489     -66.9448        2.8554007    
    168700   296.63051     -71.805938     -66.93644       2.8412009    
samqeq SOLVER-DIAG step 168800: CG 14 iters (=14 matvecs) [warm], resid/b=3.47e-08
    168800   309.74267     -72.030568     -66.94582       2.8386449    
    168900   291.42879     -71.754164     -66.970058      2.8622638    
samqeq SOLVER-DIAG step 169000: CG 14 iters (=14 matvecs) [warm], resid/b=5.36e-08
    169000   354.84286     -72.795666     -66.970552      2.8958794    
    169100   333.45012     -72.403265     -66.929335      2.8289236    
samqeq SOLVER-DIAG step 169200: CG 13 iters (=13 matvecs) [warm], resid/b=7.42e-08
    169200   298.37308     -71.827807     -66.929703      2.810991     
    169300   304.03139     -71.954031     -66.96304       2.8760765    
samqeq SOLVER-DIAG step 169400: CG 14 iters (=14 matvecs) [warm], resid/b=7.01e-08
    169400   318.6486      -72.170701     -66.939753      2.8431295    
    169500   328.99865     -72.347329     -66.946474      2.8398377    
samqeq SOLVER-DIAG step 169600: CG 14 iters (=14 matvecs) [warm], resid/b=6.70e-08
    169600   340.55965     -72.53529      -66.94465       2.8666186    
    169700   289.15794     -71.68855      -66.941723      2.8440366    
samqeq SOLVER-DIAG step 169800: CG 14 iters (=14 matvecs) [warm], resid/b=4.34e-08
    169800   294.02676     -71.724863     -66.898109      2.7661165    
    169900   329.82033     -72.318325     -66.903982      2.7800266    
samqeq SOLVER-DIAG step 170000: CG 14 iters (=14 matvecs) [warm], resid/b=4.48e-08
    170000   340.6534      -72.527826     -66.935647      2.8184585    
    170100   308.38235     -71.992927     -66.930511      2.8363681    
samqeq SOLVER-DIAG step 170200: CG 13 iters (=13 matvecs) [warm], resid/b=9.33e-08
    170200   329.463       -72.347221     -66.938743      2.8400464    
    170300   306.12641     -71.960966     -66.935583      2.8220144    
samqeq SOLVER-DIAG step 170400: CG 13 iters (=13 matvecs) [warm], resid/b=8.65e-08
    170400   305.67        -71.946467     -66.928576      2.8087539    
    170500   283.45179     -71.527118     -66.873963      2.7333205    
samqeq SOLVER-DIAG step 170600: CG 13 iters (=13 matvecs) [warm], resid/b=7.89e-08
    170600   316.62911     -72.113736     -66.91594       2.7817146    
    170700   288.84895     -71.653855     -66.9121        2.7704252    
samqeq SOLVER-DIAG step 170800: CG 13 iters (=13 matvecs) [warm], resid/b=8.62e-08
    170800   295.69099     -71.783141     -66.929067      2.7909592    
    170900   300.88854     -71.868705     -66.929307      2.806245     
samqeq SOLVER-DIAG step 171000: CG 14 iters (=14 matvecs) [warm], resid/b=6.32e-08
    171000   326.11841     -72.30101      -66.947438      2.8617632    
    171100   284.43887     -71.58414      -66.91478       2.8371342    
samqeq SOLVER-DIAG step 171200: CG 14 iters (=14 matvecs) [warm], resid/b=5.58e-08
    171200   300.74049     -71.85432      -66.917353      2.8023359    
    171300   308.64001     -72.009589     -66.942942      2.8207425    
samqeq SOLVER-DIAG step 171400: CG 13 iters (=13 matvecs) [warm], resid/b=8.97e-08
    171400   322.25094     -72.202498     -66.912414      2.7879748    
    171500   306.50166     -71.956868     -66.925325      2.8189926    
samqeq SOLVER-DIAG step 171600: CG 14 iters (=14 matvecs) [warm], resid/b=5.60e-08
    171600   296.31486     -71.77719      -66.912873      2.8123008    
    171700   321.23733     -72.206383     -66.932939      2.8073438    
samqeq SOLVER-DIAG step 171800: CG 14 iters (=14 matvecs) [warm], resid/b=5.68e-08
    171800   276.15294     -71.422336     -66.888999      2.7691495    
    171900   308.14652     -71.989523     -66.930977      2.8217241    
samqeq SOLVER-DIAG step 172000: CG 14 iters (=14 matvecs) [warm], resid/b=4.51e-08
    172000   336.28762     -72.462703     -66.942193      2.8327503    
    172100   309.28576     -72.009816     -66.932569      2.8083826    
samqeq SOLVER-DIAG step 172200: CG 13 iters (=13 matvecs) [warm], resid/b=7.66e-08
    172200   278.38272     -71.488769     -66.918828      2.787672     
    172300   333.92379     -72.422093     -66.940387      2.8335112    
samqeq SOLVER-DIAG step 172400: CG 13 iters (=13 matvecs) [warm], resid/b=8.57e-08
    172400   327.21422     -72.325368     -66.953807      2.8492533    
    172500   292.64482     -71.720869     -66.916801      2.7932601    
samqeq SOLVER-DIAG step 172600: CG 14 iters (=14 matvecs) [warm], resid/b=5.57e-08
    172600   289.58526     -71.690256     -66.936414      2.8045622    
    172700   287.07981     -71.639136     -66.926423      2.8007684    
samqeq SOLVER-DIAG step 172800: CG 13 iters (=13 matvecs) [warm], resid/b=9.22e-08
    172800   301.92465     -71.873222     -66.916815      2.7846579    
    172900   286.17014     -71.63066      -66.93288       2.8218963    
samqeq SOLVER-DIAG step 173000: CG 14 iters (=14 matvecs) [warm], resid/b=6.92e-08
    173000   297.44851     -71.830194     -66.947268      2.8444451    
    173100   290.11434     -71.70827      -66.945742      2.8405809    
samqeq SOLVER-DIAG step 173200: CG 14 iters (=14 matvecs) [warm], resid/b=5.93e-08
    173200   298.7309      -71.827149     -66.923171      2.7878965    
    173300   284.96723     -71.602456     -66.924423      2.814386     
samqeq SOLVER-DIAG step 173400: CG 14 iters (=14 matvecs) [warm], resid/b=4.89e-08
    173400   311.79099     -72.054577     -66.936204      2.8148237    
    173500   316.11313     -72.138832     -66.949507      2.8681703    
samqeq SOLVER-DIAG step 173600: CG 14 iters (=14 matvecs) [warm], resid/b=6.58e-08
    173600   305.03945     -71.960414     -66.952875      2.8675386    
    173700   289.58292     -71.662289     -66.908484      2.7761196    
samqeq SOLVER-DIAG step 173800: CG 14 iters (=14 matvecs) [warm], resid/b=5.44e-08
    173800   294.49516     -71.753071     -66.918627      2.8135409    
    173900   294.62074     -71.744754     -66.908249      2.778805     
samqeq SOLVER-DIAG step 174000: CG 14 iters (=14 matvecs) [warm], resid/b=7.42e-08
    174000   292.50083     -71.741876     -66.940172      2.819865     
    174100   268.86478     -71.316469     -66.902775      2.7726292    
samqeq SOLVER-DIAG step 174200: CG 13 iters (=13 matvecs) [warm], resid/b=9.73e-08
    174200   284.38528     -71.585814     -66.917335      2.7962422    
    174300   288.22358     -71.661326     -66.929836      2.8249099    
samqeq SOLVER-DIAG step 174400: CG 13 iters (=13 matvecs) [warm], resid/b=6.20e-08
    174400   285.80194     -71.605157     -66.913421      2.8159274    
    174500   321.83358     -72.186551     -66.903319      2.8027732    
samqeq SOLVER-DIAG step 174600: CG 14 iters (=14 matvecs) [warm], resid/b=5.26e-08
    174600   312.69346     -72.070217     -66.93703       2.8217533    
    174700   320.82563     -72.227751     -66.961065      2.867044     
samqeq SOLVER-DIAG step 174800: CG 14 iters (=14 matvecs) [warm], resid/b=5.64e-08
    174800   307.20662     -71.959423     -66.916307      2.8016995    
    174900   317.21243     -72.126677     -66.919305      2.8098925    
samqeq SOLVER-DIAG step 175000: CG 14 iters (=14 matvecs) [warm], resid/b=5.56e-08
    175000   303.18729     -71.926294     -66.949159      2.8390343    
    175100   305.80938     -71.956476     -66.936298      2.8146529    
samqeq SOLVER-DIAG step 175200: CG 14 iters (=14 matvecs) [warm], resid/b=5.27e-08
    175200   276.22376     -71.443407     -66.908907      2.7633058    
    175300   280.69332     -71.506569     -66.898697      2.7581551    
samqeq SOLVER-DIAG step 175400: CG 14 iters (=14 matvecs) [warm], resid/b=5.23e-08
    175400   267.13329     -71.280911     -66.895641      2.7574272    
    175500   299.62751     -71.835978     -66.917281      2.8054993    
samqeq SOLVER-DIAG step 175600: CG 13 iters (=13 matvecs) [warm], resid/b=5.39e-08
    175600   321.82304     -72.192611     -66.909552      2.7832062    
    175700   255.22565     -71.096573     -66.906779      2.7692587    
samqeq SOLVER-DIAG step 175800: CG 14 iters (=14 matvecs) [warm], resid/b=5.51e-08
    175800   303.5159      -71.905327     -66.922798      2.788971     
    175900   323.65714     -72.261794     -66.948626      2.8461948    
samqeq SOLVER-DIAG step 176000: CG 13 iters (=13 matvecs) [warm], resid/b=9.38e-08
    176000   312.51804     -72.053527     -66.923219      2.801608     
    176100   312.29861     -72.020526     -66.89382       2.7864038    
samqeq SOLVER-DIAG step 176200: CG 14 iters (=14 matvecs) [warm], resid/b=5.79e-08
    176200   320.92086     -72.18176      -66.913511      2.8068876    
    176300   308.5866      -72.003676     -66.937906      2.8585212    
samqeq SOLVER-DIAG step 176400: CG 13 iters (=13 matvecs) [warm], resid/b=7.61e-08
    176400   316.38738     -72.123586     -66.929758      2.8390117    
    176500   310.4537      -72.033828     -66.937408      2.8451008    
samqeq SOLVER-DIAG step 176600: CG 14 iters (=14 matvecs) [warm], resid/b=4.35e-08
    176600   294.55636     -71.746023     -66.910575      2.7866777    
    176700   281.3607      -71.532094     -66.913266      2.7935762    
samqeq SOLVER-DIAG step 176800: CG 13 iters (=13 matvecs) [warm], resid/b=9.91e-08
    176800   272.89803     -71.380067     -66.900162      2.7830253    
    176900   304.86081     -71.918158     -66.913552      2.8081446    
samqeq SOLVER-DIAG step 177000: CG 14 iters (=14 matvecs) [warm], resid/b=6.31e-08
    177000   328.49299     -72.349682     -66.957129      2.8830332    
    177100   312.20984     -72.070016     -66.944767      2.8655292    
samqeq SOLVER-DIAG step 177200: CG 13 iters (=13 matvecs) [warm], resid/b=8.00e-08
    177200   254.73323     -71.093766     -66.912056      2.7746046    
    177300   301.9479      -71.880122     -66.923334      2.8126452    
samqeq SOLVER-DIAG step 177400: CG 14 iters (=14 matvecs) [warm], resid/b=4.30e-08
    177400   307.82395     -71.977999     -66.924749      2.8316725    
    177500   305.63114     -71.930204     -66.912951      2.830397     
samqeq SOLVER-DIAG step 177600: CG 14 iters (=14 matvecs) [warm], resid/b=4.49e-08
    177600   313.69673     -72.075384     -66.925726      2.8347845    
    177700   310.01076     -72.004283     -66.915135      2.817867     
samqeq SOLVER-DIAG step 177800: CG 13 iters (=13 matvecs) [warm], resid/b=5.51e-08
    177800   310.72249     -72.005878     -66.905045      2.7924883    
    177900   293.85664     -71.729245     -66.905284      2.816358     
samqeq SOLVER-DIAG step 178000: CG 13 iters (=13 matvecs) [warm], resid/b=7.98e-08
    178000   305.05799     -71.903791     -66.895948      2.7922983    
    178100   301.20729     -71.840374     -66.895744      2.7866255    
samqeq SOLVER-DIAG step 178200: CG 14 iters (=14 matvecs) [warm], resid/b=3.50e-08
    178200   281.60533     -71.509506     -66.886662      2.77253      
    178300   288.80879     -71.642119     -66.901022      2.788394     
samqeq SOLVER-DIAG step 178400: CG 14 iters (=14 matvecs) [warm], resid/b=5.04e-08
    178400   273.67733     -71.369473     -66.876776      2.7535413    
    178500   288.23082     -71.596498     -66.86489       2.7419885    
samqeq SOLVER-DIAG step 178600: CG 14 iters (=14 matvecs) [warm], resid/b=5.36e-08
    178600   314.2475      -72.06797      -66.909271      2.7930532    
    178700   265.50357     -71.251207     -66.89269       2.7608574    
samqeq SOLVER-DIAG step 178800: CG 14 iters (=14 matvecs) [warm], resid/b=6.93e-08
    178800   347.59407     -72.644006     -66.937888      2.8493223    
    178900   319.81055     -72.190616     -66.940594      2.8576924    
samqeq SOLVER-DIAG step 179000: CG 14 iters (=14 matvecs) [warm], resid/b=5.51e-08
    179000   309.44686     -72.015615     -66.935724      2.8448852    
    179100   332.07891     -72.37982      -66.9284        2.8168349    
samqeq SOLVER-DIAG step 179200: CG 14 iters (=14 matvecs) [warm], resid/b=5.31e-08
    179200   309.8292      -72.004526     -66.918358      2.8075386    
    179300   306.38669     -71.921064     -66.891408      2.7730137    
samqeq SOLVER-DIAG step 179400: CG 13 iters (=13 matvecs) [warm], resid/b=6.08e-08
    179400   298.23181     -71.791079     -66.895294      2.7456124    
    179500   306.43071     -71.938962     -66.908584      2.7886225    
samqeq SOLVER-DIAG step 179600: CG 14 iters (=14 matvecs) [warm], resid/b=8.04e-08
    179600   317.77909     -72.134053     -66.917379      2.808199     
    179700   314.15602     -72.053405     -66.896208      2.8019327    
samqeq SOLVER-DIAG step 179800: CG 14 iters (=14 matvecs) [warm], resid/b=3.77e-08
    179800   309.37099     -71.979482     -66.900836      2.7937111    
    179900   301.26827     -71.874263     -66.928631      2.8074773    
samqeq SOLVER-DIAG step 180000: CG 13 iters (=13 matvecs) [warm], resid/b=9.55e-08
    180000   325.42749     -72.261044     -66.918813      2.8153884    
    180100   327.39        -72.325486     -66.951039      2.8552246    
samqeq SOLVER-DIAG step 180200: CG 14 iters (=14 matvecs) [warm], resid/b=5.93e-08
    180200   298.64826     -71.823453     -66.920831      2.8189933    
    180300   303.68537     -71.935067     -66.949756      2.8406437    
samqeq SOLVER-DIAG step 180400: CG 14 iters (=14 matvecs) [warm], resid/b=4.11e-08
    180400   339.85451     -72.506688     -66.927623      2.8348446    
    180500   310.12754     -72.028247     -66.937182      2.8127723    
samqeq SOLVER-DIAG step 180600: CG 14 iters (=14 matvecs) [warm], resid/b=7.86e-08
    180600   304.57306     -71.928411     -66.928528      2.8209396    
    180700   318.02551     -72.142895     -66.922176      2.7837302    
samqeq SOLVER-DIAG step 180800: CG 14 iters (=14 matvecs) [warm], resid/b=4.63e-08
    180800   320.23103     -72.175796     -66.918871      2.8236172    
    180900   295.58666     -71.77929      -66.926928      2.8069859    
samqeq SOLVER-DIAG step 181000: CG 14 iters (=14 matvecs) [warm], resid/b=5.05e-08
    181000   286.51398     -71.628524     -66.925099      2.8254208    
    181100   306.37968     -71.963281     -66.93374       2.8395334    
samqeq SOLVER-DIAG step 181200: CG 13 iters (=13 matvecs) [warm], resid/b=9.58e-08
    181200   294.04507     -71.745238     -66.918183      2.8147678    
    181300   286.98704     -71.64509      -66.933899      2.8003433    
samqeq SOLVER-DIAG step 181400: CG 13 iters (=13 matvecs) [warm], resid/b=7.81e-08
    181400   318.85637     -72.16123      -66.926872      2.8170363    
    181500   295.35054     -71.797021     -66.948535      2.8565903    
samqeq SOLVER-DIAG step 181600: CG 14 iters (=14 matvecs) [warm], resid/b=7.02e-08
    181600   326.73469     -72.309918     -66.946229      2.8597249    
    181700   314.29782     -72.081007     -66.921482      2.8377456    
samqeq SOLVER-DIAG step 181800: CG 14 iters (=14 matvecs) [warm], resid/b=5.88e-08
    181800   316.55818     -72.133545     -66.936914      2.8643951    
    181900   302.14547     -71.896993     -66.936961      2.8501615    
samqeq SOLVER-DIAG step 182000: CG 14 iters (=14 matvecs) [warm], resid/b=7.77e-08
    182000   318.2516      -72.163101     -66.938671      2.8596425    
    182100   311.80339     -72.051763     -66.933186      2.8502382    
samqeq SOLVER-DIAG step 182200: CG 14 iters (=14 matvecs) [warm], resid/b=7.39e-08
    182200   309.98334     -72.03994      -66.951242      2.8439733    
    182300   270.1842      -71.343416     -66.908062      2.806291     
samqeq SOLVER-DIAG step 182400: CG 13 iters (=13 matvecs) [warm], resid/b=6.22e-08
    182400   323.45044     -72.235654     -66.925879      2.8123478    
    182500   310.4714      -72.034133     -66.937423      2.8345186    
samqeq SOLVER-DIAG step 182600: CG 14 iters (=14 matvecs) [warm], resid/b=4.75e-08
    182600   275.59994     -71.433888     -66.909628      2.7942756    
    182700   293.88061     -71.734977     -66.910621      2.7929351    
samqeq SOLVER-DIAG step 182800: CG 14 iters (=14 matvecs) [warm], resid/b=5.02e-08
    182800   267.04579     -71.268774     -66.88494       2.7415103    
    182900   289.82511     -71.678832     -66.921052      2.8004879    
samqeq SOLVER-DIAG step 183000: CG 13 iters (=13 matvecs) [warm], resid/b=8.71e-08
    183000   281.52368     -71.50543      -66.883927      2.7443408    
    183100   286.80843     -71.62447      -66.916212      2.7933504    
samqeq SOLVER-DIAG step 183200: CG 13 iters (=13 matvecs) [warm], resid/b=9.77e-08
    183200   297.50442     -71.800414     -66.91657       2.8168823    
    183300   318.96439     -72.177899     -66.941768      2.8562997    
samqeq SOLVER-DIAG step 183400: CG 14 iters (=14 matvecs) [warm], resid/b=4.57e-08
    183400   294.76973     -71.764701     -66.92575       2.8347088    
    183500   288.52013     -71.660691     -66.924333      2.8231258    
samqeq SOLVER-DIAG step 183600: CG 13 iters (=13 matvecs) [warm], resid/b=6.07e-08
    183600   293.16494     -71.70798      -66.895373      2.7747314    
    183700   301.75927     -71.884414     -66.930722      2.8171393    
samqeq SOLVER-DIAG step 183800: CG 14 iters (=14 matvecs) [warm], resid/b=7.80e-08
    183800   290.82135     -71.690919     -66.916784      2.8090728    
    183900   278.57605     -71.449463     -66.876348      2.753009     
samqeq SOLVER-DIAG step 184000: CG 13 iters (=13 matvecs) [warm], resid/b=9.46e-08
    184000   310.44982     -72.02581      -66.929453      2.8316596    
    184100   320.55882     -72.209766     -66.947461      2.8684636    
samqeq SOLVER-DIAG step 184200: CG 13 iters (=13 matvecs) [warm], resid/b=9.36e-08
    184200   283.61839     -71.600509     -66.944618      2.8455391    
    184300   289.21042     -71.665098     -66.917409      2.8305681    
samqeq SOLVER-DIAG step 184400: CG 14 iters (=14 matvecs) [warm], resid/b=4.96e-08
    184400   269.51152     -71.342486     -66.918175      2.8054528    
    184500   295.31        -71.772859     -66.925039      2.811539     
samqeq SOLVER-DIAG step 184600: CG 13 iters (=13 matvecs) [warm], resid/b=8.12e-08
    184600   284.58653     -71.575966     -66.904183      2.7679417    
    184700   290.14386     -71.661662     -66.898649      2.7823499    
samqeq SOLVER-DIAG step 184800: CG 14 iters (=14 matvecs) [warm], resid/b=3.40e-08
    184800   298.88924     -71.820815     -66.914238      2.7999797    
    184900   317.83353     -72.150205     -66.932637      2.8243485    
samqeq SOLVER-DIAG step 185000: CG 14 iters (=14 matvecs) [warm], resid/b=5.23e-08
    185000   301.09361     -71.85859      -66.915826      2.8210108    
    185100   292.31726     -71.726473     -66.927782      2.8285184    
samqeq SOLVER-DIAG step 185200: CG 14 iters (=14 matvecs) [warm], resid/b=4.81e-08
    185200   314.88922     -72.110794     -66.94156       2.8500776    
    185300   310.93408     -72.065567     -66.961261      2.8849402    
samqeq SOLVER-DIAG step 185400: CG 14 iters (=14 matvecs) [warm], resid/b=6.45e-08
    185400   293.06794     -71.72476      -66.913745      2.7907161    
    185500   303.22932     -71.89059      -66.912766      2.8030744    
samqeq SOLVER-DIAG step 185600: CG 13 iters (=13 matvecs) [warm], resid/b=6.38e-08
    185600   311.57264     -72.022712     -66.907924      2.8032343    
    185700   309.81927     -72.033888     -66.947883      2.8364387    
samqeq SOLVER-DIAG step 185800: CG 14 iters (=14 matvecs) [warm], resid/b=7.57e-08
    185800   297.82811     -71.844895     -66.955737      2.854292     
    185900   276.68925     -71.472009     -66.929868      2.8337784    
samqeq SOLVER-DIAG step 186000: CG 13 iters (=13 matvecs) [warm], resid/b=8.04e-08
    186000   334.49995     -72.440716     -66.949552      2.8556203    
    186100   312.79632     -72.058169     -66.923293      2.8259955    
samqeq SOLVER-DIAG step 186200: CG 14 iters (=14 matvecs) [warm], resid/b=4.92e-08
    186200   286.59931     -71.606236     -66.901411      2.7911327    
    186300   251.62876     -71.003722     -66.872975      2.7375074    
samqeq SOLVER-DIAG step 186400: CG 13 iters (=13 matvecs) [warm], resid/b=6.64e-08
    186400   287.65688     -71.604507     -66.88232       2.7565272    
    186500   296.72487     -71.781471     -66.910424      2.7997135    
samqeq SOLVER-DIAG step 186600: CG 14 iters (=14 matvecs) [warm], resid/b=6.08e-08
    186600   299.99174     -71.858762     -66.934086      2.8346359    
    186700   294.57426     -71.736534     -66.900792      2.8042381    
samqeq SOLVER-DIAG step 186800: CG 14 iters (=14 matvecs) [warm], resid/b=2.85e-08
    186800   328.18092     -72.301026     -66.913595      2.7955245    
    186900   288.80906     -71.664157     -66.923056      2.8080994    
samqeq SOLVER-DIAG step 187000: CG 14 iters (=14 matvecs) [warm], resid/b=4.72e-08
    187000   284.62488     -71.591669     -66.919257      2.8087317    
    187100   322.36975     -72.220998     -66.928964      2.8293979    
samqeq SOLVER-DIAG step 187200: CG 13 iters (=13 matvecs) [warm], resid/b=8.83e-08
    187200   272.85245     -71.380892     -66.901736      2.8057055    
    187300   322.25625     -72.217944     -66.927774      2.8472008    
samqeq SOLVER-DIAG step 187400: CG 13 iters (=13 matvecs) [warm], resid/b=7.10e-08
    187400   294.11176     -71.760272     -66.932122      2.8265852    
    187500   264.5038      -71.257596     -66.915492      2.7983649    
samqeq SOLVER-DIAG step 187600: CG 13 iters (=13 matvecs) [warm], resid/b=8.34e-08
    187600   283.61104     -71.535033     -66.879264      2.739664     
    187700   276.69367     -71.453002     -66.910788      2.788922     
samqeq SOLVER-DIAG step 187800: CG 13 iters (=13 matvecs) [warm], resid/b=8.34e-08
    187800   251.42246     -71.028321     -66.90096       2.7629762    
    187900   279.5361      -71.484958     -66.896083      2.7655618    
samqeq SOLVER-DIAG step 188000: CG 14 iters (=14 matvecs) [warm], resid/b=5.23e-08
    188000   302.6133      -71.888348     -66.920636      2.8174843    
    188100   315.00002     -72.092015     -66.920962      2.79364      
samqeq SOLVER-DIAG step 188200: CG 13 iters (=13 matvecs) [warm], resid/b=9.20e-08
    188200   292.23704     -71.733754     -66.93638       2.8481844    
    188300   291.87747     -71.728823     -66.937351      2.8187088    
samqeq SOLVER-DIAG step 188400: CG 14 iters (=14 matvecs) [warm], resid/b=4.11e-08
    188400   290.88558     -71.695638     -66.920449      2.7897019    
    188500   313.73173     -72.071416     -66.921184      2.8041862    
samqeq SOLVER-DIAG step 188600: CG 13 iters (=13 matvecs) [warm], resid/b=7.44e-08
    188600   302.47614     -71.870529     -66.905069      2.767472     
    188700   315.07823     -72.104884     -66.932547      2.8126691    
samqeq SOLVER-DIAG step 188800: CG 13 iters (=13 matvecs) [warm], resid/b=9.20e-08
    188800   329.74276     -72.348625     -66.935556      2.8459453    
    188900   315.52072     -72.113319     -66.933719      2.8450075    
samqeq SOLVER-DIAG step 189000: CG 14 iters (=14 matvecs) [warm], resid/b=4.48e-08
    189000   302.12525     -71.909065     -66.949365      2.8506983    
    189100   318.71855     -72.179408     -66.947312      2.8306236    
samqeq SOLVER-DIAG step 189200: CG 14 iters (=14 matvecs) [warm], resid/b=3.88e-08
    189200   302.21509     -71.897631     -66.936457      2.8297434    
    189300   296.13665     -71.794069     -66.932678      2.839698     
samqeq SOLVER-DIAG step 189400: CG 13 iters (=13 matvecs) [warm], resid/b=9.63e-08
    189400   281.40057     -71.520413     -66.900931      2.7969825    
    189500   306.341       -71.94703      -66.918124      2.8051148    
samqeq SOLVER-DIAG step 189600: CG 14 iters (=14 matvecs) [warm], resid/b=3.75e-08
    189600   289.44384     -71.648009     -66.896488      2.7798889    
    189700   268.3157      -71.298847     -66.894166      2.7850141    
samqeq SOLVER-DIAG step 189800: CG 12 iters (=12 matvecs) [warm], resid/b=9.95e-08
    189800   275.24964     -71.420816     -66.902307      2.7749798    
    189900   318.73422     -72.167168     -66.934815      2.8092187    
samqeq SOLVER-DIAG step 190000: CG 13 iters (=13 matvecs) [warm], resid/b=6.81e-08
    190000   303.98096     -71.909167     -66.919003      2.8127431    
    190100   300.62718     -71.840194     -66.905086      2.8014639    
samqeq SOLVER-DIAG step 190200: CG 14 iters (=14 matvecs) [warm], resid/b=4.26e-08
    190200   296.2446      -71.778873     -66.91571       2.7942438    
    190300   300.34077     -71.839084     -66.908678      2.8031864    
samqeq SOLVER-DIAG step 190400: CG 13 iters (=13 matvecs) [warm], resid/b=8.60e-08
    190400   269.47777     -71.320796     -66.897039      2.7849872    
    190500   299.63731     -71.835498     -66.916641      2.7984592    
samqeq SOLVER-DIAG step 190600: CG 13 iters (=13 matvecs) [warm], resid/b=9.80e-08
    190600   306.03415     -71.941759     -66.917891      2.81897      
    190700   303.55375     -71.905556     -66.922406      2.8436297    
samqeq SOLVER-DIAG step 190800: CG 14 iters (=14 matvecs) [warm], resid/b=4.07e-08
    190800   324.15577     -72.249566     -66.928213      2.833018     
    190900   314.12317     -72.059639     -66.902981      2.8001473    
samqeq SOLVER-DIAG step 191000: CG 14 iters (=14 matvecs) [warm], resid/b=5.56e-08
    191000   319.92542     -72.205049     -66.953141      2.8752553    
    191100   304.13375     -71.924122     -66.931451      2.8402477    
samqeq SOLVER-DIAG step 191200: CG 13 iters (=13 matvecs) [warm], resid/b=8.09e-08
    191200   280.54301     -71.520583     -66.915178      2.8040133    
    191300   270.86916     -71.350137     -66.903538      2.7961667    
samqeq SOLVER-DIAG step 191400: CG 13 iters (=13 matvecs) [warm], resid/b=8.06e-08
    191400   285.82945     -71.605128     -66.912941      2.7898556    
    191500   301.25139     -71.840623     -66.895269      2.7626726    
samqeq SOLVER-DIAG step 191600: CG 14 iters (=14 matvecs) [warm], resid/b=5.46e-08
    191600   338.40028     -72.492517     -66.937325      2.8438955    
    191700   332.15553     -72.408401     -66.955723      2.8613647    
samqeq SOLVER-DIAG step 191800: CG 13 iters (=13 matvecs) [warm], resid/b=9.65e-08
    191800   295.83297     -71.763938     -66.907533      2.782504     
    191900   307.28848     -71.974565     -66.930105      2.8393024    
samqeq SOLVER-DIAG step 192000: CG 13 iters (=13 matvecs) [warm], resid/b=9.30e-08
    192000   298.52126     -71.807918     -66.907382      2.7911763    
    192100   329.49722     -72.344054     -66.935015      2.8832512    
samqeq SOLVER-DIAG step 192200: CG 14 iters (=14 matvecs) [warm], resid/b=4.80e-08
    192200   328.23464     -72.340601     -66.952288      2.8661931    
    192300   305.74078     -71.917745     -66.898693      2.7798929    
samqeq SOLVER-DIAG step 192400: CG 14 iters (=14 matvecs) [warm], resid/b=5.58e-08
    192400   273.95207     -71.412933     -66.915725      2.7953588    
    192500   316.07534     -72.122868     -66.934163      2.8114231    
samqeq SOLVER-DIAG step 192600: CG 13 iters (=13 matvecs) [warm], resid/b=8.51e-08
    192600   282.63603     -71.522272     -66.882508      2.7597566    
    192700   269.20963     -71.311662     -66.892306      2.7450231    
samqeq SOLVER-DIAG step 192800: CG 14 iters (=14 matvecs) [warm], resid/b=5.41e-08
    192800   265.55934     -71.268438     -66.909005      2.7758718    
    192900   320.90666     -72.190831     -66.922815      2.8100809    
samqeq SOLVER-DIAG step 193000: CG 14 iters (=14 matvecs) [warm], resid/b=6.60e-08
    193000   301.4231      -71.871458     -66.923285      2.8115062    
    193100   294.73029     -71.762198     -66.923895      2.8231587    
samqeq SOLVER-DIAG step 193200: CG 14 iters (=14 matvecs) [warm], resid/b=5.58e-08
    193200   296.06189     -71.81751      -66.957347      2.868626     
    193300   330.89478     -72.37218      -66.940199      2.8383424    
samqeq SOLVER-DIAG step 193400: CG 14 iters (=14 matvecs) [warm], resid/b=5.54e-08
    193400   279.86586     -71.514781     -66.920492      2.8100739    
    193500   295.56101     -71.771714     -66.919773      2.8182149    
samqeq SOLVER-DIAG step 193600: CG 13 iters (=13 matvecs) [warm], resid/b=9.92e-08
    193600   315.04455     -72.074969     -66.903186      2.8093125    
    193700   306.98369     -71.963114     -66.923658      2.8261152    
samqeq SOLVER-DIAG step 193800: CG 14 iters (=14 matvecs) [warm], resid/b=4.85e-08
    193800   298.39249     -71.828215     -66.929792      2.8305114    
    193900   328.85882     -72.33155      -66.932991      2.8318517    
samqeq SOLVER-DIAG step 194000: CG 14 iters (=14 matvecs) [warm], resid/b=6.70e-08
    194000   310.98089     -72.033453     -66.928379      2.8330804    
    194100   317.01492     -72.12962      -66.925491      2.8214428    
samqeq SOLVER-DIAG step 194200: CG 14 iters (=14 matvecs) [warm], resid/b=5.24e-08
    194200   280.03819     -71.513366     -66.916248      2.8111026    
    194300   269.27064     -71.330678     -66.910321      2.8222123    
samqeq SOLVER-DIAG step 194400: CG 13 iters (=13 matvecs) [warm], resid/b=7.76e-08
    194400   312.39638     -72.053529     -66.925218      2.8396541    
    194500   293.34147     -71.730851     -66.915346      2.8055606    
samqeq SOLVER-DIAG step 194600: CG 14 iters (=14 matvecs) [warm], resid/b=3.70e-08
    194600   310.25086     -72.010092     -66.917002      2.8254189    
    194700   330.60634     -72.353642     -66.926396      2.82555      
samqeq SOLVER-DIAG step 194800: CG 14 iters (=14 matvecs) [warm], resid/b=4.52e-08
    194800   320.6429      -72.211008     -66.947322      2.8522547    
    194900   311.91896     -72.045599     -66.925125      2.8162829    
samqeq SOLVER-DIAG step 195000: CG 14 iters (=14 matvecs) [warm], resid/b=3.51e-08
    195000   313.90769     -72.068584     -66.915464      2.8179177    
    195100   301.07844     -71.849919     -66.907404      2.8089622    
samqeq SOLVER-DIAG step 195200: CG 14 iters (=14 matvecs) [warm], resid/b=6.44e-08
    195200   317.12273     -72.131022     -66.925123      2.8490847    
    195300   320.20663     -72.179035     -66.922511      2.8132832    
samqeq SOLVER-DIAG step 195400: CG 14 iters (=14 matvecs) [warm], resid/b=5.25e-08
    195400   346.09313     -72.641601     -66.960122      2.8675391    
    195500   285.94149     -71.601329     -66.907302      2.8026937    
samqeq SOLVER-DIAG step 195600: CG 14 iters (=14 matvecs) [warm], resid/b=4.95e-08
    195600   284.44536     -71.572683     -66.903217      2.7651192    
    195700   326.79218     -72.273832     -66.909199      2.7785796    
samqeq SOLVER-DIAG step 195800: CG 13 iters (=13 matvecs) [warm], resid/b=7.79e-08
    195800   296.38087     -71.764981     -66.899581      2.7550198    
    195900   287.38575     -71.625804     -66.908069      2.7637146    
samqeq SOLVER-DIAG step 196000: CG 13 iters (=13 matvecs) [warm], resid/b=8.40e-08
    196000   289.89168     -71.667083     -66.90821       2.7728161    
    196100   337.75343     -72.462581     -66.918008      2.7965006    
samqeq SOLVER-DIAG step 196200: CG 13 iters (=13 matvecs) [warm], resid/b=7.83e-08
    196200   302.34175     -71.881091     -66.917837      2.829027     
    196300   304.921       -71.900575     -66.89498       2.7578276    
samqeq SOLVER-DIAG step 196400: CG 13 iters (=13 matvecs) [warm], resid/b=7.47e-08
    196400   302.76995     -71.873916     -66.903633      2.7645995    
    196500   301.09934     -71.850613     -66.907755      2.7927576    
samqeq SOLVER-DIAG step 196600: CG 14 iters (=14 matvecs) [warm], resid/b=5.08e-08
    196600   261.38144     -71.229109     -66.938261      2.8378701    
    196700   297.90066     -71.821232     -66.930884      2.8394306    
samqeq SOLVER-DIAG step 196800: CG 14 iters (=14 matvecs) [warm], resid/b=6.26e-08
    196800   326.96565     -72.31203      -66.94455       2.8384663    
    196900   316.50958     -72.153561     -66.957728      2.8467061    
samqeq SOLVER-DIAG step 197000: CG 14 iters (=14 matvecs) [warm], resid/b=5.00e-08
    197000   311.38089     -72.062965     -66.951325      2.842374     
    197100   311.00516     -72.013001     -66.907529      2.8001169    
samqeq SOLVER-DIAG step 197200: CG 13 iters (=13 matvecs) [warm], resid/b=8.71e-08
    197200   319.04157     -72.144955     -66.907557      2.7787824    
    197300   328.15261     -72.335075     -66.948109      2.8338342    
samqeq SOLVER-DIAG step 197400: CG 14 iters (=14 matvecs) [warm], resid/b=6.98e-08
    197400   294.712       -71.762332     -66.924329      2.8356041    
    197500   327.70536     -72.320346     -66.940722      2.8526483    
samqeq SOLVER-DIAG step 197600: CG 14 iters (=14 matvecs) [warm], resid/b=6.32e-08
    197600   317.67687     -72.11106      -66.896065      2.79969      
    197700   296.03731     -71.754509     -66.894749      2.7786127    
samqeq SOLVER-DIAG step 197800: CG 14 iters (=14 matvecs) [warm], resid/b=4.75e-08
    197800   297.68412     -71.807112     -66.920318      2.8313495    
    197900   301.67496     -71.874744     -66.922436      2.8263112    
samqeq SOLVER-DIAG step 198000: CG 14 iters (=14 matvecs) [warm], resid/b=4.83e-08
    198000   316.4763      -72.110832     -66.915545      2.7986302    
    198100   292.26516     -71.706647     -66.908811      2.7950039    
samqeq SOLVER-DIAG step 198200: CG 14 iters (=14 matvecs) [warm], resid/b=5.54e-08
    198200   306.56583     -71.960201     -66.927605      2.8176523    
    198300   303.70376     -71.909558     -66.923945      2.818883     
samqeq SOLVER-DIAG step 198400: CG 14 iters (=14 matvecs) [warm], resid/b=6.80e-08
    198400   330.07998     -72.32634      -66.907734      2.8068986    
    198500   299.69132     -71.808677     -66.888933      2.7948071    
samqeq SOLVER-DIAG step 198600: CG 13 iters (=13 matvecs) [warm], resid/b=6.68e-08
    198600   296.46427     -71.778157     -66.911389      2.7956065    
    198700   270.17579     -71.322959     -66.887742      2.7568332    
samqeq SOLVER-DIAG step 198800: CG 14 iters (=14 matvecs) [warm], resid/b=5.45e-08
    198800   297.18017     -71.770074     -66.891553      2.7560004    
    198900   309.29085     -71.966085     -66.888755      2.7710669    
samqeq SOLVER-DIAG step 199000: CG 14 iters (=14 matvecs) [warm], resid/b=6.17e-08
    199000   312.30357     -72.042271     -66.915483      2.8164654    
    199100   272.04495     -71.359708     -66.893808      2.7621724    
samqeq SOLVER-DIAG step 199200: CG 14 iters (=14 matvecs) [warm], resid/b=6.35e-08
    199200   303.52271     -71.89988      -66.91724       2.8127969    
    199300   294.36763     -71.734754     -66.902403      2.775758     
samqeq SOLVER-DIAG step 199400: CG 13 iters (=13 matvecs) [warm], resid/b=7.87e-08
    199400   258.22126     -71.124078     -66.885108      2.7448633    
    199500   262.03211     -71.222926     -66.921397      2.8132235    
samqeq SOLVER-DIAG step 199600: CG 14 iters (=14 matvecs) [warm], resid/b=4.86e-08
    199600   268.97899     -71.311309     -66.89574       2.7791298    
    199700   307.40852     -71.941367     -66.894937      2.7820389    
samqeq SOLVER-DIAG step 199800: CG 14 iters (=14 matvecs) [warm], resid/b=4.80e-08
    199800   297.31808     -71.806067     -66.925282      2.8254989    
    199900   339.14422     -72.523569     -66.956165      2.8751817    
samqeq SOLVER-DIAG step 200000: CG 14 iters (=14 matvecs) [warm], resid/b=4.17e-08
    200000   339.86239     -72.533902     -66.954708      2.8743894    
Loop time of 2245.64 on 1 procs for 200000 steps with 192 atoms

Performance: 7.695 ns/day, 3.119 hours/ns, 89.062 timesteps/s, 17.100 katom-step/s
99.8% CPU use with 1 MPI tasks x 1 OpenMP threads

MPI task timing breakdown:
Section |  min time  |  avg time  |  max time  |%varavg| %total
---------------------------------------------------------------
Pair    | 593.29     | 593.29     | 593.29     |   0.0 | 26.42
Bond    | 0.06867    | 0.06867    | 0.06867    |   0.0 |  0.00
Kspace  | 88.626     | 88.626     | 88.626     |   0.0 |  3.95
Neigh   | 21.896     | 21.896     | 21.896     |   0.0 |  0.98
Comm    | 4.8382     | 4.8382     | 4.8382     |   0.0 |  0.22
Output  | 0.06984    | 0.06984    | 0.06984    |   0.0 |  0.00
Modify  | 1535.2     | 1535.2     | 1535.2     |   0.0 | 68.36
Other   |            | 1.66       |            |       |  0.07

Nlocal:            192 ave         192 max         192 min
Histogram: 1 0 0 0 0 0 0 0 0 0
Nghost:           4656 ave        4656 max        4656 min
Histogram: 1 0 0 0 0 0 0 0 0 0
Neighs:          69731 ave       69731 max       69731 min
Histogram: 1 0 0 0 0 0 0 0 0 0
FullNghs:       139462 ave      139462 max      139462 min
Histogram: 1 0 0 0 0 0 0 0 0 0

Total # of neighbors = 139462
Ave neighs/atom = 726.36458
Ave special neighs/atom = 0
Neighbor list builds = 6954
Dangerous builds = 0
print        "NVE_DONE" file done.txt screen no
Total wall time: 0:50:59
