LAMMPS data file via write_data, version 2 Sep 2026, timestep = 28000, units = metal

528 atoms
2 atom types

0 17.65065805 xlo xhi
0 20.38122435 ylo yhi
0 14.97 zlo zhi

Masses

1 15.9994
2 1.008

Atoms # full

127 43 1 -1.114713946221707 2.4337029044060046 3.594617318578324 1.0911286880917088 0 0 0
64 22 1 -0.8433983818046854 3.280634471477156 7.128119346188396 5.096231697515799 0 0 0
65 22 2 0.3830285970446198 3.312207282165844 7.607668936654723 4.219282086415597 0 0 0
66 22 2 0.4603697847600655 3.8790433815297023 7.5903418279919235 5.75064932119743 0 0 0
94 32 1 -1.208602191439902 6.6612261388456595 4.772777299670716 6.569071767111503 0 0 0
95 32 2 0.6456082105388766 6.172822795733657 4.756539649307754 5.696601833160985 0 0 0
96 32 2 0.5629939809010253 7.646471099275481 4.7938568397208705 6.39920919489849 0 0 0
17 6 2 0.5664683979710272 2.8090524238609076 2.593588771246833 5.081516997880976 0 0 0
16 6 1 -1.12920631932138 2.937149059074687 1.7633554525173283 5.624019680840553 0 0 0
18 6 2 0.5627379213503523 3.081330587623553 0.9849022945872578 5.013096084771412 0 0 0
44 15 2 0.47807145395997 2.383465923044698 4.203752113078665 2.8753391385617624 0 0 0
375 125 2 0.3915592490917649 8.565956649523248 4.206262306784345 4.443419298524851 0 0 0
45 15 2 0.4417737304264057 2.343008777803127 5.439899619895373 3.9416372023270743 0 0 0
79 27 1 -1.014101412656375 5.452336276433492 1.450254338744073 3.8053823212543225 0 0 0
291 97 2 0.5523735768423947 1.8461812817813699 5.413360883894353 0.7544997282857432 1 0 0
43 15 1 -0.9198451843863755 2.484375460910105 4.455391196213834 3.83788799940294 0 0 0
81 27 2 0.5850992622077094 5.10563699850982 1.5123366705774173 2.8694599594842325 0 0 0
128 43 2 0.6283453373833389 3.3271261254922697 3.1492639885485105 1.0323015518766228 0 0 0
289 97 1 -1.089475099233793 1.9598215927991243 6.406795974433862 0.7411628209740834 1 0 0
290 97 2 0.5371015223913987 2.930916283479009 6.630121543788541 0.6568653458882653 1 0 0
35 12 2 0.5368623410413176 5.963182417337171 5.829951313071502 3.799782314649582 0 0 0
86 29 2 0.548579168384687 4.830501963921934 8.723392451881656 3.1341056785776322 0 0 0
250 84 1 -1.208059103183143 7.238256354734111 7.331041310550226 4.19439286977108 0 0 0
222 74 2 0.6382276268941502 8.20519405946214 7.847459182953226 2.949909484164192 0 0 0
36 12 2 0.4941979837148736 4.470730485544473 5.16939939346138 3.8540722104633844 0 0 0
85 29 1 -1.17513527380711 4.340604453144562 8.52057835129583 2.286242398303251 0 0 0
34 12 1 -1.031060324756191 5.427829247095031 5.047048896297335 4.1167461318603165 0 0 0
251 84 2 0.6749529978444734 6.630942646039458 8.058708272397405 4.513259808113315 0 0 0
161 54 2 0.6154928848870443 7.178024725932415 3.517521636431023 7.7436247765381685 0 1 0
367 123 1 -1.059661894376811 0.3947595998992144 8.216881873109319 2.0860263665597376 1 0 0
80 27 2 0.4290021504486652 5.439478670323152 2.357187965735455 4.226465864862161 0 0 0
82 28 1 -1.363131801512378 0.30027618753577784 9.80055526702656 12.85410224168705 0 0 0
252 84 2 0.5331061053386692 7.991338913406023 7.217492145715586 4.842450366826418 0 0 0
125 42 2 0.6159863712226653 5.295010468667813 9.021445409160982 5.954165510905811 0 0 0
20 7 2 0.6705948689132196 8.192505111177246 6.702467989849037 1.1577947095645986 0 0 1
91 31 1 -1.158389410929561 1.8774064076226495 0.6379144601374593 11.831935228005083 0 0 0
369 123 2 0.5545757280659935 1.1710718498554302 7.767242926924848 1.6442465784955882 1 0 0
124 42 1 -1.330177310911168 5.517168952924749 9.294209534464215 5.0180829224980465 0 0 0
77 26 2 0.5425404981783906 4.391886576807758 1.5632483331626696 6.854025615205753 0 0 0
261 87 2 0.589450792360253 5.916937456373682 2.1926183279260583 0.8716507475002964 0 0 0
324 108 2 0.5808701797788852 4.679037393410462 7.265263702736333 1.0018389976799726 1 0 1
260 87 2 0.5847237640992476 4.637451775647179 1.3294387592314698 0.33824056292916316 0 0 0
259 87 1 -1.174174556459501 5.007536889546704 1.8501072732564914 1.1076212096008922 0 0 0
473 158 2 0.4715049983193161 4.235720506548003 5.204410000222463 8.738461533798285 1 0 0
61 21 1 -1.241515730188645 4.748564295494788 8.5407082617904 7.575032707970963 0 0 0
63 21 2 0.5929297702653133 4.698914060105281 7.676862733630024 8.076342023766173 0 0 0
372 124 2 0.581723455645517 2.102089179508897 1.320937386093419 7.0939068557765985 1 0 0
474 158 2 0.633229207833263 5.495842047632187 5.399025142240147 7.71821271699278 1 0 0
390 130 2 0.5978483026083371 6.30405606824165 7.955176150941516 11.460500808023742 0 0 0
8 3 2 0.4828503156360789 1.4572984541382958 9.433076263569811 3.5200226694542422 0 0 0
220 74 1 -1.127065689858732 8.778687325760588 7.918657961668442 2.1337958401661012 0 0 0
281 94 2 0.482942190993289 8.088817791418217 5.866051098269023 10.107219481738742 0 0 0
57 19 2 0.5181937963702767 8.662716713274625 10.135741985122186 0.05075532696058005 0 0 0
383 128 2 0.5747188440313156 8.657580553150789 6.814949355126788 12.613982312114203 0 0 0
263 88 2 0.5919324116994213 0.4856762023048071 3.5900357225242243 8.967341360867358 1 0 0
76 26 1 -1.003606631025152 5.048007385090681 1.3141951351986618 7.566404209790253 0 0 0
323 108 2 0.725570029914106 5.957328730868321 6.341192024472552 0.579048517641763 1 0 1
84 28 2 0.794428808960593 1.216189727910103 9.961059865597544 13.221996156962506 0 0 0
462 154 2 0.6460889470539845 8.381569457110903 1.2808745883854327 8.071321879738035 0 1 0
472 158 1 -1.104734206152579 5.023939187516477 5.777591690981154 8.514454094521561 1 0 0
120 40 2 0.4981664450380828 1.866065727687363 2.6534060120413727 12.495445292127624 0 0 -1
103 35 1 -1.050088913932395 4.715780267558494 4.740275628375548 12.909995693549348 0 0 -1
15 5 2 0.5543810188183328 2.574662441443373 3.9917312586174507 10.090878619303384 0 0 0
10 4 1 -1.157422208273741 0.14844633996272774 2.153080305801884 2.2228284972944845 0 0 0
129 43 2 0.4863686088383681 2.092567867441366 3.780465807677132 0.16966653577350543 0 0 0
56 19 2 0.4927764296349726 7.632198272872419 9.114348152053122 0.8000719367855186 0 0 0
87 29 2 0.6265561054224229 3.9840179547721513 9.369468562778525 1.8960671165037686 0 0 0
70 24 1 -1.161869787417731 6.2575794480575295 6.1916069234990845 11.124527533867514 0 0 0
264 88 2 0.701297567613689 0.3688319029621862 2.1706459117081227 8.16836140200582 1 0 0
38 13 2 0.7033168185239334 3.1892594479814655 9.364991304105455 13.57054318349492 0 0 -1
389 130 2 0.6601889342394538 7.433962232556159 9.044428594460635 11.911643993866152 0 0 0
285 95 2 0.5284260077956053 8.032251136257294 2.776693694020312 9.993220808232968 0 0 0
284 95 2 0.4845286399823991 8.02626571910493 2.424315969385946 11.587737385118606 0 0 0
75 25 2 0.4889060647610621 6.24175102540432 0.4935865978843116 11.72084615698378 0 0 0
41 14 2 0.5407348153490571 0.8487027360378857 6.865217758285673 14.465304358419033 0 0 -1
132 44 2 0.5441119979391784 0.11059206171193048 9.8110519676219 5.189892242505063 0 0 0
243 81 2 0.5817847991516147 3.1683510041004577 0.4400485945283146 13.140150162835216 0 1 -1
23 8 2 0.5390266078644911 0.4576523950948329 6.015759805823467 9.735160218983605 0 0 0
5 2 2 0.6122442813713671 6.195643169780866 9.612430487609117 10.244888863556833 0 0 0
19 7 1 -1.32950097820861 7.7128283430810605 6.047517749765588 0.5738806288443686 0 0 1
21 7 2 0.6589061092953902 8.19379587217653 5.964442895891866 14.671083930231472 0 0 0
11 4 2 0.528780385304742 1.0184777846704987 2.5583209223349894 1.9420606208705835 0 0 0
300 100 2 0.5531867002445696 8.317182321965962 2.2909878028452666 14.397297244470446 0 0 0
322 108 1 -1.306440209692991 5.043352922940076 6.643571962502638 0.30845681766035776 1 0 1
162 54 2 0.6066202818358745 6.536102721313093 2.111554025191386 8.270768225829276 0 1 0
40 14 1 -1.080531250033727 0.15754294113511236 6.980735762093868 13.75189073280896 0 0 -1
160 54 1 -1.222113166722919 7.377889650695663 2.64529815787643 8.190038808360061 0 1 0
371 124 2 0.5151561005374963 2.1738703989719355 0.23874796756673033 8.314727284406967 1 0 0
108 36 2 0.6417325643075358 4.560995723346392 7.581460172527947 13.989778412670612 0 0 0
62 21 2 0.6485859599233326 5.120652711013572 9.25156805913065 8.171885983124977 0 0 0
241 81 1 -1.109410579722683 3.694533592336894 0.5005788993599216 13.98836784629498 0 1 -1
78 26 2 0.4610661328467612 4.625024327125023 0.6626100771122794 8.19610851917102 0 0 0
29 10 2 0.4338746514512064 0.7762745730804345 6.392590515466115 5.739401426670922 0 0 0
107 36 2 0.6581765222388434 5.019182191368769 8.485152102670897 12.709116452621956 0 0 0
388 130 1 -1.258037236847792 6.456069788185744 8.895552912460012 11.764784635797865 0 0 0
46 16 1 -0.9778593681178889 3.8832353118607172 2.6762979896875065 10.5806087094731 0 0 -1
370 124 1 -1.096879556183013 1.6076234591527732 0.934201143960567 7.872330906608564 1 0 0
73 25 1 -0.9759841622153511 6.087556321822309 1.3819050429267539 12.15341939481147 0 0 0
140 47 2 0.5136581900745012 2.926634990808974 6.8763042916464245 12.177942631705776 0 0 0
93 31 2 0.5662004498933865 0.9135190233216645 0.802572128408191 12.041253729731594 0 0 0
100 34 1 -1.128152206426514 6.7342588413440145 3.3799654435799913 14.777072874213747 0 0 0
118 40 1 -0.9710749938269272 1.8175771643393255 3.48661698575415 13.046275215977914 0 0 -1
13 5 1 -1.129440225357547 1.946332458424539 4.718770164677876 9.814073391726062 0 0 0
119 40 2 0.4729085487888447 0.8777383465360732 3.6257094388357562 13.358303353404319 0 0 -1
104 35 2 0.4837698685756974 4.750356949101498 5.51433592268588 13.54216686211492 0 0 -1
48 16 2 0.4681924502033999 3.2099738182702158 1.9435165398003904 10.679379051426478 0 0 -1
74 25 2 0.4870780974542891 5.668174078734659 1.2471847303021806 13.051180077871942 0 0 0
101 34 2 0.5300159623141339 6.370945002717792 3.567067757073674 13.864383961468599 0 0 0
72 24 2 0.5452663127237543 6.040959037280746 6.044487947552499 10.159417759255678 0 0 0
139 47 1 -1.034305633794532 2.107687735357521 6.359269329962888 11.928933568245238 0 0 0
141 47 2 0.5206474437200316 1.433240842838754 6.428829142437129 12.663976488189634 0 0 0
102 34 2 0.59813624411238 7.014254695210392 4.2384067337533775 0.23682413441320344 0 0 1
71 24 2 0.6166034746939766 5.788422932276175 5.5049699548685895 11.67988967653643 0 0 0
106 36 1 -1.299909086546379 4.240860705636015 8.063088771432014 13.17396425757567 0 0 0
47 16 2 0.5096669179144891 4.755885151043067 2.3819481716370383 10.970282567062545 0 0 -1
105 35 2 0.5663190453566971 3.7622912711169283 4.492877586142779 12.737780087798491 0 0 -1
14 5 2 0.5750592065392144 2.0778768233501976 5.515511306831054 10.403908033771506 0 0 0
55 19 1 -1.010970226005249 7.726808860960133 10.018203393951044 0.3828192425876732 0 0 0
90 30 2 0.5310995282607126 0.5014268330835285 9.973622419550033 9.719356957688705 0 0 0
89 30 2 0.6789816880815485 0.15988732918567505 9.502673918412427 11.245216478271486 0 0 0
283 95 1 -1.012954647778004 8.563152211017849 2.8146477083659063 10.839807374458283 0 0 0
88 30 1 -1.210081216342261 0.0734934488270153 9.26325021019757 10.278149956319096 0 0 0
42 14 2 0.5397964346846703 0.20123987392018866 7.913210355000192 13.393300459447637 0 0 -1
28 10 1 -0.9659225941702452 0.04439777202400713 6.647991700499115 5.107632596117277 0 0 0
382 128 1 -1.032581931382256 8.806062387286412 5.971512071215358 13.130288389494691 0 0 0
37 13 1 -1.420888566973624 2.5922098031330627 10.112276792984659 13.862264612596627 0 0 -1
2 1 2 0.5108409527799196 3.1617325826292437 9.779492760366491 7.070131001667967 0 0 0
460 154 1 -1.093391117274886 8.761229418363024 0.3703379086458895 7.9076559359049385 0 1 0
384 128 2 0.4578630873509409 8.784864377047251 5.190493423730943 12.5061363333868 0 0 0
4 2 1 -1.180954754260175 5.968473220621128 10.13904845912349 9.425698654400948 0 0 0
154 52 1 -1.169398768122105 1.9123769366640233 12.808142202782998 2.440691772861186 0 0 0
155 52 2 0.5944064273174465 1.1848708724407804 13.358186454129727 2.0305801775866326 0 0 0
156 52 2 0.5749923408046587 2.230869681552692 13.249038710428612 3.2798448658656736 0 0 0
178 60 1 -1.21387209239764 5.196536606217762 11.930865663069493 4.8684901129261675 0 0 0
151 51 1 -1.326601273586473 3.6764907843688532 10.97191845710382 1.277238698155751 0 0 1
167 56 2 0.5606006944337949 3.680468167396881 14.545638466124082 5.00415553837395 0 0 0
166 56 1 -1.072359544757717 3.041947228727985 13.781462892482503 4.912875880010167 0 0 0
168 56 2 0.5117588503239219 2.429132757923078 13.76293773651566 5.702888864377233 0 0 0
515 172 2 0.5696127492859843 7.718665689990835 14.47237207497675 4.388080459110506 0 0 0
487 163 1 -1.195997064108436 4.7973292994466235 16.16590048770391 4.9366455852034505 0 0 0
488 163 2 0.5878946385723127 5.740444916459584 15.87360837443298 5.095086507839534 0 0 0
391 131 1 -1.20969446549032 6.1107014985781625 19.418067315152314 5.206083836015132 0 -1 1
232 78 1 -1.280449922344409 4.210063887265194 18.114174100811034 6.813249109368244 0 0 0
6 2 2 0.5687104728888072 5.853764577577108 11.102030676850395 9.669650387440052 0 0 0
177 59 2 0.5813337251037727 2.763235309326096 16.51839755744127 2.5201274990877836 0 0 0
516 172 2 0.5415062849817723 8.606154967714824 15.769097795541304 4.8325511415528 0 0 0
175 59 1 -1.214078696812161 3.6956837593125105 16.873885607089314 2.5847294121818174 0 0 0
176 59 2 0.6327449717083884 4.040032085595908 16.739494589288576 3.5139056909472366 0 0 0
153 51 2 0.6629242046089873 3.078983942812518 11.586599120155448 1.792174159416463 0 0 1
392 131 2 0.5992528922109881 7.053601349871445 19.216084286174404 4.941229160889456 0 -1 1
180 60 2 0.6395322817976219 5.871894323418243 12.294809271163857 4.2270524492011825 0 0 0
152 51 2 0.6636770689774858 4.452796004102397 11.487754769422994 0.9149289174329424 0 0 1
233 78 2 0.6917880187005531 4.815105205122039 18.6624925466242 6.235947491349474 0 0 0
185 62 2 0.6063648320378328 3.946580018576179 17.919293870550693 1.1867263144901279 0 0 0
247 83 1 -1.261532016192453 1.7161492983244877 17.255974742747377 5.342829649051762 0 0 0
199 67 1 -1.21171916323138 6.034119132928982 12.313314760185733 0.2637506180887993 0 0 0
514 172 1 -1.111119034267757 7.679302670808886 15.431507052522178 4.66828738277513 0 0 0
477 159 2 0.4649415951721106 0.930391171641112 15.260951146905676 5.900146400415874 1 0 0
170 57 2 0.630233057013196 0.40748139580159665 15.117331374217072 2.0013827665227204 0 0 0
207 69 2 0.5938720779583203 6.83325905189025 16.055335592008344 3.2140152858168864 0 0 1
248 83 2 0.5747525047785 2.5707260466903743 17.42205852542848 5.834886587609439 0 0 0
501 167 2 0.7049701548417984 1.30835208507493 16.75498817014713 3.810026786657428 1 0 0
205 69 1 -1.113824878339798 6.481281919204922 16.24557932289664 2.297541230851696 0 0 1
206 69 2 0.5199528003814784 5.510358221224278 16.47799278701052 2.3549557490348136 0 0 1
179 60 2 0.5743398106000187 4.423272734423284 12.561768009861375 4.93197622077555 0 0 0
158 53 2 0.6902770664646755 6.902634923722694 16.546833122475597 0.6584413465201894 0 0 0
184 62 1 -1.177813633692212 3.6654961535400767 18.398299649902718 0.355131102464716 0 0 0
455 152 2 0.5424313028521064 6.899639361262969 13.524286523831131 2.376080715453636 0 0 0
475 159 1 -1.114049737682402 0.49646284880401065 14.603964066712221 6.516652247588998 1 0 0
126 42 2 0.7141909396885027 5.483093402465229 10.290905797030604 4.94432189249554 0 0 0
489 163 2 0.6081024255361235 4.535096173762497 16.83640712267521 5.630662813198041 0 0 0
212 71 2 0.4837374021216979 5.830858087330092 13.053189828301313 6.607638308044864 0 0 0
201 67 2 0.6060183144583045 6.334468631573357 12.954281453593559 14.527381628745378 0 0 -1
200 67 2 0.6057008487730756 6.567152241804674 11.469859024708452 0.19694193876542174 0 0 0
454 152 1 -1.153868111917628 6.992010130997182 13.013484517090223 3.2308053631081513 0 0 0
456 152 2 0.6114368090655214 7.756267300130181 12.372988397225063 3.1554331376769693 0 0 0
396 132 2 0.4775986747713692 1.0085441668840012 15.300543649746476 14.585245775933597 1 0 0
483 161 2 0.4471431845130426 7.411716433102948 13.740651737969113 7.995414510697561 0 0 0
499 167 1 -1.285482906508761 0.9739638849956277 16.486738816721537 2.906571149376632 1 0 0
191 64 2 0.5751209830368607 8.588299224459803 17.393509626778553 13.946402605320538 0 0 0
451 151 1 -1.094132856784115 0.9498644220096651 18.358064845489107 0.1449580263194133 1 0 1
1 1 1 -1.040501289010233 2.7961889323324542 10.685235990923882 6.855626193966399 0 0 0
143 48 2 0.4551187560621129 7.465319799150211 10.446020499090848 7.661931289671806 0 0 0
225 75 2 0.3581176708647963 7.078510087823336 17.23739575856858 7.052181690505585 0 0 0
186 62 2 0.5714488016543789 2.6721086913180194 18.339760466260334 0.2563394713497034 0 0 0
249 83 2 0.6867795114139532 1.0432898851251142 17.9496722479312 5.59983014296329 0 0 0
258 86 2 0.3980395714841186 4.061131109574207 15.20309744185504 1.2287266897195246 0 0 0
481 161 1 -0.908317489838377 8.186281259505549 13.215571949948384 8.348041535203587 0 0 0
157 53 1 -1.290595064063045 7.164575351118208 16.644801550160434 14.668339960117208 0 0 -1
242 81 2 0.5276257805710683 3.5816297892670543 20.037165036778266 14.511669187397104 0 0 -1
54 18 2 0.6284810222402665 5.976398294571884 18.971248583489675 11.67352403953124 0 -1 0
453 151 2 0.6222345074041423 0.2597529734426235 18.721562090661067 14.489161562755534 1 0 0
99 33 2 0.5530365235085537 8.530861524006543 12.202010907779574 9.866408876417278 0 0 0
230 77 2 0.6271047588400189 8.194789466400959 14.03975322538512 13.236149104954398 0 0 0
214 72 1 -1.218822150529402 2.1757517227037 18.302420027611674 11.364847625706709 0 0 0
149 50 2 0.49357645191477 4.1690799164439865 16.633664013671577 8.217400047599355 0 0 0
211 71 1 -0.9783458874498069 5.34257716708338 13.542907338891498 7.329970485955051 0 0 0
527 176 2 0.3779801026703886 1.8823152306404047 19.50253746834764 3.6412229896708994 1 0 1
92 31 2 0.5921889610361749 1.9835873109365054 20.100710163979254 11.450858188303867 0 -1 0
195 65 2 0.671930919325158 1.8575892168303212 13.45265828825037 11.748425142939068 0 0 -1
231 77 2 0.588528855534299 6.805945282474019 14.642659969784647 12.624344977532909 0 0 0
224 75 2 0.3897076687803381 7.021147325416183 18.76511856955539 7.626169082596735 0 0 0
52 18 1 -1.11144833812904 6.056631511651226 19.196852810132405 10.70261176939656 0 -1 0
395 132 2 0.4881716772991457 0.9933740430389107 16.83621719681671 14.030119101947225 1 0 0
97 33 1 -0.9775045276199241 8.455687208010927 11.990862294241925 10.840970499771993 0 0 0
59 20 2 0.5117689786019114 5.63902775755418 13.64337455818016 10.549355237968108 0 0 0
116 39 2 0.6148038183256164 1.9496118801031188 11.2151686195569 8.282279308399794 0 0 0
39 13 2 0.7175717484496902 2.824291342440147 10.378554787129403 14.797806948061616 0 0 -1
159 53 2 0.6003179975983702 7.191973013436167 15.743204993765625 14.236624440247184 0 0 -1
234 78 2 0.5886619036438564 4.088599895703082 18.569109941499573 7.695453820368371 0 0 0
117 39 2 0.5201130653246421 1.441603791801708 12.644211785012493 8.887632439625504 0 0 0
142 48 1 -0.9313246328645794 8.13343062633911 10.482444308906526 6.918758025101891 0 0 0
213 71 2 0.4946084853281091 4.94419608614579 12.884481070813626 7.968541262264257 0 0 0
246 82 2 0.596297815999257 2.703298903971264 15.051800134422752 8.901876252028632 0 0 0
208 70 1 -1.159608831312342 6.534479170995451 15.54811962113891 11.083059075959001 0 0 0
486 162 2 0.5255390458621879 4.011932344300216 16.054283211915966 13.528382006572954 0 0 0
209 70 2 0.6744122682851641 7.392022327005127 16.051775025527782 10.978387008477815 0 0 0
257 86 2 0.4558643518231458 4.790026323812539 13.90984681647237 0.5483565062107656 0 0 0
244 82 1 -1.253499434652847 1.774420611160624 14.681436382951402 8.897284820737223 0 0 0
245 82 2 0.6572016186535898 1.3749682210486764 14.77192784365111 9.809564578308512 0 0 0
194 65 2 0.6351480239836238 1.5680422987834468 15.010904744587616 12.14176922076613 0 0 -1
485 162 2 0.4427772564091959 4.541143814182264 15.916008720357585 11.989712326254935 0 0 0
256 86 1 -0.8539039233072645 4.2339152336404275 14.721492749921739 0.3695364664985671 0 0 0
476 159 2 0.6491081425102915 0.9081223721333984 14.677121750452931 7.425051753677541 1 0 0
216 72 2 0.6259999440417492 1.2828846462133294 17.852171045147866 11.356510359383353 0 0 0
204 68 2 0.5882455084735789 3.1067161517745987 19.150135587274647 9.860271166496029 0 0 0
217 73 1 -1.150927807534123 5.868879205271009 18.719120511544098 13.422828115007983 0 0 0
203 68 2 0.5990737247176107 4.653619551457868 19.574152466066025 9.553695631679458 0 0 0
394 132 1 -0.9657703520705153 0.803028688621949 15.882272150880718 13.798251105263711 1 0 0
122 41 2 0.6080883602749351 2.961403820895597 11.449633607125019 12.365314647395607 0 0 -1
210 70 2 0.4851965630271784 5.875286236720437 15.867127122404094 10.402100808487063 0 0 0
202 68 1 -1.187319233191189 3.708222942363681 19.64929669205284 9.236546030837921 0 0 0
223 75 1 -0.7478253396451344 7.132594479895111 17.803020789783634 7.875072008286275 0 0 0
219 73 2 0.523680200422548 4.934021869171121 18.885353172778505 13.736537751422341 0 0 0
193 65 1 -1.307078943308782 1.3058734625414319 14.25931289544661 11.536473866324863 0 0 -1
215 72 2 0.5928222064876535 2.8595116910264613 17.67978644414547 11.745380145945383 0 0 0
121 41 1 -1.17140804198524 2.855844027191331 12.198326008057014 11.710851438926406 0 0 -1
484 162 1 -0.9683163022713839 3.772655417638991 16.191604684619946 12.567187625606172 0 0 0
218 73 2 0.6272476071115751 6.314651829681546 18.065855686312716 14.034822484215436 0 0 0
123 41 2 0.5633196817103051 2.5045924697517643 11.838456173824486 10.846489640658033 0 0 -1
148 50 1 -1.010971892356941 4.3533829175563845 15.85481848711562 8.816930965938651 0 0 0
150 50 2 0.5173954404421713 5.007842745669811 15.241410683574754 8.374869349825083 0 0 0
98 33 2 0.4244680041113701 7.493371584855908 12.00757213968907 11.112401328892336 0 0 0
58 20 1 -1.057633272004233 5.285700098270077 12.73645815751277 10.319861273155508 0 0 0
53 18 2 0.4829673158887739 6.931491482621149 18.861025871355913 10.353547920098814 0 -1 0
60 20 2 0.5458642934023209 4.449612849795549 12.562942846374273 10.84029937921509 0 0 0
229 77 1 -1.215633614374319 7.21461546679945 14.156120692276424 13.396532444658108 0 0 0
115 39 1 -1.134916883650259 1.5178710614672728 11.663063748637951 9.065219338905983 0 0 0
393 131 2 0.6104415732793319 5.763447538111334 20.174378187211126 4.651634718200296 0 -1 1
9 3 2 0.5081895746956258 1.4725592515583805 11.062007955743653 3.405840138856913 0 0 0
461 154 2 0.4473021702209009 8.362363759329998 20.368956687061186 7.074274609538459 0 0 0
452 151 2 0.4718983493799724 0.5292723252240032 18.170821811303156 1.032678481626288 1 0 1
3 1 2 0.5296603362303135 2.6334336658598887 10.754484877510874 5.871390151422824 0 0 0
528 176 2 0.4214341435742557 2.9779970209395343 19.83709294192409 2.477503500486842 1 0 1
500 167 2 0.5805127516669625 0.20732641555421005 17.074011942767445 2.646989681677764 1 0 0
144 48 2 0.4762058768024669 8.370433791460275 11.435441467448044 6.729995772428412 0 0 0
169 57 1 -1.203299567205513 0.09242581260126714 14.464513184083641 1.3124896959920835 0 0 0
526 176 1 -0.7994142462446441 2.7671260341152015 19.927807819415392 3.450801764338897 1 0 1
7 3 1 -0.9910398903317049 1.5004552771708262 10.287505590739961 4.03779992464922 0 0 0
316 106 1 -0.9272759300282867 13.080829685442826 5.086734324126816 5.129744980044481 0 0 0
317 106 2 0.5020939231902283 13.98869107172253 5.050281701580771 4.712055882614628 0 0 0
30 10 2 0.5320479427190389 17.029965904244406 5.903490454028322 5.04950714754841 -1 0 0
338 113 2 0.5280107238904495 11.512145970941875 5.753877032839819 3.883407276042501 0 0 0
197 66 2 0.4403528160578972 15.304105206723648 0.7648494916468229 6.830743890556569 -1 1 0
287 96 2 0.5072339335113996 12.211437991217624 7.056555351989754 14.8926202877016 0 0 0
288 96 2 0.4877074094565826 11.34008298046179 7.036566891693293 1.3035728237019022 0 0 1
286 96 1 -0.9949413429679821 11.340515237909411 7.312209954561836 0.34231011895051877 0 0 1
376 126 1 -1.161310279158411 15.551786503660006 3.294176399837644 1.2869257951582156 0 0 1
378 126 2 0.6181640163514286 14.594098811350227 3.233192548110048 1.5682095066076878 0 0 1
377 126 2 0.5431462628069824 15.60010017127163 3.557841613451912 0.32351948567523814 0 0 1
329 110 2 0.49392073213557 15.911090405542357 4.366365859469353 3.286558079377194 0 0 0
342 114 2 0.4613366816550495 14.089343738045345 3.279574922640343 7.770984647091837 0 0 0
348 116 2 0.4420389237861665 14.409390246432798 6.766291273874332 1.2360040574124476 0 0 0
419 140 2 0.5082482874695067 12.482977441625081 4.205739447838299 2.0959160887815544 0 1 0
420 140 2 0.5744798747189436 12.339949412833171 2.5851912628141513 1.9542984239406216 0 1 0
418 140 1 -1.082728162188451 12.98575536691693 3.3424486782849185 2.0517722608639635 0 1 0
328 110 1 -0.9990143598968407 15.72581845075671 5.2558904529746915 3.704200956509142 0 0 0
12 4 2 0.6286418229689997 17.049012744186072 2.6090024353413237 1.7437639846948816 -1 0 0
306 102 2 0.7129659091118939 17.127731017077856 1.0117566189236205 3.3612402699997084 0 0 0
398 133 2 0.5799247526717347 10.631332413946149 8.894891875742816 14.542949350469797 0 0 -1
330 110 2 0.5050936277612706 15.384206436189624 5.886619352109114 3.0074315830432288 0 0 0
269 90 2 0.6604698787279011 10.652296955718889 1.716505106325534 5.3388687266403005 0 0 0
69 23 2 0.45969057539239 12.495430187764072 9.826027828550696 6.365246686175529 0 0 0
293 98 2 0.4849446722194624 13.851235477870603 2.4259417800799845 5.549304550196416 0 0 0
311 104 2 0.4465280405331469 14.070478266888335 6.755859226932965 7.539646383378358 0 0 0
294 98 2 0.4704672849267506 13.65293444600745 2.74395348071581 3.959891369484526 0 0 0
292 98 1 -0.955411957146213 14.272595319419924 2.3605841166851382 4.644766252353209 0 0 0
278 93 2 0.5343353284355493 15.345640812766819 10.18391081781515 2.2877352389167864 0 0 0
337 113 1 -1.022349876036701 11.111534822069158 5.996746074049727 2.9999308424459206 0 0 0
379 127 1 -1.043138300990883 11.995274717652993 9.076959634651482 4.627209994139104 0 0 0
347 116 2 0.5549258860989198 14.284638856096215 8.291847501416155 1.8050420941179381 0 0 0
318 106 2 0.4251820068380585 13.090509611102334 4.581882792907011 5.992899950466477 0 0 0
346 116 1 -0.9969648098850865 14.795022805244571 7.434524861204114 1.8722089574633074 0 0 0
340 114 1 -0.9517606931175666 13.277526953563084 2.7449896948351307 7.536085913282009 0 0 0
31 11 1 -1.060804003577517 10.655899705129105 3.1391082319127177 6.496924522579717 0 0 0
339 113 2 0.4943391521462519 10.255859585414509 5.4951038390506275 2.8727293096682516 0 0 0
343 115 1 -1.210412423569721 9.615342945906209 8.132184617809868 5.7320367926686115 0 0 0
344 115 2 0.61777597641065 10.425774226781142 8.480991074811019 5.261355937912728 0 0 0
68 23 2 0.531282843658645 12.980922774842892 9.02430865139983 7.702494721836879 0 0 0
349 117 1 -1.026752592225643 10.703200892103407 1.4967217495717446 1.6786057366112421 0 0 0
221 74 2 0.4888380629645818 9.738155230024006 7.991818555931801 2.4059614894230195 0 0 0
308 103 2 0.5221678413428548 9.456600165524193 5.711933531337258 7.6854445704626695 0 0 0
307 103 1 -1.188998049266049 9.361292974547439 5.597505717893131 6.696592666809477 0 0 0
301 101 1 -1.002691011135366 15.062567836745824 9.019917689290393 9.801877612897686 0 0 0
33 11 2 0.4988665656209463 11.389520933073461 3.0782208643740496 7.173753817811197 0 0 0
131 44 2 0.582762816504677 16.98460197762072 8.376232156946966 5.120618966938951 -1 0 0
309 103 2 0.6668302079231953 9.636129943769713 6.441160312084418 6.235380309485137 0 0 0
130 44 1 -1.126874814443856 16.91056658335651 9.33180866602007 5.405921557540419 -1 0 0
512 171 2 0.4692911943490718 15.771105890088764 5.626702856952735 8.343958138383345 0 1 0
331 111 1 -1.023365951203779 16.685047540984844 4.465017887965825 13.635432747663584 0 0 0
24 8 2 0.5832614725858243 17.206604811838016 7.354283930744106 9.984096190587277 -1 0 0
350 117 2 0.4952410468024724 10.044774682816831 2.110669700735852 1.2432345011283736 0 0 0
270 90 2 0.4802644807392653 10.592632282916087 0.8549035661259018 3.952949568556054 0 0 0
326 109 2 0.5379364117133084 14.166924822033861 0.7254612864276875 0.5197698023346582 0 0 1
32 11 2 0.5619374379565704 10.127615721061574 3.973873168161932 6.652130211542779 0 0 0
268 90 1 -1.140734359467166 10.694249816015436 0.7978070195556425 4.9461359225886445 0 0 0
67 23 1 -0.9909734190510349 12.581395292162586 9.874792252492293 7.360353366026201 0 0 0
373 125 1 -0.7700647460580458 8.963156906063858 3.9718204086195996 3.55613454993002 0 0 0
279 93 2 0.6088599304140745 16.932050733927117 9.798261171207626 2.323328947855802 0 0 0
345 115 2 0.592636447159071 9.028236227972238 8.897325185425622 5.996367808717526 0 0 0
304 102 1 -1.2419690351841 16.641869516014765 0.4791349294177354 4.054246770800756 0 0 0
380 127 2 0.4795711273496759 12.565075016790068 8.367108392075993 4.213151900368152 0 0 0
351 117 2 0.5315115454231705 10.762835689470302 0.6466519257464488 1.155317806247262 0 0 0
397 133 1 -1.187325420139981 10.432090420898032 9.752039415111273 14.067969354616512 0 0 -1
459 153 2 0.5193691769370584 12.301084887680444 0.008353842197217132 5.561050540186895 0 1 0
511 171 1 -0.9424600520673915 15.516080145301254 5.013200248430429 7.596574909154852 0 1 0
513 171 2 0.4731688577183198 16.15303886777994 4.24292490962296 7.565514310585843 0 1 0
298 100 1 -1.112510432569944 9.291443485005415 2.181062402457673 14.200480413272787 0 0 0
310 104 1 -1.011282535260733 13.419471324080858 7.188783706039595 8.163161923125951 0 0 0
112 38 1 -1.136810492178364 13.463596427072085 9.883859804041185 1.758645598504823 -1 0 0
411 137 2 0.3757175577469661 15.578109046879133 8.839837437819174 0.056714345602962624 0 0 1
409 137 1 -0.7754374486931302 15.365026939280785 9.024962324708907 14.0673759985244 0 0 0
22 8 1 -1.122288080450315 17.176929737707525 6.3659582841477595 9.834640248064982 -1 0 0
196 66 1 -0.8886854412050706 15.922806441015268 0.516176132200065 7.575979165813643 -1 1 0
295 99 1 -1.030248724467496 11.730398975574142 5.394426339805998 9.625393698940078 0 0 0
521 174 2 0.542915166774055 14.364805315315888 5.7151912339553315 11.231321576916912 0 0 0
198 66 2 0.4483326251471734 15.863188268786324 1.201755211631972 8.301535691444405 -1 1 0
522 174 2 0.5918273443077371 15.869942467563693 5.403698715789538 10.679756926082447 0 0 0
303 101 2 0.4483412072737218 15.083802512321913 8.430359686424937 8.994427476783782 0 0 0
425 142 2 0.722450140456345 13.082627238989215 0.9061630198158614 11.352908380747612 0 1 0
302 101 2 0.554349803861645 15.991248569289723 9.319713618953896 10.020234591395756 0 0 0
387 129 2 0.6123300937779452 11.684265839192328 0.7403836099566066 13.082191038574075 0 0 -1
341 114 2 0.4904240114625171 12.821676305769644 2.445416150182818 8.374215468154567 0 0 0
265 89 1 -0.9656191942614981 10.391892015173237 9.380666706833798 9.403281233615228 0 0 0
354 118 2 0.6403896871575817 9.783181836653077 8.967631847420314 12.6151298747014 0 0 0
357 119 2 0.5226453087963513 11.3459142790158 4.744338126900813 13.694293513146269 0 0 0
352 118 1 -1.202371739251693 9.27594427924318 8.563846541253692 11.85376743842237 0 0 0
353 118 2 0.5619820520941113 9.804905382547613 8.663039461533977 11.010935196361592 0 0 0
183 61 2 0.5267033209322353 16.06969791780195 0.8568980129695744 13.401082652588054 -1 1 0
312 104 2 0.5647544947275859 12.792689735982822 6.497737951739863 8.523170088013414 0 0 0
267 89 2 0.5171690396368787 11.201470288091267 9.416289783124133 8.817346690381445 0 0 0
282 94 2 0.4852358834451045 8.852354985852497 7.272455728306268 9.782064181420415 0 0 0
262 88 1 -1.293229979313111 17.502412780300922 2.906154392731325 8.606155582364023 0 0 0
359 120 2 0.3967362739193052 11.318263650887026 1.5020384993880604 9.466798270946747 0 0 0
280 94 1 -0.9681780744383938 8.904704446363697 6.2771516714148925 9.700610876885177 0 0 0
181 61 1 -1.001890534357329 16.72431671500617 0.8983892696698583 12.646259508756135 -1 1 0
182 61 2 0.4751872134250933 16.36168200999747 1.4853780051377425 11.92241866460803 -1 1 0
327 109 2 0.6546911711805292 13.659985014352625 0.841132205721415 13.941764224238222 0 0 0
386 129 2 0.7155558550436963 12.152978491180564 2.304371367258971 13.112846297089696 0 0 -1
423 141 2 0.4387434757780213 12.433697468338831 7.376775938952819 10.816942673822235 0 0 0
410 137 2 0.3997198909461641 16.19127608717374 8.914327826512414 13.515037672935001 0 0 0
321 107 2 0.4558741111390015 13.400510979811944 5.3599805355805525 13.315655424771471 0 0 0
332 111 2 0.5794608176162174 16.840693849690595 5.45282822949466 13.638630911966448 0 0 0
325 109 1 -1.192627582893837 14.45278078161706 0.6897607139724915 14.532159697961758 0 0 0
385 129 1 -1.327885948821642 12.422062531318725 1.376242882005394 12.855598232560734 0 0 -1
355 119 1 -1.101085439052399 11.503197101576449 3.7723871213256173 13.519426051939801 0 0 0
320 107 2 0.5409190943927832 13.465013063970684 6.991099057638103 13.27114870460666 0 0 0
333 111 2 0.4439051335875627 16.29122158275491 4.192461352216153 12.757583488425778 0 0 0
361 121 1 -1.370616291832341 15.571287244077421 2.4135906487025793 10.398626452927774 0 0 0
362 121 2 0.6487272119024551 15.1770745338824 3.2527889807893446 10.773256631962365 0 0 0
319 107 1 -0.996793205531785 13.44802342019197 6.190678945023657 13.87035173182406 0 0 0
363 121 2 0.721889079929886 16.34198030659239 2.643679583496445 9.804407168507678 0 0 0
381 127 2 0.563567173641207 12.443267421804668 9.965242573815871 4.525912267036032 0 0 0
374 125 2 0.3785054969662807 9.143369419987042 2.9888229119521075 3.5208550392909177 0 0 0
422 141 2 0.5865814921751844 13.708734260414037 8.396328747990395 10.85544265353555 0 0 0
276 92 2 0.499283422889605 14.344877686225926 0.6046066836827148 3.069943916986415 0 0 0
421 141 1 -1.025324967953205 13.209287453703086 7.694000997039248 11.36268410492734 0 0 0
296 99 2 0.5086291300145758 11.846057841793241 4.410948828427118 9.764678600408521 0 0 0
426 142 2 0.740219474878503 14.416601543254995 1.3222298802958097 10.50786996554422 0 1 0
424 142 1 -1.462669615334848 13.627097316082018 0.7091998953471675 10.537578303263492 0 1 0
520 174 1 -1.134742511081792 15.0757218022543 5.016826508609606 11.148317170455837 0 0 0
356 119 2 0.5784401302560477 10.661567705551022 3.2616519453094592 13.694967534859641 0 0 0
360 120 2 0.5981544411731973 10.255808012831473 2.522635336586874 10.171254879308204 0 0 0
358 120 1 -0.9948907150925023 11.080469648536695 2.4629230868045493 9.60878451891393 0 0 0
297 99 2 0.5216195944529202 10.755768218253719 5.618226826657501 9.621719264262563 0 0 0
368 123 2 0.505086166310816 17.390311671579873 7.526218651337711 2.3923362484804516 0 0 0
299 100 2 0.5593237323253741 9.45054770398685 1.2796164844664057 13.797880889006754 0 0 0
305 102 2 0.5290031260722061 16.010301865939756 1.074937827192484 4.5503782885275 0 0 0
274 92 1 -0.9706397075683946 13.777665184778657 0.006338932521561702 2.5039483793516566 0 0 0
400 134 1 -1.124979970728664 9.44685185578656 12.0220907674442 2.561110806154553 0 0 0
401 134 2 0.6788080001544865 10.032255701515563 12.403909076422513 1.8459028721698392 0 0 0
113 38 2 0.5405081050607583 13.534701928623988 10.211255121388135 0.8164345890550708 -1 0 0
407 136 2 0.4763313744237968 9.451654161285825 12.577039814604385 4.459777490199762 0 0 0
412 138 1 -1.254875921269537 13.094098973012446 17.797549535123355 4.169231447695754 0 0 0
413 138 2 0.6220784302267605 13.283028776755224 17.584130605284518 3.210710106178493 0 0 0
414 138 2 0.6327974910427761 13.35303927088844 17.019297970781494 4.741315093009287 0 0 0
436 146 1 -1.027184178931935 16.49050415608736 18.349567336196362 2.6232104616532586 0 0 0
438 146 2 0.5898668809608258 16.47312116422311 19.11264847363231 3.2692834310487333 0 0 0
50 17 2 0.5100570886560435 12.46349052191521 11.619719896127966 8.197116463756814 0 0 0
109 37 1 -1.25933363264799 9.056438102679572 16.62064273874327 10.666386503108884 0 -1 0
463 155 1 -1.162065816831667 13.480341453863845 16.903179340234686 1.7254909236036164 0 0 0
464 155 2 0.6301138114260406 14.3104403741049 16.731009273744647 1.1951150914624347 0 0 0
469 157 1 -0.8973100219344917 12.443497310578161 14.322350879815692 3.5773711481183588 0 0 0
470 157 2 0.4723750967537067 12.79716197512211 15.005684969452345 2.9386371663281707 0 0 0
471 157 2 0.4249349251807852 11.461865318112146 14.463049219372033 3.7062427164077816 0 0 0
505 169 1 -1.196503226324783 13.13320049195958 11.580164820906793 3.8964054822755716 0 0 0
506 169 2 0.6147955077537717 12.899913529459393 12.514902939792172 3.628362361248177 0 0 0
465 155 2 0.5319520054056263 12.679032197146581 16.77802671370149 1.1404733446616926 0 0 0
408 136 2 0.4392203765640305 10.249707853563217 13.052731162396784 5.802728362673339 0 0 0
450 150 2 0.6066438933997984 14.51951511892048 15.18732903633189 5.485257729653082 0 0 0
406 136 1 -0.9155517509878274 9.3475607320503 12.882682778655726 5.406219357942188 0 0 0
433 145 1 -1.096289146746086 11.505360623697692 14.898701364420996 6.864733203650402 0 0 0
448 150 1 -1.169695377521889 13.845185479217033 15.840035692689947 5.8305964478172205 0 0 0
497 166 2 0.4205108249537463 12.159795249713978 19.714008189135477 1.142472312028601 0 0 1
434 145 2 0.5191426912094528 10.914352177666963 15.700255599371129 6.774040879532578 0 0 0
507 169 2 0.5817077185710121 13.8310187633953 11.603003929109027 4.612319798159141 0 0 0
427 143 1 -1.154461682199261 17.621391991742232 19.248885232238226 6.131742928681835 0 0 0
228 76 2 0.6345791204254604 16.646109795682726 14.0293811405601 5.602605635710422 -1 0 0
437 146 2 0.4373172979711091 15.754013723354868 18.460877006907378 1.9559794130652257 0 0 0
446 149 2 0.5937666829365376 10.250924777084094 14.917164424520044 0.9322091513182467 0 0 1
405 135 2 0.6971993049961747 14.430913752213266 13.67408694870509 1.0394612024150551 0 0 1
165 55 2 0.5056136212592437 11.142370067889683 17.22231249326411 4.154801465595574 0 0 0
226 76 1 -1.241494634671843 15.919223088153382 13.692539209706167 5.004125476861531 -1 0 0
403 135 1 -1.140372714613564 13.60004491895985 13.665337736814635 0.483056937766165 0 0 1
445 149 1 -1.056003248995727 10.263624031665762 15.888974155301781 1.1676445959544577 0 0 1
164 55 2 0.5807515050819752 10.24329129484075 16.82843842904662 2.8497307466727566 0 0 0
227 76 2 0.6069155142463822 15.631038887342196 12.78452913094781 5.308218942388345 -1 0 0
275 92 2 0.4713562846787898 13.53854593117199 19.566584629503982 3.0224281825687043 0 -1 0
503 168 2 0.4805596361414052 17.407241245349766 12.712346193967214 14.951937684008785 0 0 0
240 80 2 0.6400276740842259 15.672640183463713 12.234302462009252 2.377116076463187 -1 0 0
238 80 1 -1.301943669419641 15.491085649868808 13.215343661516275 2.309282539766356 -1 0 0
239 80 2 0.6619159953354146 15.672402920988413 13.649686863335521 3.191595014305272 -1 0 0
163 55 1 -1.086365126341219 10.214319237715506 17.050501634218715 3.8243351922375544 0 0 0
466 156 1 -1.229313054556355 15.159873654449465 11.209041796709514 6.049423056569259 0 0 0
443 148 2 0.4661492990354483 9.620956695409198 18.153764799598324 6.550949218973667 0 0 0
447 149 2 0.4622365660591886 9.652157744862638 16.38861987270023 0.554074380177448 0 0 1
404 135 2 0.4431734096173892 13.568777409584447 14.489588834368101 14.887691795986592 0 0 0
444 148 2 0.4185554320952274 11.076694942124622 18.39943152737013 7.248919860129885 0 0 0
189 63 2 0.6461572481208284 11.811632149745954 13.438343062162836 0.49253856622262515 0 0 1
187 63 1 -1.289964845961294 10.825965401425831 13.314459146853988 0.6070772465185825 0 0 1
482 161 2 0.4611743053253345 9.040796939672529 13.64620388631124 8.057586099322108 0 0 0
467 156 2 0.6752314148564381 15.620840036169218 10.325939676983927 5.961982141887172 0 0 0
192 64 2 0.5284819759159526 9.114376178563809 17.222026344247606 12.410002422369276 0 0 0
399 133 2 0.6074006674682463 11.235931892373221 10.345980406617652 14.100806221778246 0 0 -1
188 63 2 0.6438075978404653 10.416511831139308 13.069061265371506 14.698366300846638 0 0 0
458 153 2 0.5501990005811016 13.292859738598768 19.103719473671234 5.3888907275807 0 0 0
442 148 1 -0.8847047311306756 10.401031656954816 17.708851568514163 6.9908816497808735 0 0 0
490 164 1 -1.278488327219431 16.046270235638488 18.961930023585797 14.05879764143892 0 0 0
519 173 2 0.5262011792152921 13.274833220393148 11.985264665453393 14.547102913779698 0 0 -1
524 175 2 0.5629430951218604 16.285879847705992 15.778667478581088 14.655678192444778 0 0 0
496 166 1 -0.9845607208027635 11.715688338898113 19.56231188571082 0.25943066193899444 0 0 1
26 9 2 0.728323723955325 13.124293637556313 20.132455009839674 9.355784081824684 0 -1 0
49 17 1 -0.8836719457186316 11.959480553304074 12.340588898543386 8.672854948007622 0 0 0
25 9 1 -1.255149053569894 12.798811056201409 19.417780614297623 8.73666626582263 0 -1 0
502 168 1 -1.044452413495198 16.978412427425855 11.853578023181816 14.671530219300731 0 0 0
135 45 2 0.6621281746234676 11.450025222121546 14.277463770316574 10.367020163236656 0 0 0
335 112 2 0.5923381043268515 14.45204153188684 18.32989205740994 8.15451869979825 0 -1 0
510 170 2 0.5074478058455062 14.606632380236293 11.328692425372832 10.652465541639863 0 0 0
171 57 2 0.5730665101923168 16.84801812707186 14.106003724129943 1.5776944634922654 -1 0 0
83 28 2 0.5687029925517845 17.289698851905918 10.365354459335531 13.347837909487373 -1 0 0
51 17 2 0.3736148570625883 11.851584253894893 13.128053515457456 8.066008066016588 0 0 0
435 145 2 0.577146455536633 12.417152475822894 15.115675800115238 6.516074365883016 0 0 0
449 150 2 0.5630514841220912 14.179162309784433 16.24559242105163 6.681471579211171 0 0 0
494 165 2 0.5680854300719818 14.791763400826618 19.58179825874292 11.11740971434624 0 0 0
138 46 2 0.5277235716612991 11.637722136505861 16.407349485134542 10.41412687320996 0 0 0
315 105 2 0.6234025260963126 9.999820285259025 19.977112861801594 11.608021106820338 0 -1 -1
468 156 2 0.5540816396999169 15.323475508841913 11.581448941225238 6.962961574888579 0 0 0
273 91 2 0.5452065483616171 10.961151655033149 19.25623681338549 9.734363736230454 0 -1 0
334 112 1 -1.088994206199815 15.083623860753315 17.5934252344004 7.912184936220039 0 -1 0
525 175 2 0.6407280263940454 15.830292871251656 17.344009651225132 14.749664305394843 0 0 0
313 105 1 -1.136819274694123 9.985331385405702 20.313166966680733 12.549755136615936 0 -1 -1
114 38 2 0.596302387117605 13.160328985764323 10.631584193133726 2.3493590396070316 -1 0 0
235 79 1 -1.247429044927058 16.423609771377432 13.485498055320706 12.368560160229178 -1 0 0
336 112 2 0.4966561018729636 15.947861457212424 17.985635950567012 7.597114462372051 0 -1 0
441 147 2 0.4061130361552674 16.733407350587164 12.31909778453415 8.700545615900099 0 0 0
236 79 2 0.5451987611421666 16.52365933817663 12.700683268621267 12.980165512773807 -1 0 0
430 144 1 -1.200605037852971 14.358489494802878 15.267897085226803 12.71170398585863 0 0 0
147 49 2 0.5879353126228597 12.645478327033498 12.789297395223983 11.691926111539878 0 0 0
492 164 2 0.6546770267921042 15.46626225959018 19.682564741822418 14.438641850414689 0 0 0
266 89 2 0.4484501546246197 10.162617194760509 10.30393359226721 9.71152884104586 0 0 0
495 165 2 0.5352460667734127 13.951114148292788 18.222132900075533 11.451038170348362 0 0 0
314 105 2 0.5134167485978113 9.943064643865178 19.537737343024883 13.179777115452094 0 -1 -1
172 58 1 -0.9772205320857039 17.32328350540929 16.992254217284277 11.01042763578812 -1 0 0
508 170 1 -1.029148375790451 14.460516414400987 11.713683378138546 11.563748902245434 0 0 0
493 165 1 -1.103331496845395 14.856103279544707 18.647258596597318 11.467411532032074 0 0 0
478 160 1 -1.010712649189664 15.44054757809179 15.36028911048156 9.609849568613235 0 0 0
237 79 2 0.7022302837848912 17.32507909234967 13.772977991414201 12.044965317579361 -1 0 0
366 122 2 0.5006283940626539 12.840317472494565 16.974828584576347 12.799858908736999 0 -1 0
480 160 2 0.4640411620695997 15.012366806341046 15.636720900650422 10.470228534294614 0 0 0
440 147 2 0.5373372787523619 15.60335060302676 13.452813405543791 9.02357756164533 0 0 0
271 91 1 -1.193167498181923 9.989127485086122 19.2644874224421 9.969110861855281 0 -1 0
439 147 1 -0.9434503149076292 15.761165063700131 12.544237497279006 8.636809301025094 0 0 0
518 173 2 0.5735665586430527 13.44922419505724 10.89691731259152 13.342205894331869 0 0 -1
479 160 2 0.546671487120064 15.337444727724312 16.091957676505945 8.936027496966792 0 0 0
111 37 2 0.6690987807845409 9.695742004043346 15.916967756594067 10.3563263255652 0 -1 0
415 139 1 -1.25823575523258 9.859823738792196 13.300323364294982 12.913706364018251 0 0 0
145 49 1 -1.26870307156094 12.287405670105699 13.70366750776836 11.880914317908234 0 0 0
136 46 1 -1.002340395868096 12.242069926330702 17.183219890387686 10.595218385120681 0 0 0
491 164 2 0.6238113004273272 15.828463438012983 18.834073500926962 13.091213959775283 0 0 0
190 64 1 -1.103602958952814 9.392417801915599 17.409312722808256 13.352139323562195 0 0 0
509 170 2 0.5217005699449448 15.169195137372293 12.392397302252427 11.756432968326974 0 0 0
523 175 1 -1.203671121515906 15.561878544137448 16.402002288406266 14.951111941010076 0 0 0
431 144 2 0.554792927682513 14.59273331081448 15.86352721818837 13.480052768553346 0 0 0
416 139 2 0.5989183640032457 9.429835160883984 12.580189325505437 12.369167970932038 0 0 0
146 49 2 0.6807677589380803 13.009568007896632 14.268491293903363 12.280239900600513 0 0 0
498 166 2 0.5640498958490175 12.185523915852556 18.826268653958152 14.742090776315967 0 0 0
428 143 2 0.5951529850070429 17.137234440885823 19.76170313340197 5.422789799980971 0 0 0
432 144 2 0.6458121101704587 15.12706136830801 14.658911851396072 12.515643962567577 0 0 0
517 173 1 -1.099767737858345 12.889653411878255 11.163636908436173 14.126901037878026 0 0 -1
137 46 2 0.4746168242067967 12.503628046179976 17.61105581245133 9.730031095435482 0 0 0
173 58 2 0.5047159469869853 16.455926577205666 17.441912135064328 11.223746618944316 -1 0 0
134 45 2 0.562570762793161 11.390892798942863 14.812441704339316 8.825270842939103 0 0 0
364 122 1 -1.066807343916241 12.318999842477842 17.349372750417523 13.56663780057485 0 -1 0
133 45 1 -1.224698937416628 11.002247020946692 14.91575204110304 9.74085082637233 0 0 0
417 139 2 0.6593173912293346 10.760176142801223 13.51278548561729 12.533929234509149 0 0 0
365 122 2 0.5661789498535863 11.352426683618999 17.11733342423237 13.457553648759946 0 -1 0
255 85 2 0.5617857318459738 9.391135288934153 18.342731388550273 4.755251373716665 0 0 0
272 91 2 0.6479609498203058 9.464745843966456 19.63939978400626 9.204604558347484 0 -1 0
27 9 2 0.5268253296145687 12.74287224072504 19.782128397833606 7.807082050135037 0 -1 0
110 37 2 0.590234851863449 9.450926129244406 17.524859104906817 10.502748999586544 0 -1 0
254 85 2 0.6080520517190559 9.571212432866622 19.9278294361293 5.104143050020354 0 0 0
277 93 1 -1.143195258849624 16.27045410592802 10.513253219163518 2.097316678984831 0 0 0
457 153 1 -1.069568177518161 13.15510174339909 19.970138588659996 5.8688343955675135 0 0 0
253 85 1 -1.16983778356503 8.919472998468695 19.170763278145635 5.058406690453659 0 0 0
504 168 2 0.5638927773537928 16.920970268642193 11.237570629694769 0.48717680782745443 0 0 1
174 58 2 0.4725045850987186 17.1555222588045 16.2150562468058 10.403942061910513 -1 0 0
402 134 2 0.4461719705741779 9.397930168324397 11.028743503235233 2.4568363908626476 0 0 0
429 143 2 0.5593086971922188 17.400763818225933 19.631119399924867 7.029086520960606 0 0 0

Velocities

127 1.2485909066040437 4.16598263487704 0.7789442154244854
64 3.4177271596194183 -2.1619280527933693 4.318667861175154
65 2.5654620132138817 -3.580066032279805 3.5124916744675327
66 9.697489027350604 -5.384013683306678 0.8521581648488108
94 2.8621951542626474 -5.468381600882623 0.32052072202905946
95 18.07587444886584 13.749686958458408 -8.55367402687007
96 5.283758027505146 22.357567049699018 17.81931858853092
17 11.875272038266294 5.811737651707787 11.18162797170566
16 -1.2127371717820734 -2.5990306903947924 1.400348838990086
18 7.238506916009296 5.814081511971907 -7.325292968814212
44 3.307913374702202 -7.313723214629805 0.27482854478845553
375 11.398283792616304 7.251746886509662 9.444365911906736
45 -0.028886965729602476 1.8756942236393606 -10.504964893867987
79 -1.9546921586391037 -6.054223013676478 -4.6118588876905315
291 13.769089298726964 4.327094887456336 -9.540690217996694
43 2.643384318728993 1.3548936902858786 -1.9217409760760933
81 -5.577710348383706 -10.098779225589741 -3.5380494025517963
128 0.4440983593964829 2.620914382279727 0.2579086284387987
289 1.4413593589553872 5.809677730723883 -4.147928991230756
290 -0.2067645838746035 18.364671597832796 10.127311660128417
35 4.603396230066317 6.35671852907078 26.243346771951764
86 -4.868111805209514 -1.7131595527021606 5.240269399944978
250 1.241781584889059 -4.9260240711109695 -7.068805766652874
222 -17.2479069145819 -15.874253215330986 -18.92141480017136
36 -5.805000338040233 28.41641268132333 8.515218319588609
85 -3.263590314660216 -0.9679489275243952 4.134913939099873
34 -7.242684196134725 4.981244672955107 2.8378407979358786
251 16.099791474269956 -0.3131668573401951 10.703025094909169
161 -5.3124880284171425 5.931321164762943 2.2373767822231976
367 0.22696029029854564 -5.991927241118971 -3.10716534004933
80 -0.6311465265384388 -4.289880132172472 -8.371502987785384
82 2.5751699568547064 2.4183789111920304 -3.73862664449039
252 14.097204536281676 -17.193380921142275 -24.157016279474536
125 2.4591036632831704 7.52376683088211 -0.971455086925745
20 20.857166900761296 -3.819353134986849 -9.401313757314508
91 5.7843370476003235 0.049227772989493636 1.0115564442011589
369 -14.34418548310187 -7.328408457240216 -27.35188011324105
124 6.382019761202892 -2.174212655547261 -2.866321864290675
77 -10.51574711083145 -5.105047053429551 6.309701953944196
261 -3.0171689541162303 -6.139500251117132 -13.504742971808332
324 4.715070663167238 -6.385326260069431 2.3635035253487344
260 -10.70798378520972 -9.984019455403418 11.164448316087375
259 -1.1994624258841848 -1.2112475213110099 0.6538273743356435
473 1.6981284943279031 -14.693126289182707 0.5119416687777196
61 -5.628343926020537 2.9925836295127475 -5.006821413360955
63 0.2564740278859219 -4.200368683452096 -16.818724576973025
372 2.9362598569721667 -3.371672254972811 -2.467232892432173
474 -9.81837765532496 13.959323574694064 -8.246703017302439
390 1.243700280043301 -5.983214963050861 16.02485124957449
8 0.11390349379688391 12.632591946614225 4.155086799927903
220 1.087835771826852 7.849099508862857 -3.9670039849811576
281 -0.407389955895181 -7.350848734112497 -2.1661570669663583
57 -0.39973479521389355 7.928446477931464 -0.8846205318647933
383 -5.151282636463852 3.602478245769242 9.532167594179612
263 -3.250095189327501 19.582653038170626 -21.550444783452456
76 -0.3515849273239532 3.0633366630722723 -0.1960468933704691
323 5.6100766829542605 -0.6812157031862153 -7.39766369124011
84 0.03415287439139103 -32.07349196168295 17.635621512552433
462 19.02269474724116 7.411636970540297 5.766220262293345
472 -2.6133477768776445 -6.68280417896425 5.837585473251982
120 8.108201474399806 1.8481393668937443 6.410979282920289
103 -3.254652127962588 -1.2671063454501454 -6.947376148737767
15 5.799078792293981 4.0639012871108475 -7.078431527375995
10 1.5298438084416206 3.286911665678574 0.7040601971598945
129 -11.67949942347278 -20.689558036255573 0.5519787276886378
56 9.89276769694005 1.5864061158396163 4.625590568486001
87 -3.2335281877124427 -0.7235993853372694 4.639062190249432
70 -2.7266637103365285 1.490425316288408 7.893283428618497
264 1.5641600251965002 5.843072269859756 2.1539078226056176
38 -10.62329246125281 -6.336864459321948 -3.3636864724939457
389 10.396899706075304 -1.1181201379310006 -18.646121008779524
285 2.0610689691011768 -32.823099104122946 1.612048300683169
284 16.189086471563332 -10.062240871937878 6.695082011565807
75 13.082133500530242 -4.2229131193567415 0.004859591405945052
41 -8.071950189620184 11.706553755296099 3.456480320727277
132 -0.1928956550541503 3.543443656400491 11.380323105250701
243 18.780685892725636 7.069808836389031 -9.058600531976605
23 -3.698236395676764 11.540989461921232 11.453499156047561
5 -11.86691313639018 -8.270727964376212 -0.05969512401082233
19 -4.69579744215793 5.218088853206071 1.4531745324071694
21 -22.528313088538155 -8.500938523087498 -7.067887480361877
11 -7.904389248139066 11.872662620458964 -16.13826687330711
300 15.900308790508166 17.688791504289547 21.19365830560403
322 4.461933051440756 -0.36556954578250156 -3.1668592400168656
162 2.3342692785903276 0.5947196531943457 -2.6843709953414345
40 -6.619179924471583 -6.912206744390861 -0.9657767424312191
160 0.17965528763921404 3.7084380111531625 -4.56468917193572
371 -6.029016681124207 3.8441640026427546 4.456340737494269
108 -1.1608777954947889 -7.1685309832734285 -5.485721880654811
62 7.083547248223162 -6.985715417322519 -1.0473488070451875
241 1.2363964653320312 2.428191417454731 2.1560420326005563
78 18.023676801101544 -11.54680029194984 -2.970877101214546
29 13.162078469749162 -29.909661663979065 -17.431809202100812
107 -6.29472144785581 21.019115660821285 12.567981464025275
388 8.75431263255284 1.263488987690172 -10.122933776813285
46 9.689772399791211 0.19728323378291157 -4.677825464617531
370 -2.0093887038014135 2.6023310450398536 -2.6407759520930316
73 5.093856061817153 -6.27117069969195 1.3636004140424596
140 -2.2499992243259532 10.944523384283658 -10.433453255817154
93 7.174710905259916 6.239268815539697 2.5447515208257903
100 5.9786489067169075 -2.764726053100653 -1.5771840196660505
118 0.7611506484746847 3.9164085910550743 2.635671400186319
13 -1.8104050254389983 0.25776534558846775 0.1976518918721405
119 1.9304068252140714 -9.523081733275628 12.148416131208112
104 8.250247348988832 -4.07388008777311 -4.1398914801893145
48 -1.2784658997004499 11.030854469285357 0.9326394469660437
74 1.7542789287419724 -11.18709416517779 -0.9341545824336694
101 3.1310990222052872 -1.419188564001539 -0.16782378929402286
72 -4.298843566695896 -2.7698372139436005 8.895585687343369
139 3.4212775335748478 -5.5352153594337965 5.132745420876595
141 5.962601820734551 2.182911605805069 6.734171367666175
102 -0.49057541587800824 -2.4995364395512785 2.107985567334486
71 7.849381746266461 -3.503879776994496 10.652827174492991
106 -2.719371301279924 -0.35256138130870207 -0.8502369334698578
47 12.763412272683908 -20.04551722338448 -26.85194826986638
105 -6.124649184056689 -7.329500683225251 17.651643694694364
14 -5.119587920721802 -1.6798173368041809 3.5529248119324897
55 0.46298514923384915 -0.171280822165707 -1.320091411300183
90 10.54402409465381 -2.0079373777549963 0.3909204006316944
89 -28.851517154939607 9.97730213774528 -4.727966969543973
283 -1.1592222819491116 4.705616938306427 1.9490376536450655
88 5.5143027729734975 -2.909857855631569 -4.607504626935038
42 10.575302660326997 -23.63478576428172 -42.355727939404666
28 3.3701818053406574 -6.228413089447535 3.4851469960044463
382 1.3788443109720476 -0.9537489308396484 0.21115180170107828
37 -1.3770673529800694 1.2993608616761834 -4.001229472622259
2 14.273537737018533 0.8915900946641884 1.1869649160426508
460 -9.786017924161571 -3.9203327306896645 1.9820446703765544
384 -32.07145384764244 2.3074691178271687 -2.733631170117812
4 -1.2075242144756002 -2.105605253034673 0.9476064375751411
154 1.0707134231867361 4.776690479174167 5.011230882524926
155 4.3456192966498595 10.087979704690417 6.325337162961862
156 -2.1767262176938145 -3.5112152341013143 10.59828608001861
178 -0.4166569411754799 1.7489009651070444 4.847535295387241
151 -1.8908403000937506 -1.3054673076970857 -2.645901555376412
167 11.531165940016956 -11.010426295467157 5.021715299385656
166 1.1216032575408297 -1.4677593123046013 -2.050498733325503
168 2.9569663577629086 -2.3638149398718706 -0.6478160956096181
515 -6.239488349373955 -4.9221388063427725 13.495797211277775
487 -8.381161547585018 7.008215729112027 -6.791422650378687
488 -11.068362910235543 -8.092194915592943 -18.653190028129664
391 -0.7291598886082553 7.15790832819026 5.946517620005096
232 3.0980362999715667 2.009236423939073 3.0046233613618214
6 16.149018085638183 -0.5981326490207388 3.158191691830554
177 -3.250498911022169 1.8578332923748793 -13.34952009942507
516 5.559135302000412 -7.502319908484078 -2.535327146534649
175 -3.9694318347210675 1.1467711243642613 0.9401804592584585
176 -27.336559578725403 23.3585404968563 12.812517144908718
153 -1.9283436402920606 -25.781951498416188 26.528265227377247
392 0.1904331145709255 9.988984538243095 7.061297858013431
180 8.180127816987167 -16.941853203081564 3.2940319126080966
152 -7.463794972646943 18.017622810808827 12.924303964456316
233 11.960236677551617 -4.496223111547363 6.113802129860858
185 4.778013433142483 11.982722487314437 5.607540753914977
247 -3.860585108343515 9.438438682991922 5.125176006193941
199 0.9953824048848547 -0.9558488857561527 -3.84329352844527
514 3.0613478543125257 1.3264932926523199 -6.5864068273365115
477 -15.989360344701698 16.22322133066169 2.999296332883518
170 5.4573262532851565 -0.6668728399055315 1.8105780572907069
207 -7.862097676920419 -11.88694523453297 5.994990948229963
248 -4.566872741420735 6.952306431749799 7.190959775847648
501 3.4136554670713792 -11.902146632420536 -0.7256307627112011
205 1.3065321350818866 5.602486131432505 6.104221146021
206 -2.3301100000990917 -7.938300901095061 -0.5812100168748504
179 5.446534526831257 10.710492859317368 -12.795619394179155
158 14.989638562590553 21.95780470068811 3.178082316878033
184 2.6831566832855316 -5.494588843939519 -3.751462990590334
455 10.479134654396697 -13.021656257808386 -9.978799973416686
475 3.2344831679151147 -3.1469382964977073 -4.112030287161853
126 4.373241096029346 -3.060989494010352 -13.920897997945161
489 9.92631535044773 8.601402516767303 -1.4131922146946305
212 32.937968940779484 7.4834712655170925 19.917280234309146
201 -13.92978419101875 7.481607682051302 -2.533266691570131
200 15.471988042363186 8.71044094482407 -10.378035629287615
454 6.057617985867911 -0.24567776541950836 -1.8657610326483591
456 -6.59907393099269 -16.071987649070213 4.286671572873121
396 9.75824043002685 -2.0658833988011045 0.9059779580323966
483 -5.71529440283572 -8.62042563688788 22.31853598843505
499 5.01604969838518 1.5449806434096132 -5.3113622021309554
191 -4.824187017927249 -3.1423414779526246 -14.063257348213316
451 4.503144026214644 -1.2548053663747596 0.20204309603484755
1 1.486333770782644 -5.5614071934798375 -4.2696838564298
143 -11.099747264697722 1.5853872163036913 -5.576134004714502
225 13.638888590496716 -8.700918604452436 3.8196790067325193
186 4.367190681800441 -23.64421850066082 -9.930465702405371
249 -2.654980760979874 11.043265963906164 3.949838003118293
258 -15.481769583455435 1.7731078973779368 2.6128763920010787
481 1.787630917630624 -9.087833026170498 5.141950530393881
157 -2.5199513800046476 1.088047500583187 -3.728528657808021
242 -9.738825846764527 -0.3603087215098868 -4.71269272768352
54 21.382491978626422 0.7238837894654253 -2.1281996432269974
453 -1.0983920710801485 -9.643833086751972 1.5064539896784832
99 -4.675410599889872 8.839124530026826 -3.809396208982029
230 -2.437815479493634 -2.6589060678207024 9.127433555906036
214 -0.5953702091633706 3.7220457129274456 -5.971338201963799
149 -14.147967712537522 -16.601375431551833 -14.166192831968974
211 -0.3317888993719196 -2.2779756083297777 4.045584548641896
527 0.8547103610725797 10.082882706297836 14.281638090424059
92 1.582572917189518 -6.768474333428028 16.272055500213057
195 -2.6277214808035545 -3.8724059990512516 -5.488062787118746
231 6.521144286545432 5.4917493472315995 -3.177998373454967
224 -10.551668729917381 -6.668761204435018 -4.006643434294913
52 -1.1270917268919791 5.458717148355337 -2.888121955768747
395 -1.8100886430460847 -2.784810762015932 -0.7666938712039741
97 -4.388704925338576 -2.0125779640953763 -6.138411613228411
59 15.069809739305137 -28.832867317934088 19.124893964064654
116 -13.160803717910142 -0.7053287306545184 -7.267992360502859
39 -5.637601101953994 -8.387986474117088 -0.18705825597007752
159 14.59058127285834 -10.684131799519784 21.942415294531724
234 7.023581217950994 1.0990644873122262 4.014459489922762
117 3.2366224555793868 -2.396383350575324 10.484645919749008
142 -4.553097864390492 -2.4525691063888457 0.11138167234542884
213 -3.160252826764564 -10.096877130639221 -5.781010872555097
246 -2.1175567738971313 6.0312284002198915 9.813328785873619
208 -5.593358296128408 1.2479181523593612 -0.20771031427690673
486 -12.537008904797359 -0.7694569281032164 8.850804088744479
209 1.5410791483774853 -11.003772785001662 -0.7096813964692805
257 -19.021805983141697 -5.608103000425019 12.850597251228823
244 -0.08882310242786284 1.0458260762006089 1.5295585212006022
245 -8.666037772525327 -1.2093341666364867 -2.002380151389823
194 -10.405893728939605 -10.066657512525794 13.325045341844312
485 1.5508691891406787 -8.728232964993259 14.411427329056632
256 -1.6647222912749724 4.32574594977225 3.960661689626095
476 1.8164635751047282 -1.663624472788247 -3.5888843994112527
216 -3.9163262621196377 10.238208240197757 -2.219895766186452
204 3.794392068596311 -19.827393636934946 -12.413417078736718
217 3.4149918897583422 0.2389865135070106 6.862241822115005
203 -0.19265378888624077 6.2403811940970355 3.5226286079516775
394 2.7797238591683744 -4.171790554215943 1.171706514229962
122 9.005237787531588 -2.085117695951729 3.923074757270317
210 -2.7272969652867234 13.39290422328563 2.7073791643580867
202 -0.7200432345454253 8.015441847318886 5.515308878673591
223 -2.578041654701037 -4.238220056729841 1.818037771945232
219 1.1285836432380933 22.92990694489518 -11.9750424873193
193 -5.049433716225072 -3.3775258159131516 2.6991687318179585
215 -5.10215822339473 1.6872439389809664 -1.2026910741062329
121 -0.9016370961808559 -2.647761874726863 4.877322818611858
484 -0.8470098442987707 1.6194747144675645 6.282025613324867
218 -17.16646015218017 7.078062135739134 29.153910043970402
123 5.325619130502393 -6.424096165803618 3.9189918806634263
148 3.384895974426341 -3.907181824701916 -3.0650864423870914
150 24.42462281941485 9.33674575137579 9.706272309507103
98 -2.962584721873275 11.747096249926143 -1.9293992233139257
58 -5.090260680779471 -14.300646713077336 -7.265336894840478
53 -2.9325504391153663 19.91852011878965 -21.32461985259328
60 -6.792665512430192 -12.441146577806558 -9.38029968126064
229 -4.373646964226268 -2.7737334494710217 -2.6199806137523636
115 -2.1526155147144337 -4.533419862067097 0.9922412538162428
393 -8.858260174784785 -6.707017429643584 -7.875006439287276
9 3.59029844290734 13.008895069135079 9.98806876069341
461 -10.558534950493566 18.376038738453843 -7.884489624607716
452 6.142202054928838 -16.233572461067308 -2.1807959311377756
3 -4.3975281670032205 -15.606928394064793 -4.003499376364909
528 -13.63767961953182 -5.848062255240358 -3.9434005317787526
500 2.240587795452255 2.1424878116064816 4.237366427344244
144 17.273141379034875 -4.916211823409017 15.077526833203708
169 3.8950352888755995 -3.7017017011181825 5.40097558234783
526 6.4454863211661415 -7.684792711658391 0.5789293256588387
7 -4.133086131585723 10.769164162908769 7.58407853205154
316 -0.9584800521326039 2.786810415778346 3.6130224786009295
317 3.320943922968431 3.2354835354703675 12.875338623409728
30 -4.055187696307898 1.0285332003530243 -4.502183483578216
338 5.095023914724756 0.6714943765901105 -0.3721440671614889
197 11.15903826750138 1.0152955706296736 -10.197020732583914
287 -11.453205002346195 -12.382849151035911 1.422901411411773
288 -17.732135993806608 -12.136899786692373 -2.535425678038465
286 -8.200141718810045 -0.35565882495844137 0.847143522377655
376 -1.8188511627480641 2.6131453768774997 -4.350104152447251
378 2.9300099543518905 11.776331506488274 13.804989870951191
377 -17.47246812909084 7.289879294884976 -3.855184827357012
329 -12.203909000953727 1.5686308650067637 -9.519761193241816
342 -9.012574136070171 16.96893593008322 -2.0923440348171956
348 1.1875076816858865 -5.650802114953672 7.439916772923117
419 16.752756466610265 6.792023498429024 2.6432845433098473
420 -12.66458926799371 10.474037714865423 -9.780140775451057
418 0.8098429831438817 -2.41180765265773 1.0538780424823821
328 -0.5887259215558012 -1.475628556397668 2.116762652290848
12 -11.50401312578305 -11.128559739179936 7.392626544945553
306 -16.045503076192347 2.3918478976056705 -2.7742074892123174
398 7.456398499060782 6.4906107356108365 12.30079824929025
330 -2.483323701045431 8.98286286605684 12.512871352800033
269 4.445111296526453 -1.935341336333868 13.964215378215057
69 2.208860987831061 -13.195122441828502 4.898903177307326
293 4.248081845402812 8.62153347530557 -1.4108950696185345
311 15.604769544774587 -0.08877632850890649 9.71725092952436
294 2.4512825615241556 16.8425884595975 0.45815878287868905
292 -2.857834478056108 0.1077143011392121 -4.105866033410932
278 1.316661340423487 5.366436745849626 -13.84228362665593
337 5.4445928093480935 0.5677691750322377 -0.5591698105242547
379 0.7701989323198319 -2.474874258492163 -2.121866377058835
347 -0.2655987793100065 -5.067828209113605 5.558431784567022
318 -7.63354069147431 8.907545649258944 7.267843169760134
346 5.4422980785311115 -2.022965160451513 1.0504214861487706
340 0.39215908533772414 0.5671789631342872 2.7319335740298776
31 3.4680222329751382 6.090480310103644 -1.4873050861876629
339 5.59921885071334 0.39773632476540616 -0.9287723969115773
343 -5.945444970288793 7.119515643193291 -1.7083228108834425
344 5.2655351454511345 -4.223328077511959 9.189235041104922
68 -1.9408271128722938 -4.423026114238835 11.664589437410543
349 -2.724009090383424 -6.089160342992943 0.8464808112330067
221 -3.7051815691615566 -15.758103593031874 19.275691514462043
308 -11.780969942633167 8.66703008433263 -3.0334155471053026
307 2.130621611196505 -4.59492848086269 -2.839592582430424
301 0.8614146393331727 1.0500291428887465 4.439342895365153
33 16.54517872247906 14.016696956295185 -14.94870990408426
131 4.172248256375279 1.7374660609662422 -0.15267336067599357
309 -5.096331492953565 -5.898539860042263 -9.530722097789011
130 -1.1471036535699897 0.8125973511469841 1.5646699559907646
512 -1.1286291389905376 -11.498840071854593 7.241497096661527
331 3.8881038393439558 5.87668616074508 0.057262479477545064
24 -12.00268406780745 7.707073641210892 1.9876979183599275
350 9.113205910594782 7.003348155569656 1.4073496670178063
270 -1.905983072588703 15.49216873590322 3.4032577154006596
326 -10.843829500968292 -7.240659366825779 -3.589299064909767
32 0.058115985062587416 2.648755100814744 5.417291479408526
268 -3.4219239710306084 2.4737241983379885 2.8099530973953897
67 -1.071677837624444 -6.749559333775063 4.866442025167729
373 -1.4816216307911259 1.1053727468142307 5.302590541513814
279 -0.4711882651881236 -0.17635841964129817 5.787178318217862
345 3.580981971187618 15.662410366904293 -5.277658248081199
304 -4.58617478657373 3.4239186010369917 6.05305412903934
380 8.272257518064349 -3.274513071678022 9.572868985683087
351 9.94378412064661 8.81128993722 -21.915331896940586
397 -4.050762942814241 -6.032824404868702 -5.471996202677397
459 0.6284828948893373 -2.8790164214296365 -5.991786612012615
511 0.3596526463517816 -0.6516280730154644 -2.1704655379620457
513 -6.505930159124525 -6.223973908330255 -4.773515070915953
298 9.108866722540848 -0.006200056916540353 -2.541655321820131
310 3.9545750533172725 3.287425765249787 -4.7908045320239445
112 -0.7040725660297469 -5.929732796948732 -4.018232976601736
411 -24.70039630851356 -11.784524766909612 0.7865204559239234
409 2.894437968468888 3.277119762416447 -2.4362009292022666
22 -6.324609813670124 7.868654678773682 -0.20821314611949515
196 -0.2859415398133484 0.9970661209797637 -0.7013752771243704
295 -4.773966091395692 -2.535910330860076 -0.6208243272816634
521 2.841843257601375 -7.394890662491045 24.599339613357415
198 -7.46673611764488 3.8065153870291155 -3.946064569063361
522 5.133999952235009 13.896953321585059 18.82986201120868
303 19.588247814478784 23.13315678241291 -11.19211945336193
425 0.47036412762784574 8.184834559543289 -5.594232503037859
302 -6.69388645472892 11.66148837561461 22.003197713477938
387 0.32566431188891976 3.3222798537455924 0.7501891520471495
341 10.598012458747641 -7.386039359764798 5.440072254945754
265 1.6736564974489605 3.104473395992579 0.05365928606774717
354 10.487521671770935 7.640164271042932 -11.065227614344154
357 8.473170152302929 -3.134923690047879 30.36406108943976
352 2.5031287108100675 -2.433628576172716 -0.4032444047921111
353 -4.797153284284165 -16.656999120360837 -6.658846191185257
183 5.336080314858252 8.30352231885499 5.807297233182549
312 13.566284696062574 0.8805165746696275 7.323249210187589
267 -7.149094669775554 11.953206600373509 -11.59864664669677
282 -16.4657865796419 -1.2825452976791576 -13.627428195221901
262 -0.48490288549570104 5.269278850650158 0.6977584289334064
359 -17.094738832097317 -0.1968383493290995 -6.511439087235518
280 -2.5774198623782234 -1.6087911303992168 -0.7149710287281092
181 3.130394795694343 -1.430357541373061 3.3593673775132715
182 7.372949467215417 0.7421786349022337 2.9956917144880935
327 6.634254104420773 -0.8057201605665055 -8.832174880606372
386 -10.351773979989641 7.114439225271903 -29.464542591528
423 -0.2188956542606375 6.022513675692692 -1.682956243665454
410 18.23067188485539 9.539735490567157 19.2510300700907
321 21.33083080456878 -2.8388294726610046 8.500610390112925
332 -1.023106474157447 6.6421359387991 2.650171756834243
325 0.621511617541626 0.39103251397010086 -0.4512992623678973
385 2.1821826785795047 1.8462759783622738 2.653172603553543
355 3.1686358233294927 1.3617366772498714 0.5995430856553297
320 -21.1583246056946 -1.5974847976834607 -7.583674945727173
333 19.86094413199538 3.9385905537884995 -6.5068240634973735
361 -0.07891619151765364 3.4211934051058455 2.514434678531943
362 -0.039729929461550045 9.433964121534492 -10.91336616453634
319 2.851091234700971 3.741508643990947 0.22895106191431577
363 4.099545862647782 -6.510939978195395 4.08799136248487
381 -8.12434260916557 0.44752209051337655 -15.831699151968312
374 1.9204179809206166 1.5219485082884465 11.073565719544156
422 17.82220069034331 -16.507701897889657 -2.522360126891317
276 -1.2976230712851664 -3.846465394957021 7.87634024718423
421 4.384070993620954 -6.015857404925439 -1.2269561746428352
296 -3.6849665345967786 -4.391954140435911 -14.63045337057319
426 1.7167423485533222 -3.9322114303057143 -9.59270724973121
424 1.1494329741859144 -2.856578833255835 -2.473430244050239
520 0.6951014516920139 -6.043379086082907 -5.158142660056894
356 4.750229201172339 -1.4303447959915774 0.058937288340344285
360 1.2185685814103353 6.763571592695673 11.024494558445602
358 -5.965732247114399 1.4390097573969693 1.05654584301691
297 -5.168845803926839 -4.284949132436487 -2.409894651620734
368 4.874030358280532 -4.42930999419478 10.354906531428101
299 -15.7892550614243 -6.372362462526644 1.8730416316959144
305 -18.46856440858999 -2.2506081560496844 -4.804487698401662
274 5.114298252260266 2.1034434740393215 -4.8385312547242165
400 2.84444263790976 -3.431190266564914 2.9655919672649675
401 11.246593151782431 12.746651031108762 18.479468006913926
113 -8.797406088273412 -8.319072190287127 -5.459246777799483
407 7.2366087918883215 -14.232344154122261 7.394193054372423
412 0.2857306405671167 3.228677997136127 -1.8748909404726588
413 -25.53300689712266 14.882222794501516 -9.558617693709575
414 -5.288841244853585 -12.339267912353494 -20.530024749198915
436 0.5363447763915561 6.271377108170925 -1.4619758989692466
438 -3.443324740572542 1.524235955088935 4.037829039707846
50 -6.9431695041496875 6.436868679530246 -12.866083397691373
109 1.5446554862721618 1.3268192773315732 4.438443465432823
463 0.5879263273844725 -1.453410078315922 0.6372304907671438
464 8.847891078178707 14.400746889645657 8.418460915398276
469 -4.088560602818652 -2.037616764176757 -2.9580183301009795
470 -7.828398649252774 21.66671209911378 20.330749514084108
471 -4.2073502922155 -9.6740411423083 4.474377219804316
505 4.2500812364586436 2.789347737030798 -2.565846763095698
506 10.14703705016003 5.356458635133963 1.2540367622205855
465 9.205249106482675 2.946163998051532 -12.107273316761713
408 2.35579933783287 3.0527891789692223 4.172004920335983
450 13.339388522029367 37.18809030752069 -29.52355054322931
406 3.7262612257065166 -0.46075582708582874 2.5607285301807687
433 -4.409401954038757 -2.851110716709502 0.2605015469614363
448 -7.3432340660853015 0.6954030329737919 -0.9367922816441592
497 -3.250537573185397 6.053434935298038 1.3766885242924567
434 -4.500323966713076 -4.225171886155266 -11.2911802763877
507 -10.346270848441442 -4.101353813241751 11.881383065913926
427 0.5917685251402421 1.6209356797486534 5.907994873333388
228 -4.144693352874999 -5.112262687284662 11.47810107585365
437 -0.3489375844913998 6.9837055063007725 -0.3659672074693574
446 -12.907145564613415 -5.716324528415112 17.302599445406038
405 5.040615086859889 11.704154721044773 -0.3214635963327745
165 8.202776610480793 -2.986241205059818 -10.234619176907122
226 1.7418170046431407 3.46293376419393 -0.49775435863073786
403 4.532349012887905 -0.41110520839835496 0.6280284360969515
445 -3.520615209993581 -0.6853898933947379 -3.9699543945234703
164 -6.2652908960463005 -12.419838735049835 2.57969160258082
227 0.9346573974545869 -2.224790830908982 -18.24598809502461
275 -20.454369438951563 7.568052011786329 -7.977773646332297
503 20.56777473541955 -8.13099244550455 -11.511935866492578
240 -4.391319260278749 -2.662779170761791 -4.001389131857716
238 -2.584723219452533 -2.0865859034136007 -0.5035082293628037
239 10.946747085405507 -3.4627076136633383 -2.6068222068284292
163 3.543309584760253 4.302682780491452 -0.9389475832525996
466 -6.693758637473239 6.225657171457149 8.456744446453197
443 -9.761617373938181 -26.035779798822745 -12.21641462099913
447 -16.398699855477723 -11.587003276196494 -0.01348764069678765
404 2.013803431317039 -10.767830075394428 -14.331848935320854
444 -28.01324232140458 30.71534565541334 5.875643222729653
189 0.770887739760636 16.613067220410997 3.343681205670785
187 2.8504853401045143 -2.2320310383013933 0.8570596435222955
482 -4.381664656518776 -0.09567106191200381 0.32383555626268024
467 -8.281111154464579 5.031382992895729 12.150094562060385
192 13.411717030713273 -17.191126288591743 -6.251086583507146
399 -17.536884507182613 12.107135776575603 -3.4426349236714664
188 7.237455680666843 6.748715023113857 -3.6951958461699514
458 16.74036446085884 11.775679687584418 -22.63045377630498
442 0.867793071589781 4.66101567683314 -0.019829103057860398
490 -1.7270041998743628 -3.91881847521915 -3.644508446237362
519 -19.618089051225954 10.435562854896943 -8.482742533919899
524 0.9303324829383071 2.81740694778501 4.810882327913342
496 -0.42957429808723735 -0.20092774204786665 1.0323722769586148
26 -9.2040503030726 -10.71368816807994 11.648280100821875
49 -13.318490248930342 1.0138041412562941 -11.40289734417426
25 -3.5283130617085234 -4.1824648243959635 1.1251590803678329
502 -1.146893947455934 -2.2790736644895624 3.774512089494441
135 -12.397458834040453 -2.192671737505063 15.989925053395439
335 3.4891048516412395 6.635163914002025 -6.321485487688534
510 -1.0592758324137872 22.038297632167684 -18.084567944672237
171 3.8844540315225817 -1.5133671689023749 8.323501137800685
83 7.958715268884999 3.708240368705 1.995773634258382
51 -4.302756151212547 8.319980813835183 -3.5251419978947256
435 -0.7999187167379374 -3.73318917168639 9.150879748746064
449 -9.556837280846615 -8.337753568490283 4.237585792674987
494 4.112325677649725 -3.5163464461601 -14.329299501612844
138 12.979335846850844 -11.591233043325131 7.734948340165771
315 -32.85660326029632 -9.467312565105436 6.778000450327124
468 0.37507061592531876 13.351396191156773 4.285984682387739
273 -4.333351148381459 -14.520761242006802 3.374376877909151
334 1.1593612046996387 1.3887676711972603 3.5507329752506314
525 -1.8627657162050362 0.9554572693935239 22.282497441008825
313 6.714527289338932 -1.8738661811743054 4.677124176043256
114 -17.775027724348956 -10.443042083633715 -7.069379838958179
235 -2.455826981197938 7.187193139082066 4.756943491901927
336 1.0499044404252813 -5.525535898166015 -5.356672949939396
441 1.1724562629791728 8.689171665244782 -2.921490415700183
236 2.0782346103296283 17.030130144372034 16.645740046701306
430 1.154132761185275 -0.35463571758611945 -1.981400164653527
147 0.06406052205803103 -4.9219869369726705 10.487182470573014
492 -17.55754089423357 -6.636761549633628 -22.66070833965383
266 -9.955289362616641 1.845496609740433 -4.825057891707326
495 -0.11532457720704337 2.9332068767210187 1.302650086184396
314 0.07137162548257692 4.284613820520357 11.81129320114859
172 2.6629558137300418 -0.019761067409489685 -3.5841951614462024
508 0.2756323426613022 -3.160107291816004 -7.224927853595655
493 0.8321929870700526 1.0277057970670742 -1.593250251577682
478 0.5312944630196541 -1.2701541723798397 2.5669546022782836
237 -5.771536333538311 -4.869302872882924 -15.190874305714129
366 21.32440422221478 -0.9043331757670594 13.443763369705357
480 -6.371560720389645 -0.7276143595836466 -1.0426700344019468
440 -2.894598431420215 2.884892904661215 3.221551861084012
271 -4.413392267993396 0.7372852543588398 2.506676884057021
439 -0.08192961003325233 4.357124969536704 0.9107242585616784
518 -13.925969733766493 16.44489377049334 -13.086941124540202
479 11.623162979374621 0.9341095425518591 3.2632618787077057
111 -5.589209222694857 0.3460982155542818 -8.044935391109176
415 -0.7275104514882653 0.5861279093814221 0.9496487467541951
145 7.485570679471336 0.5334481304237321 -1.8461104944341709
136 -2.09583290189118 2.1532540083106375 -0.842459887428382
491 19.920940940979932 -15.535473844302917 -6.982518901655218
190 1.1330640316022476 -0.5595488217166911 -5.933607564751503
509 -13.922553939233598 9.441175254183158 0.6080322234481468
523 -5.286621447257506 -2.613103087807545 1.033193371193287
431 10.798776468883734 -10.866624394885717 3.2272487686486695
416 -8.12277136210695 -8.08639386712371 18.25835640683977
146 2.2112930524317163 -10.604823723478132 23.446648042917634
498 -1.2581503915392214 -6.267014536627837 9.395339728815703
428 -8.969774114425324 8.391537254284176 17.335236573635882
432 -16.684584988799703 -25.545531406209044 6.335169179449032
517 -2.428178458558315 -2.808550392756613 1.6564901426062273
137 -21.51504801294558 6.128982507167995 -4.747156553096987
173 0.7159177926541904 -3.0631863087983895 -5.085592999346627
134 -0.604034550761333 -10.501375701054675 12.654527418662903
364 0.2863130374327534 -3.3588249760148177 0.33931779928225053
133 -3.205601995573137 -1.136373423924704 10.493504047201187
417 0.8583349358209493 -16.787067866364556 -5.009968475951733
365 4.911190797002284 -12.510992619206588 -21.172697037897482
255 -9.773309187479702 -1.0637572522224514 -9.068730630610748
272 2.456841654275655 11.748707494523883 3.194302054435484
27 1.7656840446473274 6.5957804433166345 5.031087973262961
110 -10.114201355757656 1.1625227672739047 -24.57592621580455
254 3.714227361234382 -1.496338783252312 -14.06487424340866
277 5.1038117583857305 3.6568285931789295 1.594029915561428
457 1.399931823584378 -0.49451728552893703 -4.88281686652909
253 -0.057673928853420264 0.8518655924836227 0.8149884075616908
504 9.417059322163158 2.2688744866450765 8.112831656034992
174 3.6728902036934747 -15.1478221243306 15.522723448958923
402 26.728024218988203 -3.972766735844605 -3.08048949675264
429 14.493082608328084 -5.495016999833207 12.357009314648783
