ITEM: TIMESTEP
0
ITEM: NUMBER OF ATOMS
240
ITEM: BOX BOUNDS pp pp ff
0.0000000000000000e+00 1.7650658050000001e+01
0.0000000000000000e+00 2.0381224350000000e+01
0.0000000000000000e+00 6.0000000000000000e+01
ITEM: ATOMS id type q
1 1 -0.02872723528
2 1 -0.0287272090493
3 1 -0.0287271919953
4 1 -0.0287272145009
5 1 -0.0287272353197
6 1 -0.028727209061
7 1 -0.0287271919723
8 1 -0.0287272144564
9 1 -0.0287272352852
10 1 -0.028727209058
11 1 -0.0287271920005
12 1 -0.0287272145095
13 1 -0.028727235325
14 1 -0.0287272090697
15 1 -0.0287271919775
16 1 -0.0287272144651
17 1 -0.0287272352956
18 1 -0.0287272090666
19 1 -0.0287271920109
20 1 -0.0287272145182
21 1 -0.0287272353353
22 1 -0.0287272090784
23 1 -0.0287271919879
24 1 -0.0287272144738
25 1 -0.028727235299
26 1 -0.0287272090632
27 1 -0.0287271920143
28 1 -0.0287272145148
29 1 -0.0287272353387
30 1 -0.028727209075
31 1 -0.0287271919913
32 1 -0.0287272144704
33 1 -0.0287272352903
34 1 -0.0287272090529
35 1 -0.0287271920056
36 1 -0.0287272145044
37 1 -0.0287272353301
38 1 -0.0287272090646
39 1 -0.0287271919826
40 1 -0.02872721446
41 1 -0.0287272352816
42 1 -0.0287272090476
43 1 -0.028727191997
44 1 -0.0287272144992
45 1 -0.0287272353214
46 1 -0.0287272090594
47 1 -0.028727191974
48 1 -0.0287272144548
49 1 0.00433070395991
50 1 0.00433074001943
51 1 0.00433073706916
52 1 0.00433070264536
53 1 0.00433070393512
54 1 0.00433074002303
55 1 0.00433073709899
56 1 0.00433070268414
57 1 0.00433070395505
58 1 0.00433074001315
59 1 0.00433073706429
60 1 0.00433070263908
61 1 0.00433070393025
62 1 0.00433074001675
63 1 0.00433073709413
64 1 0.00433070267787
65 1 0.00433070394955
66 1 0.00433074001094
67 1 0.0043307370588
68 1 0.00433070263686
69 1 0.00433070392476
70 1 0.00433074001454
71 1 0.00433073708863
72 1 0.00433070267565
73 1 0.00433070395176
74 1 0.00433074001644
75 1 0.00433073706101
76 1 0.00433070264236
77 1 0.00433070392697
78 1 0.00433074002004
79 1 0.00433073709085
80 1 0.00433070268115
81 1 0.00433070395804
82 1 0.0043307400213
83 1 0.00433073706729
84 1 0.00433070264723
85 1 0.00433070393325
86 1 0.0043307400249
87 1 0.00433073709712
88 1 0.00433070268602
89 1 0.00433070396052
90 1 0.00433074002191
91 1 0.00433073706977
92 1 0.00433070264784
93 1 0.00433070393573
94 1 0.00433074002551
95 1 0.0043307370996
96 1 0.00433070268662
97 1 -2.364357369e-05
98 1 -2.3629922557e-05
99 1 -2.36436603088e-05
100 1 -2.36573179242e-05
101 1 -2.36435801998e-05
102 1 -2.36299075737e-05
103 1 -2.36436328825e-05
104 1 -2.36572945856e-05
105 1 -2.36435736538e-05
106 1 -2.36299225248e-05
107 1 -2.36436602727e-05
108 1 -2.3657317892e-05
109 1 -2.36435801636e-05
110 1 -2.36299075416e-05
111 1 -2.36436328464e-05
112 1 -2.36572945534e-05
113 1 -2.36435736401e-05
114 1 -2.36299225385e-05
115 1 -2.3643660259e-05
116 1 -2.36573179057e-05
117 1 -2.364358015e-05
118 1 -2.36299075552e-05
119 1 -2.36436328328e-05
120 1 -2.3657294567e-05
121 1 -2.36435736723e-05
122 1 -2.36299225746e-05
123 1 -2.36436602911e-05
124 1 -2.36573179418e-05
125 1 -2.36435801821e-05
126 1 -2.36299075913e-05
127 1 -2.36436328649e-05
128 1 -2.36572946032e-05
129 1 -2.36435737031e-05
130 1 -2.36299225948e-05
131 1 -2.3643660322e-05
132 1 -2.3657317962e-05
133 1 -2.3643580213e-05
134 1 -2.36299076116e-05
135 1 -2.36436328957e-05
136 1 -2.36572946234e-05
137 1 -2.36435737102e-05
138 1 -2.36299225879e-05
139 1 -2.3643660329e-05
140 1 -2.3657317955e-05
141 1 -2.364358022e-05
142 1 -2.36299076045e-05
143 1 -2.36436329027e-05
144 1 -2.36572946164e-05
145 1 -0.00422729261205
146 1 -0.00422729138739
147 1 -0.00422732559423
148 1 -0.00422732845621
149 1 -0.00422729260401
150 1 -0.00422729136692
151 1 -0.00422732557493
152 1 -0.00422732844879
153 1 -0.00422729260665
154 1 -0.00422729138523
155 1 -0.00422732558883
156 1 -0.00422732845405
157 1 -0.00422729259861
158 1 -0.00422729136475
159 1 -0.00422732556953
160 1 -0.00422732844663
161 1 -0.00422729260881
162 1 -0.00422729139063
163 1 -0.00422732559099
164 1 -0.00422732845945
165 1 -0.00422729260078
166 1 -0.00422729137016
167 1 -0.00422732557169
168 1 -0.00422732845203
169 1 -0.00422729261503
170 1 -0.00422729139549
171 1 -0.00422732559721
172 1 -0.0042273284643
173 1 -0.00422729260699
174 1 -0.00422729137501
175 1 -0.00422732557791
176 1 -0.00422732845688
177 1 -0.00422729261752
178 1 -0.0042272913961
179 1 -0.0042273255997
180 1 -0.00422732846492
181 1 -0.00422729260948
182 1 -0.00422729137562
183 1 -0.0042273255804
184 1 -0.0042273284575
185 1 -0.0042272926169
186 1 -0.00422729139361
187 1 -0.00422732559909
188 1 -0.00422732846243
189 1 -0.00422729260887
190 1 -0.00422729137313
191 1 -0.00422732557978
192 1 -0.00422732845501
193 1 0.0286474674442
194 1 0.0286474466383
195 1 0.0286474242517
196 1 0.0286474413025
197 1 0.0286474674608
198 1 0.0286474466567
199 1 0.02864742426
200 1 0.028647441297
201 1 0.0286474674477
202 1 0.0286474466348
203 1 0.0286474242552
204 1 0.028647441299
205 1 0.0286474674643
206 1 0.0286474466532
207 1 0.0286474242635
208 1 0.0286474412935
209 1 0.0286474674388
210 1 0.0286474466243
211 1 0.0286474242463
212 1 0.0286474412885
213 1 0.0286474674554
214 1 0.0286474466427
215 1 0.0286474242546
216 1 0.028647441283
217 1 0.0286474674302
218 1 0.0286474466191
219 1 0.0286474242377
220 1 0.0286474412832
221 1 0.0286474674467
222 1 0.0286474466375
223 1 0.0286474242459
224 1 0.0286474412777
225 1 0.0286474674285
226 1 0.0286474466207
227 1 0.028647424236
228 1 0.0286474412849
229 1 0.0286474674451
230 1 0.0286474466392
231 1 0.0286474242443
232 1 0.0286474412794
233 1 0.0286474674337
234 1 0.0286474466294
235 1 0.0286474242412
236 1 0.0286474412936
237 1 0.0286474674503
238 1 0.0286474466478
239 1 0.0286474242495
240 1 0.0286474412881
