LAMMPS (4 Jul 2026 - Development - patch_4Jul2026-542-g4e5eb25ab6-modified)
  using 1 OpenMP thread(s) per MPI task
# the published benchmark deck, unchanged (copper atoms are single-atom fragments held at q0 = 0)
# Benchmark deck for proc-grid optimization: reads data.cell_L0, steady 300 K, short run.
# Same physics/cost as the production relax/equil (FQ solve + rexpon + EAM + SHAKE), with the load
# balance the inhomogeneous slab+vacuum cell needs.  Reports Loop time / Performance (timesteps/s).
#   run: srun ... lmp_cpu -in in.cucell_bench -var NB 500 [-var GRID "* * 1"]
variable        NB     index 500
variable        RIDGE  index 69.1815
units           real
atom_style      full
boundary        p p p
comm_style      tiled                     # slab+vacuum -> RCB load balance
if "${GRID} != none" then "processors ${GRID}"
special_bonds   lj/coul 1.0e-8 1.0e-8 1.0
read_data       data.cell_L0.data extra/special/per/atom 2
Reading data file ...
  orthogonal box = (0 0 0) to (36.15 36.15 158.344)
  2 by 2 by 8 MPI processor grid
  reading atoms ...
  13216 atoms
  scanning bonds ...
  2 = max bonds/atom
  scanning angles ...
  1 = max angles/atom
  orthogonal box = (0 0 0) to (36.15 36.15 158.344)
  2 by 2 by 8 MPI processor grid
  reading bonds ...
  7600 bonds
  reading angles ...
  3800 angles
Finding 1-2 1-3 1-4 neighbors ...
  special bond factors lj:    1e-08    1e-08    1       
  special bond factors coul:  1e-08    1e-08    1       
     2 = max # of 1-2 neighbors
     1 = max # of 1-3 neighbors
     4 = max # of special neighbors
  special bonds CPU = 0.003 seconds
  read_data CPU = 0.077 seconds

group           water  type 1 2
11400 atoms in group water
group           watO   type 1
3800 atoms in group watO
group           zn     type 3
72 atoms in group zn
group           cl     type 4
144 atoms in group cl
group           li     type 6
0 atoms in group li
group           metal  type 7
1600 atoms in group metal
group           ions   type 3 4 6
216 atoms in group ions
group           mobile type 1 2 3 4 6
11616 atoms in group mobile
group           FQ     type 1 2 3 5 7
13072 atoms in group FQ
set             type 1 charge -0.9
Setting atom values ...
  3800 settings made for charge
set             type 2 charge 0.45
Setting atom values ...
  7600 settings made for charge
set             group zn charge 2.0
Setting atom values ...
  72 settings made for charge
set             group cl charge -1.0
Setting atom values ...
  144 settings made for charge
set             group metal charge 0.0
Setting atom values ...
  1600 settings made for charge

pair_style      hybrid/overlay rexpon NULL lgvdw yes coulomb_off yes checkqeq no safezone 3.0 mincap 200 lj/cut 10.0 coul/long 10.0 coul/shield/intra 5.0 all gaussian eam/alloy
pair_coeff      * * rexpon ffield.RexPoN Ow Hw NULL NULL NULL NULL NULL
pair_coeff      * * coul/long
pair_coeff      * * coul/shield/intra 0.5
pair_coeff      * * lj/cut 0.0 1.0
pair_coeff      * * eam/alloy CuZn.eam.alloy NULL NULL Zn NULL Zn NULL Cu
WARNING: Converting eam/alloy potential in metal units to real units (src/potential_file_reader.cpp:300)
pair_coeff      1 3 lj/cut 2.30605 2.01
pair_coeff      1 4 lj/cut 1.15    3.20
pair_coeff      1 6 lj/cut 0.30    2.05
pair_coeff      1 5 lj/cut 0.9224  1.853
pair_coeff      2 5 lj/cut 0.4612  2.0
pair_coeff      3 4 lj/cut 15.0    2.04
pair_coeff      4 4 lj/cut 0.0128  4.478
pair_coeff      4 6 lj/cut 0.0655  2.944
pair_coeff      6 6 lj/cut 0.335   1.409
pair_coeff      3 6 lj/cut 0.10    2.00
pair_coeff      4 5 lj/cut 0.10    2.60
pair_coeff      5 6 lj/cut 0.10    1.80
pair_coeff      1 7 lj/cut 1.153   1.83
pair_coeff      2 7 lj/cut 0.4612  2.0
pair_coeff      4 7 lj/cut 0.10    2.60
pair_coeff      6 7 lj/cut 0.10    1.80

bond_style      harmonic
angle_style     harmonic
bond_coeff      1 0.0 0.9572
angle_coeff     1 0.0 104.52
kspace_style    pppm/samqeq 1.0e-5
kspace_modify   gewald 0.30
Updated KSpace settings:
  KSpace computation is turned:    ON
  Use MPI collective operations:   OFF
  Use MPI non-blocking operations: OFF
  Gewald manually set to:          0.3
neighbor        2.0 bin
neigh_modify    every 2 delay 4 check yes one 10000
fix             shk all shake 1.0e-4 50 0 b 1 a 1
Finding SHAKE clusters ...
       0 = # of size 2 clusters
       0 = # of size 3 clusters
       0 = # of size 4 clusters
    3800 = # of frozen angles
  find clusters CPU = 0.002 seconds

fix             chg FQ qeq/sam 1 0.0 8.0 1.0e-5 cucell.param
fix_modify      chg shield gaussian
samqeq: lr-solve shielding = PQEq Gaussian erf(a_ij r)/r (param 4th col = Rc (Gaussian radius)); routed through compute_H + add_fixed_charge_field + the legacy gas path (calc_Hval)
fix_modify      chg quartic watO 115.30 0.0 8 0.5
samqeq: QUARTIC near-crit cure ON (group watO c4=115.3 c=0 niter=8 mix=0.50 fld0=0 qref=0); c4 term centered on q; damped-Picard SCF, q-only (no force term)
fix_modify      chg ridge eig ${RIDGE} 15 10
fix_modify      chg ridge eig 69.1815 15 10
samqeq: ridge mode = Lanczos lambda_min: ridge = max(lr_ridge, 69.18 + 0 - lambda_min) eV (floor + delta), 15 Lanczos steps, recomputed every 10 step(s) (continuous in config; matrix kept PD). The Ritz estimate is an UPPER bound on lambda_min: an unconverged m can only MISS a negative mode, never invent one -- m >= 60 recommended for interface cells; delta is the estimate-error budget, so lambda_min(A+ridge) >= floor whenever the estimate is within delta of the true value
fix_modify      chg energy yes
fix_modify      chg aspc 2 3
samqeq: ASPC q-direct predictor-corrector ON (order k=3, n_corr=2, omega=0.5556, rtol=0.01); fixed-iteration corrector off a time-reversible predictor, accept only if rel-resid<rtol else BO (BO<->XL middle ground, #16)

compute         Tw water temp
thermo          100
balance         1.0 rcb
Balancing ...
PPPM initialization ...
  using 12-bit tables for long-range coulomb
  G vector (1/distance) = 0.3
  grid = 36 36 100
  stencil order = 5
  estimated absolute RMS force accuracy = 0.0032614861
  estimated relative force accuracy = 9.8218686e-06
  using double precision FFTW3
  3d grid and FFT values/proc = 11875 4212
samqeq: E_self = sum(chi q + 1/2 eta qs^2) INCLUDED in pe/etotal (fix_modify chg energy yes; eselfref qs = q - q0 - redox_dp) -- pe + E_self is the energy the forces integrate
WARNING: Fix qeq/sam group is not charge neutral, net charge = 144
For more information see https://docs.lammps.org/err0029 (src/SAMQEQ/fix_qeq_base_sam.cpp:473)
WARNING: samqeq: 144 fixed charged atom(s) lie outside the charge-solve group; their shielded field is coupled into the QEq right-hand side (ionfield ON by default). This supplies the ions' electrostatic field only -- necessary but NOT sufficient (~56% of the QM dipole response at contact; zncl2 RESULTS_R6_P0 s13-14). `fix_modify chg ionfield off` restores the ion-blind solve. (src/SAMQEQ/fix_qeq_sam.cpp:1179)
Neighbor list info ...
  update: every = 2 steps, delay = 4 steps, check = yes
  max neighbors/atom: 10000, page size: 100000
  master list distance cutoff = 14
  ghost atom cutoff = 14
  binsize = 7, bins = 6 6 23
  8 neighbor lists, perpetual/occasional/extra = 8 0 0
  (1) pair rexpon, perpetual, skip from (8)
      attributes: half, newton off, ghost
      pair build: skip/ghost
      stencil: none
      bin: none
  (2) pair lj/cut, perpetual, trim from (3)
      attributes: half, newton on, cut 12
      pair build: trim
      stencil: none
      bin: none
  (3) pair coul/long, perpetual, half/full trim from (7)
      attributes: half, newton on, cut 12
      pair build: halffull/trim/newton
      stencil: none
      bin: none
  (4) pair coul/shield/intra, perpetual, half/full from (7)
      attributes: half, newton on
      pair build: halffull/newton
      stencil: none
      bin: none
  (5) pair eam/alloy, perpetual, skip from (4)
      attributes: half, newton on
      pair build: skip
      stencil: none
      bin: none
  (6) fix qeq/sam, perpetual, half/full from (7)
      attributes: half, newton off
      pair build: halffull/newtoff
      stencil: none
      bin: none
  (7) fix qeq/sam, perpetual
      attributes: full, newton on
      pair build: full/bin
      stencil: full/bin/3d
      bin: standard
  (8) neighbor class addition, perpetual
      attributes: half, newton off, ghost
      pair build: half/bin/ghost/newtoff
      stencil: full/ghost/bin/3d
      bin: standard
 rebalancing time: 0.014 seconds
  iteration count = 0
  initial/final maximal load/proc = 655 414
  initial/final imbalance factor  = 1.5859564 1.0024213
fix             bal all balance 1000 1.05 rcb

fix             fzM  metal setforce 0 0 0
velocity        mobile create 300.0 12345 mom yes rot yes dist gaussian loop geom
fix             intg mobile nve/limit 0.1
fix             lgv  mobile langevin 300.0 300.0 100.0 12345
fix             zmom mobile momentum 100 linear 0 0 1
timestep        0.25
thermo_style    custom step pe c_Tw
run             ${NB}
run             500

CITE-CITE-CITE-CITE-CITE-CITE-CITE-CITE-CITE-CITE-CITE-CITE-CITE

Your simulation uses code contributions which should be cited:

- pair rexpon command:

@Article{Naserifar,
 author = {S. Naserifar, W. A. Goddard III},
 title = {},
 journal = {},
 year =    2018,
 volume =  ,
 pages =   {--}
}

- fix acks2/reaxff command: https://doi.org/10.1137/18M1224684

@Article{O'Hearn2020,
 author = {K. A. {O'Hearn} and A. Alperen and H. M. Aktulga},
 title = {Fast Solvers for Charge Distribution Models on Shared Memory Platforms},
 journal = {SIAM J.\ Sci.\ Comput.},
 year =    2020,
 volume =  42,
 number =  1,
 pages =   {1--22}
}

CITE-CITE-CITE-CITE-CITE-CITE-CITE-CITE-CITE-CITE-CITE-CITE-CITE

PPPM initialization ...
  using 12-bit tables for long-range coulomb
  G vector (1/distance) = 0.3
  grid = 36 36 100
  stencil order = 5
  estimated absolute RMS force accuracy = 0.0032614861
  estimated relative force accuracy = 9.8218686e-06
  using double precision FFTW3
  3d grid and FFT values/proc = 20000 8100
samqeq: E_self = sum(chi q + 1/2 eta qs^2) INCLUDED in pe/etotal (fix_modify chg energy yes; eselfref qs = q - q0 - redox_dp) -- pe + E_self is the energy the forces integrate
WARNING: Fix qeq/sam group is not charge neutral, net charge = 144
For more information see https://docs.lammps.org/err0029 (src/SAMQEQ/fix_qeq_base_sam.cpp:473)
WARNING: samqeq: 144 fixed charged atom(s) lie outside the charge-solve group; their shielded field is coupled into the QEq right-hand side (ionfield ON by default). This supplies the ions' electrostatic field only -- necessary but NOT sufficient (~56% of the QM dipole response at contact; zncl2 RESULTS_R6_P0 s13-14). `fix_modify chg ionfield off` restores the ion-blind solve. (src/SAMQEQ/fix_qeq_sam.cpp:1179)
WARNING: Should not use fix nve/limit with fix shake or fix rattle (src/fix_nve_limit.cpp:76)
samqeq: recip_self ACTIVE at run start (step 0): not yet calibrated -- measured at the first solve by the K=16 deterministic-probe route
samqeq: recip_self: probe tag 1 has no partner within the G2 window [0.1, 2.510] A -- the default K=16 probe calibration falls back to the legacy single pair for this group (set `fix_modify chg recip_probes 16` explicitly to make this an error)
samqeq: recip_self legacy pair = tags 1 (lowest in group) / 2 (nearest, min-image)
samqeq: calibrated grid reciprocal self-term recip_self=0.33819 (raw) = 4.8699 eV/e (subtracted so the QEq diagonal stays = eta)
samqeq: ridge eig lambda_min 112.2096 after 15 Lanczos steps (it moved 4.9034 over the last 10 steps -- NOT converged: an upper bound that may hide a negative mode; raise m or set delta); engage target floor+delta = 69.1815
samqeq SOLVER-DIAG step 0: CG 8 iters (=8 matvecs), resid/b=9.15e-07
samqeq SOLVER-DIAG step 0: CG 8 iters (=8 matvecs), resid/b=8.87e-07
samqeq SOLVER-DIAG step 0: CG 8 iters (=8 matvecs), resid/b=8.77e-07
samqeq SOLVER-DIAG step 0: CG 8 iters (=8 matvecs), resid/b=8.73e-07
samqeq SOLVER-DIAG step 0: CG 8 iters (=8 matvecs), resid/b=8.71e-07
samqeq SOLVER-DIAG step 0: CG 8 iters (=8 matvecs), resid/b=8.71e-07
samqeq SOLVER-DIAG step 0: CG 8 iters (=8 matvecs), resid/b=8.71e-07
samqeq SOLVER-DIAG step 0: CG 8 iters (=8 matvecs), resid/b=8.71e-07
WARNING: samqeq: quartic Picard SCF did not converge in 8 iterations (dq=7.790e-04) at step 0 [1 so far] (src/SAMQEQ/fix_qeq_sam_lr.cpp:416)
samqeq QUARTIC-SCF step 0: 8 Picard iters, 64 matvecs (c4=115.3 c=0) [full]
Per MPI rank memory allocation (min/avg/max) = 275.4 | 382.6 | 433.2 Mbytes
   Step         PotEng          c_Tw     
         0  -1289303.9      303.30037    
WARNING: samqeq: quartic Picard SCF did not converge in 8 iterations (dq=2.723e-04) at step 1 [2 so far] (src/SAMQEQ/fix_qeq_sam_lr.cpp:416)
WARNING: samqeq: quartic Picard SCF did not converge in 8 iterations (dq=1.454e-05) at step 2 [3 so far] (src/SAMQEQ/fix_qeq_sam_lr.cpp:416)
WARNING: samqeq: quartic Picard SCF did not converge in 8 iterations (dq=1.930e-05) at step 3 [4 so far] (src/SAMQEQ/fix_qeq_sam_lr.cpp:416)
WARNING: samqeq: quartic Picard SCF did not converge in 8 iterations (dq=2.351e-05) at step 4 [5 so far] (src/SAMQEQ/fix_qeq_sam_lr.cpp:416)
WARNING: samqeq: ridge eig lambda_min 111.6084 still moved 4.2538 over the last 10 of 15 Lanczos steps at step 10 -- the estimate is an UPPER bound and may hide a negative mode; raise m (`fix_modify chg ridge eig <floor> <m>`, m >= 60 for interface cells). Warned once. (src/SAMQEQ/fix_qeq_sam_lr.cpp:2097)
       100  -1318289.2      283.34259    
WARNING: samqeq ASPC: the capped corrector (n_corr=2) has been above `tolerance` on 100 consecutive accepted steps (last resid/b 4.83e-06): the committed charge keeps (1-omega)=0.44 of the predictor error whatever n_corr is, so this is a property of the predictor (how smoothly q(t) moves -- e.g. `etaloc diagonal on`), not of the corrector. If Born-Oppenheimer accuracy is required use `aspc off` (~3.5x the matvecs). Warned once. (src/SAMQEQ/fix_qeq_sam_lr.cpp:2845)
samqeq SOLVER-DIAG step 200: CG 2 iters (=2 matvecs), resid/b=4.83e-06, ASPC acc/rej=195/0
samqeq ASPC-DIAG step 200: resid/b corrector=4.83e-06 committed=8.91e-06 (omega=0.5556); accepted steps above tolerance 195/195
       200  -1318705.2      306.65257    
       300  -1318921.7      313.82607    
samqeq SOLVER-DIAG step 400: CG 2 iters (=2 matvecs), resid/b=4.82e-06, ASPC acc/rej=395/0
samqeq ASPC-DIAG step 400: resid/b corrector=4.82e-06 committed=9.01e-06 (omega=0.5556); accepted steps above tolerance 395/395
       400  -1319186.9      319.55463    
       500  -1319484.2      324.06902    
Loop time of 40.5884 on 32 procs for 500 steps with 13216 atoms

Performance: 0.266 ns/day, 90.196 hours/ns, 12.319 timesteps/s, 162.805 katom-step/s
96.5% CPU use with 32 MPI tasks x 1 OpenMP threads

MPI task timing breakdown:
Section |  min time  |  avg time  |  max time  |%varavg| %total
---------------------------------------------------------------
Pair    | 28.798     | 28.833     | 28.933     |   1.0 | 71.04
Bond    | 0.00025366 | 0.0004107  | 0.00063128 |   0.0 |  0.00
Kspace  | 1.1292     | 1.1766     | 1.2225     |   2.0 |  2.90
Neigh   | 1.7356     | 1.7376     | 1.7402     |   0.1 |  4.28
Comm    | 0.2138     | 0.29533    | 0.34175    |   7.5 |  0.73
Output  | 0.00034489 | 0.00035315 | 0.00037782 |   0.0 |  0.00
Modify  | 8.5002     | 8.5202     | 8.5422     |   0.4 | 20.99
Other   |            | 0.02487    |            |       |  0.06

Nlocal:            413 ave         432 max         393 min
Histogram: 1 0 4 6 2 10 1 7 0 1
Nghost:        7256.62 ave        8229 max        5130 min
Histogram: 8 0 0 0 0 0 0 2 8 14
Neighs:         135733 ave      150648 max       80734 min
Histogram: 2 2 0 0 0 0 0 3 12 13
FullNghs:       405119 ave      472076 max      254996 min
Histogram: 5 3 0 0 0 0 0 0 14 10

Total # of neighbors = 12963794
Ave neighs/atom = 980.91662
Ave special neighs/atom = 1.7251816
Neighbor list builds = 20
Dangerous builds = 0
Total wall time: 0:00:41
