ITEM: TIMESTEP
0
ITEM: NUMBER OF ATOMS
240
ITEM: BOX BOUNDS pp pp ff
0.0000000000000000e+00 1.7650658050000001e+01
0.0000000000000000e+00 2.0381224350000000e+01
0.0000000000000000e+00 6.0000000000000000e+01
ITEM: ATOMS id type q
1 1 -0.0236888876669
2 1 -0.0236888794061
3 1 -0.0236888715446
4 1 -0.0236888783307
5 1 -0.0236888876852
6 1 -0.0236888794132
7 1 -0.0236888715366
8 1 -0.0236888783121
9 1 -0.0236888876715
10 1 -0.0236888794133
11 1 -0.0236888715492
12 1 -0.0236888783378
13 1 -0.0236888876898
14 1 -0.0236888794204
15 1 -0.0236888715412
16 1 -0.0236888783192
17 1 -0.0236888876796
18 1 -0.0236888794197
19 1 -0.0236888715573
20 1 -0.0236888783443
21 1 -0.0236888876979
22 1 -0.0236888794268
23 1 -0.0236888715493
24 1 -0.0236888783257
25 1 -0.0236888876821
26 1 -0.0236888794173
27 1 -0.0236888715598
28 1 -0.0236888783418
29 1 -0.0236888877004
30 1 -0.0236888794243
31 1 -0.0236888715517
32 1 -0.0236888783232
33 1 -0.0236888876756
34 1 -0.0236888794092
35 1 -0.0236888715533
36 1 -0.0236888783338
37 1 -0.0236888876939
38 1 -0.0236888794163
39 1 -0.0236888715453
40 1 -0.0236888783151
41 1 -0.0236888876685
42 1 -0.0236888794046
43 1 -0.0236888715462
44 1 -0.0236888783292
45 1 -0.0236888876868
46 1 -0.0236888794117
47 1 -0.0236888715381
48 1 -0.0236888783105
49 1 -0.00198773465681
50 1 -0.00198772167182
51 1 -0.0019877208072
52 1 -0.00198773347608
53 1 -0.00198773466761
54 1 -0.00198772167252
55 1 -0.00198772079741
56 1 -0.00198773346142
57 1 -0.00198773466138
58 1 -0.00198772167713
59 1 -0.00198772081177
60 1 -0.00198773348139
61 1 -0.00198773467218
62 1 -0.00198772167783
63 1 -0.00198772080199
64 1 -0.00198773346674
65 1 -0.00198773466573
66 1 -0.00198772167882
67 1 -0.00198772081612
68 1 -0.00198773348308
69 1 -0.00198773467653
70 1 -0.00198772167952
71 1 -0.00198772080634
72 1 -0.00198773346843
73 1 -0.00198773466404
74 1 -0.00198772167448
75 1 -0.00198772081442
76 1 -0.00198773347873
77 1 -0.00198773467484
78 1 -0.00198772167517
79 1 -0.00198772080464
80 1 -0.00198773346408
81 1 -0.00198773465873
82 1 -0.0019877216699
83 1 -0.00198772080911
84 1 -0.00198773347416
85 1 -0.00198773466953
86 1 -0.0019877216706
87 1 -0.00198772079933
88 1 -0.00198773345951
89 1 -0.00198773465593
90 1 -0.00198772166902
91 1 -0.00198772080632
92 1 -0.00198773347328
93 1 -0.00198773466673
94 1 -0.00198772166972
95 1 -0.00198772079654
96 1 -0.00198773345863
97 1 2.22400076653e-08
98 1 2.52281401478e-08
99 1 2.22234844493e-08
100 1 1.92334568394e-08
101 1 2.22383589765e-08
102 1 2.52318626558e-08
103 1 2.22303415324e-08
104 1 1.92392673734e-08
105 1 2.22400137886e-08
106 1 2.522814521e-08
107 1 2.22234905606e-08
108 1 1.92334619458e-08
109 1 2.22383650912e-08
110 1 2.52318677541e-08
111 1 2.22303476413e-08
112 1 1.92392724368e-08
113 1 2.22400158918e-08
114 1 2.52281431078e-08
115 1 2.22234926747e-08
116 1 1.92334598263e-08
117 1 2.22383672115e-08
118 1 2.5231865647e-08
119 1 2.22303497662e-08
120 1 1.9239270334e-08
121 1 2.22400108215e-08
122 1 2.52281369965e-08
123 1 2.22234876098e-08
124 1 1.92334536872e-08
125 1 2.22383621382e-08
126 1 2.52318595328e-08
127 1 2.22303446987e-08
128 1 1.92392642108e-08
129 1 2.22400050398e-08
130 1 2.52281329077e-08
131 1 2.22234818338e-08
132 1 1.92334495975e-08
133 1 2.22383563515e-08
134 1 2.52318554213e-08
135 1 2.22303388995e-08
136 1 1.92392601332e-08
137 1 2.22400035809e-08
138 1 2.52281343684e-08
139 1 2.22234803557e-08
140 1 1.9233451075e-08
141 1 2.22383548875e-08
142 1 2.52318568954e-08
143 1 2.22303374249e-08
144 1 1.92392615789e-08
145 1 0.0020256298729
146 1 0.00202562866591
147 1 0.00202561607857
148 1 0.00202561697128
149 1 0.00202562987768
150 1 0.00202562867123
151 1 0.00202561608069
152 1 0.00202561696918
153 1 0.00202562987722
154 1 0.00202562866759
155 1 0.00202561608289
156 1 0.00202561697296
157 1 0.002025629882
158 1 0.0020256286729
159 1 0.00202561608501
160 1 0.00202561697086
161 1 0.00202562987554
162 1 0.00202562866327
163 1 0.00202561608121
164 1 0.00202561696864
165 1 0.00202562988032
166 1 0.00202562866859
167 1 0.00202561608334
168 1 0.00202561696654
169 1 0.00202562987025
170 1 0.00202562865871
171 1 0.00202561607593
172 1 0.00202561696408
173 1 0.00202562987503
174 1 0.00202562866402
175 1 0.00202561607805
176 1 0.00202561696198
177 1 0.00202562986745
178 1 0.00202562865783
179 1 0.00202561607313
180 1 0.0020256169632
181 1 0.00202562987224
182 1 0.00202562866314
183 1 0.00202561607525
184 1 0.0020256169611
185 1 0.00202562986833
186 1 0.00202562866063
187 1 0.00202561607401
188 1 0.00202561696599
189 1 0.00202562987312
190 1 0.00202562866594
191 1 0.00202561607613
192 1 0.00202561696389
193 1 0.0236509702082
194 1 0.0236509608512
195 1 0.0236509540849
196 1 0.0236509619536
197 1 0.0236509702158
198 1 0.0236509608554
199 1 0.0236509540829
200 1 0.0236509619469
201 1 0.0236509702108
202 1 0.0236509608487
203 1 0.0236509540875
204 1 0.0236509619511
205 1 0.0236509702183
206 1 0.0236509608529
207 1 0.0236509540854
208 1 0.0236509619444
209 1 0.0236509702042
210 1 0.0236509608406
211 1 0.0236509540809
212 1 0.023650961943
213 1 0.0236509702117
214 1 0.0236509608448
215 1 0.0236509540788
216 1 0.0236509619363
217 1 0.0236509701971
218 1 0.0236509608359
219 1 0.0236509540738
220 1 0.0236509619383
221 1 0.0236509702046
222 1 0.0236509608402
223 1 0.0236509540717
224 1 0.0236509619317
225 1 0.0236509701955
226 1 0.0236509608375
227 1 0.0236509540722
228 1 0.0236509619399
229 1 0.023650970203
230 1 0.0236509608417
231 1 0.0236509540701
232 1 0.0236509619333
233 1 0.0236509702001
234 1 0.0236509608446
235 1 0.0236509540768
236 1 0.023650961947
237 1 0.0236509702077
238 1 0.0236509608489
239 1 0.0236509540748
240 1 0.0236509619404
