ITEM: TIMESTEP
0
ITEM: NUMBER OF ATOMS
240
ITEM: BOX BOUNDS pp pp ff
0.0000000000000000e+00 1.7650658050000001e+01
0.0000000000000000e+00 2.0381224350000000e+01
0.0000000000000000e+00 6.0000000000000000e+01
ITEM: ATOMS id type q
1 1 -0.00217149183318
2 1 -0.00217149182988
3 1 -0.00217149181874
4 1 -0.00217149182043
5 1 -0.00217149183323
6 1 -0.00217149182991
7 1 -0.00217149181873
8 1 -0.00217149182039
9 1 -0.0021714918332
10 1 -0.00217149182991
11 1 -0.00217149181875
12 1 -0.00217149182046
13 1 -0.00217149183324
14 1 -0.00217149182993
15 1 -0.00217149181874
16 1 -0.00217149182041
17 1 -0.00217149183322
18 1 -0.00217149182993
19 1 -0.00217149181878
20 1 -0.00217149182048
21 1 -0.00217149183327
22 1 -0.00217149182995
23 1 -0.00217149181877
24 1 -0.00217149182043
25 1 -0.00217149183323
26 1 -0.00217149182992
27 1 -0.00217149181879
28 1 -0.00217149182047
29 1 -0.00217149183328
30 1 -0.00217149182994
31 1 -0.00217149181877
32 1 -0.00217149182043
33 1 -0.00217149183321
34 1 -0.00217149182989
35 1 -0.00217149181877
36 1 -0.00217149182044
37 1 -0.00217149183326
38 1 -0.00217149182992
39 1 -0.00217149181875
40 1 -0.0021714918204
41 1 -0.00217149183319
42 1 -0.00217149182988
43 1 -0.00217149181874
44 1 -0.00217149182043
45 1 -0.00217149183323
46 1 -0.0021714918299
47 1 -0.00217149181873
48 1 -0.00217149182039
49 1 -0.00106800071248
50 1 -0.00106800070219
51 1 -0.00106800069612
52 1 -0.00106800070687
53 1 -0.00106800071251
54 1 -0.0010680007022
55 1 -0.0010680006961
56 1 -0.00106800070683
57 1 -0.00106800071249
58 1 -0.00106800070221
59 1 -0.00106800069613
60 1 -0.00106800070688
61 1 -0.00106800071252
62 1 -0.00106800070222
63 1 -0.00106800069611
64 1 -0.00106800070685
65 1 -0.00106800071251
66 1 -0.00106800070222
67 1 -0.00106800069615
68 1 -0.00106800070689
69 1 -0.00106800071254
70 1 -0.00106800070222
71 1 -0.00106800069613
72 1 -0.00106800070686
73 1 -0.0010680007125
74 1 -0.0010680007022
75 1 -0.00106800069614
76 1 -0.00106800070687
77 1 -0.00106800071253
78 1 -0.00106800070221
79 1 -0.00106800069612
80 1 -0.00106800070684
81 1 -0.00106800071249
82 1 -0.00106800070219
83 1 -0.00106800069612
84 1 -0.00106800070686
85 1 -0.00106800071251
86 1 -0.00106800070219
87 1 -0.0010680006961
88 1 -0.00106800070683
89 1 -0.00106800071248
90 1 -0.00106800070218
91 1 -0.00106800069611
92 1 -0.00106800070686
93 1 -0.0010680007125
94 1 -0.00106800070219
95 1 -0.00106800069609
96 1 -0.00106800070682
97 1 2.49345663746e-08
98 1 2.49313299204e-08
99 1 2.49345712442e-08
100 1 2.49378053086e-08
101 1 2.49345652041e-08
102 1 2.49313328422e-08
103 1 2.49345767067e-08
104 1 2.49378099269e-08
105 1 2.49345663649e-08
106 1 2.49313299099e-08
107 1 2.49345712345e-08
108 1 2.49378052981e-08
109 1 2.49345651944e-08
110 1 2.49313328316e-08
111 1 2.4934576697e-08
112 1 2.49378099164e-08
113 1 2.49345663601e-08
114 1 2.49313299147e-08
115 1 2.49345712297e-08
116 1 2.49378053029e-08
117 1 2.49345651896e-08
118 1 2.49313328364e-08
119 1 2.49345766922e-08
120 1 2.49378099212e-08
121 1 2.49345663706e-08
122 1 2.49313299244e-08
123 1 2.49345712402e-08
124 1 2.49378053126e-08
125 1 2.49345652001e-08
126 1 2.49313328461e-08
127 1 2.49345767028e-08
128 1 2.49378099309e-08
129 1 2.49345663765e-08
130 1 2.49313299269e-08
131 1 2.49345712461e-08
132 1 2.49378053151e-08
133 1 2.49345652059e-08
134 1 2.49313328487e-08
135 1 2.49345767086e-08
136 1 2.49378099334e-08
137 1 2.49345663771e-08
138 1 2.49313299263e-08
139 1 2.49345712468e-08
140 1 2.49378053145e-08
141 1 2.49345652066e-08
142 1 2.4931332848e-08
143 1 2.49345767092e-08
144 1 2.49378099328e-08
145 1 0.00106803678305
146 1 0.0010680367774
147 1 0.00106803676672
148 1 0.00106803677285
149 1 0.00106803678306
150 1 0.0010680367774
151 1 0.00106803676671
152 1 0.00106803677283
153 1 0.00106803678306
154 1 0.0010680367774
155 1 0.00106803676674
156 1 0.00106803677285
157 1 0.00106803678308
158 1 0.0010680367774
159 1 0.00106803676673
160 1 0.00106803677283
161 1 0.00106803678306
162 1 0.00106803677739
163 1 0.00106803676673
164 1 0.00106803677284
165 1 0.00106803678307
166 1 0.00106803677739
167 1 0.00106803676672
168 1 0.00106803677282
169 1 0.00106803678304
170 1 0.00106803677737
171 1 0.00106803676672
172 1 0.00106803677282
173 1 0.00106803678305
174 1 0.00106803677737
175 1 0.0010680367667
176 1 0.0010680367728
177 1 0.00106803678303
178 1 0.00106803677737
179 1 0.00106803676671
180 1 0.00106803677282
181 1 0.00106803678304
182 1 0.00106803677737
183 1 0.00106803676669
184 1 0.0010680367728
185 1 0.00106803678303
186 1 0.00106803677738
187 1 0.00106803676671
188 1 0.00106803677283
189 1 0.00106803678305
190 1 0.00106803677738
191 1 0.0010680367667
192 1 0.00106803677281
193 1 0.00217143082814
194 1 0.00217143081532
195 1 0.0021714308136
196 1 0.00217143082479
197 1 0.00217143082816
198 1 0.00217143081532
199 1 0.00217143081358
200 1 0.00217143082476
201 1 0.00217143082815
202 1 0.00217143081532
203 1 0.00217143081361
204 1 0.00217143082478
205 1 0.00217143082817
206 1 0.00217143081532
207 1 0.00217143081359
208 1 0.00217143082475
209 1 0.00217143082813
210 1 0.00217143081529
211 1 0.00217143081359
212 1 0.00217143082476
213 1 0.00217143082815
214 1 0.00217143081529
215 1 0.00217143081357
216 1 0.00217143082473
217 1 0.00217143082811
218 1 0.00217143081528
219 1 0.00217143081356
220 1 0.00217143082474
221 1 0.00217143082813
222 1 0.00217143081528
223 1 0.00217143081354
224 1 0.00217143082471
225 1 0.0021714308281
226 1 0.00217143081528
227 1 0.00217143081356
228 1 0.00217143082475
229 1 0.00217143082812
230 1 0.00217143081528
231 1 0.00217143081354
232 1 0.00217143082472
233 1 0.00217143082812
234 1 0.0021714308153
235 1 0.00217143081357
236 1 0.00217143082477
237 1 0.00217143082813
238 1 0.0021714308153
239 1 0.00217143081355
240 1 0.00217143082474
