ISMEAR = -4 ! tetrahedron smearing for gamma centererd k-mesh
IBRION = 2 ! Run Ionic relaxation
SPRING = -5
NELMIN = 5
IMAGES =4
NSW = 20
POTIM = 1.0
EDIFF = 1e-4
ENMAX = 400 ! Energy cutoff
PREC = Normal
ISYM = 2
LWAVE = .FALSE.
LCHARG = .FALSE.
NPAR=8
SIGMA = 0.1
LDAU = .TRUE.
LDAUL= 3 -1 -1 -1
LDAUU = 7.5 0 0 0
LDAUJ = 1. 0 0 0
