ITEM: TIMESTEP
0
ITEM: NUMBER OF ATOMS
2162
ITEM: BOX BOUNDS pp pp ff
0.0000000000000000e+00 5.2951974149999998e+01
0.0000000000000000e+00 6.1143673049999997e+01
0.0000000000000000e+00 6.0000000000000000e+01
ITEM: ATOMS id mol type q x y z
1 1 1 0.00130994456814 0.00000000 0.00000000 25.00000000
2 1 1 0.00132158432815 1.47088817 2.54765304 25.00000000
3 1 1 0.00134771293795 0.00000000 5.09530609 25.00000000
4 1 1 0.00139789704513 1.47088817 7.64295913 25.00000000
5 1 1 0.00145876832551 0.00000000 10.19061218 25.00000000
6 1 1 0.00154537720028 1.47088817 12.73826522 25.00000000
7 1 1 0.00163205413198 0.00000000 15.28591827 25.00000000
8 1 1 0.0017455487365 1.47088817 17.83357131 25.00000000
9 1 1 0.00131801649906 2.94177634 0.00000000 25.00000000
10 1 1 0.00133874900427 4.41266451 2.54765304 25.00000000
11 1 1 0.00135819077789 2.94177634 5.09530609 25.00000000
12 1 1 0.00142521835627 4.41266451 7.64295913 25.00000000
13 1 1 0.00147746101218 2.94177634 10.19061218 25.00000000
14 1 1 0.00159770190949 4.41266451 12.73826522 25.00000000
15 1 1 0.00166787561077 2.94177634 15.28591827 25.00000000
16 1 1 0.00184309619896 4.41266451 17.83357131 25.00000000
17 1 1 0.0013416017218 5.88355268 0.00000000 25.00000000
18 1 1 0.00137178661272 7.35444085 2.54765304 25.00000000
19 1 1 0.00138902780303 5.88355268 5.09530609 25.00000000
20 1 1 0.00147916741566 7.35444085 7.64295913 25.00000000
21 1 1 0.00153392647394 5.88355268 10.19061218 25.00000000
22 1 1 0.00170486948157 7.35444085 12.73826522 25.00000000
23 1 1 0.00177832320657 5.88355268 15.28591827 25.00000000
24 1 1 0.00204744702829 7.35444085 17.83357131 25.00000000
25 1 1 0.00137874245644 8.82532903 0.00000000 25.00000000
26 1 1 0.001418013205 10.29621720 2.54765304 25.00000000
27 1 1 0.00143837841529 8.82532903 5.09530609 25.00000000
28 1 1 0.00155775577149 10.29621720 7.64295913 25.00000000
29 1 1 0.00162839281715 8.82532903 10.19061218 25.00000000
30 1 1 0.00186822930372 10.29621720 12.73826522 25.00000000
31 1 1 0.00196962204427 8.82532903 15.28591827 25.00000000
32 1 1 0.00237995819529 10.29621720 17.83357131 25.00000000
33 1 1 0.00142603128895 11.76710537 0.00000000 25.00000000
34 1 1 0.0014731888303 13.23799354 2.54765304 25.00000000
35 1 1 0.00150282205622 11.76710537 5.09530609 25.00000000
36 1 1 0.00165615842618 13.23799354 7.64295913 25.00000000
37 1 1 0.00175824172832 11.76710537 10.19061218 25.00000000
38 1 1 0.00208440703117 13.23799354 12.73826522 25.00000000
39 1 1 0.00224922806312 11.76710537 15.28591827 25.00000000
40 1 1 0.00288616580234 13.23799354 17.83357131 25.00000000
41 1 1 0.00147857932453 14.70888171 0.00000000 25.00000000
42 1 1 0.00153140973132 16.17976988 2.54765304 25.00000000
43 1 1 0.00157667785887 14.70888171 5.09530609 25.00000000
44 1 1 0.00176500956208 16.17976988 7.64295913 25.00000000
45 1 1 0.0019149816664 14.70888171 10.19061218 25.00000000
46 1 1 0.00234327235886 16.17976988 12.73826522 25.00000000
47 1 1 0.00262746725682 14.70888171 15.28591827 25.00000000
48 1 1 0.00361765751807 16.17976988 17.83357131 25.00000000
49 1 1 -0.000873885175893 1.47088817 0.84921768 27.40195032
50 1 1 -0.000889475197242 2.94177634 3.39687073 27.40195032
51 1 1 -0.000908741978469 1.47088817 5.94452377 27.40195032
52 1 1 -0.000953447359339 2.94177634 8.49217681 27.40195032
53 1 1 -0.000994493116816 1.47088817 11.03982986 27.40195032
54 1 1 -0.00106940215481 2.94177634 13.58748290 27.40195032
55 1 1 -0.00112272327765 1.47088817 16.13513595 27.40195032
56 1 1 -0.0012224419231 2.94177634 18.68278899 27.40195032
57 1 1 -0.000884876917327 4.41266451 0.84921768 27.40195032
58 1 1 -0.000907821975859 5.88355268 3.39687073 27.40195032
59 1 1 -0.000924403432507 4.41266451 5.94452377 27.40195032
60 1 1 -0.000984990030833 5.88355268 8.49217681 27.40195032
61 1 1 -0.00102368091076 4.41266451 11.03982986 27.40195032
62 1 1 -0.00113028476724 5.88355268 13.58748290 27.40195032
63 1 1 -0.00117740752847 4.41266451 16.13513595 27.40195032
64 1 1 -0.00133631473609 5.88355268 18.68278899 27.40195032
65 1 1 -0.000906025893569 7.35444085 0.84921768 27.40195032
66 1 1 -0.000937024378715 8.82532903 3.39687073 27.40195032
67 1 1 -0.000955013950642 7.35444085 5.94452377 27.40195032
68 1 1 -0.00103645909869 8.82532903 8.49217681 27.40195032
69 1 1 -0.0010820462489 7.35444085 11.03982986 27.40195032
70 1 1 -0.00123540716686 8.82532903 13.58748290 27.40195032
71 1 1 -0.00129341803759 7.35444085 16.13513595 27.40195032
72 1 1 -0.00154982281287 8.82532903 18.68278899 27.40195032
73 1 1 -0.000935582104441 10.29621720 0.84921768 27.40195032
74 1 1 -0.000974703672585 11.76710537 3.39687073 27.40195032
75 1 1 -0.000998743715494 10.29621720 5.94452377 27.40195032
76 1 1 -0.00110555556211 11.76710537 8.49217681 27.40195032
77 1 1 -0.00116961006105 10.29621720 11.03982986 27.40195032
78 1 1 -0.00139000435064 11.76710537 13.58748290 27.40195032
79 1 1 -0.00148426788383 10.29621720 16.13513595 27.40195032
80 1 1 -0.00188967262143 11.76710537 18.68278899 27.40195032
81 1 1 -0.000970752511358 13.23799354 0.84921768 27.40195032
82 1 1 -0.00101715036492 14.70888171 3.39687073 27.40195032
83 1 1 -0.00105219301488 13.23799354 5.94452377 27.40195032
84 1 1 -0.0011878787232 14.70888171 8.49217681 27.40195032
85 1 1 -0.00128528521571 13.23799354 11.03982986 27.40195032
86 1 1 -0.00159393673479 14.70888171 13.58748290 27.40195032
87 1 1 -0.00176153275802 13.23799354 16.13513595 27.40195032
88 1 1 -0.00237955608525 14.70888171 18.68278899 27.40195032
89 1 1 -0.00100766649487 16.17976988 0.84921768 27.40195032
90 1 1 -0.000883233373977 0.00000000 3.39687073 27.40195032
91 1 1 -0.00111010267421 16.17976988 5.94452377 27.40195032
92 1 1 -0.000942848517957 0.00000000 8.49217681 27.40195032
93 1 1 -0.00142265976759 16.17976988 11.03982986 27.40195032
94 1 1 -0.0010493961937 0.00000000 13.58748290 27.40195032
95 1 1 -0.00212035934396 16.17976988 16.13513595 27.40195032
96 1 1 -0.00118688663504 0.00000000 18.68278899 27.40195032
97 1 1 -2.83805354136e-05 2.94177634 1.69843536 29.80390065
98 1 1 -2.91807827712e-05 4.41266451 4.24608841 29.80390065
99 1 1 -2.98835286358e-05 2.94177634 6.79374145 29.80390065
100 1 1 -3.1775067916e-05 4.41266451 9.34139450 29.80390065
101 1 1 -3.31335522176e-05 2.94177634 11.88904754 29.80390065
102 1 1 -3.62859065732e-05 4.41266451 14.43670058 29.80390065
103 1 1 -3.78647914045e-05 2.94177634 16.98435363 29.80390065
104 1 1 -4.22700299553e-05 4.41266451 19.53200667 29.80390065
105 1 1 -2.89265109772e-05 5.88355268 1.69843536 29.80390065
106 1 1 -3.0024960824e-05 7.35444085 4.24608841 29.80390065
107 1 1 -3.07228268185e-05 5.88355268 6.79374145 29.80390065
108 1 1 -3.32989865905e-05 7.35444085 9.34139450 29.80390065
109 1 1 -3.474098401e-05 5.88355268 11.88904754 29.80390065
110 1 1 -3.94219158182e-05 7.35444085 14.43670058 29.80390065
111 1 1 -4.10446607042e-05 5.88355268 16.98435363 29.80390065
112 1 1 -4.80033684301e-05 7.35444085 19.53200667 29.80390065
113 1 1 -2.97898900504e-05 8.82532903 1.69843536 29.80390065
114 1 1 -3.12150695296e-05 10.29621720 4.24608841 29.80390065
115 1 1 -3.20766499761e-05 8.82532903 6.79374145 29.80390065
116 1 1 -3.55739914761e-05 10.29621720 9.34139450 29.80390065
117 1 1 -3.75123635642e-05 8.82532903 11.88904754 29.80390065
118 1 1 -4.43586881077e-05 10.29621720 14.43670058 29.80390065
119 1 1 -4.66327839864e-05 8.82532903 16.98435363 29.80390065
120 1 1 -5.74001614405e-05 10.29621720 19.53200667 29.80390065
121 1 1 -3.08941165123e-05 11.76710537 1.69843536 29.80390065
122 1 1 -3.2655013114e-05 13.23799354 4.24608841 29.80390065
123 1 1 -3.38787869876e-05 11.76710537 6.79374145 29.80390065
124 1 1 -3.85101947312e-05 13.23799354 9.34139450 29.80390065
125 1 1 -4.1458261238e-05 11.76710537 11.88904754 29.80390065
126 1 1 -5.10807667527e-05 13.23799354 14.43670058 29.80390065
127 1 1 -5.50297824581e-05 11.76710537 16.98435363 29.80390065
128 1 1 -7.34886593185e-05 13.23799354 19.53200667 29.80390065
129 1 1 -3.21284775636e-05 14.70888171 1.69843536 29.80390065
130 1 1 -3.42019288075e-05 16.17976988 4.24608841 29.80390065
131 1 1 -3.59957293491e-05 14.70888171 6.79374145 29.80390065
132 1 1 -4.18057129592e-05 16.17976988 9.34139450 29.80390065
133 1 1 -4.63151313127e-05 14.70888171 11.88904754 29.80390065
134 1 1 -5.9433032026e-05 16.17976988 14.43670058 29.80390065
135 1 1 -6.72391726396e-05 14.70888171 16.98435363 29.80390065
136 1 1 -0.000100256460299 16.17976988 19.53200667 29.80390065
137 1 1 -2.81942467355e-05 0.00000000 1.69843536 29.80390065
138 1 1 -2.87441603421e-05 1.47088817 4.24608841 29.80390065
139 1 1 -2.95988357232e-05 0.00000000 6.79374145 29.80390065
140 1 1 -3.10104681348e-05 1.47088817 9.34139450 29.80390065
141 1 1 -3.26090169194e-05 0.00000000 11.88904754 29.80390065
142 1 1 -3.48014469886e-05 1.47088817 14.43670058 29.80390065
143 1 1 -3.68557182458e-05 0.00000000 16.98435363 29.80390065
144 1 1 -3.95180611354e-05 1.47088817 19.53200667 29.80390065
145 1 1 0.000941318600187 4.41266451 2.54765304 32.20585097
146 1 1 0.000977849655513 5.88355268 5.09530609 32.20585097
147 1 1 0.00100413640672 4.41266451 7.64295913 32.20585097
148 1 1 0.00108342526996 5.88355268 10.19061218 32.20585097
149 1 1 0.00112950342651 4.41266451 12.73826522 32.20585097
150 1 1 0.00126019521234 5.88355268 15.28591827 32.20585097
151 1 1 0.00130708351035 4.41266451 17.83357131 32.20585097
152 1 1 0.000943364509769 5.88355268 0.00000000 32.20585097
153 1 1 0.000965250488147 7.35444085 2.54765304 32.20585097
154 1 1 0.00101393473291 8.82532903 5.09530609 32.20585097
155 1 1 0.00104371290761 7.35444085 7.64295913 32.20585097
156 1 1 0.00115195449839 8.82532903 10.19061218 32.20585097
157 1 1 0.00120714378422 7.35444085 12.73826522 32.20585097
158 1 1 0.00140204164144 8.82532903 15.28591827 32.20585097
159 1 1 0.00145958978264 7.35444085 17.83357131 32.20585097
160 1 1 0.000970200298742 8.82532903 0.00000000 32.20585097
161 1 1 0.000998858288096 10.29621720 2.54765304 32.20585097
162 1 1 0.00106096064866 11.76710537 5.09530609 32.20585097
163 1 1 0.00110091394468 10.29621720 7.64295913 32.20585097
164 1 1 0.00124621166261 11.76710537 10.19061218 32.20585097
165 1 1 0.00132693976056 10.29621720 12.73826522 32.20585097
166 1 1 0.00161753102168 11.76710537 15.28591827 32.20585097
167 1 1 0.00171733000497 10.29621720 17.83357131 32.20585097
168 1 1 0.00100449352094 11.76710537 0.00000000 32.20585097
169 1 1 0.00103905675147 13.23799354 2.54765304 32.20585097
170 1 1 0.00111456907458 14.70888171 5.09530609 32.20585097
171 1 1 0.00117210564829 13.23799354 7.64295913 32.20585097
172 1 1 0.00136227941377 14.70888171 10.19061218 32.20585097
173 1 1 0.00149094162415 13.23799354 12.73826522 32.20585097
174 1 1 0.0019098760738 14.70888171 15.28591827 32.20585097
175 1 1 0.00210122255175 13.23799354 17.83357131 32.20585097
176 1 1 0.00104274287969 14.70888171 0.00000000 32.20585097
177 1 1 0.00108146173415 16.17976988 2.54765304 32.20585097
178 1 1 0.000947737990832 0.00000000 5.09530609 32.20585097
179 1 1 0.0012511395917 16.17976988 7.64295913 32.20585097
180 1 1 0.0010281162346 0.00000000 10.19061218 32.20585097
181 1 1 0.00169203586557 16.17976988 12.73826522 32.20585097
182 1 1 0.00115440731993 0.00000000 15.28591827 32.20585097
183 1 1 0.0026226943234 16.17976988 17.83357131 32.20585097
184 1 1 0.000920548317809 0.00000000 0.00000000 32.20585097
185 1 1 0.000928924832473 1.47088817 2.54765304 32.20585097
186 1 1 0.00095535596973 2.94177634 5.09530609 32.20585097
187 1 1 0.00098402092138 1.47088817 7.64295913 32.20585097
188 1 1 0.00104197453142 2.94177634 10.19061218 32.20585097
189 1 1 0.00109123635252 1.47088817 12.73826522 32.20585097
190 1 1 0.00118029908352 2.94177634 15.28591827 32.20585097
191 1 1 0.0012368841705 1.47088817 17.83357131 32.20585097
192 1 1 0.000926362266076 2.94177634 0.00000000 32.20585097
193 1 1 -0.00138112980178 5.88355268 3.39687073 34.60780130
194 1 1 -0.00145041815725 7.35444085 5.94452377 34.60780130
195 1 1 -0.00149457505954 5.88355268 8.49217681 34.60780130
196 1 1 -0.00163794361381 7.35444085 11.03982986 34.60780130
197 1 1 -0.00170964902059 5.88355268 13.58748290 34.60780130
198 1 1 -0.00194898263284 7.35444085 16.13513595 34.60780130
199 1 1 -0.00201210204666 5.88355268 18.68278899 34.60780130
200 1 1 -0.00137856725334 7.35444085 0.84921768 34.60780130
201 1 1 -0.00142413535952 8.82532903 3.39687073 34.60780130
202 1 1 -0.00151458101685 10.29621720 5.94452377 34.60780130
203 1 1 -0.00157027372614 8.82532903 8.49217681 34.60780130
204 1 1 -0.00176746463836 10.29621720 11.03982986 34.60780130
205 1 1 -0.00186410862855 8.82532903 13.58748290 34.60780130
206 1 1 -0.00221684208224 10.29621720 16.13513595 34.60780130
207 1 1 -0.00231011750503 8.82532903 18.68278899 34.60780130
208 1 1 -0.00142230414597 10.29621720 0.84921768 34.60780130
209 1 1 -0.00147951354601 11.76710537 3.39687073 34.60780130
210 1 1 -0.00159348932013 13.23799354 5.94452377 34.60780130
211 1 1 -0.0016726578624 11.76710537 8.49217681 34.60780130
212 1 1 -0.00193529133126 13.23799354 11.03982986 34.60780130
213 1 1 -0.00208396325335 11.76710537 13.58748290 34.60780130
214 1 1 -0.00260144253496 13.23799354 16.13513595 34.60780130
215 1 1 -0.00278682756575 11.76710537 18.68278899 34.60780130
216 1 1 -0.00147415403794 13.23799354 0.84921768 34.60780130
217 1 1 -0.00154197126326 14.70888171 3.39687073 34.60780130
218 1 1 -0.00167938163259 16.17976988 5.94452377 34.60780130
219 1 1 -0.00179417362277 14.70888171 8.49217681 34.60780130
220 1 1 -0.00212881976125 16.17976988 11.03982986 34.60780130
221 1 1 -0.00236608412278 14.70888171 13.58748290 34.60780130
222 1 1 -0.00312211657063 16.17976988 16.13513595 34.60780130
223 1 1 -0.00352067666631 14.70888171 18.68278899 34.60780130
224 1 1 -0.00152842455354 16.17976988 0.84921768 34.60780130
225 1 1 -0.0013447473603 0.00000000 3.39687073 34.60780130
226 1 1 -0.00138265057123 1.47088817 5.94452377 34.60780130
227 1 1 -0.00143324219884 0.00000000 8.49217681 34.60780130
228 1 1 -0.00150935110752 1.47088817 11.03982986 34.60780130
229 1 1 -0.00159019479346 0.00000000 13.58748290 34.60780130
230 1 1 -0.00169812649651 1.47088817 16.13513595 34.60780130
231 1 1 -0.00179254608978 0.00000000 18.68278899 34.60780130
232 1 1 -0.00133082200129 1.47088817 0.84921768 34.60780130
233 1 1 -0.00135400419887 2.94177634 3.39687073 34.60780130
234 1 1 -0.00140561342126 4.41266451 5.94452377 34.60780130
235 1 1 -0.00144861341892 2.94177634 8.49217681 34.60780130
236 1 1 -0.0015518397958 4.41266451 11.03982986 34.60780130
237 1 1 -0.00161954840021 2.94177634 13.58748290 34.60780130
238 1 1 -0.00177957326225 4.41266451 16.13513595 34.60780130
239 1 1 -0.0018459816508 2.94177634 18.68278899 34.60780130
240 1 1 -0.00134716973777 4.41266451 0.84921768 34.60780130
241 1 1 0.00183676156767 0.00000000 20.38122435 25.00000000
242 1 1 0.00195161770335 1.47088817 22.92887739 25.00000000
243 1 1 0.00201136134669 0.00000000 25.47653044 25.00000000
244 1 1 0.00208727461318 1.47088817 28.02418348 25.00000000
245 1 1 0.00208133724952 0.00000000 30.57183653 25.00000000
246 1 1 0.00208723777883 1.47088817 33.11948957 25.00000000
247 1 1 0.00201133366573 0.00000000 35.66714262 25.00000000
248 1 1 0.00195159035758 1.47088817 38.21479566 25.00000000
249 1 1 0.00189889661348 2.94177634 20.38122435 25.00000000
250 1 1 0.00210696293608 4.41266451 22.92887739 25.00000000
251 1 1 0.00210008059431 2.94177634 25.47653044 25.00000000
252 1 1 0.0022872481833 4.41266451 28.02418348 25.00000000
253 1 1 0.00218178332804 2.94177634 30.57183653 25.00000000
254 1 1 0.0022872219933 4.41266451 33.11948957 25.00000000
255 1 1 0.00210001501145 2.94177634 35.66714262 25.00000000
256 1 1 0.00210692043865 4.41266451 38.21479566 25.00000000
257 1 1 0.00209289859252 5.88355268 20.38122435 25.00000000
258 1 1 0.00244779289121 7.35444085 22.92887739 25.00000000
259 1 1 0.00238492704735 5.88355268 25.47653044 25.00000000
260 1 1 0.00274980379628 7.35444085 28.02418348 25.00000000
261 1 1 0.00251017846366 5.88355268 30.57183653 25.00000000
262 1 1 0.00275007165069 7.35444085 33.11948957 25.00000000
263 1 1 0.0023850260144 5.88355268 35.66714262 25.00000000
264 1 1 0.00244808970318 7.35444085 38.21479566 25.00000000
265 1 1 0.00244983287688 8.82532903 20.38122435 25.00000000
266 1 1 0.00307776752509 10.29621720 22.92887739 25.00000000
267 1 1 0.00296049197815 8.82532903 25.47653044 25.00000000
268 1 1 0.0036882663533 10.29621720 28.02418348 25.00000000
269 1 1 0.00320378829945 8.82532903 30.57183653 25.00000000
270 1 1 0.00368891978262 10.29621720 33.11948957 25.00000000
271 1 1 0.00296109768085 8.82532903 35.66714262 25.00000000
272 1 1 0.00307834341789 10.29621720 38.21479566 25.00000000
273 1 1 0.00305287684431 11.76710537 20.38122435 25.00000000
274 1 1 0.00420587739715 13.23799354 22.92887739 25.00000000
275 1 1 0.00407020681659 11.76710537 25.47653044 25.00000000
276 1 1 0.00550268626956 13.23799354 28.02418348 25.00000000
277 1 1 0.00460259353904 11.76710537 30.57183653 25.00000000
278 1 1 0.00550301533811 13.23799354 33.11948957 25.00000000
279 1 1 0.0040705890606 11.76710537 35.66714262 25.00000000
280 1 1 0.00420563188847 13.23799354 38.21479566 25.00000000
281 1 1 0.00403435610916 14.70888171 20.38122435 25.00000000
282 1 1 0.00605906010929 16.17976988 22.92887739 25.00000000
283 1 1 0.00607182830022 14.70888171 25.47653044 25.00000000
284 1 1 0.00888842590117 16.17976988 28.02418348 25.00000000
285 1 1 0.00725427824812 14.70888171 30.57183653 25.00000000
286 1 1 0.00888869954866 16.17976988 33.11948957 25.00000000
287 1 1 0.00607101735466 14.70888171 35.66714262 25.00000000
288 1 1 0.00605825386634 16.17976988 38.21479566 25.00000000
289 1 1 -0.00126790916011 1.47088817 21.23044203 27.40195032
290 1 1 -0.00137495922649 2.94177634 23.77809508 27.40195032
291 1 1 -0.00138333138065 1.47088817 26.32574812 27.40195032
292 1 1 -0.0014660178215 2.94177634 28.87340116 27.40195032
293 1 1 -0.00141724086889 1.47088817 31.42105421 27.40195032
294 1 1 -0.00144645186712 2.94177634 33.96870725 27.40195032
295 1 1 -0.0013516959363 1.47088817 36.51636030 27.40195032
296 1 1 -0.00132766724686 2.94177634 39.06401334 27.40195032
297 1 1 -0.00136207709189 4.41266451 21.23044203 27.40195032
298 1 1 -0.00156118915664 5.88355268 23.77809508 27.40195032
299 1 1 -0.0015189681048 4.41266451 26.32574812 27.40195032
300 1 1 -0.00170490797015 5.88355268 28.87340116 27.40195032
301 1 1 -0.00156684040032 4.41266451 31.42105421 27.40195032
302 1 1 -0.00167331205403 5.88355268 33.96870725 27.40195032
303 1 1 -0.00147488837167 4.41266451 36.51636030 27.40195032
304 1 1 -0.00148924862438 5.88355268 39.06401334 27.40195032
305 1 1 -0.001575345031 7.35444085 21.23044203 27.40195032
306 1 1 -0.00192725104492 8.82532903 23.77809508 27.40195032
307 1 1 -0.00183636023504 7.35444085 26.32574812 27.40195032
308 1 1 -0.00218676597404 8.82532903 28.87340116 27.40195032
309 1 1 -0.00191999552777 7.35444085 31.42105421 27.40195032
310 1 1 -0.00212863376632 8.82532903 33.96870725 27.40195032
311 1 1 -0.00176121451532 7.35444085 36.51636030 27.40195032
312 1 1 -0.00180356306573 8.82532903 39.06401334 27.40195032
313 1 1 -0.0019487391899 10.29621720 21.23044203 27.40195032
314 1 1 -0.00255477302962 11.76710537 23.77809508 27.40195032
315 1 1 -0.00242018576404 10.29621720 26.32574812 27.40195032
316 1 1 -0.00309270532988 11.76710537 28.87340116 27.40195032
317 1 1 -0.00258593426009 10.29621720 31.42105421 27.40195032
318 1 1 -0.00296472990451 11.76710537 33.96870725 27.40195032
319 1 1 -0.00227966345419 10.29621720 36.51636030 27.40195032
320 1 1 -0.00232620411988 11.76710537 39.06401334 27.40195032
321 1 1 -0.00254110305514 13.23799354 21.23044203 27.40195032
322 1 1 -0.00369893016336 14.70888171 23.77809508 27.40195032
323 1 1 -0.00352677110715 13.23799354 26.32574812 27.40195032
324 1 1 -0.00512950209209 14.70888171 28.87340116 27.40195032
325 1 1 -0.00394652346273 13.23799354 31.42105421 27.40195032
326 1 1 -0.00475821955711 14.70888171 33.96870725 27.40195032
327 1 1 -0.00320165427955 13.23799354 36.51636030 27.40195032
328 1 1 -0.00319070564644 14.70888171 39.06401334 27.40195032
329 1 1 -0.00350733468494 16.17976988 21.23044203 27.40195032
330 1 1 -0.00131923789399 0.00000000 23.77809508 27.40195032
331 1 1 -0.00600811865905 16.17976988 26.32574812 27.40195032
332 1 1 -0.00139576373253 0.00000000 28.87340116 27.40195032
333 1 1 -0.0072460273241 16.17976988 31.42105421 27.40195032
334 1 1 -0.00137952419221 0.00000000 33.96870725 27.40195032
335 1 1 -0.00509934955614 16.17976988 36.51636030 27.40195032
336 1 1 -0.00127878758658 0.00000000 39.06401334 27.40195032
337 1 1 -4.31526838338e-05 2.94177634 22.07965971 29.80390065
338 1 1 -4.80900881012e-05 4.41266451 24.62731276 29.80390065
339 1 1 -4.71066686017e-05 2.94177634 27.17496580 29.80390065
340 1 1 -5.10132044689e-05 4.41266451 29.72261885 29.80390065
341 1 1 -4.76779037135e-05 2.94177634 32.27027189 29.80390065
342 1 1 -4.93076926614e-05 4.41266451 34.81792493 29.80390065
343 1 1 -4.46335029368e-05 2.94177634 37.36557798 29.80390065
344 1 1 -4.41856008496e-05 4.41266451 39.91323102 29.80390065
345 1 1 -4.84802949361e-05 5.88355268 22.07965971 29.80390065
346 1 1 -5.70755178115e-05 7.35444085 24.62731276 29.80390065
347 1 1 -5.44759125317e-05 5.88355268 27.17496580 29.80390065
348 1 1 -6.23052768405e-05 7.35444085 29.72261885 29.80390065
349 1 1 -5.52754409211e-05 5.88355268 32.27027189 29.80390065
350 1 1 -5.95007848177e-05 7.35444085 34.81792493 29.80390065
351 1 1 -5.06187065426e-05 5.88355268 37.36557798 29.80390065
352 1 1 -5.11375919335e-05 7.35444085 39.91323102 29.80390065
353 1 1 -5.80834073804e-05 8.82532903 22.07965971 29.80390065
354 1 1 -7.44886386287e-05 10.29621720 24.62731276 29.80390065
355 1 1 -6.91960683175e-05 8.82532903 27.17496580 29.80390065
356 1 1 -8.61562945431e-05 10.29621720 29.72261885 29.80390065
357 1 1 -7.15420387354e-05 8.82532903 32.27027189 29.80390065
358 1 1 -8.05750793113e-05 10.29621720 34.81792493 29.80390065
359 1 1 -6.27997817136e-05 8.82532903 37.36557798 29.80390065
360 1 1 -6.37193828489e-05 10.29621720 39.91323102 29.80390065
361 1 1 -7.64159463677e-05 11.76710537 22.07965971 29.80390065
362 1 1 -0.000114033161995 13.23799354 24.62731276 29.80390065
363 1 1 -0.000101319566765 11.76710537 27.17496580 29.80390065
364 1 1 -0.000140124269105 13.23799354 29.72261885 29.80390065
365 1 1 -0.000107434721808 11.76710537 32.27027189 29.80390065
366 1 1 -0.000123975708352 13.23799354 34.81792493 29.80390065
367 1 1 -8.54258341444e-05 11.76710537 37.36557798 29.80390065
368 1 1 -8.49779560004e-05 13.23799354 39.91323102 29.80390065
369 1 1 -0.000113661434869 14.70888171 22.07965971 29.80390065
370 1 1 -0.000192069987838 16.17976988 24.62731276 29.80390065
371 1 1 -0.00017364313733 14.70888171 27.17496580 29.80390065
372 1 1 -0.000248716623722 16.17976988 29.72261885 29.80390065
373 1 1 -0.000185076875381 14.70888171 32.27027189 29.80390065
374 1 1 -0.000210338217065 16.17976988 34.81792493 29.80390065
375 1 1 -0.000128016990344 14.70888171 37.36557798 29.80390065
376 1 1 -0.000123325863072 16.17976988 39.91323102 29.80390065
377 1 1 -4.14318500278e-05 0.00000000 22.07965971 29.80390065
378 1 1 -4.38896000716e-05 1.47088817 24.62731276 29.80390065
379 1 1 -4.47873024265e-05 0.00000000 27.17496580 29.80390065
380 1 1 -4.60708977753e-05 1.47088817 29.72261885 29.80390065
381 1 1 -4.53474271077e-05 0.00000000 32.27027189 29.80390065
382 1 1 -4.4937756878e-05 1.47088817 34.81792493 29.80390065
383 1 1 -4.27979258549e-05 0.00000000 37.36557798 29.80390065
384 1 1 -4.1090973892e-05 1.47088817 39.91323102 29.80390065
385 1 1 0.00150138888308 4.41266451 22.92887739 32.20585097
386 1 1 0.0017154091218 5.88355268 25.47653044 32.20585097
387 1 1 0.00163763844425 4.41266451 28.02418348 32.20585097
388 1 1 0.00181240061492 5.88355268 30.57183653 32.20585097
389 1 1 0.00163767040186 4.41266451 33.11948957 32.20585097
390 1 1 0.00171547375737 5.88355268 35.66714262 32.20585097
391 1 1 0.00150142295077 4.41266451 38.21479566 32.20585097
392 1 1 0.00149240505747 5.88355268 20.38122435 32.20585097
393 1 1 0.001766147875 7.35444085 22.92887739 32.20585097
394 1 1 0.0021546238399 8.82532903 25.47653044 32.20585097
395 1 1 0.00199790587105 7.35444085 28.02418348 32.20585097
396 1 1 0.00233290399446 8.82532903 30.57183653 32.20585097
397 1 1 0.00199787970019 7.35444085 33.11948957 32.20585097
398 1 1 0.00215419523211 8.82532903 35.66714262 32.20585097
399 1 1 0.00176607300072 7.35444085 38.21479566 32.20585097
400 1 1 0.00176954090865 8.82532903 20.38122435 32.20585097
401 1 1 0.00223848189535 10.29621720 22.92887739 32.20585097
402 1 1 0.00293649673925 11.76710537 25.47653044 32.20585097
403 1 1 0.00267337189559 10.29621720 28.02418348 32.20585097
404 1 1 0.00332308009427 11.76710537 30.57183653 32.20585097
405 1 1 0.00267239272713 10.29621720 33.11948957 32.20585097
406 1 1 0.00293542770058 11.76710537 35.66714262 32.20585097
407 1 1 0.00223770239466 10.29621720 38.21479566 32.20585097
408 1 1 0.00222061249411 11.76710537 20.38122435 32.20585097
409 1 1 0.0030295357575 13.23799354 22.92887739 32.20585097
410 1 1 0.00449786034338 14.70888171 25.47653044 32.20585097
411 1 1 0.00401900130552 13.23799354 28.02418348 32.20585097
412 1 1 0.0055813164592 14.70888171 30.57183653 32.20585097
413 1 1 0.00401664673 13.23799354 33.11948957 32.20585097
414 1 1 0.00449848835365 14.70888171 35.66714262 32.20585097
415 1 1 0.00302939366041 13.23799354 38.21479566 32.20585097
416 1 1 0.00291077924029 14.70888171 20.38122435 32.20585097
417 1 1 0.00448871253437 16.17976988 22.92887739 32.20585097
418 1 1 0.00142959453691 0.00000000 25.47653044 32.20585097
419 1 1 0.00719469658928 16.17976988 28.02418348 32.20585097
420 1 1 0.00148017544494 0.00000000 30.57183653 32.20585097
421 1 1 0.00719174598394 16.17976988 33.11948957 32.20585097
422 1 1 0.00142953110435 0.00000000 35.66714262 32.20585097
423 1 1 0.00448934828144 16.17976988 38.21479566 32.20585097
424 1 1 0.00130328071452 0.00000000 20.38122435 32.20585097
425 1 1 0.00138626513437 1.47088817 22.92887739 32.20585097
426 1 1 0.00149498465911 2.94177634 25.47653044 32.20585097
427 1 1 0.00148477817197 1.47088817 28.02418348 32.20585097
428 1 1 0.00155558511748 2.94177634 30.57183653 32.20585097
429 1 1 0.00148473588745 1.47088817 33.11948957 32.20585097
430 1 1 0.00149496827823 2.94177634 35.66714262 32.20585097
431 1 1 0.00138621937189 1.47088817 38.21479566 32.20585097
432 1 1 0.00134772189912 2.94177634 20.38122435 32.20585097
433 1 1 -0.0023311077458 5.88355268 23.77809508 34.60780130
434 1 1 -0.00271285175748 7.35444085 26.32574812 34.60780130
435 1 1 -0.0025309359485 5.88355268 28.87340116 34.60780130
436 1 1 -0.0028304516189 7.35444085 31.42105421 34.60780130
437 1 1 -0.00248718626671 5.88355268 33.96870725 34.60780130
438 1 1 -0.00260715978513 7.35444085 36.51636030 34.60780130
439 1 1 -0.00223019615762 5.88355268 39.06401334 34.60780130
440 1 1 -0.0023481026921 7.35444085 21.23044203 34.60780130
441 1 1 -0.00284285480304 8.82532903 23.77809508 34.60780130
442 1 1 -0.0035813062771 10.29621720 26.32574812 34.60780130
443 1 1 -0.00322116678427 8.82532903 28.87340116 34.60780130
444 1 1 -0.00383114320888 10.29621720 31.42105421 34.60780130
445 1 1 -0.00313470556396 8.82532903 33.96870725 34.60780130
446 1 1 -0.00336566449639 10.29621720 36.51636030 34.60780130
447 1 1 -0.00266521620613 8.82532903 39.06401334 34.60780130
448 1 1 -0.00287414552364 10.29621720 21.23044203 34.60780130
449 1 1 -0.00379390092763 11.76710537 23.77809508 34.60780130
450 1 1 -0.00522790972055 13.23799354 26.32574812 34.60780130
451 1 1 -0.00460406371892 11.76710537 28.87340116 34.60780130
452 1 1 -0.00578159283347 13.23799354 31.42105421 34.60780130
453 1 1 -0.00441313770642 11.76710537 33.96870725 34.60780130
454 1 1 -0.00476917470177 13.23799354 36.51636030 34.60780130
455 1 1 -0.00343951940463 11.76710537 39.06401334 34.60780130
456 1 1 -0.0037735065698 13.23799354 21.23044203 34.60780130
457 1 1 -0.00546037637493 14.70888171 23.77809508 34.60780130
458 1 1 -0.00818401747699 16.17976988 26.32574812 34.60780130
459 1 1 -0.00720952647455 14.70888171 28.87340116 34.60780130
460 1 1 -0.00953654746176 16.17976988 31.42105421 34.60780130
461 1 1 -0.00677857392939 14.70888171 33.96870725 34.60780130
462 1 1 -0.00717354354378 16.17976988 36.51636030 34.60780130
463 1 1 -0.00475283627679 14.70888171 39.06401334 34.60780130
464 1 1 -0.00519889518788 16.17976988 21.23044203 34.60780130
465 1 1 -0.00198848184479 0.00000000 23.77809508 34.60780130
466 1 1 -0.00208333210271 1.47088817 26.32574812 34.60780130
467 1 1 -0.00210200061657 0.00000000 28.87340116 34.60780130
468 1 1 -0.00213328874196 1.47088817 31.42105421 34.60780130
469 1 1 -0.00207786145666 0.00000000 33.96870725 34.60780130
470 1 1 -0.00203657277221 1.47088817 36.51636030 34.60780130
471 1 1 -0.00192841284599 0.00000000 39.06401334 34.60780130
472 1 1 -0.00191268236155 1.47088817 21.23044203 34.60780130
473 1 1 -0.00207040530843 2.94177634 23.77809508 34.60780130
474 1 1 -0.00227503542905 4.41266451 26.32574812 34.60780130
475 1 1 -0.00220258526074 2.94177634 28.87340116 34.60780130
476 1 1 -0.00234248405953 4.41266451 31.42105421 34.60780130
477 1 1 -0.00217435387051 2.94177634 33.96870725 34.60780130
478 1 1 -0.00221267743181 4.41266451 36.51636030 34.60780130
479 1 1 -0.0020011674154 2.94177634 39.06401334 34.60780130
480 1 1 -0.00205065089217 4.41266451 21.23044203 34.60780130
481 1 1 0.0018367673708 0.00000000 40.76244870 25.00000000
482 1 1 0.00174555324089 1.47088817 43.31010174 25.00000000
483 1 1 0.00163208189205 0.00000000 45.85775479 25.00000000
484 1 1 0.00154539942667 1.47088817 48.40540783 25.00000000
485 1 1 0.00145877591915 0.00000000 50.95306088 25.00000000
486 1 1 0.001397895473 1.47088817 53.50071392 25.00000000
487 1 1 0.00134771099096 0.00000000 56.04836697 25.00000000
488 1 1 0.00132158569997 1.47088817 58.59602001 25.00000000
489 1 1 0.00189885069424 2.94177634 40.76244870 25.00000000
490 1 1 0.00184303702618 4.41266451 43.31010174 25.00000000
491 1 1 0.00166787409008 2.94177634 45.85775479 25.00000000
492 1 1 0.00159770709017 4.41266451 48.40540783 25.00000000
493 1 1 0.00147747458875 2.94177634 50.95306088 25.00000000
494 1 1 0.00142522654791 4.41266451 53.50071392 25.00000000
495 1 1 0.00135819037501 2.94177634 56.04836697 25.00000000
496 1 1 0.00133874998475 4.41266451 58.59602001 25.00000000
497 1 1 0.00209290840453 5.88355268 40.76244870 25.00000000
498 1 1 0.00204745244933 7.35444085 43.31010174 25.00000000
499 1 1 0.001778263597 5.88355268 45.85775479 25.00000000
500 1 1 0.00170482738086 7.35444085 48.40540783 25.00000000
501 1 1 0.00153394063177 5.88355268 50.95306088 25.00000000
502 1 1 0.00147918124251 7.35444085 53.50071392 25.00000000
503 1 1 0.00138903219789 5.88355268 56.04836697 25.00000000
504 1 1 0.00137178867872 7.35444085 58.59602001 25.00000000
505 1 1 0.00245021102166 8.82532903 40.76244870 25.00000000
506 1 1 0.00238024941592 10.29621720 43.31010174 25.00000000
507 1 1 0.00196956778929 8.82532903 45.85775479 25.00000000
508 1 1 0.0018681518368 10.29621720 48.40540783 25.00000000
509 1 1 0.00162837908592 8.82532903 50.95306088 25.00000000
510 1 1 0.0015577587459 10.29621720 53.50071392 25.00000000
511 1 1 0.00143838561246 8.82532903 56.04836697 25.00000000
512 1 1 0.0014180147518 10.29621720 58.59602001 25.00000000
513 1 1 0.00305344695564 11.76710537 40.76244870 25.00000000
514 1 1 0.00288676891768 13.23799354 43.31010174 25.00000000
515 1 1 0.00224932557479 11.76710537 45.85775479 25.00000000
516 1 1 0.00208438120559 13.23799354 48.40540783 25.00000000
517 1 1 0.00175820369982 11.76710537 50.95306088 25.00000000
518 1 1 0.00165615722153 13.23799354 53.50071392 25.00000000
519 1 1 0.00150282277222 11.76710537 56.04836697 25.00000000
520 1 1 0.00147318330957 13.23799354 58.59602001 25.00000000
521 1 1 0.00403473221914 14.70888171 40.76244870 25.00000000
522 1 1 0.00361831331014 16.17976988 43.31010174 25.00000000
523 1 1 0.00262774252461 14.70888171 45.85775479 25.00000000
524 1 1 0.00234327548355 16.17976988 48.40540783 25.00000000
525 1 1 0.00191498105761 14.70888171 50.95306088 25.00000000
526 1 1 0.0017650461797 16.17976988 53.50071392 25.00000000
527 1 1 0.00157667398051 14.70888171 56.04836697 25.00000000
528 1 1 0.0015313959556 16.17976988 58.59602001 25.00000000
529 1 1 -0.00122017422146 1.47088817 41.61166638 27.40195032
530 1 1 -0.00116909954155 2.94177634 44.15931943 27.40195032
531 1 1 -0.00107640342219 1.47088817 46.70697247 27.40195032
532 1 1 -0.00102553286199 2.94177634 49.25462551 27.40195032
533 1 1 -0.000960528936353 1.47088817 51.80227856 27.40195032
534 1 1 -0.000926079440721 2.94177634 54.34993160 27.40195032
535 1 1 -0.000891342313638 1.47088817 56.89758465 27.40195032
536 1 1 -0.000880325818233 2.94177634 59.44523769 27.40195032
537 1 1 -0.00129983846823 4.41266451 41.61166638 27.40195032
538 1 1 -0.00126230086744 5.88355268 44.15931943 27.40195032
539 1 1 -0.00112104884453 4.41266451 46.70697247 27.40195032
540 1 1 -0.00107443139334 5.88355268 49.25462551 27.40195032
541 1 1 -0.00098404687459 4.41266451 51.80227856 27.40195032
542 1 1 -0.000951713775046 5.88355268 54.34993160 27.40195032
543 1 1 -0.000904598641411 4.41266451 56.89758465 27.40195032
544 1 1 -0.000896971157147 5.88355268 59.44523769 27.40195032
545 1 1 -0.0014770463852 7.35444085 41.61166638 27.40195032
546 1 1 -0.00143275071316 8.82532903 44.15931943 27.40195032
547 1 1 -0.00121346894361 7.35444085 46.70697247 27.40195032
548 1 1 -0.00115676346938 8.82532903 49.25462551 27.40195032
549 1 1 -0.00103062225173 7.35444085 51.80227856 27.40195032
550 1 1 -0.00099316512869 8.82532903 54.34993160 27.40195032
551 1 1 -0.000930348581472 7.35444085 56.89758465 27.40195032
552 1 1 -0.000923307626898 8.82532903 59.44523769 27.40195032
553 1 1 -0.00178271990918 10.29621720 41.61166638 27.40195032
554 1 1 -0.00169867845723 11.76710537 44.15931943 27.40195032
555 1 1 -0.00136082089681 10.29621720 46.70697247 27.40195032
556 1 1 -0.00127365670385 11.76710537 49.25462551 27.40195032
557 1 1 -0.00109896295819 10.29621720 51.80227856 27.40195032
558 1 1 -0.00104784702261 11.76710537 54.34993160 27.40195032
559 1 1 -0.000966796791325 10.29621720 56.89758465 27.40195032
560 1 1 -0.000957055695346 11.76710537 59.44523769 27.40195032
561 1 1 -0.00224930119613 13.23799354 41.61166638 27.40195032
562 1 1 -0.00206853969385 14.70888171 44.15931943 27.40195032
563 1 1 -0.00156936221574 13.23799354 46.70697247 27.40195032
564 1 1 -0.00142296123258 14.70888171 49.25462551 27.40195032
565 1 1 -0.00118625232354 13.23799354 51.80227856 27.40195032
566 1 1 -0.00111129661936 14.70888171 54.34993160 27.40195032
567 1 1 -0.00101078099453 13.23799354 56.89758465 27.40195032
568 1 1 -0.000994795308044 14.70888171 59.44523769 27.40195032
569 1 1 -0.00293230713605 16.17976988 41.61166638 27.40195032
570 1 1 -0.00113943776851 0.00000000 44.15931943 27.40195032
571 1 1 -0.00183177143073 16.17976988 46.70697247 27.40195032
572 1 1 -0.00100929043616 0.00000000 49.25462551 27.40195032
573 1 1 -0.00128637807881 16.17976988 51.80227856 27.40195032
574 1 1 -0.000917434445026 0.00000000 54.34993160 27.40195032
575 1 1 -0.00105764259675 16.17976988 56.89758465 27.40195032
576 1 1 -0.000874642145659 0.00000000 59.44523769 27.40195032
577 1 1 -3.95976559099e-05 2.94177634 42.46088406 29.80390065
578 1 1 -3.81278563361e-05 4.41266451 45.00853711 29.80390065
579 1 1 -3.45655555421e-05 2.94177634 47.55619015 29.80390065
580 1 1 -3.30675608562e-05 4.41266451 50.10384320 29.80390065
581 1 1 -3.07679065934e-05 2.94177634 52.65149624 29.80390065
582 1 1 -2.9821968378e-05 4.41266451 55.19914928 29.80390065
583 1 1 -2.86781887907e-05 2.94177634 57.74680233 29.80390065
584 1 1 -2.8526769637e-05 4.41266451 60.29445537 29.80390065
585 1 1 -4.33435481905e-05 5.88355268 42.46088406 29.80390065
586 1 1 -4.19489456297e-05 7.35444085 45.00853711 29.80390065
587 1 1 -3.65892523787e-05 5.88355268 47.55619015 29.80390065
588 1 1 -3.50077220589e-05 7.35444085 50.10384320 29.80390065
589 1 1 -3.18027992598e-05 5.88355268 52.65149624 29.80390065
590 1 1 -3.08242565489e-05 7.35444085 55.19914928 29.80390065
591 1 1 -2.92795545157e-05 5.88355268 57.74680233 29.80390065
592 1 1 -2.9220146849e-05 7.35444085 60.29445537 29.80390065
593 1 1 -5.03091985253e-05 8.82532903 42.46088406 29.80390065
594 1 1 -4.81106407458e-05 10.29621720 45.00853711 29.80390065
595 1 1 -4.00715199322e-05 8.82532903 47.55619015 29.80390065
596 1 1 -3.7930130486e-05 10.29621720 50.10384320 29.80390065
597 1 1 -3.35043811602e-05 8.82532903 52.65149624 29.80390065
598 1 1 -3.22594705735e-05 10.29621720 55.19914928 29.80390065
599 1 1 -3.023617367e-05 8.82532903 57.74680233 29.80390065
600 1 1 -3.01898424495e-05 10.29621720 60.29445537 29.80390065
601 1 1 -6.15774729921e-05 11.76710537 42.46088406 29.80390065
602 1 1 -5.70564363576e-05 13.23799354 45.00853711 29.80390065
603 1 1 -4.50899815227e-05 11.76710537 47.55619015 29.80390065
604 1 1 -4.17671874444e-05 13.23799354 50.10384320 29.80390065
605 1 1 -3.5805702624e-05 11.76710537 52.65149624 29.80390065
606 1 1 -3.40201803871e-05 13.23799354 55.19914928 29.80390065
607 1 1 -3.14701484507e-05 11.76710537 57.74680233 29.80390065
608 1 1 -3.13426279994e-05 13.23799354 60.29445537 29.80390065
609 1 1 -7.924924439e-05 14.70888171 42.46088406 29.80390065
610 1 1 -6.93782472333e-05 16.17976988 45.00853711 29.80390065
611 1 1 -5.16477558049e-05 14.70888171 47.55619015 29.80390065
612 1 1 -4.63035375495e-05 16.17976988 50.10384320 29.80390065
613 1 1 -3.85648467338e-05 14.70888171 52.65149624 29.80390065
614 1 1 -3.59405642092e-05 16.17976988 55.19914928 29.80390065
615 1 1 -3.28586033119e-05 14.70888171 57.74680233 29.80390065
616 1 1 -3.2549426377e-05 16.17976988 60.29445537 29.80390065
617 1 1 -3.84153091e-05 0.00000000 42.46088406 29.80390065
618 1 1 -3.6312474804e-05 1.47088817 45.00853711 29.80390065
619 1 1 -3.39043246325e-05 0.00000000 47.55619015 29.80390065
620 1 1 -3.21067852593e-05 1.47088817 50.10384320 29.80390065
621 1 1 -3.04214690125e-05 0.00000000 52.65149624 29.80390065
622 1 1 -2.93090980716e-05 1.47088817 55.19914928 29.80390065
623 1 1 -2.84733872079e-05 0.00000000 57.74680233 29.80390065
624 1 1 -2.81668389655e-05 1.47088817 60.29445537 29.80390065
625 1 1 0.00130706567628 4.41266451 43.31010174 32.20585097
626 1 1 0.00126017204249 5.88355268 45.85775479 32.20585097
627 1 1 0.00112947948741 4.41266451 48.40540783 32.20585097
628 1 1 0.00108340654863 5.88355268 50.95306088 32.20585097
629 1 1 0.0010041284559 4.41266451 53.50071392 32.20585097
630 1 1 0.000977847824806 5.88355268 56.04836697 32.20585097
631 1 1 0.000941319283834 4.41266451 58.59602001 32.20585097
632 1 1 0.00149244528564 5.88355268 40.76244870 32.20585097
633 1 1 0.00145962535716 7.35444085 43.31010174 32.20585097
634 1 1 0.00140206998582 8.82532903 45.85775479 32.20585097
635 1 1 0.00120710827106 7.35444085 48.40540783 32.20585097
636 1 1 0.00115191926002 8.82532903 50.95306088 32.20585097
637 1 1 0.00104370312386 7.35444085 53.50071392 32.20585097
638 1 1 0.00101393395654 8.82532903 56.04836697 32.20585097
639 1 1 0.00096525236479 7.35444085 58.59602001 32.20585097
640 1 1 0.00176933475554 8.82532903 40.76244870 32.20585097
641 1 1 0.00171724339979 10.29621720 43.31010174 32.20585097
642 1 1 0.00161759670426 11.76710537 45.85775479 32.20585097
643 1 1 0.00132692951272 10.29621720 48.40540783 32.20585097
644 1 1 0.00124618286568 11.76710537 50.95306088 32.20585097
645 1 1 0.00110089727616 10.29621720 53.50071392 32.20585097
646 1 1 0.00106095941362 11.76710537 56.04836697 32.20585097
647 1 1 0.000998860307977 10.29621720 58.59602001 32.20585097
648 1 1 0.00221982134147 11.76710537 40.76244870 32.20585097
649 1 1 0.0021007865551 13.23799354 43.31010174 32.20585097
650 1 1 0.00190986186166 14.70888171 45.85775479 32.20585097
651 1 1 0.00149098306395 13.23799354 48.40540783 32.20585097
652 1 1 0.00136227522615 14.70888171 50.95306088 32.20585097
653 1 1 0.00117209985172 13.23799354 53.50071392 32.20585097
654 1 1 0.00111457817225 14.70888171 56.04836697 32.20585097
655 1 1 0.00103905744271 13.23799354 58.59602001 32.20585097
656 1 1 0.00290969895264 14.70888171 40.76244870 32.20585097
657 1 1 0.00262171802879 16.17976988 43.31010174 32.20585097
658 1 1 0.00115438783591 0.00000000 45.85775479 32.20585097
659 1 1 0.00169203910023 16.17976988 48.40540783 32.20585097
660 1 1 0.00102810714327 0.00000000 50.95306088 32.20585097
661 1 1 0.00125115866074 16.17976988 53.50071392 32.20585097
662 1 1 0.000947731680602 0.00000000 56.04836697 32.20585097
663 1 1 0.00108146581547 16.17976988 58.59602001 32.20585097
664 1 1 0.00130323328839 0.00000000 40.76244870 32.20585097
665 1 1 0.00123684528069 1.47088817 43.31010174 32.20585097
666 1 1 0.00118026931989 2.94177634 45.85775479 32.20585097
667 1 1 0.00109122731481 1.47088817 48.40540783 32.20585097
668 1 1 0.00104196476399 2.94177634 50.95306088 32.20585097
669 1 1 0.000984009267209 1.47088817 53.50071392 32.20585097
670 1 1 0.000955350992928 2.94177634 56.04836697 32.20585097
671 1 1 0.000928925333314 1.47088817 58.59602001 32.20585097
672 1 1 0.00134769701815 2.94177634 40.76244870 32.20585097
673 1 1 -0.00190455622126 5.88355268 44.15931943 34.60780130
674 1 1 -0.00183243803336 7.35444085 46.70697247 34.60780130
675 1 1 -0.00162670087634 5.88355268 49.25462551 34.60780130
676 1 1 -0.00156168803715 7.35444085 51.80227856 34.60780130
677 1 1 -0.00144564754035 5.88355268 54.34993160 34.60780130
678 1 1 -0.00141425932354 7.35444085 56.89758465 34.60780130
679 1 1 -0.00136511538617 5.88355268 59.44523769 34.60780130
680 1 1 -0.00221043782009 7.35444085 41.61166638 34.60780130
681 1 1 -0.00214628512235 8.82532903 44.15931943 34.60780130
682 1 1 -0.00204368342504 10.29621720 46.70697247 34.60780130
683 1 1 -0.00174861256944 8.82532903 49.25462551 34.60780130
684 1 1 -0.00166288911486 10.29621720 51.80227856 34.60780130
685 1 1 -0.00150636585859 8.82532903 54.34993160 34.60780130
686 1 1 -0.00146776260723 10.29621720 56.89758465 34.60780130
687 1 1 -0.00140409606989 8.82532903 59.44523769 34.60780130
688 1 1 -0.00263414436215 10.29621720 41.61166638 34.60780130
689 1 1 -0.00251405290155 11.76710537 44.15931943 34.60780130
690 1 1 -0.00233277341672 13.23799354 46.70697247 34.60780130
691 1 1 -0.00191883749903 11.76710537 49.25462551 34.60780130
692 1 1 -0.00179177741132 13.23799354 51.80227856 34.60780130
693 1 1 -0.00158704048016 11.76710537 54.34993160 34.60780130
694 1 1 -0.00153245345722 13.23799354 56.89758465 34.60780130
695 1 1 -0.00145387042603 11.76710537 59.44523769 34.60780130
696 1 1 -0.00332036555442 13.23799354 41.61166638 34.60780130
697 1 1 -0.00304509067072 14.70888171 44.15931943 34.60780130
698 1 1 -0.00269906669854 16.17976988 46.70697247 34.60780130
699 1 1 -0.00212928930266 14.70888171 49.25462551 34.60780130
700 1 1 -0.00193686136333 16.17976988 51.80227856 34.60780130
701 1 1 -0.00168114859435 14.70888171 54.34993160 34.60780130
702 1 1 -0.00160168661801 16.17976988 56.89758465 34.60780130
703 1 1 -0.00150939786471 14.70888171 59.44523769 34.60780130
704 1 1 -0.00436472666255 16.17976988 41.61166638 34.60780130
705 1 1 -0.00172252844956 0.00000000 44.15931943 34.60780130
706 1 1 -0.00162984809494 1.47088817 46.70697247 34.60780130
707 1 1 -0.00153120393143 0.00000000 49.25462551 34.60780130
708 1 1 -0.00145926418236 1.47088817 51.80227856 34.60780130
709 1 1 -0.00139557745477 0.00000000 54.34993160 34.60780130
710 1 1 -0.00135679699708 1.47088817 56.89758465 34.60780130
711 1 1 -0.00133194913964 0.00000000 59.44523769 34.60780130
712 1 1 -0.00184198857472 1.47088817 41.61166638 34.60780130
713 1 1 -0.00176698465273 2.94177634 44.15931943 34.60780130
714 1 1 -0.00169595138889 4.41266451 46.70697247 34.60780130
715 1 1 -0.00155479312609 2.94177634 49.25462551 34.60780130
716 1 1 -0.00149339096529 4.41266451 51.80227856 34.60780130
717 1 1 -0.00140821001876 2.94177634 54.34993160 34.60780130
718 1 1 -0.00137637774083 4.41266451 56.89758465 34.60780130
719 1 1 -0.00134040180042 2.94177634 59.44523769 34.60780130
720 1 1 -0.00196008243129 4.41266451 41.61166638 34.60780130
721 1 1 0.00153021073173 17.65065805 0.00000000 25.00000000
722 1 1 0.00158534544824 19.12154622 2.54765304 25.00000000
723 1 1 0.00165150445428 17.65065805 5.09530609 25.00000000
724 1 1 0.0018701476785 19.12154622 7.64295913 25.00000000
725 1 1 0.00208265010657 17.65065805 10.19061218 25.00000000
726 1 1 0.00262060486318 19.12154622 12.73826522 25.00000000
727 1 1 0.0031011685072 17.65065805 15.28591827 25.00000000
728 1 1 0.00454162626978 19.12154622 17.83357131 25.00000000
729 1 1 0.00157403967107 20.59243439 0.00000000 25.00000000
730 1 1 0.00162714896541 22.06332256 2.54765304 25.00000000
731 1 1 0.0017166777945 20.59243439 5.09530609 25.00000000
732 1 1 0.00195448095566 22.06332256 7.64295913 25.00000000
733 1 1 0.00223733882477 20.59243439 10.19061218 25.00000000
734 1 1 0.00286681802022 22.06332256 12.73826522 25.00000000
735 1 1 0.00360836937486 20.59243439 15.28591827 25.00000000
736 1 1 0.00545455960281 22.06332256 17.83357131 25.00000000
737 1 1 0.00160354162594 23.53421073 0.00000000 25.00000000
738 1 1 0.00165003656265 25.00509890 2.54765304 25.00000000
739 1 1 0.00176135631342 23.53421073 5.09530609 25.00000000
740 1 1 0.00200175999499 25.00509890 7.64295913 25.00000000
741 1 1 0.00234897564633 23.53421073 10.19061218 25.00000000
742 1 1 0.00301468426463 25.00509890 12.73826522 25.00000000
743 1 1 0.0040116538109 23.53421073 15.28591827 25.00000000
744 1 1 0.00603582579972 25.00509890 17.83357131 25.00000000
745 1 1 0.00161395940827 26.47598708 0.00000000 25.00000000
746 1 1 0.00165003656003 27.94687525 2.54765304 25.00000000
747 1 1 0.00177728441599 26.47598708 5.09530609 25.00000000
748 1 1 0.00200175999302 27.94687525 7.64295913 25.00000000
749 1 1 0.00239000309603 26.47598708 10.19061218 25.00000000
750 1 1 0.00301468426338 27.94687525 12.73826522 25.00000000
751 1 1 0.00416613383021 26.47598708 15.28591827 25.00000000
752 1 1 0.00603582579816 27.94687525 17.83357131 25.00000000
753 1 1 0.00160354162085 29.41776342 0.00000000 25.00000000
754 1 1 0.00162714895924 30.88865159 2.54765304 25.00000000
755 1 1 0.00176135630919 29.41776342 5.09530609 25.00000000
756 1 1 0.00195448095125 30.88865159 7.64295913 25.00000000
757 1 1 0.0023489756436 29.41776342 10.19061218 25.00000000
758 1 1 0.00286681801797 30.88865159 12.73826522 25.00000000
759 1 1 0.00401165380909 29.41776342 15.28591827 25.00000000
760 1 1 0.00545455960091 30.88865159 17.83357131 25.00000000
761 1 1 0.00157403966373 32.35953976 0.00000000 25.00000000
762 1 1 0.00158534544145 33.83042793 2.54765304 25.00000000
763 1 1 0.00171667778854 32.35953976 5.09530609 25.00000000
764 1 1 0.00187014767377 33.83042793 7.64295913 25.00000000
765 1 1 0.00223733882133 32.35953976 10.19061218 25.00000000
766 1 1 0.00262060486108 33.83042793 12.73826522 25.00000000
767 1 1 0.00360836937357 32.35953976 15.28591827 25.00000000
768 1 1 0.00454162626856 33.83042793 17.83357131 25.00000000
769 1 1 -0.00104163292491 19.12154622 0.84921768 27.40195032
770 1 1 -0.0010956333414 20.59243439 3.39687073 27.40195032
771 1 1 -0.00116527949391 19.12154622 5.94452377 27.40195032
772 1 1 -0.00135534700855 20.59243439 8.49217681 27.40195032
773 1 1 -0.00156478270073 19.12154622 11.03982986 27.40195032
774 1 1 -0.00206030557868 20.59243439 13.58748290 27.40195032
775 1 1 -0.00253116560519 19.12154622 16.13513595 27.40195032
776 1 1 -0.00391434690572 20.59243439 18.68278899 27.40195032
777 1 1 -0.00106778849743 22.06332256 0.84921768 27.40195032
778 1 1 -0.00112023328673 23.53421073 3.39687073 27.40195032
779 1 1 -0.00120917448265 22.06332256 5.94452377 27.40195032
780 1 1 -0.00141223994862 23.53421073 8.49217681 27.40195032
781 1 1 -0.00168458993261 22.06332256 11.03982986 27.40195032
782 1 1 -0.00223103956909 23.53421073 13.58748290 27.40195032
783 1 1 -0.00292260151783 22.06332256 16.13513595 27.40195032
784 1 1 -0.0047333456049 23.53421073 18.68278899 27.40195032
785 1 1 -0.00108204290495 25.00509890 0.84921768 27.40195032
786 1 1 -0.00112895992578 26.47598708 3.39687073 27.40195032
787 1 1 -0.00123366326443 25.00509890 5.94452377 27.40195032
788 1 1 -0.00143293609419 26.47598708 8.49217681 27.40195032
789 1 1 -0.00175359392283 25.00509890 11.03982986 27.40195032
790 1 1 -0.00229444791569 26.47598708 13.58748290 27.40195032
791 1 1 -0.00317175908538 25.00509890 16.13513595 27.40195032
792 1 1 -0.0050822438431 26.47598708 18.68278899 27.40195032
793 1 1 -0.00108204290794 27.94687525 0.84921768 27.40195032
794 1 1 -0.00112023329178 29.41776342 3.39687073 27.40195032
795 1 1 -0.00123366326667 27.94687525 5.94452377 27.40195032
796 1 1 -0.00141223995161 29.41776342 8.49217681 27.40195032
797 1 1 -0.00175359392371 27.94687525 11.03982986 27.40195032
798 1 1 -0.00223103956905 29.41776342 13.58748290 27.40195032
799 1 1 -0.00317175908443 27.94687525 16.13513595 27.40195032
800 1 1 -0.00473334560019 29.41776342 18.68278899 27.40195032
801 1 1 -0.00106778850493 30.88865159 0.84921768 27.40195032
802 1 1 -0.00109563334906 32.35953976 3.39687073 27.40195032
803 1 1 -0.00120917448823 30.88865159 5.94452377 27.40195032
804 1 1 -0.001355347013 32.35953976 8.49217681 27.40195032
805 1 1 -0.00168458993471 30.88865159 11.03982986 27.40195032
806 1 1 -0.00206030557841 32.35953976 13.58748290 27.40195032
807 1 1 -0.0029226015153 30.88865159 16.13513595 27.40195032
808 1 1 -0.00391434689849 32.35953976 18.68278899 27.40195032
809 1 1 -0.00104163293342 33.83042793 0.84921768 27.40195032
810 1 1 -0.00105938758308 17.65065805 3.39687073 27.40195032
811 1 1 -0.00116527950017 33.83042793 5.94452377 27.40195032
812 1 1 -0.00127538912477 17.65065805 8.49217681 27.40195032
813 1 1 -0.00156478270287 33.83042793 11.03982986 27.40195032
814 1 1 -0.00183024511493 17.65065805 13.58748290 27.40195032
815 1 1 -0.00253116560172 33.83042793 16.13513595 27.40195032
816 1 1 -0.00305470326291 17.65065805 18.68278899 27.40195032
817 1 1 -3.4391727131e-05 20.59243439 1.69843536 29.80390065
818 1 1 -3.67787550332e-05 22.06332256 4.24608841 29.80390065
819 1 1 -4.00693674816e-05 20.59243439 6.79374145 29.80390065
820 1 1 -4.76809153782e-05 22.06332256 9.34139450 29.80390065
821 1 1 -5.67631909081e-05 20.59243439 11.88904754 29.80390065
822 1 1 -7.88596841181e-05 22.06332256 14.43670058 29.80390065
823 1 1 -0.00010605985294 20.59243439 16.98435363 29.80390065
824 1 1 -0.000184264681054 22.06332256 19.53200667 29.80390065
825 1 1 -3.50926422524e-05 23.53421073 1.69843536 29.80390065
826 1 1 -3.73921384691e-05 25.00509890 4.24608841 29.80390065
827 1 1 -4.13819985203e-05 23.53421073 6.79374145 29.80390065
828 1 1 -4.93036065572e-05 25.00509890 9.34139450 29.80390065
829 1 1 -6.0911795865e-05 23.53421073 11.88904754 29.80390065
830 1 1 -8.42459094171e-05 25.00509890 14.43670058 29.80390065
831 1 1 -0.000122944488058 23.53421073 16.98435363 29.80390065
832 1 1 -0.000209716940715 25.00509890 19.53200667 29.80390065
833 1 1 -3.53395787674e-05 26.47598708 1.69843536 29.80390065
834 1 1 -3.7392141259e-05 27.94687525 4.24608841 29.80390065
835 1 1 -4.18583481387e-05 26.47598708 6.79374145 29.80390065
836 1 1 -4.93036081156e-05 27.94687525 9.34139450 29.80390065
837 1 1 -6.25284367921e-05 26.47598708 11.88904754 29.80390065
838 1 1 -8.42459093805e-05 27.94687525 14.43670058 29.80390065
839 1 1 -0.00012733841385 26.47598708 16.98435363 29.80390065
840 1 1 -0.000209716939091 27.94687525 19.53200667 29.80390065
841 1 1 -3.50926482039e-05 29.41776342 1.69843536 29.80390065
842 1 1 -3.67787621403e-05 30.88865159 4.24608841 29.80390065
843 1 1 -4.13820027601e-05 29.41776342 6.79374145 29.80390065
844 1 1 -4.76809193448e-05 30.88865159 9.34139450 29.80390065
845 1 1 -6.09117973826e-05 29.41776342 11.88904754 29.80390065
846 1 1 -7.88596839662e-05 30.88865159 14.43670058 29.80390065
847 1 1 -0.000122944486667 29.41776342 16.98435363 29.80390065
848 1 1 -0.000184264676781 30.88865159 19.53200667 29.80390065
849 1 1 -3.43917363658e-05 32.35953976 1.69843536 29.80390065
850 1 1 -3.56531349438e-05 33.83042793 4.24608841 29.80390065
851 1 1 -4.00693740729e-05 32.35953976 6.79374145 29.80390065
852 1 1 -4.50061564442e-05 33.83042793 9.34139450 29.80390065
853 1 1 -5.67631932851e-05 32.35953976 11.88904754 29.80390065
854 1 1 -6.92522226981e-05 33.83042793 14.43670058 29.80390065
855 1 1 -0.000106059850606 32.35953976 16.98435363 29.80390065
856 1 1 -0.000139158984507 33.83042793 19.53200667 29.80390065
857 1 1 -3.33500076146e-05 17.65065805 1.69843536 29.80390065
858 1 1 -3.5653126635e-05 19.12154622 4.24608841 29.80390065
859 1 1 -3.81712337516e-05 17.65065805 6.79374145 29.80390065
860 1 1 -4.50061516779e-05 19.12154622 9.34139450 29.80390065
861 1 1 -5.15825638084e-05 17.65065805 11.88904754 29.80390065
862 1 1 -6.92522225175e-05 19.12154622 14.43670058 29.80390065
863 1 1 -8.44580356314e-05 17.65065805 16.98435363 29.80390065
864 1 1 -0.00013915898868 19.12154622 19.53200667 29.80390065
865 1 1 0.00115101567899 22.06332256 2.54765304 32.20585097
866 1 1 0.00124816507628 23.53421073 5.09530609 32.20585097
867 1 1 0.00139134935519 22.06332256 7.64295913 32.20585097
868 1 1 0.00169488665581 23.53421073 10.19061218 32.20585097
869 1 1 0.00208654001856 22.06332256 12.73826522 32.20585097
870 1 1 0.0028932018157 23.53421073 15.28591827 32.20585097
871 1 1 0.00398194748933 22.06332256 17.83357131 32.20585097
872 1 1 0.00113394290842 23.53421073 0.00000000 32.20585097
873 1 1 0.00116761112681 25.00509890 2.54765304 32.20585097
874 1 1 0.00125974157788 26.47598708 5.09530609 32.20585097
875 1 1 0.00142690733791 25.00509890 7.64295913 32.20585097
876 1 1 0.00172618987925 26.47598708 10.19061218 32.20585097
877 1 1 0.00219207922491 25.00509890 12.73826522 32.20585097
878 1 1 0.00300111765358 26.47598708 15.28591827 32.20585097
879 1 1 0.00447331019642 25.00509890 17.83357131 32.20585097
880 1 1 0.00114154171576 26.47598708 0.00000000 32.20585097
881 1 1 0.00116761112397 27.94687525 2.54765304 32.20585097
882 1 1 0.00124816507159 29.41776342 5.09530609 32.20585097
883 1 1 0.00142690733602 27.94687525 7.64295913 32.20585097
884 1 1 0.00169488665334 29.41776342 10.19061218 32.20585097
885 1 1 0.00219207922437 27.94687525 12.73826522 32.20585097
886 1 1 0.00289320181563 29.41776342 15.28591827 32.20585097
887 1 1 0.00447331019673 27.94687525 17.83357131 32.20585097
888 1 1 0.00113394290256 29.41776342 0.00000000 32.20585097
889 1 1 0.0011510156715 30.88865159 2.54765304 32.20585097
890 1 1 0.00121577479968 32.35953976 5.09530609 32.20585097
891 1 1 0.00139134935004 30.88865159 7.64295913 32.20585097
892 1 1 0.00160907326768 32.35953976 10.19061218 32.20585097
893 1 1 0.00208654001667 30.88865159 12.73826522 32.20585097
894 1 1 0.00261462477135 32.35953976 15.28591827 32.20585097
895 1 1 0.00398194748937 30.88865159 17.83357131 32.20585097
896 1 1 0.00111241294241 32.35953976 0.00000000 32.20585097
897 1 1 0.00112067560739 33.83042793 2.54765304 32.20585097
898 1 1 0.00116866102167 17.65065805 5.09530609 32.20585097
899 1 1 0.0013284630333 33.83042793 7.64295913 32.20585097
900 1 1 0.00148979304451 17.65065805 10.19061218 32.20585097
901 1 1 0.00190478059624 33.83042793 12.73826522 32.20585097
902 1 1 0.00225920309594 17.65065805 15.28591827 32.20585097
903 1 1 0.00327936664829 33.83042793 17.83357131 32.20585097
904 1 1 0.00108041416458 17.65065805 0.00000000 32.20585097
905 1 1 0.00112067561639 19.12154622 2.54765304 32.20585097
906 1 1 0.00121577480729 20.59243439 5.09530609 32.20585097
907 1 1 0.0013284630397 19.12154622 7.64295913 32.20585097
908 1 1 0.00160907327197 20.59243439 10.19061218 32.20585097
909 1 1 0.00190478059912 19.12154622 12.73826522 32.20585097
910 1 1 0.00261462477212 20.59243439 15.28591827 32.20585097
911 1 1 0.003279366649 19.12154622 17.83357131 32.20585097
912 1 1 0.00111241295177 20.59243439 0.00000000 32.20585097
913 1 1 -0.00169444593757 23.53421073 3.39687073 34.60780130
914 1 1 -0.00186175488965 25.00509890 5.94452377 34.60780130
915 1 1 -0.00211555394528 23.53421073 8.49217681 34.60780130
916 1 1 -0.00259057529116 25.00509890 11.03982986 34.60780130
917 1 1 -0.00329302168983 23.53421073 13.58748290 34.60780130
918 1 1 -0.00472443648842 25.00509890 16.13513595 34.60780130
919 1 1 -0.00674134455365 23.53421073 18.68278899 34.60780130
920 1 1 -0.00163770786313 25.00509890 0.84921768 34.60780130
921 1 1 -0.00170739049734 26.47598708 3.39687073 34.60780130
922 1 1 -0.00186175489121 27.94687525 5.94452377 34.60780130
923 1 1 -0.00214455119611 26.47598708 8.49217681 34.60780130
924 1 1 -0.0025905752914 27.94687525 11.03982986 34.60780130
925 1 1 -0.00339202649701 26.47598708 13.58748290 34.60780130
926 1 1 -0.00472443648647 27.94687525 16.13513595 34.60780130
927 1 1 -0.00714790822444 26.47598708 18.68278899 34.60780130
928 1 1 -0.00163770786537 27.94687525 0.84921768 34.60780130
929 1 1 -0.00169444594144 29.41776342 3.39687073 34.60780130
930 1 1 -0.001825861347 30.88865159 5.94452377 34.60780130
931 1 1 -0.00211555394729 29.41776342 8.49217681 34.60780130
932 1 1 -0.002492936128 30.88865159 11.03982986 34.60780130
933 1 1 -0.00329302168873 29.41776342 13.58748290 34.60780130
934 1 1 -0.00435016055418 30.88865159 16.13513595 34.60780130
935 1 1 -0.00674134454707 29.41776342 18.68278899 34.60780130
936 1 1 -0.00161674563743 30.88865159 0.84921768 34.60780130
937 1 1 -0.00165797194866 32.35953976 3.39687073 34.60780130
938 1 1 -0.00176115238138 33.83042793 5.94452377 34.60780130
939 1 1 -0.00203539311957 32.35953976 8.49217681 34.60780130
940 1 1 -0.00232587095788 33.83042793 11.03982986 34.60780130
941 1 1 -0.003032744842 32.35953976 13.58748290 34.60780130
942 1 1 -0.00374934221977 33.83042793 16.13513595 34.60780130
943 1 1 -0.00573346761067 32.35953976 18.68278899 34.60780130
944 1 1 -0.00157831320266 33.83042793 0.84921768 34.60780130
945 1 1 -0.00160431508181 17.65065805 3.39687073 34.60780130
946 1 1 -0.00176115237569 19.12154622 5.94452377 34.60780130
947 1 1 -0.00192132295031 17.65065805 8.49217681 34.60780130
948 1 1 -0.00232587095569 19.12154622 11.03982986 34.60780130
949 1 1 -0.00269677563344 17.65065805 13.58748290 34.60780130
950 1 1 -0.00374934222288 19.12154622 16.13513595 34.60780130
951 1 1 -0.00454729251717 17.65065805 18.68278899 34.60780130
952 1 1 -0.00157831319511 19.12154622 0.84921768 34.60780130
953 1 1 -0.00165797194212 20.59243439 3.39687073 34.60780130
954 1 1 -0.00182586134254 22.06332256 5.94452377 34.60780130
955 1 1 -0.00203539311576 20.59243439 8.49217681 34.60780130
956 1 1 -0.00249293612668 22.06332256 11.03982986 34.60780130
957 1 1 -0.00303274484256 20.59243439 13.58748290 34.60780130
958 1 1 -0.00435016055774 22.06332256 16.13513595 34.60780130
959 1 1 -0.0057334676181 20.59243439 18.68278899 34.60780130
960 1 1 -0.00161674563131 22.06332256 0.84921768 34.60780130
961 1 1 0.0054649051489 17.65065805 20.38122435 25.00000000
962 1 1 0.0088708323182 19.12154622 22.92887739 25.00000000
963 1 1 0.00959796422547 17.65065805 25.47653044 25.00000000
964 1 1 0.016461020372 19.12154622 28.02418348 25.00000000
965 1 1 0.0128295734734 17.65065805 30.57183653 25.00000000
966 1 1 0.0164641249517 19.12154622 33.11948957 25.00000000
967 1 1 0.00959781044046 17.65065805 35.66714262 25.00000000
968 1 1 0.00887113849074 19.12154622 38.21479566 25.00000000
969 1 1 0.00722012479181 20.59243439 20.38122435 25.00000000
970 1 1 0.0128123018794 22.06332256 22.92887739 25.00000000
971 1 1 0.0164550530069 20.59243439 25.47653044 25.00000000
972 1 1 0.0337664116846 22.06332256 28.02418348 25.00000000
973 1 1 0.0273236296031 20.59243439 30.57183653 25.00000000
974 1 1 0.0337717353953 22.06332256 33.11948957 25.00000000
975 1 1 0.0164582096692 20.59243439 35.66714262 25.00000000
976 1 1 0.0128123242707 22.06332256 38.21479566 25.00000000
977 1 1 0.00886138380333 23.53421073 20.38122435 25.00000000
978 1 1 0.0164505701495 25.00509890 22.92887739 25.00000000
979 1 1 0.0273163566491 23.53421073 25.47653044 25.00000000
980 1 1 0.0555595665271 25.00509890 28.02418348 25.00000000
981 1 1 0.0555613109511 23.53421073 30.57183653 25.00000000
982 1 1 0.0555595022134 25.00509890 33.11948957 25.00000000
983 1 1 0.0273163849266 23.53421073 35.66714262 25.00000000
984 1 1 0.0164474610391 25.00509890 38.21479566 25.00000000
985 1 1 0.00957891554583 26.47598708 20.38122435 25.00000000
986 1 1 0.0164505701388 27.94687525 22.92887739 25.00000000
987 1 1 0.0337667181942 26.47598708 25.47653044 25.00000000
988 1 1 0.0555595664645 27.94687525 28.02418348 25.00000000
989 1 1 0.0741589153712 26.47598708 30.57183653 25.00000000
990 1 1 0.0555595021506 27.94687525 33.11948957 25.00000000
991 1 1 0.0337613748461 26.47598708 35.66714262 25.00000000
992 1 1 0.0164474610279 27.94687525 38.21479566 25.00000000
993 1 1 0.00886138379795 29.41776342 20.38122435 25.00000000
994 1 1 0.0128123018644 30.88865159 22.92887739 25.00000000
995 1 1 0.0273163566042 29.41776342 25.47653044 25.00000000
996 1 1 0.0337664115982 30.88865159 28.02418348 25.00000000
997 1 1 0.0555613108299 29.41776342 30.57183653 25.00000000
998 1 1 0.0337717353083 30.88865159 33.11948957 25.00000000
999 1 1 0.0273163848809 29.41776342 35.66714262 25.00000000
1000 1 1 0.0128123242545 30.88865159 38.21479566 25.00000000
1001 1 1 0.00722012478859 32.35953976 20.38122435 25.00000000
1002 1 1 0.00887083231086 33.83042793 22.92887739 25.00000000
1003 1 1 0.0164550529767 32.35953976 25.47653044 25.00000000
1004 1 1 0.0164610203364 33.83042793 28.02418348 25.00000000
1005 1 1 0.0273236295249 32.35953976 30.57183653 25.00000000
1006 1 1 0.0164641249155 33.83042793 33.11948957 25.00000000
1007 1 1 0.0164582096377 32.35953976 35.66714262 25.00000000
1008 1 1 0.00887113848182 33.83042793 38.21479566 25.00000000
1009 1 1 -0.0051094083198 19.12154622 21.23044203 27.40195032
1010 1 1 -0.00989690023133 20.59243439 23.77809508 27.40195032
1011 1 1 -0.0110860839445 19.12154622 26.32574812 27.40195032
1012 1 1 -0.0180487251206 20.59243439 28.87340116 27.40195032
1013 1 1 -0.0140943411478 19.12154622 31.42105421 27.40195032
1014 1 1 -0.0159302535543 20.59243439 33.96870725 27.40195032
1015 1 1 -0.00886131651862 19.12154622 36.51636030 27.40195032
1016 1 1 -0.00723051000741 20.59243439 39.06401334 27.40195032
1017 1 1 -0.00722835625622 22.06332256 21.23044203 27.40195032
1018 1 1 -0.0140858774204 23.53421073 23.77809508 27.40195032
1019 1 1 -0.0180459697031 22.06332256 26.32574812 27.40195032
1020 1 1 -0.0263176314925 23.53421073 28.87340116 27.40195032
1021 1 1 -0.0231986917511 22.06332256 31.42105421 27.40195032
1022 1 1 -0.0231968873429 23.53421073 33.96870725 27.40195032
1023 1 1 -0.014087564181 22.06332256 36.51636030 27.40195032
1024 1 1 -0.00989290014254 23.53421073 39.06401334 27.40195032
1025 1 1 -0.00885314369813 25.00509890 21.23044203 27.40195032
1026 1 1 -0.015924321342 26.47598708 23.77809508 27.40195032
1027 1 1 -0.0231958229324 25.00509890 26.32574812 27.40195032
1028 1 1 -0.0299535813065 26.47598708 28.87340116 27.40195032
1029 1 1 -0.0299539972414 25.00509890 31.42105421 27.40195032
1030 1 1 -0.0263163961761 26.47598708 33.96870725 27.40195032
1031 1 1 -0.0180430138583 25.00509890 36.51636030 27.40195032
1032 1 1 -0.0110769357976 26.47598708 39.06401334 27.40195032
1033 1 1 -0.00885314369341 27.94687525 21.23044203 27.40195032
1034 1 1 -0.014085877406 29.41776342 23.77809508 27.40195032
1035 1 1 -0.0231958229229 27.94687525 26.32574812 27.40195032
1036 1 1 -0.0263176314717 29.41776342 28.87340116 27.40195032
1037 1 1 -0.0299539972309 27.94687525 31.42105421 27.40195032
1038 1 1 -0.023196887324 29.41776342 33.96870725 27.40195032
1039 1 1 -0.0180430138505 27.94687525 36.51636030 27.40195032
1040 1 1 -0.00989290013338 29.41776342 39.06401334 27.40195032
1041 1 1 -0.00722835624448 30.88865159 21.23044203 27.40195032
1042 1 1 -0.0098969002086 32.35953976 23.77809508 27.40195032
1043 1 1 -0.0180459696762 30.88865159 26.32574812 27.40195032
1044 1 1 -0.0180487250832 32.35953976 28.87340116 27.40195032
1045 1 1 -0.0231986917206 30.88865159 31.42105421 27.40195032
1046 1 1 -0.0159302535209 32.35953976 33.96870725 27.40195032
1047 1 1 -0.0140875641597 30.88865159 36.51636030 27.40195032
1048 1 1 -0.00723050999345 32.35953976 39.06401334 27.40195032
1049 1 1 -0.00510940830629 33.83042793 21.23044203 27.40195032
1050 1 1 -0.00600129171738 17.65065805 23.77809508 27.40195032
1051 1 1 -0.0110860839123 33.83042793 26.32574812 27.40195032
1052 1 1 -0.00990599456102 17.65065805 28.87340116 27.40195032
1053 1 1 -0.0140943411086 33.83042793 31.42105421 27.40195032
1054 1 1 -0.00886663686747 17.65065805 33.96870725 27.40195032
1055 1 1 -0.0088613164946 33.83042793 36.51636030 27.40195032
1056 1 1 -0.00474286230063 17.65065805 39.06401334 27.40195032
1057 1 1 -0.000248206006986 20.59243439 22.07965971 29.80390065
1058 1 1 -0.00040736885923 22.06332256 24.62731276 29.80390065
1059 1 1 -0.00043773984472 20.59243439 27.17496580 29.80390065
1060 1 1 -0.000445374381967 22.06332256 29.72261885 29.80390065
1061 1 1 -0.000471818465648 20.59243439 32.27027189 29.80390065
1062 1 1 -0.000471769619718 22.06332256 34.81792493 29.80390065
1063 1 1 -0.000321649075069 20.59243439 37.36557798 29.80390065
1064 1 1 -0.000248150544089 22.06332256 39.91323102 29.80390065
1065 1 1 -0.00032150756108 23.53421073 22.07965971 29.80390065
1066 1 1 -0.000471666664232 25.00509890 24.62731276 29.80390065
1067 1 1 -0.000445427937135 23.53421073 27.17496580 29.80390065
1068 1 1 0.00011441775818 25.00509890 29.72261885 29.80390065
1069 1 1 -0.000306429939158 23.53421073 32.27027189 29.80390065
1070 1 1 -0.000445427880438 25.00509890 34.81792493 29.80390065
1071 1 1 -0.000407231726671 23.53421073 37.36557798 29.80390065
1072 1 1 -0.000296633974033 25.00509890 39.91323102 29.80390065
1073 1 1 -0.000348054343926 26.47598708 22.07965971 29.80390065
1074 1 1 -0.000471666661648 27.94687525 24.62731276 29.80390065
1075 1 1 -0.000306399085285 26.47598708 27.17496580 29.80390065
1076 1 1 0.000114417758461 27.94687525 29.72261885 29.80390065
1077 1 1 0.000114308535388 26.47598708 32.27027189 29.80390065
1078 1 1 -0.000445427878549 27.94687525 34.81792493 29.80390065
1079 1 1 -0.000437471145647 26.47598708 37.36557798 29.80390065
1080 1 1 -0.000296633973012 27.94687525 39.91323102 29.80390065
1081 1 1 -0.000321507557473 29.41776342 22.07965971 29.80390065
1082 1 1 -0.000407368852292 30.88865159 24.62731276 29.80390065
1083 1 1 -0.000445427932423 29.41776342 27.17496580 29.80390065
1084 1 1 -0.000445374375715 30.88865159 29.72261885 29.80390065
1085 1 1 -0.000306429936189 29.41776342 32.27027189 29.80390065
1086 1 1 -0.00047176961377 30.88865159 34.81792493 29.80390065
1087 1 1 -0.000407231722818 29.41776342 37.36557798 29.80390065
1088 1 1 -0.000248150541467 30.88865159 39.91323102 29.80390065
1089 1 1 -0.000248206000371 32.35953976 22.07965971 29.80390065
1090 1 1 -0.000296939392909 33.83042793 24.62731276 29.80390065
1091 1 1 -0.000437739835838 32.35953976 27.17496580 29.80390065
1092 1 1 -0.000407508953405 33.83042793 29.72261885 29.80390065
1093 1 1 -0.00047181845803 32.35953976 32.27027189 29.80390065
1094 1 1 -0.000348432769856 33.83042793 34.81792493 29.80390065
1095 1 1 -0.000321649070087 32.35953976 37.36557798 29.80390065
1096 1 1 -0.000184410514723 33.83042793 39.91323102 29.80390065
1097 1 1 -0.000173123014765 17.65065805 22.07965971 29.80390065
1098 1 1 -0.000296939399876 19.12154622 24.62731276 29.80390065
1099 1 1 -0.000297101637392 17.65065805 27.17496580 29.80390065
1100 1 1 -0.000407508961871 19.12154622 29.72261885 29.80390065
1101 1 1 -0.000321982030017 17.65065805 32.27027189 29.80390065
1102 1 1 -0.000348432777492 19.12154622 34.81792493 29.80390065
1103 1 1 -0.000210082258352 17.65065805 37.36557798 29.80390065
1104 1 1 -0.000184410518305 19.12154622 39.91323102 29.80390065
1105 1 1 0.0108857244569 22.06332256 22.92887739 32.20585097
1106 1 1 0.0198673260057 23.53421073 25.47653044 32.20585097
1107 1 1 0.0224545287504 22.06332256 28.02418348 32.20585097
1108 1 1 0.0282632218306 23.53421073 30.57183653 32.20585097
1109 1 1 0.0224504333974 22.06332256 33.11948957 32.20585097
1110 1 1 0.0198674020991 23.53421073 35.66714262 32.20585097
1111 1 1 0.0108857620313 22.06332256 38.21479566 32.20585097
1112 1 1 0.0071722409157 23.53421073 20.38122435 32.20585097
1113 1 1 0.0137399360429 25.00509890 22.92887739 32.20585097
1114 1 1 0.0224469328633 26.47598708 25.47653044 32.20585097
1115 1 1 0.0282618720413 25.00509890 28.02418348 32.20585097
1116 1 1 0.0311485110264 26.47598708 30.57183653 32.20585097
1117 1 1 0.0282617255975 25.00509890 33.11948957 32.20585097
1118 1 1 0.0224510163214 26.47598708 35.66714262 32.20585097
1119 1 1 0.0137444141929 25.00509890 38.21479566 32.20585097
1120 1 1 0.00788758624697 26.47598708 20.38122435 32.20585097
1121 1 1 0.0137399360407 27.94687525 22.92887739 32.20585097
1122 1 1 0.0198673259982 29.41776342 25.47653044 32.20585097
1123 1 1 0.0282618720399 27.94687525 28.02418348 32.20585097
1124 1 1 0.028263221824 29.41776342 30.57183653 32.20585097
1125 1 1 0.0282617255953 27.94687525 33.11948957 32.20585097
1126 1 1 0.0198674020907 29.41776342 35.66714262 32.20585097
1127 1 1 0.0137444141902 27.94687525 38.21479566 32.20585097
1128 1 1 0.00717224091469 29.41776342 20.38122435 32.20585097
1129 1 1 0.0108857244499 30.88865159 22.92887739 32.20585097
1130 1 1 0.0137498017053 32.35953976 25.47653044 32.20585097
1131 1 1 0.0224545287349 30.88865159 28.02418348 32.20585097
1132 1 1 0.0198725604783 32.35953976 30.57183653 32.20585097
1133 1 1 0.0224504333807 30.88865159 33.11948957 32.20585097
1134 1 1 0.0137454149405 32.35953976 35.66714262 32.20585097
1135 1 1 0.0108857620232 30.88865159 38.21479566 32.20585097
1136 1 1 0.00555687017231 32.35953976 20.38122435 32.20585097
1137 1 1 0.00718209311427 33.83042793 22.92887739 32.20585097
1138 1 1 0.00790189985745 17.65065805 25.47653044 32.20585097
1139 1 1 0.0137540793339 33.83042793 28.02418348 32.20585097
1140 1 1 0.0108981046884 17.65065805 30.57183653 32.20585097
1141 1 1 0.013749592629 33.83042793 33.11948957 32.20585097
1142 1 1 0.0079010669501 17.65065805 35.66714262 32.20585097
1143 1 1 0.00717919588493 33.83042793 38.21479566 32.20585097
1144 1 1 0.00399192430536 17.65065805 20.38122435 32.20585097
1145 1 1 0.00718209312202 19.12154622 22.92887739 32.20585097
1146 1 1 0.013749801721 20.59243439 25.47653044 32.20585097
1147 1 1 0.0137540793572 19.12154622 28.02418348 32.20585097
1148 1 1 0.0198725605027 20.59243439 30.57183653 32.20585097
1149 1 1 0.0137495926534 19.12154622 33.11948957 32.20585097
1150 1 1 0.0137454149576 20.59243439 35.66714262 32.20585097
1151 1 1 0.00717919589468 19.12154622 38.21479566 32.20585097
1152 1 1 0.00555687017422 20.59243439 20.38122435 32.20585097
1153 1 1 -0.0185746071644 23.53421073 23.77809508 34.60780130
1154 1 1 -0.0402471040434 25.00509890 26.32574812 34.60780130
1155 1 1 -0.0515561033415 23.53421073 28.87340116 34.60780130
1156 1 1 -0.0674888481501 25.00509890 31.42105421 34.60780130
1157 1 1 -0.0402488133346 23.53421073 33.96870725 34.60780130
1158 1 1 -0.0262510566998 25.00509890 36.51636030 34.60780130
1159 1 1 -0.0125890722578 23.53421073 39.06401334 34.60780130
1160 1 1 -0.011342999678 25.00509890 21.23044203 34.60780130
1161 1 1 -0.0218536306605 26.47598708 23.77809508 34.60780130
1162 1 1 -0.0402471039998 27.94687525 26.32574812 34.60780130
1163 1 1 -0.0674882577441 26.47598708 28.87340116 34.60780130
1164 1 1 -0.0674888480712 27.94687525 31.42105421 34.60780130
1165 1 1 -0.0515540729901 26.47598708 33.96870725 34.60780130
1166 1 1 -0.0262510566746 27.94687525 36.51636030 34.60780130
1167 1 1 -0.0141085004305 26.47598708 39.06401334 34.60780130
1168 1 1 -0.0113429996703 27.94687525 21.23044203 34.60780130
1169 1 1 -0.0185746071342 29.41776342 23.77809508 34.60780130
1170 1 1 -0.0262553914207 30.88865159 26.32574812 34.60780130
1171 1 1 -0.0515561032287 29.41776342 28.87340116 34.60780130
1172 1 1 -0.0402516361964 30.88865159 31.42105421 34.60780130
1173 1 1 -0.0402488132516 29.41776342 33.96870725 34.60780130
1174 1 1 -0.0185770873747 30.88865159 36.51636030 34.60780130
1175 1 1 -0.0125890722418 29.41776342 39.06401334 34.60780130
1176 1 1 -0.00951009349384 30.88865159 21.23044203 34.60780130
1177 1 1 -0.0125950812852 32.35953976 23.77809508 34.60780130
1178 1 1 -0.0141221612093 33.83042793 26.32574812 34.60780130
1179 1 1 -0.0262596724221 32.35953976 28.87340116 34.60780130
1180 1 1 -0.0185872626311 33.83042793 31.42105421 34.60780130
1181 1 1 -0.0218624315877 32.35953976 33.96870725 34.60780130
1182 1 1 -0.0113552486264 33.83042793 36.51636030 34.60780130
1183 1 1 -0.00951333096905 32.35953976 39.06401334 34.60780130
1184 1 1 -0.00717948317504 33.83042793 21.23044203 34.60780130
1185 1 1 -0.00817382961438 17.65065805 23.77809508 34.60780130
1186 1 1 -0.0141221612464 19.12154622 26.32574812 34.60780130
1187 1 1 -0.0126086834266 17.65065805 28.87340116 34.60780130
1188 1 1 -0.0185872626883 19.12154622 31.42105421 34.60780130
1189 1 1 -0.0113631946103 17.65065805 33.96870725 34.60780130
1190 1 1 -0.0113552486508 19.12154622 36.51636030 34.60780130
1191 1 1 -0.00675563616144 17.65065805 39.06401334 34.60780130
1192 1 1 -0.00717948318703 19.12154622 21.23044203 34.60780130
1193 1 1 -0.0125950813122 20.59243439 23.77809508 34.60780130
1194 1 1 -0.0262553914893 22.06332256 26.32574812 34.60780130
1195 1 1 -0.0262596725067 20.59243439 28.87340116 34.60780130
1196 1 1 -0.040251636315 22.06332256 31.42105421 34.60780130
1197 1 1 -0.0218624316515 20.59243439 33.96870725 34.60780130
1198 1 1 -0.0185770874155 22.06332256 36.51636030 34.60780130
1199 1 1 -0.00951333098409 20.59243439 39.06401334 34.60780130
1200 1 1 -0.00951009350801 22.06332256 21.23044203 34.60780130
1201 1 1 0.00546523395873 17.65065805 40.76244870 25.00000000
1202 1 1 0.00454162181235 19.12154622 43.31010174 25.00000000
1203 1 1 0.00310117324801 17.65065805 45.85775479 25.00000000
1204 1 1 0.00262033592103 19.12154622 48.40540783 25.00000000
1205 1 1 0.00208267810307 17.65065805 50.95306088 25.00000000
1206 1 1 0.00187022706018 19.12154622 53.50071392 25.00000000
1207 1 1 0.00165151830837 17.65065805 56.04836697 25.00000000
1208 1 1 0.00158533432386 19.12154622 58.59602001 25.00000000
1209 1 1 0.00722010793236 20.59243439 40.76244870 25.00000000
1210 1 1 0.00545421640428 22.06332256 43.31010174 25.00000000
1211 1 1 0.00360771690273 20.59243439 45.85775479 25.00000000
1212 1 1 0.00286621515144 22.06332256 48.40540783 25.00000000
1213 1 1 0.00223724214489 20.59243439 50.95306088 25.00000000
1214 1 1 0.00195453486664 22.06332256 53.50071392 25.00000000
1215 1 1 0.00171672252593 20.59243439 56.04836697 25.00000000
1216 1 1 0.00162715180169 22.06332256 58.59602001 25.00000000
1217 1 1 0.00886106861086 23.53421073 40.76244870 25.00000000
1218 1 1 0.00603663635153 25.00509890 43.31010174 25.00000000
1219 1 1 0.00401128299894 23.53421073 45.85775479 25.00000000
1220 1 1 0.00301411567404 25.00509890 48.40540783 25.00000000
1221 1 1 0.00234867941796 23.53421073 50.95306088 25.00000000
1222 1 1 0.0020017490724 25.00509890 53.50071392 25.00000000
1223 1 1 0.00176141682982 23.53421073 56.04836697 25.00000000
1224 1 1 0.0016500516103 25.00509890 58.59602001 25.00000000
1225 1 1 0.00957905296236 26.47598708 40.76244870 25.00000000
1226 1 1 0.0060366363492 27.94687525 43.31010174 25.00000000
1227 1 1 0.00416639659417 26.47598708 45.85775479 25.00000000
1228 1 1 0.00301411567202 27.94687525 48.40540783 25.00000000
1229 1 1 0.0023896202945 26.47598708 50.95306088 25.00000000
1230 1 1 0.00200174906988 27.94687525 53.50071392 25.00000000
1231 1 1 0.00177734596253 26.47598708 56.04836697 25.00000000
1232 1 1 0.00165005160747 27.94687525 58.59602001 25.00000000
1233 1 1 0.0088610686042 29.41776342 40.76244870 25.00000000
1234 1 1 0.0054542164006 30.88865159 43.31010174 25.00000000
1235 1 1 0.00401128299567 29.41776342 45.85775479 25.00000000
1236 1 1 0.00286621514733 30.88865159 48.40540783 25.00000000
1237 1 1 0.00234867941396 29.41776342 50.95306088 25.00000000
1238 1 1 0.00195453486086 30.88865159 53.50071392 25.00000000
1239 1 1 0.00176141682487 29.41776342 56.04836697 25.00000000
1240 1 1 0.00162715179501 30.88865159 58.59602001 25.00000000
1241 1 1 0.00722010792698 32.35953976 40.76244870 25.00000000
1242 1 1 0.00454162180901 33.83042793 43.31010174 25.00000000
1243 1 1 0.0036077168991 32.35953976 45.85775479 25.00000000
1244 1 1 0.00262033591678 33.83042793 48.40540783 25.00000000
1245 1 1 0.00223724213948 32.35953976 50.95306088 25.00000000
1246 1 1 0.00187022705387 33.83042793 53.50071392 25.00000000
1247 1 1 0.00171672251884 32.35953976 56.04836697 25.00000000
1248 1 1 0.00158533431649 33.83042793 58.59602001 25.00000000
1249 1 1 -0.00391669341791 19.12154622 41.61166638 27.40195032
1250 1 1 -0.00305006337176 20.59243439 44.15931943 27.40195032
1251 1 1 -0.00211646409637 19.12154622 46.70697247 27.40195032
1252 1 1 -0.00175269991662 20.59243439 49.25462551 27.40195032
1253 1 1 -0.00138732932872 19.12154622 51.80227856 27.40195032
1254 1 1 -0.00123508925795 20.59243439 54.34993160 27.40195032
1255 1 1 -0.00110145931036 19.12154622 56.89758465 27.40195032
1256 1 1 -0.00106377175347 20.59243439 59.44523769 27.40195032
1257 1 1 -0.00510484262838 22.06332256 41.61166638 27.40195032
1258 1 1 -0.00349476108598 23.53421073 44.15931943 27.40195032
1259 1 1 -0.00236763026353 22.06332256 46.70697247 27.40195032
1260 1 1 -0.00186941455111 23.53421073 49.25462551 27.40195032
1261 1 1 -0.0014711084424 22.06332256 51.80227856 27.40195032
1262 1 1 -0.00127589062039 23.53421073 54.34993160 27.40195032
1263 1 1 -0.00113573072422 22.06332256 56.89758465 27.40195032
1264 1 1 -0.00108515555131 23.53421073 59.44523769 27.40195032
1265 1 1 -0.00598982070008 25.00509890 41.61166638 27.40195032
1266 1 1 -0.00367714512248 26.47598708 44.15931943 27.40195032
1267 1 1 -0.002518331182 25.00509890 46.70697247 27.40195032
1268 1 1 -0.00191216290231 26.47598708 49.25462551 27.40195032
1269 1 1 -0.00151894805134 25.00509890 51.80227856 27.40195032
1270 1 1 -0.00129060755582 26.47598708 54.34993160 27.40195032
1271 1 1 -0.00115462973108 25.00509890 56.89758465 27.40195032
1272 1 1 -0.00109271199458 26.47598708 59.44523769 27.40195032
1273 1 1 -0.00598982069785 27.94687525 41.61166638 27.40195032
1274 1 1 -0.00349476108508 29.41776342 44.15931943 27.40195032
1275 1 1 -0.00251833118269 27.94687525 46.70697247 27.40195032
1276 1 1 -0.00186941455389 29.41776342 49.25462551 27.40195032
1277 1 1 -0.00151894805351 27.94687525 51.80227856 27.40195032
1278 1 1 -0.00127589062535 29.41776342 54.34993160 27.40195032
1279 1 1 -0.00115462973406 27.94687525 56.89758465 27.40195032
1280 1 1 -0.00108515555708 29.41776342 59.44523769 27.40195032
1281 1 1 -0.00510484262257 30.88865159 41.61166638 27.40195032
1282 1 1 -0.00305006337023 32.35953976 44.15931943 27.40195032
1283 1 1 -0.00236763026502 30.88865159 46.70697247 27.40195032
1284 1 1 -0.00175269992067 32.35953976 49.25462551 27.40195032
1285 1 1 -0.00147110844775 30.88865159 51.80227856 27.40195032
1286 1 1 -0.00123508926546 32.35953976 54.34993160 27.40195032
1287 1 1 -0.00113573073166 30.88865159 56.89758465 27.40195032
1288 1 1 -0.00106377176224 32.35953976 59.44523769 27.40195032
1289 1 1 -0.00391669341135 33.83042793 41.61166638 27.40195032
1290 1 1 -0.00253333447159 17.65065805 44.15931943 27.40195032
1291 1 1 -0.00211646409775 33.83042793 46.70697247 27.40195032
1292 1 1 -0.00159188199267 17.65065805 49.25462551 27.40195032
1293 1 1 -0.00138732933468 33.83042793 51.80227856 27.40195032
1294 1 1 -0.0011767654755 17.65065805 54.34993160 27.40195032
1295 1 1 -0.00110145931878 33.83042793 56.89758465 27.40195032
1296 1 1 -0.0010320530413 17.65065805 59.44523769 27.40195032
1297 1 1 -0.000139105819208 20.59243439 42.46088406 29.80390065
1298 1 1 -9.99475135786e-05 22.06332256 45.00853711 29.80390065
1299 1 1 -6.6958385406e-05 20.59243439 47.55619015 29.80390065
1300 1 1 -5.45655687658e-05 22.06332256 50.10384320 29.80390065
1301 1 1 -4.41789102992e-05 20.59243439 52.65149624 29.80390065
1302 1 1 -3.92800827848e-05 22.06332256 55.19914928 29.80390065
1303 1 1 -3.54333294163e-05 20.59243439 57.74680233 29.80390065
1304 1 1 -3.4510795289e-05 22.06332256 60.29445537 29.80390065
1305 1 1 -0.000172853492137 23.53421073 42.46088406 29.80390065
1306 1 1 -0.000113053160929 25.00509890 45.00853711 29.80390065
1307 1 1 -7.28886706011e-05 23.53421073 47.55619015 29.80390065
1308 1 1 -5.64528944193e-05 25.00509890 50.10384320 29.80390065
1309 1 1 -4.59645437558e-05 23.53421073 52.65149624 29.80390065
1310 1 1 -4.01071124129e-05 25.00509890 55.19914928 29.80390065
1311 1 1 -3.62526753965e-05 23.53421073 57.74680233 29.80390065
1312 1 1 -3.49770830442e-05 25.00509890 60.29445537 29.80390065
1313 1 1 -0.000191528523304 26.47598708 42.46088406 29.80390065
1314 1 1 -0.000113053161395 27.94687525 45.00853711 29.80390065
1315 1 1 -7.53742904622e-05 26.47598708 47.55619015 29.80390065
1316 1 1 -5.64528964042e-05 27.94687525 50.10384320 29.80390065
1317 1 1 -4.65683938115e-05 26.47598708 52.65149624 29.80390065
1318 1 1 -4.01071154471e-05 27.94687525 55.19914928 29.80390065
1319 1 1 -3.65459088899e-05 26.47598708 57.74680233 29.80390065
1320 1 1 -3.49770863741e-05 27.94687525 60.29445537 29.80390065
1321 1 1 -0.000172853491122 29.41776342 42.46088406 29.80390065
1322 1 1 -9.9947514873e-05 30.88865159 45.00853711 29.80390065
1323 1 1 -7.28886728893e-05 29.41776342 47.55619015 29.80390065
1324 1 1 -5.45655738615e-05 30.88865159 50.10384320 29.80390065
1325 1 1 -4.59645486046e-05 29.41776342 52.65149624 29.80390065
1326 1 1 -3.92800905215e-05 30.88865159 55.19914928 29.80390065
1327 1 1 -3.62526815748e-05 29.41776342 57.74680233 29.80390065
1328 1 1 -3.45108037706e-05 30.88865159 60.29445537 29.80390065
1329 1 1 -0.000139105818234 32.35953976 42.46088406 29.80390065
1330 1 1 -8.43809794627e-05 33.83042793 45.00853711 29.80390065
1331 1 1 -6.69583891015e-05 32.35953976 47.55619015 29.80390065
1332 1 1 -5.09253505931e-05 33.83042793 50.10384320 29.80390065
1333 1 1 -4.41789178746e-05 32.35953976 52.65149624 29.80390065
1334 1 1 -3.77925801562e-05 33.83042793 55.19914928 29.80390065
1335 1 1 -3.54333390108e-05 32.35953976 57.74680233 29.80390065
1336 1 1 -3.36573412793e-05 33.83042793 60.29445537 29.80390065
1337 1 1 -0.000106205913285 17.65065805 42.46088406 29.80390065
1338 1 1 -8.43809780389e-05 19.12154622 45.00853711 29.80390065
1339 1 1 -5.93743877312e-05 17.65065805 47.55619015 29.80390065
1340 1 1 -5.09253446687e-05 19.12154622 50.10384320 29.80390065
1341 1 1 -4.15167120792e-05 17.65065805 52.65149624 29.80390065
1342 1 1 -3.77925711694e-05 19.12154622 55.19914928 29.80390065
1343 1 1 -3.42402288006e-05 17.65065805 57.74680233 29.80390065
1344 1 1 -3.36573314234e-05 19.12154622 60.29445537 29.80390065
1345 1 1 0.00398427521096 22.06332256 43.31010174 32.20585097
1346 1 1 0.00289428780641 23.53421073 45.85775479 32.20585097
1347 1 1 0.00208697084419 22.06332256 48.40540783 32.20585097
1348 1 1 0.00169495666974 23.53421073 50.95306088 32.20585097
1349 1 1 0.00139131220635 22.06332256 53.50071392 32.20585097
1350 1 1 0.00124818138999 23.53421073 56.04836697 32.20585097
1351 1 1 0.00115103828183 22.06332256 58.59602001 32.20585097
1352 1 1 0.00717511866802 23.53421073 40.76244870 32.20585097
1353 1 1 0.00447267938717 25.00509890 43.31010174 32.20585097
1354 1 1 0.00300128645698 26.47598708 45.85775479 32.20585097
1355 1 1 0.00219286781131 25.00509890 48.40540783 32.20585097
1356 1 1 0.00172638156701 26.47598708 50.95306088 32.20585097
1357 1 1 0.00142685415041 25.00509890 53.50071392 32.20585097
1358 1 1 0.0012597469549 26.47598708 56.04836697 32.20585097
1359 1 1 0.0011676357353 25.00509890 58.59602001 32.20585097
1360 1 1 0.00788838697918 26.47598708 40.76244870 32.20585097
1361 1 1 0.00447267938653 27.94687525 43.31010174 32.20585097
1362 1 1 0.00289428780447 29.41776342 45.85775479 32.20585097
1363 1 1 0.00219286780985 27.94687525 48.40540783 32.20585097
1364 1 1 0.00169495666568 29.41776342 50.95306088 32.20585097
1365 1 1 0.00142685414784 27.94687525 53.50071392 32.20585097
1366 1 1 0.00124818138439 29.41776342 56.04836697 32.20585097
1367 1 1 0.00116763573221 27.94687525 58.59602001 32.20585097
1368 1 1 0.0071751186653 29.41776342 40.76244870 32.20585097
1369 1 1 0.0039842752089 30.88865159 43.31010174 32.20585097
1370 1 1 0.00261560242394 32.35953976 45.85775479 32.20585097
1371 1 1 0.00208697084004 30.88865159 48.40540783 32.20585097
1372 1 1 0.00160900172913 32.35953976 50.95306088 32.20585097
1373 1 1 0.0013913121995 30.88865159 53.50071392 32.20585097
1374 1 1 0.00121580821046 32.35953976 56.04836697 32.20585097
1375 1 1 0.00115103827371 30.88865159 58.59602001 32.20585097
1376 1 1 0.00555684136325 32.35953976 40.76244870 32.20585097
1377 1 1 0.00327935708192 33.83042793 43.31010174 32.20585097
1378 1 1 0.00225920917326 17.65065805 45.85775479 32.20585097
1379 1 1 0.00190480100825 33.83042793 48.40540783 32.20585097
1380 1 1 0.00148974936776 17.65065805 50.95306088 32.20585097
1381 1 1 0.00132846896399 33.83042793 53.50071392 32.20585097
1382 1 1 0.00116869021303 17.65065805 56.04836697 32.20585097
1383 1 1 0.0011206898698 33.83042793 58.59602001 32.20585097
1384 1 1 0.00398957028693 17.65065805 40.76244870 32.20585097
1385 1 1 0.00327935708539 19.12154622 43.31010174 32.20585097
1386 1 1 0.00261560242753 20.59243439 45.85775479 32.20585097
1387 1 1 0.0019048010138 19.12154622 48.40540783 32.20585097
1388 1 1 0.00160900173583 20.59243439 50.95306088 32.20585097
1389 1 1 0.00132846897235 19.12154622 53.50071392 32.20585097
1390 1 1 0.00121580821945 20.59243439 56.04836697 32.20585097
1391 1 1 0.00112068987952 19.12154622 58.59602001 32.20585097
1392 1 1 0.00555684136787 20.59243439 40.76244870 32.20585097
1393 1 1 -0.00518001973402 23.53421073 44.15931943 34.60780130
1394 1 1 -0.00373941097782 25.00509890 46.70697247 34.60780130
1395 1 1 -0.00275649111194 23.53421073 49.25462551 34.60780130
1396 1 1 -0.0022639228176 25.00509890 51.80227856 34.60780130
1397 1 1 -0.00192268134994 23.53421073 54.34993160 34.60780130
1398 1 1 -0.00174551589269 25.00509890 56.89758465 34.60780130
1399 1 1 -0.00164238264228 23.53421073 59.44523769 34.60780130
1400 1 1 -0.00815662637175 25.00509890 41.61166638 34.60780130
1401 1 1 -0.00542773703492 26.47598708 44.15931943 34.60780130
1402 1 1 -0.00373941097753 27.94687525 46.70697247 34.60780130
1403 1 1 -0.00281945036436 26.47598708 49.25462551 34.60780130
1404 1 1 -0.00226392281899 27.94687525 51.80227856 34.60780130
1405 1 1 -0.00194391644844 26.47598708 54.34993160 34.60780130
1406 1 1 -0.00174551589488 27.94687525 56.89758465 34.60780130
1407 1 1 -0.00165352433634 26.47598708 59.44523769 34.60780130
1408 1 1 -0.00815662636781 27.94687525 41.61166638 34.60780130
1409 1 1 -0.00518001973123 29.41776342 44.15931943 34.60780130
1410 1 1 -0.0035027983764 30.88865159 46.70697247 34.60780130
1411 1 1 -0.00275649111341 29.41776342 49.25462551 34.60780130
1412 1 1 -0.00219708345058 30.88865159 51.80227856 34.60780130
1413 1 1 -0.00192268135363 29.41776342 54.34993160 34.60780130
1414 1 1 -0.00171750114544 30.88865159 56.89758465 34.60780130
1415 1 1 -0.00164238264675 29.41776342 59.44523769 34.60780130
1416 1 1 -0.00717261963397 30.88865159 41.61166638 34.60780130
1417 1 1 -0.00454032216255 32.35953976 44.15931943 34.60780130
1418 1 1 -0.003116270216 33.83042793 46.70697247 34.60780130
1419 1 1 -0.00258818078669 32.35953976 49.25462551 34.60780130
1420 1 1 -0.00207986504534 33.83042793 51.80227856 34.60780130
1421 1 1 -0.00186347311123 32.35953976 54.34993160 34.60780130
1422 1 1 -0.00166665040405 33.83042793 56.89758465 34.60780130
1423 1 1 -0.00161087403287 32.35953976 59.44523769 34.60780130
1424 1 1 -0.00573699223894 33.83042793 41.61166638 34.60780130
1425 1 1 -0.00375259887129 17.65065805 44.15931943 34.60780130
1426 1 1 -0.00311627021488 19.12154622 46.70697247 34.60780130
1427 1 1 -0.0023629747626 17.65065805 49.25462551 34.60780130
1428 1 1 -0.00207986503999 19.12154622 51.80227856 34.60780130
1429 1 1 -0.0017779979081 17.65065805 54.34993160 34.60780130
1430 1 1 -0.0016666503966 19.12154622 56.89758465 34.60780130
1431 1 1 -0.00156418889618 17.65065805 59.44523769 34.60780130
1432 1 1 -0.00573699224525 19.12154622 41.61166638 34.60780130
1433 1 1 -0.00454032216489 20.59243439 44.15931943 34.60780130
1434 1 1 -0.00350279837618 22.06332256 46.70697247 34.60780130
1435 1 1 -0.00258818078344 20.59243439 49.25462551 34.60780130
1436 1 1 -0.00219708344647 22.06332256 51.80227856 34.60780130
1437 1 1 -0.00186347310487 20.59243439 54.34993160 34.60780130
1438 1 1 -0.00171750113942 22.06332256 56.89758465 34.60780130
1439 1 1 -0.00161087402541 20.59243439 59.44523769 34.60780130
1440 1 1 -0.00717261964128 22.06332256 41.61166638 34.60780130
1441 1 1 0.00153021072532 35.30131610 0.00000000 25.00000000
1442 1 1 0.00153140972683 36.77220427 2.54765304 25.00000000
1443 1 1 0.00165150444907 35.30131610 5.09530609 25.00000000
1444 1 1 0.00176500955889 36.77220427 7.64295913 25.00000000
1445 1 1 0.00208265010357 35.30131610 10.19061218 25.00000000
1446 1 1 0.0023432723573 36.77220427 12.73826522 25.00000000
1447 1 1 0.00310116850608 35.30131610 15.28591827 25.00000000
1448 1 1 0.00361765751692 36.77220427 17.83357131 25.00000000
1449 1 1 0.00147857932186 38.24309244 0.00000000 25.00000000
1450 1 1 0.00147318883009 39.71398061 2.54765304 25.00000000
1451 1 1 0.00157667785664 38.24309244 5.09530609 25.00000000
1452 1 1 0.00165615842584 39.71398061 7.64295913 25.00000000
1453 1 1 0.0019149816649 38.24309244 10.19061218 25.00000000
1454 1 1 0.00208440703045 39.71398061 12.73826522 25.00000000
1455 1 1 0.0026274672557 38.24309244 15.28591827 25.00000000
1456 1 1 0.00288616580042 39.71398061 17.83357131 25.00000000
1457 1 1 0.0014260312912 41.18486878 0.00000000 25.00000000
1458 1 1 0.00141801320886 42.65575695 2.54765304 25.00000000
1459 1 1 0.00150282205791 41.18486878 5.09530609 25.00000000
1460 1 1 0.0015577557738 42.65575695 7.64295913 25.00000000
1461 1 1 0.00175824172883 41.18486878 10.19061218 25.00000000
1462 1 1 0.00186822930361 42.65575695 12.73826522 25.00000000
1463 1 1 0.00224922806189 41.18486878 15.28591827 25.00000000
1464 1 1 0.00237995819227 42.65575695 17.83357131 25.00000000
1465 1 1 0.00137874246182 44.12664513 0.00000000 25.00000000
1466 1 1 0.00137178661826 45.59753330 2.54765304 25.00000000
1467 1 1 0.0014383784193 44.12664513 5.09530609 25.00000000
1468 1 1 0.00147916741885 45.59753330 7.64295913 25.00000000
1469 1 1 0.00162839281829 44.12664513 10.19061218 25.00000000
1470 1 1 0.00170486948118 45.59753330 12.73826522 25.00000000
1471 1 1 0.00196962204162 44.12664513 15.28591827 25.00000000
1472 1 1 0.00204744702395 45.59753330 17.83357131 25.00000000
1473 1 1 0.00134160172781 47.06842147 0.00000000 25.00000000
1474 1 1 0.00133874900916 48.53930964 2.54765304 25.00000000
1475 1 1 0.00138902780753 47.06842147 5.09530609 25.00000000
1476 1 1 0.0014252183591 48.53930964 7.64295913 25.00000000
1477 1 1 0.0015339264754 47.06842147 10.19061218 25.00000000
1478 1 1 0.00159770190921 48.53930964 12.73826522 25.00000000
1479 1 1 0.00177832320418 47.06842147 15.28591827 25.00000000
1480 1 1 0.0018430961953 48.53930964 17.83357131 25.00000000
1481 1 1 0.00131801650309 50.01019781 0.00000000 25.00000000
1482 1 1 0.00132158433013 51.48108598 2.54765304 25.00000000
1483 1 1 0.00135819078094 50.01019781 5.09530609 25.00000000
1484 1 1 0.0013978970463 51.48108598 7.64295913 25.00000000
1485 1 1 0.00147746101328 50.01019781 10.19061218 25.00000000
1486 1 1 0.00154537720024 51.48108598 12.73826522 25.00000000
1487 1 1 0.0016678756094 50.01019781 15.28591827 25.00000000
1488 1 1 0.00174554873514 51.48108598 17.83357131 25.00000000
1489 1 1 -0.00100766650079 36.77220427 0.84921768 27.40195032
1490 1 1 -0.00101715036803 38.24309244 3.39687073 27.40195032
1491 1 1 -0.00111010267867 36.77220427 5.94452377 27.40195032
1492 1 1 -0.0011878787251 38.24309244 8.49217681 27.40195032
1493 1 1 -0.00142265976931 36.77220427 11.03982986 27.40195032
1494 1 1 -0.00159393673477 38.24309244 13.58748290 27.40195032
1495 1 1 -0.00212035934197 36.77220427 16.13513595 27.40195032
1496 1 1 -0.00237955608258 38.24309244 18.68278899 27.40195032
1497 1 1 -0.000970752511901 39.71398061 0.84921768 27.40195032
1498 1 1 -0.000974703670529 41.18486878 3.39687073 27.40195032
1499 1 1 -0.00105219301536 39.71398061 5.94452377 27.40195032
1500 1 1 -0.00110555556099 41.18486878 8.49217681 27.40195032
1501 1 1 -0.00128528521593 39.71398061 11.03982986 27.40195032
1502 1 1 -0.00139000435063 41.18486878 13.58748290 27.40195032
1503 1 1 -0.0017615327576 39.71398061 16.13513595 27.40195032
1504 1 1 -0.00188967262214 41.18486878 18.68278899 27.40195032
1505 1 1 -0.000935582099617 42.65575695 0.84921768 27.40195032
1506 1 1 -0.000937024372653 44.12664513 3.39687073 27.40195032
1507 1 1 -0.000998743712011 42.65575695 5.94452377 27.40195032
1508 1 1 -0.00103645909513 44.12664513 8.49217681 27.40195032
1509 1 1 -0.00116961005983 42.65575695 11.03982986 27.40195032
1510 1 1 -0.00123540716654 44.12664513 13.58748290 27.40195032
1511 1 1 -0.00148426788501 42.65575695 16.13513595 27.40195032
1512 1 1 -0.00154982281532 44.12664513 18.68278899 27.40195032
1513 1 1 -0.000906025885927 45.59753330 0.84921768 27.40195032
1514 1 1 -0.000907821968974 47.06842147 3.39687073 27.40195032
1515 1 1 -0.000955013945104 45.59753330 5.94452377 27.40195032
1516 1 1 -0.000984990026946 47.06842147 8.49217681 27.40195032
1517 1 1 -0.00108204624701 45.59753330 11.03982986 27.40195032
1518 1 1 -0.00113028476744 47.06842147 13.58748290 27.40195032
1519 1 1 -0.00129341803981 45.59753330 16.13513595 27.40195032
1520 1 1 -0.00133631474027 47.06842147 18.68278899 27.40195032
1521 1 1 -0.0008848769105 48.53930964 0.84921768 27.40195032
1522 1 1 -0.000889475192646 50.01019781 3.39687073 27.40195032
1523 1 1 -0.000924403427544 48.53930964 5.94452377 27.40195032
1524 1 1 -0.000953447356703 50.01019781 8.49217681 27.40195032
1525 1 1 -0.00102368090904 48.53930964 11.03982986 27.40195032
1526 1 1 -0.00106940215486 50.01019781 13.58748290 27.40195032
1527 1 1 -0.00117740753046 48.53930964 16.13513595 27.40195032
1528 1 1 -0.0012224419258 50.01019781 18.68278899 27.40195032
1529 1 1 -0.000873885173099 51.48108598 0.84921768 27.40195032
1530 1 1 -0.00105938758999 35.30131610 3.39687073 27.40195032
1531 1 1 -0.000908741976407 51.48108598 5.94452377 27.40195032
1532 1 1 -0.00127538912882 35.30131610 8.49217681 27.40195032
1533 1 1 -0.000994493116027 51.48108598 11.03982986 27.40195032
1534 1 1 -0.0018302451147 35.30131610 13.58748290 27.40195032
1535 1 1 -0.00112272327832 51.48108598 16.13513595 27.40195032
1536 1 1 -0.00305470325683 35.30131610 18.68278899 27.40195032
1537 1 1 -3.21284816251e-05 38.24309244 1.69843536 29.80390065
1538 1 1 -3.26550142361e-05 39.71398061 4.24608841 29.80390065
1539 1 1 -3.59957324891e-05 38.24309244 6.79374145 29.80390065
1540 1 1 -3.85101958462e-05 39.71398061 9.34139450 29.80390065
1541 1 1 -4.63151329762e-05 38.24309244 11.88904754 29.80390065
1542 1 1 -5.10807678531e-05 39.71398061 14.43670058 29.80390065
1543 1 1 -6.72391726472e-05 38.24309244 16.98435363 29.80390065
1544 1 1 -7.3488660358e-05 39.71398061 19.53200667 29.80390065
1545 1 1 -3.08941146598e-05 41.18486878 1.69843536 29.80390065
1546 1 1 -3.12150657255e-05 42.65575695 4.24608841 29.80390065
1547 1 1 -3.38787860433e-05 41.18486878 6.79374145 29.80390065
1548 1 1 -3.55739899785e-05 42.65575695 9.34139450 29.80390065
1549 1 1 -4.14582617382e-05 41.18486878 11.88904754 29.80390065
1550 1 1 -4.43586895904e-05 42.65575695 14.43670058 29.80390065
1551 1 1 -5.50297845497e-05 41.18486878 16.98435363 29.80390065
1552 1 1 -5.74001657733e-05 42.65575695 19.53200667 29.80390065
1553 1 1 -2.97898835469e-05 44.12664513 1.69843536 29.80390065
1554 1 1 -3.00249542595e-05 45.59753330 4.24608841 29.80390065
1555 1 1 -3.2076645788e-05 44.12664513 6.79374145 29.80390065
1556 1 1 -3.32989835675e-05 45.59753330 9.34139450 29.80390065
1557 1 1 -3.75123630642e-05 44.12664513 11.88904754 29.80390065
1558 1 1 -3.94219173766e-05 45.59753330 14.43670058 29.80390065
1559 1 1 -4.6632787557e-05 44.12664513 16.98435363 29.80390065
1560 1 1 -4.80033743833e-05 45.59753330 19.53200667 29.80390065
1561 1 1 -2.892650321e-05 47.06842147 1.69843536 29.80390065
1562 1 1 -2.91807768011e-05 48.53930964 4.24608841 29.80390065
1563 1 1 -3.07228216905e-05 47.06842147 6.79374145 29.80390065
1564 1 1 -3.17750650601e-05 48.53930964 9.34139450 29.80390065
1565 1 1 -3.47409830904e-05 47.06842147 11.88904754 29.80390065
1566 1 1 -3.6285907748e-05 48.53930964 14.43670058 29.80390065
1567 1 1 -4.10446644336e-05 47.06842147 16.98435363 29.80390065
1568 1 1 -4.22700349976e-05 48.53930964 19.53200667 29.80390065
1569 1 1 -2.83805302535e-05 50.01019781 1.69843536 29.80390065
1570 1 1 -2.87441579579e-05 51.48108598 4.24608841 29.80390065
1571 1 1 -2.98835251967e-05 50.01019781 6.79374145 29.80390065
1572 1 1 -3.10104669834e-05 51.48108598 9.34139450 29.80390065
1573 1 1 -3.31335515244e-05 50.01019781 11.88904754 29.80390065
1574 1 1 -3.48014474321e-05 51.48108598 14.43670058 29.80390065
1575 1 1 -3.7864793746e-05 50.01019781 16.98435363 29.80390065
1576 1 1 -3.95180631076e-05 51.48108598 19.53200667 29.80390065
1577 1 1 -3.33500160702e-05 35.30131610 1.69843536 29.80390065
1578 1 1 -3.42019347188e-05 36.77220427 4.24608841 29.80390065
1579 1 1 -3.81712398786e-05 35.30131610 6.79374145 29.80390065
1580 1 1 -4.18057165418e-05 36.77220427 9.34139450 29.80390065
1581 1 1 -5.15825662129e-05 35.30131610 11.88904754 29.80390065
1582 1 1 -5.94330325877e-05 36.77220427 14.43670058 29.80390065
1583 1 1 -8.44580338464e-05 35.30131610 16.98435363 29.80390065
1584 1 1 -0.000100256457879 36.77220427 19.53200667 29.80390065
1585 1 1 0.0010390567498 39.71398061 2.54765304 32.20585097
1586 1 1 0.00106096064919 41.18486878 5.09530609 32.20585097
1587 1 1 0.00117210564651 39.71398061 7.64295913 32.20585097
1588 1 1 0.00124621166172 41.18486878 10.19061218 32.20585097
1589 1 1 0.001490941622 39.71398061 12.73826522 32.20585097
1590 1 1 0.00161753101877 41.18486878 15.28591827 32.20585097
1591 1 1 0.00210122254874 39.71398061 17.83357131 32.20585097
1592 1 1 0.00100449352215 41.18486878 0.00000000 32.20585097
1593 1 1 0.000998858291505 42.65575695 2.54765304 32.20585097
1594 1 1 0.00101393473708 44.12664513 5.09530609 32.20585097
1595 1 1 0.00110091394618 42.65575695 7.64295913 32.20585097
1596 1 1 0.00115195449918 44.12664513 10.19061218 32.20585097
1597 1 1 0.00132693975913 42.65575695 12.73826522 32.20585097
1598 1 1 0.00140204163779 44.12664513 15.28591827 32.20585097
1599 1 1 0.00171733000013 42.65575695 17.83357131 32.20585097
1600 1 1 0.00097020030457 44.12664513 0.00000000 32.20585097
1601 1 1 0.000965250494684 45.59753330 2.54765304 32.20585097
1602 1 1 0.000977849661088 47.06842147 5.09530609 32.20585097
1603 1 1 0.00104371291132 45.59753330 7.64295913 32.20585097
1604 1 1 0.00108342527192 47.06842147 10.19061218 32.20585097
1605 1 1 0.0012071437837 45.59753330 12.73826522 32.20585097
1606 1 1 0.00126019520981 47.06842147 15.28591827 32.20585097
1607 1 1 0.0014595897775 45.59753330 17.83357131 32.20585097
1608 1 1 0.000943364517165 47.06842147 0.00000000 32.20585097
1609 1 1 0.000941318606196 48.53930964 2.54765304 32.20585097
1610 1 1 0.000955355973417 50.01019781 5.09530609 32.20585097
1611 1 1 0.00100413641026 48.53930964 7.64295913 32.20585097
1612 1 1 0.00104197453275 50.01019781 10.19061218 32.20585097
1613 1 1 0.00112950342639 48.53930964 12.73826522 32.20585097
1614 1 1 0.00118029908195 50.01019781 15.28591827 32.20585097
1615 1 1 0.0013070835063 48.53930964 17.83357131 32.20585097
1616 1 1 0.000926362270951 50.01019781 0.00000000 32.20585097
1617 1 1 0.000928924834793 51.48108598 2.54765304 32.20585097
1618 1 1 0.00116866101448 35.30131610 5.09530609 32.20585097
1619 1 1 0.000984020922721 51.48108598 7.64295913 32.20585097
1620 1 1 0.00148979304014 35.30131610 10.19061218 32.20585097
1621 1 1 0.0010912363524 51.48108598 12.73826522 32.20585097
1622 1 1 0.00225920309445 35.30131610 15.28591827 32.20585097
1623 1 1 0.00123688416884 51.48108598 17.83357131 32.20585097
1624 1 1 0.00108041415587 35.30131610 0.00000000 32.20585097
1625 1 1 0.00108146172769 36.77220427 2.54765304 32.20585097
1626 1 1 0.0011145690707 38.24309244 5.09530609 32.20585097
1627 1 1 0.00125113958691 36.77220427 7.64295913 32.20585097
1628 1 1 0.00136227941088 38.24309244 10.19061218 32.20585097
1629 1 1 0.001692035863 36.77220427 12.73826522 32.20585097
1630 1 1 0.00190987607175 38.24309244 15.28591827 32.20585097
1631 1 1 0.0026226943223 36.77220427 17.83357131 32.20585097
1632 1 1 0.00104274287523 38.24309244 0.00000000 32.20585097
1633 1 1 -0.00147951354568 41.18486878 3.39687073 34.60780130
1634 1 1 -0.00151458101518 42.65575695 5.94452377 34.60780130
1635 1 1 -0.00167265786279 41.18486878 8.49217681 34.60780130
1636 1 1 -0.00176746463846 42.65575695 11.03982986 34.60780130
1637 1 1 -0.00208396325455 41.18486878 13.58748290 34.60780130
1638 1 1 -0.00221684208417 42.65575695 16.13513595 34.60780130
1639 1 1 -0.00278682756708 41.18486878 18.68278899 34.60780130
1640 1 1 -0.00142230414322 42.65575695 0.84921768 34.60780130
1641 1 1 -0.00142413535535 44.12664513 3.39687073 34.60780130
1642 1 1 -0.00145041815314 45.59753330 5.94452377 34.60780130
1643 1 1 -0.00157027372391 44.12664513 8.49217681 34.60780130
1644 1 1 -0.00163794361254 45.59753330 11.03982986 34.60780130
1645 1 1 -0.00186410862875 44.12664513 13.58748290 34.60780130
1646 1 1 -0.00194898263473 45.59753330 16.13513595 34.60780130
1647 1 1 -0.00231011750714 44.12664513 18.68278899 34.60780130
1648 1 1 -0.00137856724756 45.59753330 0.84921768 34.60780130
1649 1 1 -0.00138112979635 47.06842147 3.39687073 34.60780130
1650 1 1 -0.0014056134173 48.53930964 5.94452377 34.60780130
1651 1 1 -0.00149457505647 47.06842147 8.49217681 34.60780130
1652 1 1 -0.00155183979437 48.53930964 11.03982986 34.60780130
1653 1 1 -0.00170964902066 47.06842147 13.58748290 34.60780130
1654 1 1 -0.00177957326366 48.53930964 16.13513595 34.60780130
1655 1 1 -0.00201210204974 47.06842147 18.68278899 34.60780130
1656 1 1 -0.00134716973233 48.53930964 0.84921768 34.60780130
1657 1 1 -0.00135400419524 50.01019781 3.39687073 34.60780130
1658 1 1 -0.00138265056966 51.48108598 5.94452377 34.60780130
1659 1 1 -0.00144861341685 50.01019781 8.49217681 34.60780130
1660 1 1 -0.00150935110695 51.48108598 11.03982986 34.60780130
1661 1 1 -0.00161954840022 50.01019781 13.58748290 34.60780130
1662 1 1 -0.00169812649708 51.48108598 16.13513595 34.60780130
1663 1 1 -0.00184598165283 50.01019781 18.68278899 34.60780130
1664 1 1 -0.00133082199913 51.48108598 0.84921768 34.60780130
1665 1 1 -0.00160431508819 35.30131610 3.39687073 34.60780130
1666 1 1 -0.00167938163708 36.77220427 5.94452377 34.60780130
1667 1 1 -0.00192132295429 35.30131610 8.49217681 34.60780130
1668 1 1 -0.00212881976338 36.77220427 11.03982986 34.60780130
1669 1 1 -0.00269677563364 35.30131610 13.58748290 34.60780130
1670 1 1 -0.00312211656917 36.77220427 16.13513595 34.60780130
1671 1 1 -0.00454729251155 35.30131610 18.68278899 34.60780130
1672 1 1 -0.00152842455927 36.77220427 0.84921768 34.60780130
1673 1 1 -0.00154197126688 38.24309244 3.39687073 34.60780130
1674 1 1 -0.00159348932177 39.71398061 5.94452377 34.60780130
1675 1 1 -0.00179417362534 38.24309244 8.49217681 34.60780130
1676 1 1 -0.00193529133261 39.71398061 11.03982986 34.60780130
1677 1 1 -0.00236608412359 38.24309244 13.58748290 34.60780130
1678 1 1 -0.00260144253548 39.71398061 16.13513595 34.60780130
1679 1 1 -0.00352067666406 38.24309244 18.68278899 34.60780130
1680 1 1 -0.00147415403966 39.71398061 0.84921768 34.60780130
1681 1 1 0.00546490514668 35.30131610 20.38122435 25.00000000
1682 1 1 0.00605906010544 36.77220427 22.92887739 25.00000000
1683 1 1 0.00959796421429 35.30131610 25.47653044 25.00000000
1684 1 1 0.00888842589014 36.77220427 28.02418348 25.00000000
1685 1 1 0.0128295734498 35.30131610 30.57183653 25.00000000
1686 1 1 0.00888869953724 36.77220427 33.11948957 25.00000000
1687 1 1 0.00959781042837 35.30131610 35.66714262 25.00000000
1688 1 1 0.00605825386142 36.77220427 38.21479566 25.00000000
1689 1 1 0.00403435610665 38.24309244 20.38122435 25.00000000
1690 1 1 0.00420587739251 39.71398061 22.92887739 25.00000000
1691 1 1 0.00607182829421 38.24309244 25.47653044 25.00000000
1692 1 1 0.00550268626192 39.71398061 28.02418348 25.00000000
1693 1 1 0.00725427823912 38.24309244 30.57183653 25.00000000
1694 1 1 0.00550301533048 39.71398061 33.11948957 25.00000000
1695 1 1 0.00607101734825 38.24309244 35.66714262 25.00000000
1696 1 1 0.00420563188382 39.71398061 38.21479566 25.00000000
1697 1 1 0.00305287684056 41.18486878 20.38122435 25.00000000
1698 1 1 0.00307776751893 42.65575695 22.92887739 25.00000000
1699 1 1 0.0040702068098 41.18486878 25.47653044 25.00000000
1700 1 1 0.00368826634484 42.65575695 28.02418348 25.00000000
1701 1 1 0.00460259353079 41.18486878 30.57183653 25.00000000
1702 1 1 0.00368891977454 42.65575695 33.11948957 25.00000000
1703 1 1 0.0040705890542 41.18486878 35.66714262 25.00000000
1704 1 1 0.00307834341277 42.65575695 38.21479566 25.00000000
1705 1 1 0.00244983287007 44.12664513 20.38122435 25.00000000
1706 1 1 0.00244779288346 45.59753330 22.92887739 25.00000000
1707 1 1 0.00296049196753 44.12664513 25.47653044 25.00000000
1708 1 1 0.00274980378665 45.59753330 28.02418348 25.00000000
1709 1 1 0.00320378828738 44.12664513 30.57183653 25.00000000
1710 1 1 0.00275007164163 45.59753330 33.11948957 25.00000000
1711 1 1 0.0029610976712 44.12664513 35.66714262 25.00000000
1712 1 1 0.00244808969702 45.59753330 38.21479566 25.00000000
1713 1 1 0.00209289858643 47.06842147 20.38122435 25.00000000
1714 1 1 0.00210696292963 48.53930964 22.92887739 25.00000000
1715 1 1 0.00238492703869 47.06842147 25.47653044 25.00000000
1716 1 1 0.00228724817545 48.53930964 28.02418348 25.00000000
1717 1 1 0.0025101784544 47.06842147 30.57183653 25.00000000
1718 1 1 0.00228722198596 48.53930964 33.11948957 25.00000000
1719 1 1 0.00238502600686 47.06842147 35.66714262 25.00000000
1720 1 1 0.00210692043359 48.53930964 38.21479566 25.00000000
1721 1 1 0.00189889660976 50.01019781 20.38122435 25.00000000
1722 1 1 0.00195161770091 51.48108598 22.92887739 25.00000000
1723 1 1 0.002100080589 50.01019781 25.47653044 25.00000000
1724 1 1 0.00208727461022 51.48108598 28.02418348 25.00000000
1725 1 1 0.00218178332241 50.01019781 30.57183653 25.00000000
1726 1 1 0.00208723777607 51.48108598 33.11948957 25.00000000
1727 1 1 0.00210001500687 50.01019781 35.66714262 25.00000000
1728 1 1 0.0019515903557 51.48108598 38.21479566 25.00000000
1729 1 1 -0.0035073346773 36.77220427 21.23044203 27.40195032
1730 1 1 -0.00369893015595 38.24309244 23.77809508 27.40195032
1731 1 1 -0.00600811864124 36.77220427 26.32574812 27.40195032
1732 1 1 -0.00512950207877 38.24309244 28.87340116 27.40195032
1733 1 1 -0.0072460273018 36.77220427 31.42105421 27.40195032
1734 1 1 -0.00475821954568 38.24309244 33.96870725 27.40195032
1735 1 1 -0.00509934954305 36.77220427 36.51636030 27.40195032
1736 1 1 -0.00319070564174 38.24309244 39.06401334 27.40195032
1737 1 1 -0.00254110305335 39.71398061 21.23044203 27.40195032
1738 1 1 -0.00255477303011 41.18486878 23.77809508 27.40195032
1739 1 1 -0.00352677110243 39.71398061 26.32574812 27.40195032
1740 1 1 -0.00309270532923 41.18486878 28.87340116 27.40195032
1741 1 1 -0.00394652345644 39.71398061 31.42105421 27.40195032
1742 1 1 -0.00296472990389 41.18486878 33.96870725 27.40195032
1743 1 1 -0.00320165427598 39.71398061 36.51636030 27.40195032
1744 1 1 -0.00232620411984 41.18486878 39.06401334 27.40195032
1745 1 1 -0.0019487391928 42.65575695 21.23044203 27.40195032
1746 1 1 -0.00192725104878 44.12664513 23.77809508 27.40195032
1747 1 1 -0.00242018576743 42.65575695 26.32574812 27.40195032
1748 1 1 -0.00218676597784 44.12664513 28.87340116 27.40195032
1749 1 1 -0.00258593426309 42.65575695 31.42105421 27.40195032
1750 1 1 -0.00212863376943 44.12664513 33.96870725 27.40195032
1751 1 1 -0.00227966345652 42.65575695 36.51636030 27.40195032
1752 1 1 -0.00180356306745 44.12664513 39.06401334 27.40195032
1753 1 1 -0.00157534503657 45.59753330 21.23044203 27.40195032
1754 1 1 -0.00156118916359 47.06842147 23.77809508 27.40195032
1755 1 1 -0.00183636024236 45.59753330 26.32574812 27.40195032
1756 1 1 -0.00170490797802 47.06842147 28.87340116 27.40195032
1757 1 1 -0.00191999553497 45.59753330 31.42105421 27.40195032
1758 1 1 -0.00167331206088 47.06842147 33.96870725 27.40195032
1759 1 1 -0.00176121452068 45.59753330 36.51636030 27.40195032
1760 1 1 -0.00148924862849 47.06842147 39.06401334 27.40195032
1761 1 1 -0.00136207709703 48.53930964 21.23044203 27.40195032
1762 1 1 -0.00137495923109 50.01019781 23.77809508 27.40195032
1763 1 1 -0.00151896811167 48.53930964 26.32574812 27.40195032
1764 1 1 -0.00146601782676 50.01019781 28.87340116 27.40195032
1765 1 1 -0.00156684040716 48.53930964 31.42105421 27.40195032
1766 1 1 -0.00144645187169 50.01019781 33.96870725 27.40195032
1767 1 1 -0.00147488837676 48.53930964 36.51636030 27.40195032
1768 1 1 -0.00132766724956 50.01019781 39.06401334 27.40195032
1769 1 1 -0.00126790916203 51.48108598 21.23044203 27.40195032
1770 1 1 -0.00600129169969 35.30131610 23.77809508 27.40195032
1771 1 1 -0.00138333138328 51.48108598 26.32574812 27.40195032
1772 1 1 -0.00990599452932 35.30131610 28.87340116 27.40195032
1773 1 1 -0.0014172408715 51.48108598 31.42105421 27.40195032
1774 1 1 -0.00886663683993 35.30131610 33.96870725 27.40195032
1775 1 1 -0.00135169593822 51.48108598 36.51636030 27.40195032
1776 1 1 -0.00474286228946 35.30131610 39.06401334 27.40195032
1777 1 1 -0.000113661433398 38.24309244 22.07965971 29.80390065
1778 1 1 -0.000114033162898 39.71398061 24.62731276 29.80390065
1779 1 1 -0.000173643134986 38.24309244 27.17496580 29.80390065
1780 1 1 -0.00014012426993 39.71398061 29.72261885 29.80390065
1781 1 1 -0.000185076873138 38.24309244 32.27027189 29.80390065
1782 1 1 -0.00012397570925 39.71398061 34.81792493 29.80390065
1783 1 1 -0.000128016989216 38.24309244 37.36557798 29.80390065
1784 1 1 -8.49779570095e-05 39.71398061 39.91323102 29.80390065
1785 1 1 -7.64159497292e-05 41.18486878 22.07965971 29.80390065
1786 1 1 -7.44886448931e-05 42.65575695 24.62731276 29.80390065
1787 1 1 -0.000101319570763 41.18486878 27.17496580 29.80390065
1788 1 1 -8.61563013286e-05 42.65575695 29.72261885 29.80390065
1789 1 1 -0.000107434725664 41.18486878 32.27027189 29.80390065
1790 1 1 -8.05750851005e-05 42.65575695 34.81792493 29.80390065
1791 1 1 -8.54258371778e-05 41.18486878 37.36557798 29.80390065
1792 1 1 -6.37193863683e-05 42.65575695 39.91323102 29.80390065
1793 1 1 -5.80834143027e-05 44.12664513 22.07965971 29.80390065
1794 1 1 -5.70755267882e-05 45.59753330 24.62731276 29.80390065
1795 1 1 -6.91960769607e-05 44.12664513 27.17496580 29.80390065
1796 1 1 -6.23052866636e-05 45.59753330 29.72261885 29.80390065
1797 1 1 -7.15420470386e-05 44.12664513 32.27027189 29.80390065
1798 1 1 -5.95007930937e-05 45.59753330 34.81792493 29.80390065
1799 1 1 -6.27997877379e-05 44.12664513 37.36557798 29.80390065
1800 1 1 -5.11375966759e-05 45.59753330 39.91323102 29.80390065
1801 1 1 -4.84803025104e-05 47.06842147 22.07965971 29.80390065
1802 1 1 -4.80900958113e-05 48.53930964 24.62731276 29.80390065
1803 1 1 -5.44759221139e-05 47.06842147 27.17496580 29.80390065
1804 1 1 -5.10132129342e-05 48.53930964 29.72261885 29.80390065
1805 1 1 -5.52754501395e-05 47.06842147 32.27027189 29.80390065
1806 1 1 -4.93076997676e-05 48.53930964 34.81792493 29.80390065
1807 1 1 -5.06187131249e-05 47.06842147 37.36557798 29.80390065
1808 1 1 -4.4185604843e-05 48.53930964 39.91323102 29.80390065
1809 1 1 -4.31526886857e-05 50.01019781 22.07965971 29.80390065
1810 1 1 -4.38896030954e-05 51.48108598 24.62731276 29.80390065
1811 1 1 -4.71066747684e-05 50.01019781 27.17496580 29.80390065
1812 1 1 -4.60709010918e-05 51.48108598 29.72261885 29.80390065
1813 1 1 -4.76779096483e-05 50.01019781 32.27027189 29.80390065
1814 1 1 -4.49377596508e-05 51.48108598 34.81792493 29.80390065
1815 1 1 -4.46335071523e-05 50.01019781 37.36557798 29.80390065
1816 1 1 -4.10909754318e-05 51.48108598 39.91323102 29.80390065
1817 1 1 -0.000173123009398 35.30131610 22.07965971 29.80390065
1818 1 1 -0.000192069983248 36.77220427 24.62731276 29.80390065
1819 1 1 -0.000297101629916 35.30131610 27.17496580 29.80390065
1820 1 1 -0.000248716618416 36.77220427 29.72261885 29.80390065
1821 1 1 -0.000321982023075 35.30131610 32.27027189 29.80390065
1822 1 1 -0.000210338212858 36.77220427 34.81792493 29.80390065
1823 1 1 -0.000210082253908 35.30131610 37.36557798 29.80390065
1824 1 1 -0.000123325861436 36.77220427 39.91323102 29.80390065
1825 1 1 0.00302953575252 39.71398061 22.92887739 32.20585097
1826 1 1 0.00293649673147 41.18486878 25.47653044 32.20585097
1827 1 1 0.00401900129721 39.71398061 28.02418348 32.20585097
1828 1 1 0.00332308008515 41.18486878 30.57183653 32.20585097
1829 1 1 0.00401664672169 39.71398061 33.11948957 32.20585097
1830 1 1 0.00293542769329 41.18486878 35.66714262 32.20585097
1831 1 1 0.0030293936554 39.71398061 38.21479566 32.20585097
1832 1 1 0.00222061248885 41.18486878 20.38122435 32.20585097
1833 1 1 0.00223848188738 42.65575695 22.92887739 32.20585097
1834 1 1 0.0021546238279 44.12664513 25.47653044 32.20585097
1835 1 1 0.00267337188561 42.65575695 28.02418348 32.20585097
1836 1 1 0.00233290398129 44.12664513 30.57183653 32.20585097
1837 1 1 0.00267239271763 42.65575695 33.11948957 32.20585097
1838 1 1 0.00215419522132 44.12664513 35.66714262 32.20585097
1839 1 1 0.00223770238797 42.65575695 38.21479566 32.20585097
1840 1 1 0.00176954090033 44.12664513 20.38122435 32.20585097
1841 1 1 0.00176614786598 45.59753330 22.92887739 32.20585097
1842 1 1 0.00171540911211 47.06842147 25.47653044 32.20585097
1843 1 1 0.00199790586006 45.59753330 28.02418348 32.20585097
1844 1 1 0.00181240060463 47.06842147 30.57183653 32.20585097
1845 1 1 0.00199787968992 45.59753330 33.11948957 32.20585097
1846 1 1 0.00171547374906 47.06842147 35.66714262 32.20585097
1847 1 1 0.00176607299365 45.59753330 38.21479566 32.20585097
1848 1 1 0.00149240505068 47.06842147 20.38122435 32.20585097
1849 1 1 0.00150138887584 48.53930964 22.92887739 32.20585097
1850 1 1 0.00149498465302 50.01019781 25.47653044 32.20585097
1851 1 1 0.00163763843547 48.53930964 28.02418348 32.20585097
1852 1 1 0.00155558511105 50.01019781 30.57183653 32.20585097
1853 1 1 0.00163767039371 48.53930964 33.11948957 32.20585097
1854 1 1 0.00149496827304 50.01019781 35.66714262 32.20585097
1855 1 1 0.00150142294524 48.53930964 38.21479566 32.20585097
1856 1 1 0.00134772189483 50.01019781 20.38122435 32.20585097
1857 1 1 0.00138626513145 51.48108598 22.92887739 32.20585097
1858 1 1 0.0079018998451 35.30131610 25.47653044 32.20585097
1859 1 1 0.00148477816846 51.48108598 28.02418348 32.20585097
1860 1 1 0.0108981046668 35.30131610 30.57183653 32.20585097
1861 1 1 0.00148473588418 51.48108598 33.11948957 32.20585097
1862 1 1 0.00790106693683 35.30131610 35.66714262 32.20585097
1863 1 1 0.00138621936965 51.48108598 38.21479566 32.20585097
1864 1 1 0.00399192430345 35.30131610 20.38122435 32.20585097
1865 1 1 0.00448871253023 36.77220427 22.92887739 32.20585097
1866 1 1 0.00449786033663 38.24309244 25.47653044 32.20585097
1867 1 1 0.00719469657647 36.77220427 28.02418348 32.20585097
1868 1 1 0.00558131644831 38.24309244 30.57183653 32.20585097
1869 1 1 0.00719174597059 36.77220427 33.11948957 32.20585097
1870 1 1 0.0044984883464 38.24309244 35.66714262 32.20585097
1871 1 1 0.00448934827602 36.77220427 38.21479566 32.20585097
1872 1 1 0.00291077923782 38.24309244 20.38122435 32.20585097
1873 1 1 -0.00379390092767 41.18486878 23.77809508 34.60780130
1874 1 1 -0.00358130627944 42.65575695 26.32574812 34.60780130
1875 1 1 -0.00460406371728 41.18486878 28.87340116 34.60780130
1876 1 1 -0.00383114321059 42.65575695 31.42105421 34.60780130
1877 1 1 -0.00441313770496 41.18486878 33.96870725 34.60780130
1878 1 1 -0.00336566449815 42.65575695 36.51636030 34.60780130
1879 1 1 -0.00343951940464 41.18486878 39.06401334 34.60780130
1880 1 1 -0.00287414552645 42.65575695 21.23044203 34.60780130
1881 1 1 -0.00284285480548 44.12664513 23.77809508 34.60780130
1882 1 1 -0.00271285176294 45.59753330 26.32574812 34.60780130
1883 1 1 -0.00322116678584 44.12664513 28.87340116 34.60780130
1884 1 1 -0.00283045162412 45.59753330 31.42105421 34.60780130
1885 1 1 -0.00313470556518 44.12664513 33.96870725 34.60780130
1886 1 1 -0.00260715978911 45.59753330 36.51636030 34.60780130
1887 1 1 -0.00266521620717 44.12664513 39.06401334 34.60780130
1888 1 1 -0.00234810269647 45.59753330 21.23044203 34.60780130
1889 1 1 -0.00233110775089 47.06842147 23.77809508 34.60780130
1890 1 1 -0.00227503543403 48.53930964 26.32574812 34.60780130
1891 1 1 -0.00253093595416 47.06842147 28.87340116 34.60780130
1892 1 1 -0.00234248406443 48.53930964 31.42105421 34.60780130
1893 1 1 -0.00248718627157 47.06842147 33.96870725 34.60780130
1894 1 1 -0.0022126774354 48.53930964 36.51636030 34.60780130
1895 1 1 -0.00223019616048 47.06842147 39.06401334 34.60780130
1896 1 1 -0.00205065089592 48.53930964 21.23044203 34.60780130
1897 1 1 -0.00207040531186 50.01019781 23.77809508 34.60780130
1898 1 1 -0.00208333210475 51.48108598 26.32574812 34.60780130
1899 1 1 -0.00220258526462 50.01019781 28.87340116 34.60780130
1900 1 1 -0.00213328874397 51.48108598 31.42105421 34.60780130
1901 1 1 -0.00217435387386 50.01019781 33.96870725 34.60780130
1902 1 1 -0.00203657277368 51.48108598 36.51636030 34.60780130
1903 1 1 -0.00200116741734 50.01019781 39.06401334 34.60780130
1904 1 1 -0.00191268236307 51.48108598 21.23044203 34.60780130
1905 1 1 -0.00817382959861 35.30131610 23.77809508 34.60780130
1906 1 1 -0.00818401746147 36.77220427 26.32574812 34.60780130
1907 1 1 -0.0126086833938 35.30131610 28.87340116 34.60780130
1908 1 1 -0.00953654744153 36.77220427 31.42105421 34.60780130
1909 1 1 -0.0113631945834 35.30131610 33.96870725 34.60780130
1910 1 1 -0.00717354353231 36.77220427 36.51636030 34.60780130
1911 1 1 -0.00675563615133 35.30131610 39.06401334 34.60780130
1912 1 1 -0.00519889518085 36.77220427 21.23044203 34.60780130
1913 1 1 -0.005460376368 38.24309244 23.77809508 34.60780130
1914 1 1 -0.00522790971559 39.71398061 26.32574812 34.60780130
1915 1 1 -0.00720952646299 38.24309244 28.87340116 34.60780130
1916 1 1 -0.00578159282714 39.71398061 31.42105421 34.60780130
1917 1 1 -0.00677857391931 38.24309244 33.96870725 34.60780130
1918 1 1 -0.00476917469787 39.71398061 36.51636030 34.60780130
1919 1 1 -0.00475283627214 38.24309244 39.06401334 34.60780130
1920 1 1 -0.00377350656806 39.71398061 21.23044203 34.60780130
1921 1 1 0.00546523395487 35.30131610 40.76244870 25.00000000
1922 1 1 0.00361831330758 36.77220427 43.31010174 25.00000000
1923 1 1 0.00310117324494 35.30131610 45.85775479 25.00000000
1924 1 1 0.00234327548058 36.77220427 48.40540783 25.00000000
1925 1 1 0.00208267809836 35.30131610 50.95306088 25.00000000
1926 1 1 0.00176504617548 36.77220427 53.50071392 25.00000000
1927 1 1 0.00165151830218 35.30131610 56.04836697 25.00000000
1928 1 1 0.00153139595072 36.77220427 58.59602001 25.00000000
1929 1 1 0.00403473221595 38.24309244 40.76244870 25.00000000
1930 1 1 0.00288676891576 39.71398061 43.31010174 25.00000000
1931 1 1 0.00262774252271 38.24309244 45.85775479 25.00000000
1932 1 1 0.00208438120487 39.71398061 48.40540783 25.00000000
1933 1 1 0.00191498105545 38.24309244 50.95306088 25.00000000
1934 1 1 0.00165615722119 39.71398061 53.50071392 25.00000000
1935 1 1 0.00157667397789 38.24309244 56.04836697 25.00000000
1936 1 1 0.00147318330935 39.71398061 58.59602001 25.00000000
1937 1 1 0.00305344695257 41.18486878 40.76244870 25.00000000
1938 1 1 0.00238024941431 42.65575695 43.31010174 25.00000000
1939 1 1 0.00224932557434 41.18486878 45.85775479 25.00000000
1940 1 1 0.0018681518381 42.65575695 48.40540783 25.00000000
1941 1 1 0.001758203701 41.18486878 50.95306088 25.00000000
1942 1 1 0.00155775874924 42.65575695 53.50071392 25.00000000
1943 1 1 0.0015028227743 41.18486878 56.04836697 25.00000000
1944 1 1 0.00141801475605 42.65575695 58.59602001 25.00000000
1945 1 1 0.00245021101655 44.12664513 40.76244870 25.00000000
1946 1 1 0.00204745244716 45.59753330 43.31010174 25.00000000
1947 1 1 0.00196956778861 44.12664513 45.85775479 25.00000000
1948 1 1 0.00170482738264 45.59753330 48.40540783 25.00000000
1949 1 1 0.00162837908878 44.12664513 50.95306088 25.00000000
1950 1 1 0.00147918124728 45.59753330 53.50071392 25.00000000
1951 1 1 0.00143838561745 44.12664513 56.04836697 25.00000000
1952 1 1 0.00137178868485 45.59753330 58.59602001 25.00000000
1953 1 1 0.00209290840038 47.06842147 40.76244870 25.00000000
1954 1 1 0.00184303702443 48.53930964 43.31010174 25.00000000
1955 1 1 0.00177826359685 47.06842147 45.85775479 25.00000000
1956 1 1 0.0015977070918 48.53930964 48.40540783 25.00000000
1957 1 1 0.00153394063517 47.06842147 50.95306088 25.00000000
1958 1 1 0.00142522655213 48.53930964 53.50071392 25.00000000
1959 1 1 0.00138903220352 47.06842147 56.04836697 25.00000000
1960 1 1 0.00133874999015 48.53930964 58.59602001 25.00000000
1961 1 1 0.00189885069178 50.01019781 40.76244870 25.00000000
1962 1 1 0.00174555324029 51.48108598 43.31010174 25.00000000
1963 1 1 0.00166787409016 50.01019781 45.85775479 25.00000000
1964 1 1 0.00154539942738 51.48108598 48.40540783 25.00000000
1965 1 1 0.00147747459111 50.01019781 50.95306088 25.00000000
1966 1 1 0.00139789547472 51.48108598 53.50071392 25.00000000
1967 1 1 0.00135819037879 50.01019781 56.04836697 25.00000000
1968 1 1 0.00132158570215 51.48108598 58.59602001 25.00000000
1969 1 1 -0.00293230713237 36.77220427 41.61166638 27.40195032
1970 1 1 -0.00206853969311 38.24309244 44.15931943 27.40195032
1971 1 1 -0.00183177143187 36.77220427 46.70697247 27.40195032
1972 1 1 -0.00142296123417 38.24309244 49.25462551 27.40195032
1973 1 1 -0.00128637808303 36.77220427 51.80227856 27.40195032
1974 1 1 -0.00111129662236 38.24309244 54.34993160 27.40195032
1975 1 1 -0.00105764260262 36.77220427 56.89758465 27.40195032
1976 1 1 -0.000994795311547 38.24309244 59.44523769 27.40195032
1977 1 1 -0.00224930119496 39.71398061 41.61166638 27.40195032
1978 1 1 -0.00169867845681 41.18486878 44.15931943 27.40195032
1979 1 1 -0.0015693622156 39.71398061 46.70697247 27.40195032
1980 1 1 -0.00127365670258 41.18486878 49.25462551 27.40195032
1981 1 1 -0.00118625232388 39.71398061 51.80227856 27.40195032
1982 1 1 -0.00104784702051 41.18486878 54.34993160 27.40195032
1983 1 1 -0.00101078099504 39.71398061 56.89758465 27.40195032
1984 1 1 -0.000957055692927 41.18486878 59.44523769 27.40195032
1985 1 1 -0.00178271990998 42.65575695 41.61166638 27.40195032
1986 1 1 -0.00143275071243 44.12664513 44.15931943 27.40195032
1987 1 1 -0.00136082089544 42.65575695 46.70697247 27.40195032
1988 1 1 -0.0011567634657 44.12664513 49.25462551 27.40195032
1989 1 1 -0.00109896295468 42.65575695 51.80227856 27.40195032
1990 1 1 -0.000993165122605 44.12664513 54.34993160 27.40195032
1991 1 1 -0.000966796786501 42.65575695 56.89758465 27.40195032
1992 1 1 -0.000923307619904 44.12664513 59.44523769 27.40195032
1993 1 1 -0.00147704638731 45.59753330 41.61166638 27.40195032
1994 1 1 -0.00126230086766 47.06842147 44.15931943 27.40195032
1995 1 1 -0.00121346894174 45.59753330 46.70697247 27.40195032
1996 1 1 -0.00107443138953 47.06842147 49.25462551 27.40195032
1997 1 1 -0.00103062224625 45.59753330 51.80227856 27.40195032
1998 1 1 -0.000951713768217 47.06842147 54.34993160 27.40195032
1999 1 1 -0.000930348573855 45.59753330 56.89758465 27.40195032
2000 1 1 -0.000896971149182 47.06842147 59.44523769 27.40195032
2001 1 1 -0.00129983847024 48.53930964 41.61166638 27.40195032
2002 1 1 -0.00116909954165 50.01019781 44.15931943 27.40195032
2003 1 1 -0.00112104884287 48.53930964 46.70697247 27.40195032
2004 1 1 -0.00102553285942 50.01019781 49.25462551 27.40195032
2005 1 1 -0.000984046869692 48.53930964 51.80227856 27.40195032
2006 1 1 -0.000926079436163 50.01019781 54.34993160 27.40195032
2007 1 1 -0.00090459863461 48.53930964 56.89758465 27.40195032
2008 1 1 -0.000880325812931 50.01019781 59.44523769 27.40195032
2009 1 1 -0.00122017422215 51.48108598 41.61166638 27.40195032
2010 1 1 -0.00253333447011 35.30131610 44.15931943 27.40195032
2011 1 1 -0.00107640342143 51.48108598 46.70697247 27.40195032
2012 1 1 -0.00159188199626 35.30131610 49.25462551 27.40195032
2013 1 1 -0.000960528934316 51.48108598 51.80227856 27.40195032
2014 1 1 -0.00117676548224 35.30131610 54.34993160 27.40195032
2015 1 1 -0.000891342310854 51.48108598 56.89758465 27.40195032
2016 1 1 -0.00103205304919 35.30131610 59.44523769 27.40195032
2017 1 1 -7.92492448327e-05 38.24309244 42.46088406 29.80390065
2018 1 1 -5.70564374237e-05 39.71398061 45.00853711 29.80390065
2019 1 1 -5.16477579232e-05 38.24309244 47.55619015 29.80390065
2020 1 1 -4.1767188541e-05 39.71398061 50.10384320 29.80390065
2021 1 1 -3.85648502079e-05 38.24309244 52.65149624 29.80390065
2022 1 1 -3.40201814998e-05 39.71398061 55.19914928 29.80390065
2023 1 1 -3.28586074961e-05 38.24309244 57.74680233 29.80390065
2024 1 1 -3.13426291203e-05 39.71398061 60.29445537 29.80390065
2025 1 1 -6.15774746194e-05 41.18486878 42.46088406 29.80390065
2026 1 1 -4.81106413087e-05 42.65575695 45.00853711 29.80390065
2027 1 1 -4.50899815672e-05 41.18486878 47.55619015 29.80390065
2028 1 1 -3.79301281938e-05 42.65575695 50.10384320 29.80390065
2029 1 1 -3.58057013425e-05 41.18486878 52.65149624 29.80390065
2030 1 1 -3.22594663111e-05 42.65575695 55.19914928 29.80390065
2031 1 1 -3.14701464746e-05 41.18486878 57.74680233 29.80390065
2032 1 1 -3.01898376329e-05 42.65575695 60.29445537 29.80390065
2033 1 1 -5.03092008987e-05 44.12664513 42.46088406 29.80390065
2034 1 1 -4.19489457957e-05 45.59753330 45.00853711 29.80390065
2035 1 1 -4.00715182445e-05 44.12664513 47.55619015 29.80390065
2036 1 1 -3.50077178291e-05 45.59753330 50.10384320 29.80390065
2037 1 1 -3.3504376102e-05 44.12664513 52.65149624 29.80390065
2038 1 1 -3.08242492876e-05 45.59753330 55.19914928 29.80390065
2039 1 1 -3.02361668484e-05 44.12664513 57.74680233 29.80390065
2040 1 1 -2.9220138733e-05 45.59753330 60.29445537 29.80390065
2041 1 1 -4.33435505676e-05 47.06842147 42.46088406 29.80390065
2042 1 1 -3.81278562973e-05 48.53930964 45.00853711 29.80390065
2043 1 1 -3.65892501058e-05 47.06842147 47.55619015 29.80390065
2044 1 1 -3.30675569471e-05 48.53930964 50.10384320 29.80390065
2045 1 1 -3.18027931412e-05 47.06842147 52.65149624 29.80390065
2046 1 1 -2.98219617996e-05 48.53930964 55.19914928 29.80390065
2047 1 1 -2.9279546386e-05 47.06842147 57.74680233 29.80390065
2048 1 1 -2.8526762304e-05 48.53930964 60.29445537 29.80390065
2049 1 1 -3.95976573796e-05 50.01019781 42.46088406 29.80390065
2050 1 1 -3.63124747514e-05 51.48108598 45.00853711 29.80390065
2051 1 1 -3.45655539748e-05 50.01019781 47.55619015 29.80390065
2052 1 1 -3.21067836807e-05 51.48108598 50.10384320 29.80390065
2053 1 1 -3.07679025136e-05 50.01019781 52.65149624 29.80390065
2054 1 1 -2.93090954414e-05 51.48108598 55.19914928 29.80390065
2055 1 1 -2.86781833959e-05 50.01019781 57.74680233 29.80390065
2056 1 1 -2.81668360404e-05 51.48108598 60.29445537 29.80390065
2057 1 1 -0.00010620591274 35.30131610 42.46088406 29.80390065
2058 1 1 -6.93782486995e-05 36.77220427 45.00853711 29.80390065
2059 1 1 -5.93743913266e-05 35.30131610 47.55619015 29.80390065
2060 1 1 -4.63035419262e-05 36.77220427 50.10384320 29.80390065
2061 1 1 -4.15167190729e-05 35.30131610 52.65149624 29.80390065
2062 1 1 -3.59405705759e-05 36.77220427 55.19914928 29.80390065
2063 1 1 -3.42402375727e-05 35.30131610 57.74680233 29.80390065
2064 1 1 -3.25494333055e-05 36.77220427 60.29445537 29.80390065
2065 1 1 0.00210078655207 39.71398061 43.31010174 32.20585097
2066 1 1 0.00161759670232 41.18486878 45.85775479 32.20585097
2067 1 1 0.00149098306179 39.71398061 48.40540783 32.20585097
2068 1 1 0.00124618286562 41.18486878 50.95306088 32.20585097
2069 1 1 0.00117209984993 39.71398061 53.50071392 32.20585097
2070 1 1 0.00106095941463 41.18486878 56.04836697 32.20585097
2071 1 1 0.00103905744104 39.71398061 58.59602001 32.20585097
2072 1 1 0.00221982133705 41.18486878 40.76244870 32.20585097
2073 1 1 0.00171724339669 42.65575695 43.31010174 32.20585097
2074 1 1 0.00140206998459 44.12664513 45.85775479 32.20585097
2075 1 1 0.00132692951302 42.65575695 48.40540783 32.20585097
2076 1 1 0.00115191926291 44.12664513 50.95306088 32.20585097
2077 1 1 0.00110089727894 42.65575695 53.50071392 32.20585097
2078 1 1 0.00101393396193 44.12664513 56.04836697 32.20585097
2079 1 1 0.000998860311852 42.65575695 58.59602001 32.20585097
2080 1 1 0.00176933474932 44.12664513 40.76244870 32.20585097
2081 1 1 0.00145962535468 45.59753330 43.31010174 32.20585097
2082 1 1 0.00126017204271 47.06842147 45.85775479 32.20585097
2083 1 1 0.00120710827321 45.59753330 48.40540783 32.20585097
2084 1 1 0.00108340655298 47.06842147 50.95306088 32.20585097
2085 1 1 0.00104370312952 45.59753330 53.50071392 32.20585097
2086 1 1 0.00097784783176 47.06842147 56.04836697 32.20585097
2087 1 1 0.000965252372041 45.59753330 58.59602001 32.20585097
2088 1 1 0.00149244528124 47.06842147 40.76244870 32.20585097
2089 1 1 0.00130706567457 48.53930964 43.31010174 32.20585097
2090 1 1 0.00118026932011 50.01019781 45.85775479 32.20585097
2091 1 1 0.00112947948963 48.53930964 48.40540783 32.20585097
2092 1 1 0.00104196476688 50.01019781 50.95306088 32.20585097
2093 1 1 0.00100412846116 48.53930964 53.50071392 32.20585097
2094 1 1 0.000955350997514 50.01019781 56.04836697 32.20585097
2095 1 1 0.000941319290472 48.53930964 58.59602001 32.20585097
2096 1 1 0.00134769701541 50.01019781 40.76244870 32.20585097
2097 1 1 0.00123684527994 51.48108598 43.31010174 32.20585097
2098 1 1 0.00225920916938 35.30131610 45.85775479 32.20585097
2099 1 1 0.00109122731561 51.48108598 48.40540783 32.20585097
2100 1 1 0.0014897493613 35.30131610 50.95306088 32.20585097
2101 1 1 0.000984009269226 51.48108598 53.50071392 32.20585097
2102 1 1 0.00116869020463 35.30131610 56.04836697 32.20585097
2103 1 1 0.000928925335881 51.48108598 58.59602001 32.20585097
2104 1 1 0.00398957028302 35.30131610 40.76244870 32.20585097
2105 1 1 0.00262171802595 36.77220427 43.31010174 32.20585097
2106 1 1 0.00190986185866 38.24309244 45.85775479 32.20585097
2107 1 1 0.00169203909593 36.77220427 48.40540783 32.20585097
2108 1 1 0.00136227522244 38.24309244 50.95306088 32.20585097
2109 1 1 0.00125115865469 36.77220427 53.50071392 32.20585097
2110 1 1 0.00111457816789 38.24309244 56.04836697 32.20585097
2111 1 1 0.00108146580855 36.77220427 58.59602001 32.20585097
2112 1 1 0.00290969894931 38.24309244 40.76244870 32.20585097
2113 1 1 -0.00251405290221 41.18486878 44.15931943 34.60780130
2114 1 1 -0.00204368342495 42.65575695 46.70697247 34.60780130
2115 1 1 -0.00191883749925 41.18486878 49.25462551 34.60780130
2116 1 1 -0.00166288911313 42.65575695 51.80227856 34.60780130
2117 1 1 -0.00158704047977 41.18486878 54.34993160 34.60780130
2118 1 1 -0.00146776260448 42.65575695 56.89758465 34.60780130
2119 1 1 -0.00145387042541 41.18486878 59.44523769 34.60780130
2120 1 1 -0.0026341443635 42.65575695 41.61166638 34.60780130
2121 1 1 -0.00214628512202 44.12664513 44.15931943 34.60780130
2122 1 1 -0.00183243803199 45.59753330 46.70697247 34.60780130
2123 1 1 -0.00174861256698 44.12664513 49.25462551 34.60780130
2124 1 1 -0.00156168803303 45.59753330 51.80227856 34.60780130
2125 1 1 -0.00150636585435 44.12664513 54.34993160 34.60780130
2126 1 1 -0.00141425931776 45.59753330 56.89758465 34.60780130
2127 1 1 -0.00140409606497 44.12664513 59.44523769 34.60780130
2128 1 1 -0.00221043782173 45.59753330 41.61166638 34.60780130
2129 1 1 -0.0019045562212 47.06842147 44.15931943 34.60780130
2130 1 1 -0.00169595138741 48.53930964 46.70697247 34.60780130
2131 1 1 -0.00162670087323 47.06842147 49.25462551 34.60780130
2132 1 1 -0.00149339096133 48.53930964 51.80227856 34.60780130
2133 1 1 -0.00144564753492 47.06842147 54.34993160 34.60780130
2134 1 1 -0.00137637773539 48.53930964 56.89758465 34.60780130
2135 1 1 -0.00136511537987 47.06842147 59.44523769 34.60780130
2136 1 1 -0.00196008243257 48.53930964 41.61166638 34.60780130
2137 1 1 -0.0017669846527 50.01019781 44.15931943 34.60780130
2138 1 1 -0.00162984809437 51.48108598 46.70697247 34.60780130
2139 1 1 -0.00155479312402 50.01019781 49.25462551 34.60780130
2140 1 1 -0.0014592641808 51.48108598 51.80227856 34.60780130
2141 1 1 -0.00140821001515 50.01019781 54.34993160 34.60780130
2142 1 1 -0.00135679699492 51.48108598 56.89758465 34.60780130
2143 1 1 -0.00134040179623 50.01019781 59.44523769 34.60780130
2144 1 1 -0.00184198857525 51.48108598 41.61166638 34.60780130
2145 1 1 -0.00375259886982 35.30131610 44.15931943 34.60780130
2146 1 1 -0.00269906669992 36.77220427 46.70697247 34.60780130
2147 1 1 -0.00236297476607 35.30131610 49.25462551 34.60780130
2148 1 1 -0.00193686136756 36.77220427 51.80227856 34.60780130
2149 1 1 -0.0017779979143 35.30131610 54.34993160 34.60780130
2150 1 1 -0.00160168662366 36.77220427 56.89758465 34.60780130
2151 1 1 -0.00156418890337 35.30131610 59.44523769 34.60780130
2152 1 1 -0.00436472665897 36.77220427 41.61166638 34.60780130
2153 1 1 -0.00304509067046 38.24309244 44.15931943 34.60780130
2154 1 1 -0.00233277341764 39.71398061 46.70697247 34.60780130
2155 1 1 -0.00212928930488 38.24309244 49.25462551 34.60780130
2156 1 1 -0.00179177741281 39.71398061 51.80227856 34.60780130
2157 1 1 -0.00168114859784 38.24309244 54.34993160 34.60780130
2158 1 1 -0.0015324534589 39.71398061 56.89758465 34.60780130
2159 1 1 -0.00150939786865 38.24309244 59.44523769 34.60780130
2160 1 1 -0.00332036555363 39.71398061 41.61166638 34.60780130
2161 2 2 1 26.47598707 30.57183653 42.60780130
2162 3 2 -1 26.47598707 30.57183653 17.00000000
