ITEM: TIMESTEP
0
ITEM: NUMBER OF ATOMS
240
ITEM: BOX BOUNDS pp pp ff
0.0000000000000000e+00 1.7650658050000001e+01
0.0000000000000000e+00 2.0381224350000000e+01
0.0000000000000000e+00 6.0000000000000000e+01
ITEM: ATOMS id type q
1 1 -0.0202925460922
2 1 -0.0202925429297
3 1 -0.0202925388515
4 1 -0.020292541317
5 1 -0.0202925461028
6 1 -0.0202925429344
7 1 -0.0202925388476
8 1 -0.0202925413067
9 1 -0.0202925460954
10 1 -0.0202925429346
11 1 -0.0202925388547
12 1 -0.0202925413218
13 1 -0.020292546106
14 1 -0.0202925429392
15 1 -0.0202925388508
16 1 -0.0202925413115
17 1 -0.0202925461008
18 1 -0.0202925429388
19 1 -0.02029253886
20 1 -0.020292541326
21 1 -0.0202925461114
22 1 -0.0202925429435
23 1 -0.0202925388562
24 1 -0.0202925413158
25 1 -0.0202925461024
26 1 -0.0202925429372
27 1 -0.0202925388616
28 1 -0.0202925413244
29 1 -0.020292546113
30 1 -0.0202925429419
31 1 -0.0202925388578
32 1 -0.0202925413142
33 1 -0.0202925460982
34 1 -0.0202925429318
35 1 -0.0202925388574
36 1 -0.0202925413191
37 1 -0.0202925461088
38 1 -0.0202925429365
39 1 -0.0202925388536
40 1 -0.0202925413088
41 1 -0.0202925460933
42 1 -0.0202925429286
43 1 -0.0202925388525
44 1 -0.0202925413159
45 1 -0.0202925461039
46 1 -0.0202925429333
47 1 -0.0202925388487
48 1 -0.0202925413056
49 1 -0.0046665067808
50 1 -0.00466650111953
51 1 -0.00466650002095
52 1 -0.00466650564336
53 1 -0.00466650678703
54 1 -0.00466650112064
55 1 -0.00466650001631
56 1 -0.00466650563562
57 1 -0.00466650678401
58 1 -0.00466650112315
59 1 -0.00466650002416
60 1 -0.00466650564698
61 1 -0.00466650679024
62 1 -0.00466650112425
63 1 -0.00466650001951
64 1 -0.00466650563923
65 1 -0.00466650678691
66 1 -0.00466650112427
67 1 -0.00466650002706
68 1 -0.0046665056481
69 1 -0.00466650679314
70 1 -0.00466650112537
71 1 -0.00466650002242
72 1 -0.00466650564035
73 1 -0.0046665067858
74 1 -0.00466650112137
75 1 -0.00466650002595
76 1 -0.00466650564519
77 1 -0.00466650679203
78 1 -0.00466650112247
79 1 -0.0046665000213
80 1 -0.00466650563745
81 1 -0.00466650678218
82 1 -0.00466650111816
83 1 -0.00466650002233
84 1 -0.00466650564199
85 1 -0.00466650678841
86 1 -0.00466650111926
87 1 -0.00466650001768
88 1 -0.00466650563424
89 1 -0.00466650678013
90 1 -0.00466650111749
91 1 -0.00466650002028
92 1 -0.00466650564131
93 1 -0.00466650678636
94 1 -0.00466650111859
95 1 -0.00466650001563
96 1 -0.00466650563357
97 1 3.27239249882e-06
98 1 3.27295995063e-06
99 1 3.27238924961e-06
100 1 3.27182099379e-06
101 1 3.27239189416e-06
102 1 3.27296129648e-06
103 1 3.27239174835e-06
104 1 3.27182311048e-06
105 1 3.27239249922e-06
106 1 3.27295995064e-06
107 1 3.27238925001e-06
108 1 3.2718209938e-06
109 1 3.27239189457e-06
110 1 3.27296129649e-06
111 1 3.27239174874e-06
112 1 3.27182311048e-06
113 1 3.27239249916e-06
114 1 3.27295995068e-06
115 1 3.27238924996e-06
116 1 3.27182099385e-06
117 1 3.27239189452e-06
118 1 3.27296129654e-06
119 1 3.2723917487e-06
120 1 3.27182311053e-06
121 1 3.27239249916e-06
122 1 3.27295995029e-06
123 1 3.27238924995e-06
124 1 3.27182099344e-06
125 1 3.2723918945e-06
126 1 3.27296129614e-06
127 1 3.27239174869e-06
128 1 3.27182311013e-06
129 1 3.27239249834e-06
130 1 3.27295994951e-06
131 1 3.27238924914e-06
132 1 3.27182099267e-06
133 1 3.2723918937e-06
134 1 3.27296129536e-06
135 1 3.27239174787e-06
136 1 3.27182310933e-06
137 1 3.27239249803e-06
138 1 3.27295994983e-06
139 1 3.27238924883e-06
140 1 3.27182099298e-06
141 1 3.27239189339e-06
142 1 3.27296129568e-06
143 1 3.27239174757e-06
144 1 3.27182310965e-06
145 1 0.00468354492851
146 1 0.00468354377968
147 1 0.00468353819457
148 1 0.0046835393059
149 1 0.00468354493168
150 1 0.00468354378162
151 1 0.00468353819385
152 1 0.00468353930305
153 1 0.00468354493139
154 1 0.00468354378079
155 1 0.00468353819746
156 1 0.00468353930701
157 1 0.00468354493457
158 1 0.00468354378273
159 1 0.00468353819674
160 1 0.00468353930416
161 1 0.00468354493028
162 1 0.00468354377791
163 1 0.00468353819635
164 1 0.00468353930413
165 1 0.00468354493346
166 1 0.00468354377984
167 1 0.00468353819563
168 1 0.00468353930127
169 1 0.00468354492668
170 1 0.0046835437747
171 1 0.00468353819274
172 1 0.00468353930092
173 1 0.00468354492985
174 1 0.00468354377664
175 1 0.00468353819202
176 1 0.00468353929807
177 1 0.00468354492463
178 1 0.00468354377403
179 1 0.00468353819069
180 1 0.00468353930025
181 1 0.0046835449278
182 1 0.00468354377596
183 1 0.00468353818998
184 1 0.0046835392974
185 1 0.0046835449253
186 1 0.00468354377608
187 1 0.00468353819136
188 1 0.0046835393023
189 1 0.00468354492847
190 1 0.00468354377801
191 1 0.00468353819065
192 1 0.00468353929944
193 1 0.0202722355603
194 1 0.0202722307705
195 1 0.0202722283063
196 1 0.0202722323917
197 1 0.0202722355646
198 1 0.0202722307715
199 1 0.0202722283032
200 1 0.0202722323865
201 1 0.0202722355619
202 1 0.0202722307688
203 1 0.020272228308
204 1 0.02027223239
205 1 0.0202722355663
206 1 0.0202722307699
207 1 0.0202722283049
208 1 0.0202722323848
209 1 0.0202722355576
210 1 0.0202722307634
211 1 0.0202722283037
212 1 0.0202722323847
213 1 0.020272235562
214 1 0.0202722307645
215 1 0.0202722283006
216 1 0.0202722323795
217 1 0.0202722355528
218 1 0.0202722307602
219 1 0.0202722282988
220 1 0.0202722323814
221 1 0.0202722355571
222 1 0.0202722307613
223 1 0.0202722282957
224 1 0.0202722323763
225 1 0.0202722355517
226 1 0.0202722307613
227 1 0.0202722282977
228 1 0.0202722323825
229 1 0.020272235556
230 1 0.0202722307624
231 1 0.0202722282946
232 1 0.0202722323774
233 1 0.0202722355549
234 1 0.0202722307662
235 1 0.0202722283009
236 1 0.0202722323874
237 1 0.0202722355592
238 1 0.0202722307673
239 1 0.0202722282978
240 1 0.0202722323822
