# Au(111) + 176 SPC-FQ (run_dyn_spc.py)

528 atoms

3 atom types

0.0 17.65065805 xlo xhi
0.0 20.38122435 ylo yhi
0.0 14.97000000 zlo zhi

Masses

1 196.966569
2 15.9994
3 1.008

Atoms # full

1 1 2 0.000000 2.79618893 10.68523599 6.85562619 0 0 0
2 1 3 0.000000 3.16173258 9.77949276 7.07013100 0 0 0
3 1 3 0.000000 2.63343367 10.75448488 5.87139015 0 0 0
4 2 2 0.000000 5.96847322 10.13904846 9.42569865 0 0 0
5 2 3 0.000000 6.19564317 9.61243049 10.24488886 0 0 0
6 2 3 0.000000 5.85376458 11.10203068 9.66965039 0 0 0
7 3 2 0.000000 1.50045528 10.28750559 4.03779992 0 0 0
8 3 3 0.000000 1.45729845 9.43307626 3.52002267 0 0 0
9 3 3 0.000000 1.47255925 11.06200796 3.40584014 0 0 0
10 4 2 0.000000 0.14844634 2.15308031 2.22282850 0 0 0
11 4 3 0.000000 1.01847778 2.55832092 1.94206062 0 0 0
12 4 3 0.000000 17.04901274 2.60900244 1.74376398 -1 0 0
13 5 2 0.000000 1.94633246 4.71877016 9.81407339 0 0 0
14 5 3 0.000000 2.57466244 3.99173126 10.09087862 0 0 0
15 5 3 0.000000 2.07787682 5.51551131 10.40390803 0 0 0
16 6 2 0.000000 2.93714906 1.76335545 5.62401968 0 0 0
17 6 3 0.000000 2.80905242 2.59358877 5.08151700 0 0 0
18 6 3 0.000000 3.08133059 0.98490229 5.01309608 0 0 0
19 7 2 0.000000 7.71282834 6.04751775 0.57388063 0 0 0
20 7 3 0.000000 8.19250511 6.70246799 1.15779471 0 0 0
21 7 3 0.000000 8.19379587 5.96444290 14.67108393 0 0 -1
22 8 2 0.000000 17.17692974 6.36595828 9.83464025 0 0 0
23 8 3 0.000000 0.45765240 6.01575981 9.73516022 1 0 0
24 8 3 0.000000 17.20660481 7.35428393 9.98409619 0 0 0
25 9 2 0.000000 12.79881106 19.41778061 8.73666627 0 0 0
26 9 3 0.000000 13.12429364 20.13245501 9.35578408 0 0 0
27 9 3 0.000000 12.74287224 19.78212840 7.80708205 0 0 0
28 10 2 0.000000 0.04439777 6.64799170 5.10763260 0 0 0
29 10 3 0.000000 0.77627457 6.39259052 5.73940143 0 0 0
30 10 3 0.000000 17.02996590 5.90349045 5.04950715 -1 0 0
31 11 2 0.000000 10.65589971 3.13910823 6.49692452 0 0 0
32 11 3 0.000000 11.38952093 3.07822086 7.17375382 0 0 0
33 11 3 0.000000 10.12761572 3.97387317 6.65213021 0 0 0
34 12 2 0.000000 5.42782925 5.04704890 4.11674613 0 0 0
35 12 3 0.000000 5.96318242 5.82995131 3.79978231 0 0 0
36 12 3 0.000000 4.47073049 5.16939939 3.85407221 0 0 0
37 13 2 0.000000 2.59220980 10.11227679 13.86226461 0 0 0
38 13 3 0.000000 3.18925945 9.36499130 13.57054318 0 0 0
39 13 3 0.000000 2.82429134 10.37855479 14.79780695 0 0 0
40 14 2 0.000000 0.15754294 6.98073576 13.75189073 0 0 0
41 14 3 0.000000 0.84870274 6.86521776 14.46530436 0 0 0
42 14 3 0.000000 0.20123987 7.91321036 13.39330046 0 0 0
43 15 2 0.000000 2.48437546 4.45539120 3.83788800 0 0 0
44 15 3 0.000000 2.38346592 4.20375211 2.87533914 0 0 0
45 15 3 0.000000 2.34300878 5.43989962 3.94163720 0 0 0
46 16 2 0.000000 3.88323531 2.67629799 10.58060871 0 0 0
47 16 3 0.000000 3.20997382 1.94351654 10.67937905 0 0 0
48 16 3 0.000000 4.75588515 2.38194817 10.97028257 0 0 0
49 17 2 0.000000 11.95948055 12.34058890 8.67285495 0 0 0
50 17 3 0.000000 12.46349052 11.61971990 8.19711646 0 0 0
51 17 3 0.000000 11.85158425 13.12805352 8.06600807 0 0 0
52 18 2 0.000000 6.05663151 19.19685281 10.70261177 0 0 0
53 18 3 0.000000 5.97639829 18.97124858 11.67352404 0 0 0
54 18 3 0.000000 6.93149148 18.86102587 10.35354792 0 0 0
55 19 2 0.000000 7.72680886 10.01820339 0.38281924 0 0 0
56 19 3 0.000000 8.66271671 10.13574199 0.05075533 0 0 0
57 19 3 0.000000 7.63219827 9.11434815 0.80007194 0 0 0
58 20 2 0.000000 5.28570010 12.73645816 10.31986127 0 0 0
59 20 3 0.000000 5.63902776 13.64337456 10.54935524 0 0 0
60 20 3 0.000000 4.44961285 12.56294285 10.84029938 0 0 0
61 21 2 0.000000 4.74856430 8.54070826 7.57503271 0 0 0
62 21 3 0.000000 4.69891406 7.67686273 8.07634202 0 0 0
63 21 3 0.000000 5.12065271 9.25156806 8.17188598 0 0 0
64 22 2 0.000000 3.28063447 7.12811935 5.09623170 0 0 0
65 22 3 0.000000 3.31220728 7.60766894 4.21928209 0 0 0
66 22 3 0.000000 3.87904338 7.59034183 5.75064932 0 0 0
67 23 2 0.000000 12.58139529 9.87479225 7.36035337 0 0 0
68 23 3 0.000000 12.49543019 9.82602783 6.36524669 0 0 0
69 23 3 0.000000 12.98092277 9.02430865 7.70249472 0 0 0
70 24 2 0.000000 6.25757945 6.19160692 11.12452753 0 0 0
71 24 3 0.000000 6.04095904 6.04448795 10.15941776 0 0 0
72 24 3 0.000000 5.78842293 5.50496995 11.67988968 0 0 0
73 25 2 0.000000 6.08755632 1.38190504 12.15341939 0 0 0
74 25 3 0.000000 6.24175103 0.49358660 11.72084616 0 0 0
75 25 3 0.000000 5.66817408 1.24718473 13.05118008 0 0 0
76 26 2 0.000000 5.04800739 1.31419514 7.56640421 0 0 0
77 26 3 0.000000 4.39188658 1.56324833 6.85402562 0 0 0
78 26 3 0.000000 4.62502433 0.66261008 8.19610852 0 0 0
79 27 2 0.000000 5.45233628 1.45025434 3.80538232 0 0 0
80 27 3 0.000000 5.10563700 1.51233667 2.86945996 0 0 0
81 27 3 0.000000 5.43947867 2.35718797 4.22646586 0 0 0
82 28 2 0.000000 0.30027619 9.80055527 12.85410224 0 0 0
83 28 3 0.000000 1.21618973 9.96105987 13.22199616 0 0 0
84 28 3 0.000000 17.28969885 10.36535446 13.34783791 -1 0 0
85 29 2 0.000000 4.34060445 8.52057835 2.28624240 0 0 0
86 29 3 0.000000 4.83050196 8.72339245 3.13410568 0 0 0
87 29 3 0.000000 3.98401795 9.36946856 1.89606712 0 0 0
88 30 2 0.000000 0.07349345 9.26325021 10.27814996 0 0 0
89 30 3 0.000000 0.50142683 9.97362242 9.71935696 0 0 0
90 30 3 0.000000 0.15988733 9.50267392 11.24521648 0 0 0
91 31 2 0.000000 1.87740641 0.63791446 11.83193523 0 0 0
92 31 3 0.000000 0.91351902 0.80257213 12.04125373 0 0 0
93 31 3 0.000000 1.98358731 20.10071016 11.45085819 0 -1 0
94 32 2 0.000000 6.66122614 4.77277730 6.56907177 0 0 0
95 32 3 0.000000 6.17282280 4.75653965 5.69660183 0 0 0
96 32 3 0.000000 7.64647110 4.79385684 6.39920919 0 0 0
97 33 2 0.000000 8.45568721 11.99086229 10.84097050 0 0 0
98 33 3 0.000000 8.53086152 12.20201091 9.86640888 0 0 0
99 33 3 0.000000 7.49337158 12.00757214 11.11240133 0 0 0
100 34 2 0.000000 6.73425884 3.37996544 14.77707287 0 0 0
101 34 3 0.000000 6.37094500 3.56706776 13.86438396 0 0 0
102 34 3 0.000000 7.01425470 4.23840673 0.23682413 0 0 1
103 35 2 0.000000 4.71578027 4.74027563 12.90999569 0 0 0
104 35 3 0.000000 4.75035695 5.51433592 13.54216686 0 0 0
105 35 3 0.000000 3.76229127 4.49287759 12.73778009 0 0 0
106 36 2 0.000000 4.24086071 8.06308877 13.17396426 0 0 0
107 36 3 0.000000 4.56099572 7.58146017 13.98977841 0 0 0
108 36 3 0.000000 5.01918219 8.48515210 12.70911645 0 0 0
109 37 2 0.000000 9.05643810 16.62064274 10.66638650 0 0 0
110 37 3 0.000000 9.69574200 15.91696776 10.35632633 0 0 0
111 37 3 0.000000 9.45092613 17.52485910 10.50274900 0 0 0
112 38 2 0.000000 13.46359643 9.88385980 1.75864560 0 0 0
113 38 3 0.000000 13.53470193 10.21125512 0.81643459 0 0 0
114 38 3 0.000000 13.16032899 10.63158419 2.34935904 0 0 0
115 39 2 0.000000 1.51787106 11.66306375 9.06521934 0 0 0
116 39 3 0.000000 1.94961188 11.21516862 8.28227931 0 0 0
117 39 3 0.000000 1.44160379 12.64421179 8.88763244 0 0 0
118 40 2 0.000000 1.81757716 3.48661699 13.04627522 0 0 0
119 40 3 0.000000 1.86606573 2.65340601 12.49544529 0 0 0
120 40 3 0.000000 0.87773835 3.62570944 13.35830335 0 0 0
121 41 2 0.000000 2.85584403 12.19832601 11.71085144 0 0 0
122 41 3 0.000000 2.96140382 11.44963361 12.36531465 0 0 0
123 41 3 0.000000 2.50459247 11.83845617 10.84648964 0 0 0
124 42 2 0.000000 5.51716895 9.29420953 5.01808292 0 0 0
125 42 3 0.000000 5.29501047 9.02144541 5.95416551 0 0 0
126 42 3 0.000000 5.48309340 10.29090580 4.94432189 0 0 0
127 43 2 0.000000 2.43370290 3.59461732 1.09112869 0 0 0
128 43 3 0.000000 3.32712613 3.14926399 1.03230155 0 0 0
129 43 3 0.000000 2.09256787 3.78046581 0.16966654 0 0 0
130 44 2 0.000000 16.91056658 9.33180867 5.40592156 0 0 0
131 44 3 0.000000 0.11059206 9.81105197 5.18989224 1 0 0
132 44 3 0.000000 16.98460198 8.37623216 5.12061897 0 0 0
133 45 2 0.000000 11.00224702 14.91575204 9.74085083 0 0 0
134 45 3 0.000000 11.45002522 14.27746377 10.36702016 0 0 0
135 45 3 0.000000 11.39089280 14.81244170 8.82527084 0 0 0
136 46 2 0.000000 12.24206993 17.18321989 10.59521839 0 0 0
137 46 3 0.000000 11.63772214 16.40734949 10.41412687 0 0 0
138 46 3 0.000000 12.50362805 17.61105581 9.73003110 0 0 0
139 47 2 0.000000 2.10768774 6.35926933 11.92893357 0 0 0
140 47 3 0.000000 2.92663499 6.87630429 12.17794263 0 0 0
141 47 3 0.000000 1.43324084 6.42882914 12.66397649 0 0 0
142 48 2 0.000000 8.13343063 10.48244431 6.91875803 0 0 0
143 48 3 0.000000 7.46531980 10.44602050 7.66193129 0 0 0
144 48 3 0.000000 8.37043379 11.43544147 6.72999577 0 0 0
145 49 2 0.000000 12.28740567 13.70366751 11.88091432 0 0 0
146 49 3 0.000000 12.64547833 12.78929740 11.69192611 0 0 0
147 49 3 0.000000 13.00956801 14.26849129 12.28023990 0 0 0
148 50 2 0.000000 4.35338292 15.85481849 8.81693097 0 0 0
149 50 3 0.000000 4.16907992 16.63366401 8.21740005 0 0 0
150 50 3 0.000000 5.00784275 15.24141068 8.37486935 0 0 0
151 51 2 0.000000 3.67649078 10.97191846 1.27723870 0 0 0
152 51 3 0.000000 3.07898394 11.58659912 1.79217416 0 0 0
153 51 3 0.000000 4.45279600 11.48775477 0.91492892 0 0 0
154 52 2 0.000000 1.91237694 12.80814220 2.44069177 0 0 0
155 52 3 0.000000 1.18487087 13.35818645 2.03058018 0 0 0
156 52 3 0.000000 2.23086968 13.24903871 3.27984487 0 0 0
157 53 2 0.000000 7.16457535 16.64480155 14.66833996 0 0 0
158 53 3 0.000000 6.90263492 16.54683312 0.65844135 0 0 1
159 53 3 0.000000 7.19197301 15.74320499 14.23662444 0 0 0
160 54 2 0.000000 7.37788965 2.64529816 8.19003881 0 0 0
161 54 3 0.000000 7.17802473 3.51752164 7.74362478 0 0 0
162 54 3 0.000000 6.53610272 2.11155403 8.27076823 0 0 0
163 55 2 0.000000 10.21431924 17.05050163 3.82433519 0 0 0
164 55 3 0.000000 11.14237007 17.22231249 4.15480147 0 0 0
165 55 3 0.000000 10.24329129 16.82843843 2.84973075 0 0 0
166 56 2 0.000000 3.04194723 13.78146289 4.91287588 0 0 0
167 56 3 0.000000 3.68046817 14.54563847 5.00415554 0 0 0
168 56 3 0.000000 2.42913276 13.76293774 5.70288886 0 0 0
169 57 2 0.000000 0.09242581 14.46451318 1.31248970 0 0 0
170 57 3 0.000000 0.40748140 15.11733137 2.00138277 0 0 0
171 57 3 0.000000 16.84801813 14.10600372 1.57769446 -1 0 0
172 58 2 0.000000 17.32328351 16.99225422 11.01042764 0 0 0
173 58 3 0.000000 16.45592658 17.44191214 11.22374662 0 0 0
174 58 3 0.000000 17.15552226 16.21505625 10.40394206 0 0 0
175 59 2 0.000000 3.69568376 16.87388561 2.58472941 0 0 0
176 59 3 0.000000 2.76323531 16.51839756 2.52012750 0 0 0
177 59 3 0.000000 4.04003209 16.73949459 3.51390569 0 0 0
178 60 2 0.000000 5.19653661 11.93086566 4.86849011 0 0 0
179 60 3 0.000000 5.87189432 12.29480927 4.22705245 0 0 0
180 60 3 0.000000 4.42327273 12.56176801 4.93197622 0 0 0
181 61 2 0.000000 16.72431672 0.89838927 12.64625951 0 0 0
182 61 3 0.000000 16.06969792 0.85689801 13.40108265 0 0 0
183 61 3 0.000000 16.36168201 1.48537801 11.92241866 0 0 0
184 62 2 0.000000 3.66549615 18.39829965 0.35513110 0 0 0
185 62 3 0.000000 3.94658002 17.91929387 1.18672631 0 0 0
186 62 3 0.000000 2.67210869 18.33976047 0.25633947 0 0 0
187 63 2 0.000000 10.82596540 13.31445915 0.60707725 0 0 0
188 63 3 0.000000 11.81163215 13.43834306 0.49253857 0 0 0
189 63 3 0.000000 10.41651183 13.06906127 14.69836630 0 0 -1
190 64 2 0.000000 9.39241780 17.40931272 13.35213932 0 0 0
191 64 3 0.000000 8.58829922 17.39350963 13.94640261 0 0 0
192 64 3 0.000000 9.11437618 17.22202634 12.41000242 0 0 0
193 65 2 0.000000 1.30587346 14.25931290 11.53647387 0 0 0
194 65 3 0.000000 1.85758922 13.45265829 11.74842514 0 0 0
195 65 3 0.000000 1.56804230 15.01090474 12.14176922 0 0 0
196 66 2 0.000000 15.92280644 0.51617613 7.57597917 0 0 0
197 66 3 0.000000 15.30410521 0.76484949 6.83074389 0 0 0
198 66 3 0.000000 15.86318827 1.20175521 8.30153569 0 0 0
199 67 2 0.000000 6.03411913 12.31331476 0.26375062 0 0 0
200 67 3 0.000000 6.33446863 12.95428145 14.52738163 0 0 -1
201 67 3 0.000000 6.56715224 11.46985902 0.19694194 0 0 0
202 68 2 0.000000 3.70822294 19.64929669 9.23654603 0 0 0
203 68 3 0.000000 3.10671615 19.15013559 9.86027117 0 0 0
204 68 3 0.000000 4.65361955 19.57415247 9.55369563 0 0 0
205 69 2 0.000000 6.48128192 16.24557932 2.29754123 0 0 0
206 69 3 0.000000 6.83325905 16.05533559 3.21401529 0 0 0
207 69 3 0.000000 5.51035822 16.47799279 2.35495575 0 0 0
208 70 2 0.000000 6.53447917 15.54811962 11.08305908 0 0 0
209 70 3 0.000000 7.39202233 16.05177503 10.97838701 0 0 0
210 70 3 0.000000 5.87528624 15.86712712 10.40210081 0 0 0
211 71 2 0.000000 5.34257717 13.54290734 7.32997049 0 0 0
212 71 3 0.000000 5.83085809 13.05318983 6.60763831 0 0 0
213 71 3 0.000000 4.94419609 12.88448107 7.96854126 0 0 0
214 72 2 0.000000 2.17575172 18.30242003 11.36484763 0 0 0
215 72 3 0.000000 1.28288465 17.85217105 11.35651036 0 0 0
216 72 3 0.000000 2.85951169 17.67978644 11.74538015 0 0 0
217 73 2 0.000000 5.86887921 18.71912051 13.42282812 0 0 0
218 73 3 0.000000 4.93402187 18.88535317 13.73653775 0 0 0
219 73 3 0.000000 6.31465183 18.06585569 14.03482248 0 0 0
220 74 2 0.000000 8.77868733 7.91865796 2.13379584 0 0 0
221 74 3 0.000000 8.20519406 7.84745918 2.94990948 0 0 0
222 74 3 0.000000 9.73815523 7.99181856 2.40596149 0 0 0
223 75 2 0.000000 7.13259448 17.80302079 7.87507201 0 0 0
224 75 3 0.000000 7.07851009 17.23739576 7.05218169 0 0 0
225 75 3 0.000000 7.02114733 18.76511857 7.62616908 0 0 0
226 76 2 0.000000 15.91922309 13.69253921 5.00412548 0 0 0
227 76 3 0.000000 16.64610980 14.02938114 5.60260564 0 0 0
228 76 3 0.000000 15.63103889 12.78452913 5.30821894 0 0 0
229 77 2 0.000000 7.21461547 14.15612069 13.39653244 0 0 0
230 77 3 0.000000 8.19478947 14.03975323 13.23614910 0 0 0
231 77 3 0.000000 6.80594528 14.64265997 12.62434498 0 0 0
232 78 2 0.000000 4.21006389 18.11417410 6.81324911 0 0 0
233 78 3 0.000000 4.81510521 18.66249255 6.23594749 0 0 0
234 78 3 0.000000 4.08859990 18.56910994 7.69545382 0 0 0
235 79 2 0.000000 16.42360977 13.48549806 12.36856016 0 0 0
236 79 3 0.000000 16.52365934 12.70068327 12.98016551 0 0 0
237 79 3 0.000000 17.32507909 13.77297799 12.04496532 0 0 0
238 80 2 0.000000 15.49108565 13.21534366 2.30928254 0 0 0
239 80 3 0.000000 15.67264018 12.23430246 2.37711608 0 0 0
240 80 3 0.000000 15.67240292 13.64968686 3.19159501 0 0 0
241 81 2 0.000000 3.69453359 0.50057890 13.98836785 0 0 0
242 81 3 0.000000 3.16835100 0.44004859 13.14015016 0 0 0
243 81 3 0.000000 3.58162979 20.03716504 14.51166919 0 -1 0
244 82 2 0.000000 1.77442061 14.68143638 8.89728482 0 0 0
245 82 3 0.000000 2.70329890 15.05180013 8.90187625 0 0 0
246 82 3 0.000000 1.37496822 14.77192784 9.80956458 0 0 0
247 83 2 0.000000 1.71614930 17.25597474 5.34282965 0 0 0
248 83 3 0.000000 2.57072605 17.42205853 5.83488659 0 0 0
249 83 3 0.000000 1.04328989 17.94967225 5.59983014 0 0 0
250 84 2 0.000000 7.23825635 7.33104131 4.19439287 0 0 0
251 84 3 0.000000 6.63094265 8.05870827 4.51325981 0 0 0
252 84 3 0.000000 7.99133891 7.21749215 4.84245037 0 0 0
253 85 2 0.000000 8.91947300 19.17076328 5.05840669 0 0 0
254 85 3 0.000000 9.39113529 18.34273139 4.75525137 0 0 0
255 85 3 0.000000 9.57121243 19.92782944 5.10414305 0 0 0
256 86 2 0.000000 4.23391523 14.72149275 0.36953647 0 0 0
257 86 3 0.000000 4.06113111 15.20309744 1.22872669 0 0 0
258 86 3 0.000000 4.79002632 13.90984682 0.54835651 0 0 0
259 87 2 0.000000 5.00753689 1.85010727 1.10762121 0 0 0
260 87 3 0.000000 5.91693746 2.19261833 0.87165075 0 0 0
261 87 3 0.000000 4.63745178 1.32943876 0.33824056 0 0 0
262 88 2 0.000000 17.50241278 2.90615439 8.60615558 0 0 0
263 88 3 0.000000 0.48567620 3.59003572 8.96734136 1 0 0
264 88 3 0.000000 0.36883190 2.17064591 8.16836140 1 0 0
265 89 2 0.000000 10.39189202 9.38066671 9.40328123 0 0 0
266 89 3 0.000000 11.20147029 9.41628978 8.81734669 0 0 0
267 89 3 0.000000 10.16261719 10.30393359 9.71152884 0 0 0
268 90 2 0.000000 10.69424982 0.79780702 4.94613592 0 0 0
269 90 3 0.000000 10.65229696 1.71650511 5.33886873 0 0 0
270 90 3 0.000000 10.59263228 0.85490357 3.95294957 0 0 0
271 91 2 0.000000 9.98912749 19.26448742 9.96911086 0 0 0
272 91 3 0.000000 10.96115166 19.25623681 9.73436374 0 0 0
273 91 3 0.000000 9.46474584 19.63939978 9.20460456 0 0 0
274 92 2 0.000000 13.77766518 0.00633893 2.50394838 0 0 0
275 92 3 0.000000 14.34487769 0.60460668 3.06994392 0 0 0
276 92 3 0.000000 13.53854593 19.56658463 3.02242818 0 -1 0
277 93 2 0.000000 16.27045411 10.51325322 2.09731668 0 0 0
278 93 3 0.000000 15.34564081 10.18391082 2.28773524 0 0 0
279 93 3 0.000000 16.93205073 9.79826117 2.32332895 0 0 0
280 94 2 0.000000 8.90470445 6.27715167 9.70061088 0 0 0
281 94 3 0.000000 8.08881779 5.86605110 10.10721948 0 0 0
282 94 3 0.000000 8.85235499 7.27245573 9.78206418 0 0 0
283 95 2 0.000000 8.56315221 2.81464771 10.83980737 0 0 0
284 95 3 0.000000 8.03225114 2.77669369 9.99322081 0 0 0
285 95 3 0.000000 8.02626572 2.42431597 11.58773739 0 0 0
286 96 2 0.000000 11.34051524 7.31220995 0.34231012 0 0 0
287 96 3 0.000000 12.21143799 7.05655535 14.89262029 0 0 -1
288 96 3 0.000000 11.34008298 7.03656689 1.30357282 0 0 0
289 97 2 0.000000 1.95982159 6.40679597 0.74116282 0 0 0
290 97 3 0.000000 1.84618128 5.41336088 0.75449973 0 0 0
291 97 3 0.000000 2.93091628 6.63012154 0.65686535 0 0 0
292 98 2 0.000000 14.27259532 2.36058412 4.64476625 0 0 0
293 98 3 0.000000 13.85123548 2.42594178 5.54930455 0 0 0
294 98 3 0.000000 13.65293445 2.74395348 3.95989137 0 0 0
295 99 2 0.000000 11.73039898 5.39442634 9.62539370 0 0 0
296 99 3 0.000000 11.84605784 4.41094883 9.76467860 0 0 0
297 99 3 0.000000 10.75576822 5.61822683 9.62171926 0 0 0
298 100 2 0.000000 9.29144349 2.18106240 14.20048041 0 0 0
299 100 3 0.000000 8.31718232 2.29098780 14.39729724 0 0 0
300 100 3 0.000000 9.45054770 1.27961648 13.79788089 0 0 0
301 101 2 0.000000 15.06256784 9.01991769 9.80187761 0 0 0
302 101 3 0.000000 15.08380251 8.43035969 8.99442748 0 0 0
303 101 3 0.000000 15.99124857 9.31971362 10.02023459 0 0 0
304 102 2 0.000000 16.64186952 0.47913493 4.05424677 0 0 0
305 102 3 0.000000 17.12773102 1.01175662 3.36124027 0 0 0
306 102 3 0.000000 16.01030187 1.07493783 4.55037829 0 0 0
307 103 2 0.000000 9.36129297 5.59750572 6.69659267 0 0 0
308 103 3 0.000000 9.45660017 5.71193353 7.68544457 0 0 0
309 103 3 0.000000 9.63612994 6.44116031 6.23538031 0 0 0
310 104 2 0.000000 13.41947132 7.18878371 8.16316192 0 0 0
311 104 3 0.000000 14.07047827 6.75585923 7.53964638 0 0 0
312 104 3 0.000000 12.79268974 6.49773795 8.52317009 0 0 0
313 105 2 0.000000 9.98533139 20.31316697 12.54975514 0 0 0
314 105 3 0.000000 9.99982029 19.97711286 11.60802111 0 0 0
315 105 3 0.000000 9.94306464 19.53773734 13.17977712 0 0 0
316 106 2 0.000000 13.08082969 5.08673432 5.12974498 0 0 0
317 106 3 0.000000 13.98869107 5.05028170 4.71205588 0 0 0
318 106 3 0.000000 13.09050961 4.58188279 5.99289995 0 0 0
319 107 2 0.000000 13.44802342 6.19067895 13.87035173 0 0 0
320 107 3 0.000000 13.40051098 5.35998054 13.31565542 0 0 0
321 107 3 0.000000 13.46501306 6.99109906 13.27114870 0 0 0
322 108 2 0.000000 5.04335292 6.64357196 0.30845682 0 0 0
323 108 3 0.000000 4.67903739 7.26526370 1.00183900 0 0 0
324 108 3 0.000000 5.95732873 6.34119202 0.57904852 0 0 0
325 109 2 0.000000 14.45278078 0.68976071 14.53215970 0 0 0
326 109 3 0.000000 14.16692482 0.72546129 0.51976980 0 0 1
327 109 3 0.000000 13.65998501 0.84113221 13.94176422 0 0 0
328 110 2 0.000000 15.72581845 5.25589045 3.70420096 0 0 0
329 110 3 0.000000 15.91109041 4.36636586 3.28655808 0 0 0
330 110 3 0.000000 15.38420644 5.88661935 3.00743158 0 0 0
331 111 2 0.000000 16.68504754 4.46501789 13.63543275 0 0 0
332 111 3 0.000000 16.84069385 5.45282823 13.63863091 0 0 0
333 111 3 0.000000 16.29122158 4.19246135 12.75758349 0 0 0
334 112 2 0.000000 15.08362386 17.59342523 7.91218494 0 0 0
335 112 3 0.000000 14.45204153 18.32989206 8.15451870 0 0 0
336 112 3 0.000000 15.94786146 17.98563595 7.59711446 0 0 0
337 113 2 0.000000 11.11153482 5.99674607 2.99993084 0 0 0
338 113 3 0.000000 11.51214597 5.75387703 3.88340728 0 0 0
339 113 3 0.000000 10.25585959 5.49510384 2.87272931 0 0 0
340 114 2 0.000000 13.27752695 2.74498969 7.53608591 0 0 0
341 114 3 0.000000 14.08934374 3.27957492 7.77098465 0 0 0
342 114 3 0.000000 12.82167631 2.44541615 8.37421547 0 0 0
343 115 2 0.000000 9.61534295 8.13218462 5.73203679 0 0 0
344 115 3 0.000000 10.42577423 8.48099107 5.26135594 0 0 0
345 115 3 0.000000 9.02823623 8.89732519 5.99636781 0 0 0
346 116 2 0.000000 14.79502281 7.43452486 1.87220896 0 0 0
347 116 3 0.000000 14.40939025 6.76629127 1.23600406 0 0 0
348 116 3 0.000000 14.28463886 8.29184750 1.80504209 0 0 0
349 117 2 0.000000 10.70320089 1.49672175 1.67860574 0 0 0
350 117 3 0.000000 10.04477468 2.11066970 1.24323450 0 0 0
351 117 3 0.000000 10.76283569 0.64665193 1.15531781 0 0 0
352 118 2 0.000000 9.27594428 8.56384654 11.85376744 0 0 0
353 118 3 0.000000 9.78318184 8.96763185 12.61512987 0 0 0
354 118 3 0.000000 9.80490538 8.66303946 11.01093520 0 0 0
355 119 2 0.000000 11.50319710 3.77238712 13.51942605 0 0 0
356 119 3 0.000000 11.34591428 4.74433813 13.69429351 0 0 0
357 119 3 0.000000 10.66156771 3.26165195 13.69496753 0 0 0
358 120 2 0.000000 11.08046965 2.46292309 9.60878452 0 0 0
359 120 3 0.000000 11.31826365 1.50203850 9.46679827 0 0 0
360 120 3 0.000000 10.25580801 2.52263534 10.17125488 0 0 0
361 121 2 0.000000 15.57128724 2.41359065 10.39862645 0 0 0
362 121 3 0.000000 15.17707453 3.25278898 10.77325663 0 0 0
363 121 3 0.000000 16.34198031 2.64367958 9.80440717 0 0 0
364 122 2 0.000000 12.31899984 17.34937275 13.56663780 0 0 0
365 122 3 0.000000 12.84031747 16.97482858 12.79985891 0 0 0
366 122 3 0.000000 11.35242668 17.11733342 13.45755365 0 0 0
367 123 2 0.000000 0.39475960 8.21688187 2.08602637 0 0 0
368 123 3 0.000000 1.17107185 7.76724293 1.64424658 0 0 0
369 123 3 0.000000 17.39031167 7.52621865 2.39233625 -1 0 0
370 124 2 0.000000 1.60762346 0.93420114 7.87233091 0 0 0
371 124 3 0.000000 2.10208918 1.32093739 7.09390686 0 0 0
372 124 3 0.000000 2.17387040 0.23874797 8.31472728 0 0 0
373 125 2 0.000000 8.96315691 3.97182041 3.55613455 0 0 0
374 125 3 0.000000 8.56595665 4.20626231 4.44341930 0 0 0
375 125 3 0.000000 9.14336942 2.98882291 3.52085504 0 0 0
376 126 2 0.000000 15.55178650 3.29417640 1.28692580 0 0 0
377 126 3 0.000000 14.59409881 3.23319255 1.56820951 0 0 0
378 126 3 0.000000 15.60010017 3.55784161 0.32351949 0 0 0
379 127 2 0.000000 11.99527472 9.07695963 4.62720999 0 0 0
380 127 3 0.000000 12.56507502 8.36710839 4.21315190 0 0 0
381 127 3 0.000000 12.44326742 9.96524257 4.52591227 0 0 0
382 128 2 0.000000 8.80606239 5.97151207 13.13028839 0 0 0
383 128 3 0.000000 8.65758055 6.81494936 12.61398231 0 0 0
384 128 3 0.000000 8.78486438 5.19049342 12.50613633 0 0 0
385 129 2 0.000000 12.42206253 1.37624288 12.85559823 0 0 0
386 129 3 0.000000 11.68426584 0.74038361 13.08219104 0 0 0
387 129 3 0.000000 12.15297849 2.30437137 13.11284630 0 0 0
388 130 2 0.000000 6.45606979 8.89555291 11.76478464 0 0 0
389 130 3 0.000000 6.30405607 7.95517615 11.46050081 0 0 0
390 130 3 0.000000 7.43396223 9.04442859 11.91164399 0 0 0
391 131 2 0.000000 6.11070150 19.41806732 5.20608384 0 0 0
392 131 3 0.000000 7.05360135 19.21608429 4.94122916 0 0 0
393 131 3 0.000000 5.76344754 20.17437819 4.65163472 0 0 0
394 132 2 0.000000 0.80302869 15.88227215 13.79825111 0 0 0
395 132 3 0.000000 1.00854417 15.30054365 14.58524578 0 0 0
396 132 3 0.000000 0.99337404 16.83621720 14.03011910 0 0 0
397 133 2 0.000000 10.43209042 9.75203942 14.06796935 0 0 0
398 133 3 0.000000 10.63133241 8.89489188 14.54294935 0 0 0
399 133 3 0.000000 11.23593189 10.34598041 14.10080622 0 0 0
400 134 2 0.000000 9.44685186 12.02209077 2.56111081 0 0 0
401 134 3 0.000000 10.03225570 12.40390908 1.84590287 0 0 0
402 134 3 0.000000 9.39793017 11.02874350 2.45683639 0 0 0
403 135 2 0.000000 13.60004492 13.66533774 0.48305694 0 0 0
404 135 3 0.000000 14.43091375 13.67408695 1.03946120 0 0 0
405 135 3 0.000000 13.56877741 14.48958883 14.88769180 0 0 -1
406 136 2 0.000000 9.34756073 12.88268278 5.40621936 0 0 0
407 136 3 0.000000 9.45165416 12.57703981 4.45977749 0 0 0
408 136 3 0.000000 10.24970785 13.05273116 5.80272836 0 0 0
409 137 2 0.000000 15.36502694 9.02496232 14.06737600 0 0 0
410 137 3 0.000000 15.57810905 8.83983744 0.05671435 0 0 1
411 137 3 0.000000 16.19127609 8.91432783 13.51503767 0 0 0
412 138 2 0.000000 13.09409897 17.79754954 4.16923145 0 0 0
413 138 3 0.000000 13.28302878 17.58413061 3.21071011 0 0 0
414 138 3 0.000000 13.35303927 17.01929797 4.74131509 0 0 0
415 139 2 0.000000 9.85982374 13.30032336 12.91370636 0 0 0
416 139 3 0.000000 9.42983516 12.58018933 12.36916797 0 0 0
417 139 3 0.000000 10.76017614 13.51278549 12.53392923 0 0 0
418 140 2 0.000000 12.98575537 3.34244868 2.05177226 0 0 0
419 140 3 0.000000 12.48297744 4.20573945 2.09591609 0 0 0
420 140 3 0.000000 12.33994941 2.58519126 1.95429842 0 0 0
421 141 2 0.000000 13.20928745 7.69400100 11.36268410 0 0 0
422 141 3 0.000000 12.43369747 7.37677594 10.81694267 0 0 0
423 141 3 0.000000 13.70873426 8.39632875 10.85544265 0 0 0
424 142 2 0.000000 13.62709732 0.70919990 10.53757830 0 0 0
425 142 3 0.000000 13.08262724 0.90616302 11.35290838 0 0 0
426 142 3 0.000000 14.41660154 1.32222988 10.50786997 0 0 0
427 143 2 0.000000 17.62139199 19.24888523 6.13174293 0 0 0
428 143 3 0.000000 17.13723444 19.76170313 5.42278980 0 0 0
429 143 3 0.000000 17.40076382 19.63111940 7.02908652 0 0 0
430 144 2 0.000000 14.35848949 15.26789709 12.71170399 0 0 0
431 144 3 0.000000 14.59273331 15.86352722 13.48005277 0 0 0
432 144 3 0.000000 15.12706137 14.65891185 12.51564396 0 0 0
433 145 2 0.000000 11.50536062 14.89870136 6.86473320 0 0 0
434 145 3 0.000000 10.91435218 15.70025560 6.77404088 0 0 0
435 145 3 0.000000 12.41715248 15.11567580 6.51607437 0 0 0
436 146 2 0.000000 16.49050416 18.34956734 2.62321046 0 0 0
437 146 3 0.000000 16.47312116 19.11264847 3.26928343 0 0 0
438 146 3 0.000000 15.75401372 18.46087701 1.95597941 0 0 0
439 147 2 0.000000 15.76116506 12.54423750 8.63680930 0 0 0
440 147 3 0.000000 16.73340735 12.31909778 8.70054562 0 0 0
441 147 3 0.000000 15.60335060 13.45281341 9.02357756 0 0 0
442 148 2 0.000000 10.40103166 17.70885157 6.99088165 0 0 0
443 148 3 0.000000 9.62095670 18.15376480 6.55094922 0 0 0
444 148 3 0.000000 11.07669494 18.39943153 7.24891986 0 0 0
445 149 2 0.000000 10.26362403 15.88897416 1.16764460 0 0 0
446 149 3 0.000000 10.25092478 14.91716442 0.93220915 0 0 0
447 149 3 0.000000 9.65215774 16.38861987 0.55407438 0 0 0
448 150 2 0.000000 13.84518548 15.84003569 5.83059645 0 0 0
449 150 3 0.000000 14.51951512 15.18732904 5.48525773 0 0 0
450 150 3 0.000000 14.17916231 16.24559242 6.68147158 0 0 0
451 151 2 0.000000 0.94986442 18.35806485 0.14495803 0 0 0
452 151 3 0.000000 0.25975297 18.72156209 14.48916156 0 0 -1
453 151 3 0.000000 0.52927233 18.17082181 1.03267848 0 0 0
454 152 2 0.000000 6.99201013 13.01348452 3.23080536 0 0 0
455 152 3 0.000000 6.89963936 13.52428652 2.37608072 0 0 0
456 152 3 0.000000 7.75626730 12.37298840 3.15543314 0 0 0
457 153 2 0.000000 13.15510174 19.97013859 5.86883440 0 0 0
458 153 3 0.000000 12.30108489 0.00835384 5.56105054 0 1 0
459 153 3 0.000000 13.29285974 19.10371947 5.38889073 0 0 0
460 154 2 0.000000 8.76122942 0.37033791 7.90765594 0 0 0
461 154 3 0.000000 8.38156946 1.28087459 8.07132188 0 0 0
462 154 3 0.000000 8.36236376 20.36895669 7.07427461 0 -1 0
463 155 2 0.000000 13.48034145 16.90317934 1.72549092 0 0 0
464 155 3 0.000000 14.31044037 16.73100927 1.19511509 0 0 0
465 155 3 0.000000 12.67903220 16.77802671 1.14047334 0 0 0
466 156 2 0.000000 15.15987365 11.20904180 6.04942306 0 0 0
467 156 3 0.000000 15.62084004 10.32593968 5.96198214 0 0 0
468 156 3 0.000000 15.32347551 11.58144894 6.96296157 0 0 0
469 157 2 0.000000 12.44349731 14.32235088 3.57737115 0 0 0
470 157 3 0.000000 12.79716198 15.00568497 2.93863717 0 0 0
471 157 3 0.000000 11.46186532 14.46304922 3.70624272 0 0 0
472 158 2 0.000000 5.02393919 5.77759169 8.51445409 0 0 0
473 158 3 0.000000 4.23572051 5.20441000 8.73846153 0 0 0
474 158 3 0.000000 5.49584205 5.39902514 7.71821272 0 0 0
475 159 2 0.000000 0.49646285 14.60396407 6.51665225 0 0 0
476 159 3 0.000000 0.93039117 15.26095115 5.90014640 0 0 0
477 159 3 0.000000 0.90812237 14.67712175 7.42505175 0 0 0
478 160 2 0.000000 15.44054758 15.36028911 9.60984957 0 0 0
479 160 3 0.000000 15.01236681 15.63672090 10.47022853 0 0 0
480 160 3 0.000000 15.33744473 16.09195768 8.93602750 0 0 0
481 161 2 0.000000 8.18628126 13.21557195 8.34804154 0 0 0
482 161 3 0.000000 7.41171643 13.74065174 7.99541451 0 0 0
483 161 3 0.000000 9.04079694 13.64620389 8.05758610 0 0 0
484 162 2 0.000000 3.77265542 16.19160468 12.56718763 0 0 0
485 162 3 0.000000 4.01193234 16.05428321 13.52838201 0 0 0
486 162 3 0.000000 4.54114381 15.91600872 11.98971233 0 0 0
487 163 2 0.000000 4.79732930 16.16590049 4.93664559 0 0 0
488 163 3 0.000000 5.74044492 15.87360837 5.09508651 0 0 0
489 163 3 0.000000 4.53509617 16.83640712 5.63066281 0 0 0
490 164 2 0.000000 16.04627024 18.96193002 14.05879764 0 0 0
491 164 3 0.000000 15.46626226 19.68256474 14.43864185 0 0 0
492 164 3 0.000000 15.82846344 18.83407350 13.09121396 0 0 0
493 165 2 0.000000 14.85610328 18.64725860 11.46741153 0 0 0
494 165 3 0.000000 14.79176340 19.58179826 11.11740971 0 0 0
495 165 3 0.000000 13.95111415 18.22213290 11.45103817 0 0 0
496 166 2 0.000000 11.71568834 19.56231189 0.25943066 0 0 0
497 166 3 0.000000 12.15979525 19.71400819 1.14247231 0 0 0
498 166 3 0.000000 12.18552392 18.82626865 14.74209078 0 0 -1
499 167 2 0.000000 0.97396388 16.48673882 2.90657115 0 0 0
500 167 3 0.000000 1.30835209 16.75498817 3.81002679 0 0 0
501 167 3 0.000000 0.20732642 17.07401194 2.64698968 0 0 0
502 168 2 0.000000 16.97841243 11.85357802 14.67153022 0 0 0
503 168 3 0.000000 17.40724125 12.71234619 14.95193768 0 0 0
504 168 3 0.000000 16.92097027 11.23757063 0.48717681 0 0 1
505 169 2 0.000000 13.13320049 11.58016482 3.89640548 0 0 0
506 169 3 0.000000 12.89991353 12.51490294 3.62836236 0 0 0
507 169 3 0.000000 13.83101876 11.60300393 4.61231980 0 0 0
508 170 2 0.000000 14.46051641 11.71368338 11.56374890 0 0 0
509 170 3 0.000000 14.60663238 11.32869243 10.65246554 0 0 0
510 170 3 0.000000 15.16919514 12.39239730 11.75643297 0 0 0
511 171 2 0.000000 15.51608015 5.01320025 7.59657491 0 0 0
512 171 3 0.000000 15.77110589 5.62670286 8.34395814 0 0 0
513 171 3 0.000000 16.15303887 4.24292491 7.56551431 0 0 0
514 172 2 0.000000 7.67930267 15.43150705 4.66828738 0 0 0
515 172 3 0.000000 7.71866569 14.47237207 4.38808046 0 0 0
516 172 3 0.000000 8.60615497 15.76909780 4.83255114 0 0 0
517 173 2 0.000000 12.88965341 11.16363691 14.12690104 0 0 0
518 173 3 0.000000 13.27483322 11.98526467 14.54710291 0 0 0
519 173 3 0.000000 13.44922420 10.89691731 13.34220589 0 0 0
520 174 2 0.000000 15.07572180 5.01682651 11.14831717 0 0 0
521 174 3 0.000000 14.36480532 5.71519123 11.23132158 0 0 0
522 174 3 0.000000 15.86994247 5.40369872 10.67975693 0 0 0
523 175 2 0.000000 15.56187854 16.40200229 14.95111194 0 0 0
524 175 3 0.000000 16.28587985 15.77866748 14.65567819 0 0 0
525 175 3 0.000000 15.83029287 17.34400965 14.74966431 0 0 0
526 176 2 0.000000 2.76712603 19.92780782 3.45080176 0 0 0
527 176 3 0.000000 1.88231523 19.50253747 3.64122299 0 0 0
528 176 3 0.000000 2.97799702 19.83709294 2.47750350 0 0 0

RigidBodies

1 1
2 1
3 1
4 2
5 2
6 2
7 3
8 3
9 3
10 4
11 4
12 4
13 5
14 5
15 5
16 6
17 6
18 6
19 7
20 7
21 7
22 8
23 8
24 8
25 9
26 9
27 9
28 10
29 10
30 10
31 11
32 11
33 11
34 12
35 12
36 12
37 13
38 13
39 13
40 14
41 14
42 14
43 15
44 15
45 15
46 16
47 16
48 16
49 17
50 17
51 17
52 18
53 18
54 18
55 19
56 19
57 19
58 20
59 20
60 20
61 21
62 21
63 21
64 22
65 22
66 22
67 23
68 23
69 23
70 24
71 24
72 24
73 25
74 25
75 25
76 26
77 26
78 26
79 27
80 27
81 27
82 28
83 28
84 28
85 29
86 29
87 29
88 30
89 30
90 30
91 31
92 31
93 31
94 32
95 32
96 32
97 33
98 33
99 33
100 34
101 34
102 34
103 35
104 35
105 35
106 36
107 36
108 36
109 37
110 37
111 37
112 38
113 38
114 38
115 39
116 39
117 39
118 40
119 40
120 40
121 41
122 41
123 41
124 42
125 42
126 42
127 43
128 43
129 43
130 44
131 44
132 44
133 45
134 45
135 45
136 46
137 46
138 46
139 47
140 47
141 47
142 48
143 48
144 48
145 49
146 49
147 49
148 50
149 50
150 50
151 51
152 51
153 51
154 52
155 52
156 52
157 53
158 53
159 53
160 54
161 54
162 54
163 55
164 55
165 55
166 56
167 56
168 56
169 57
170 57
171 57
172 58
173 58
174 58
175 59
176 59
177 59
178 60
179 60
180 60
181 61
182 61
183 61
184 62
185 62
186 62
187 63
188 63
189 63
190 64
191 64
192 64
193 65
194 65
195 65
196 66
197 66
198 66
199 67
200 67
201 67
202 68
203 68
204 68
205 69
206 69
207 69
208 70
209 70
210 70
211 71
212 71
213 71
214 72
215 72
216 72
217 73
218 73
219 73
220 74
221 74
222 74
223 75
224 75
225 75
226 76
227 76
228 76
229 77
230 77
231 77
232 78
233 78
234 78
235 79
236 79
237 79
238 80
239 80
240 80
241 81
242 81
243 81
244 82
245 82
246 82
247 83
248 83
249 83
250 84
251 84
252 84
253 85
254 85
255 85
256 86
257 86
258 86
259 87
260 87
261 87
262 88
263 88
264 88
265 89
266 89
267 89
268 90
269 90
270 90
271 91
272 91
273 91
274 92
275 92
276 92
277 93
278 93
279 93
280 94
281 94
282 94
283 95
284 95
285 95
286 96
287 96
288 96
289 97
290 97
291 97
292 98
293 98
294 98
295 99
296 99
297 99
298 100
299 100
300 100
301 101
302 101
303 101
304 102
305 102
306 102
307 103
308 103
309 103
310 104
311 104
312 104
313 105
314 105
315 105
316 106
317 106
318 106
319 107
320 107
321 107
322 108
323 108
324 108
325 109
326 109
327 109
328 110
329 110
330 110
331 111
332 111
333 111
334 112
335 112
336 112
337 113
338 113
339 113
340 114
341 114
342 114
343 115
344 115
345 115
346 116
347 116
348 116
349 117
350 117
351 117
352 118
353 118
354 118
355 119
356 119
357 119
358 120
359 120
360 120
361 121
362 121
363 121
364 122
365 122
366 122
367 123
368 123
369 123
370 124
371 124
372 124
373 125
374 125
375 125
376 126
377 126
378 126
379 127
380 127
381 127
382 128
383 128
384 128
385 129
386 129
387 129
388 130
389 130
390 130
391 131
392 131
393 131
394 132
395 132
396 132
397 133
398 133
399 133
400 134
401 134
402 134
403 135
404 135
405 135
406 136
407 136
408 136
409 137
410 137
411 137
412 138
413 138
414 138
415 139
416 139
417 139
418 140
419 140
420 140
421 141
422 141
423 141
424 142
425 142
426 142
427 143
428 143
429 143
430 144
431 144
432 144
433 145
434 145
435 145
436 146
437 146
438 146
439 147
440 147
441 147
442 148
443 148
444 148
445 149
446 149
447 149
448 150
449 150
450 150
451 151
452 151
453 151
454 152
455 152
456 152
457 153
458 153
459 153
460 154
461 154
462 154
463 155
464 155
465 155
466 156
467 156
468 156
469 157
470 157
471 157
472 158
473 158
474 158
475 159
476 159
477 159
478 160
479 160
480 160
481 161
482 161
483 161
484 162
485 162
486 162
487 163
488 163
489 163
490 164
491 164
492 164
493 165
494 165
495 165
496 166
497 166
498 166
499 167
500 167
501 167
502 168
503 168
504 168
505 169
506 169
507 169
508 170
509 170
510 170
511 171
512 171
513 171
514 172
515 172
516 172
517 173
518 173
519 173
520 174
521 174
522 174
523 175
524 175
525 175
526 176
527 176
528 176
