ITEM: TIMESTEP
0
ITEM: NUMBER OF ATOMS
240
ITEM: BOX BOUNDS pp pp ff
0.0000000000000000e+00 1.7650658050000001e+01
0.0000000000000000e+00 2.0381224350000000e+01
0.0000000000000000e+00 6.0000000000000000e+01
ITEM: ATOMS id type q
1 1 -0.0230162355521
2 1 -0.0230162286548
3 1 -0.023016221694
4 1 -0.0230162273112
5 1 -0.0230162355686
6 1 -0.0230162286614
7 1 -0.023016221687
8 1 -0.0230162272946
9 1 -0.0230162355565
10 1 -0.0230162286615
11 1 -0.0230162216983
12 1 -0.0230162273179
13 1 -0.023016235573
14 1 -0.0230162286681
15 1 -0.0230162216914
16 1 -0.0230162273013
17 1 -0.023016235564
18 1 -0.0230162286676
19 1 -0.0230162217059
20 1 -0.0230162273239
21 1 -0.0230162355805
22 1 -0.0230162286742
23 1 -0.0230162216989
24 1 -0.0230162273074
25 1 -0.0230162355664
26 1 -0.0230162286653
27 1 -0.0230162217082
28 1 -0.0230162273216
29 1 -0.0230162355828
30 1 -0.0230162286718
31 1 -0.0230162217013
32 1 -0.0230162273051
33 1 -0.0230162355603
34 1 -0.0230162286577
35 1 -0.0230162217021
36 1 -0.0230162273141
37 1 -0.0230162355768
38 1 -0.0230162286643
39 1 -0.0230162216952
40 1 -0.0230162272975
41 1 -0.0230162355536
42 1 -0.0230162286534
43 1 -0.0230162216954
44 1 -0.0230162273097
45 1 -0.0230162355701
46 1 -0.0230162286599
47 1 -0.0230162216885
48 1 -0.0230162272931
49 1 -0.00264495426465
50 1 -0.00264494316541
51 1 -0.00264494215813
52 1 -0.00264495302437
53 1 -0.00264495427434
54 1 -0.0026449431663
55 1 -0.00264494214972
56 1 -0.00264495301149
57 1 -0.00264495426899
58 1 -0.00264494317041
59 1 -0.00264494216247
60 1 -0.00264495302937
61 1 -0.00264495427868
62 1 -0.0026449431713
63 1 -0.00264494215406
64 1 -0.00264495301649
65 1 -0.00264495427306
66 1 -0.002644943172
67 1 -0.00264494216654
68 1 -0.00264495303096
69 1 -0.00264495428276
70 1 -0.00264494317288
71 1 -0.00264494215814
72 1 -0.00264495301807
73 1 -0.00264495427148
74 1 -0.00264494316792
75 1 -0.00264494216496
76 1 -0.00264495302688
77 1 -0.00264495428117
78 1 -0.00264494316881
79 1 -0.00264494215655
80 1 -0.00264495301399
81 1 -0.00264495426648
82 1 -0.00264494316358
83 1 -0.00264494215996
84 1 -0.00264495302254
85 1 -0.00264495427617
86 1 -0.00264494316447
87 1 -0.00264494215155
88 1 -0.00264495300965
89 1 -0.0026449542638
90 1 -0.00264494316273
91 1 -0.00264494215727
92 1 -0.00264495302169
93 1 -0.00264495427349
94 1 -0.00264494316362
95 1 -0.00264494214887
96 1 -0.0026449530088
97 1 1.22311361332e-06
98 1 1.22539623335e-06
99 1 1.22310116092e-06
100 1 1.22081694787e-06
101 1 1.22311226566e-06
102 1 1.2253992666e-06
103 1 1.22310675604e-06
104 1 1.22082168712e-06
105 1 1.22311361767e-06
106 1 1.22539623683e-06
107 1 1.22310116526e-06
108 1 1.22081695136e-06
109 1 1.22311227002e-06
110 1 1.2253992701e-06
111 1 1.22310676039e-06
112 1 1.2208216906e-06
113 1 1.22311361909e-06
114 1 1.22539623542e-06
115 1 1.22310116671e-06
116 1 1.22081694992e-06
117 1 1.22311227144e-06
118 1 1.22539926866e-06
119 1 1.22310676182e-06
120 1 1.22082168917e-06
121 1 1.22311361561e-06
122 1 1.22539623108e-06
123 1 1.22310116322e-06
124 1 1.22081694559e-06
125 1 1.22311226794e-06
126 1 1.22539926431e-06
127 1 1.22310675832e-06
128 1 1.22082168485e-06
129 1 1.22311361135e-06
130 1 1.22539622799e-06
131 1 1.22310115896e-06
132 1 1.2208169425e-06
133 1 1.22311226369e-06
134 1 1.22539926122e-06
135 1 1.22310675405e-06
136 1 1.22082168173e-06
137 1 1.22311361024e-06
138 1 1.2253962291e-06
139 1 1.22310115783e-06
140 1 1.2208169436e-06
141 1 1.22311226256e-06
142 1 1.22539926233e-06
143 1 1.22310675294e-06
144 1 1.22082168284e-06
145 1 0.0026775026895
146 1 0.0026775014271
147 1 0.00267749063114
148 1 0.00267749166237
149 1 0.00267750269395
150 1 0.00267750143145
151 1 0.00267749063232
152 1 0.00267749165988
153 1 0.00267750269355
154 1 0.00267750142867
155 1 0.00267749063519
156 1 0.00267749166394
157 1 0.00267750269799
158 1 0.00267750143302
159 1 0.00267749063637
160 1 0.00267749166145
161 1 0.00267750269198
162 1 0.00267750142462
163 1 0.00267749063362
164 1 0.00267749165989
165 1 0.00267750269643
166 1 0.00267750142897
167 1 0.0026774906348
168 1 0.0026774916574
169 1 0.002677502687
170 1 0.00267750142029
171 1 0.00267749062864
172 1 0.00267749165556
173 1 0.00267750269144
174 1 0.00267750142463
175 1 0.00267749062982
176 1 0.00267749165307
177 1 0.00267750268432
178 1 0.00267750141943
179 1 0.00267749062596
180 1 0.00267749165471
181 1 0.00267750268876
182 1 0.00267750142378
183 1 0.00267749062714
184 1 0.00267749165221
185 1 0.00267750268517
186 1 0.00267750142212
187 1 0.00267749062681
188 1 0.00267749165739
189 1 0.00267750268961
190 1 0.00267750142646
191 1 0.00267749062799
192 1 0.00267749165489
193 1 0.0229824640147
194 1 0.0229824557541
195 1 0.0229824501509
196 1 0.0229824571192
197 1 0.0229824640214
198 1 0.0229824557574
199 1 0.0229824501484
200 1 0.0229824571128
201 1 0.022982464017
202 1 0.0229824557517
203 1 0.0229824501533
204 1 0.0229824571169
205 1 0.0229824640238
206 1 0.022982455755
207 1 0.0229824501507
208 1 0.0229824571104
209 1 0.0229824640109
210 1 0.0229824557441
211 1 0.0229824501472
212 1 0.0229824571093
213 1 0.0229824640177
214 1 0.0229824557474
215 1 0.0229824501446
216 1 0.0229824571029
217 1 0.0229824640042
218 1 0.0229824557398
219 1 0.0229824501404
220 1 0.0229824571049
221 1 0.022982464011
222 1 0.0229824557431
223 1 0.0229824501379
224 1 0.0229824570985
225 1 0.0229824640027
226 1 0.0229824557412
227 1 0.022982450139
228 1 0.0229824571064
229 1 0.0229824640095
230 1 0.0229824557445
231 1 0.0229824501364
232 1 0.0229824571
233 1 0.0229824640071
234 1 0.022982455748
235 1 0.0229824501433
236 1 0.0229824571131
237 1 0.0229824640139
238 1 0.0229824557513
239 1 0.0229824501408
240 1 0.0229824571067
