ITEM: TIMESTEP
0
ITEM: NUMBER OF ATOMS
240
ITEM: BOX BOUNDS pp pp ff
0.0000000000000000e+00 1.7650658050000001e+01
0.0000000000000000e+00 2.0381224350000000e+01
0.0000000000000000e+00 6.0000000000000000e+01
ITEM: ATOMS id type q
1 1 -0.0318475413965
2 1 -0.0318474953583
3 1 -0.0318474703928
4 1 -0.0318475104802
5 1 -0.0318475414601
6 1 -0.0318474953744
7 1 -0.0318474703519
8 1 -0.0318475104064
9 1 -0.0318475414006
10 1 -0.0318474953657
11 1 -0.0318474703968
12 1 -0.0318475104876
13 1 -0.0318475414641
14 1 -0.0318474953818
15 1 -0.0318474703559
16 1 -0.0318475104138
17 1 -0.0318475414102
18 1 -0.0318474953742
19 1 -0.0318474704065
20 1 -0.0318475104961
21 1 -0.0318475414738
22 1 -0.0318474953904
23 1 -0.0318474703656
24 1 -0.0318475104223
25 1 -0.0318475414136
26 1 -0.0318474953708
27 1 -0.0318474704099
28 1 -0.0318475104927
29 1 -0.0318475414772
30 1 -0.0318474953869
31 1 -0.031847470369
32 1 -0.0318475104189
33 1 -0.0318475414051
34 1 -0.0318474953612
35 1 -0.0318474704014
36 1 -0.031847510483
37 1 -0.0318475414687
38 1 -0.0318474953773
39 1 -0.0318474703605
40 1 -0.0318475104093
41 1 -0.0318475413977
42 1 -0.0318474953571
43 1 -0.031847470394
44 1 -0.031847510479
45 1 -0.0318475414613
46 1 -0.0318474953733
47 1 -0.0318474703531
48 1 -0.0318475104052
49 1 0.00898754850438
50 1 0.0089876085065
51 1 0.0089875997426
52 1 0.00898754302294
53 1 0.00898754846317
54 1 0.00898760851625
55 1 0.00898759979755
56 1 0.00898754309112
57 1 0.00898754850121
58 1 0.00898760850143
59 1 0.00898759973943
60 1 0.00898754301787
61 1 0.00898754845999
62 1 0.00898760851118
63 1 0.00898759979438
64 1 0.00898754308605
65 1 0.00898754849627
66 1 0.00898760849935
67 1 0.0089875997345
68 1 0.00898754301579
69 1 0.00898754845506
70 1 0.00898760850909
71 1 0.00898759978944
72 1 0.00898754308397
73 1 0.00898754849835
74 1 0.00898760850428
75 1 0.00898759973658
76 1 0.00898754302072
77 1 0.00898754845714
78 1 0.00898760851403
79 1 0.00898759979152
80 1 0.0089875430889
81 1 0.00898754850342
82 1 0.00898760850746
83 1 0.00898759974165
84 1 0.00898754302389
85 1 0.00898754846221
86 1 0.0089876085172
87 1 0.00898759979659
88 1 0.00898754309208
89 1 0.00898754850427
90 1 0.00898760850734
91 1 0.00898759974249
92 1 0.00898754302378
93 1 0.00898754846305
94 1 0.00898760851709
95 1 0.00898759979744
96 1 0.00898754309196
97 1 -5.61175216074e-05
98 1 -5.6091011832e-05
99 1 -5.61177020705e-05
100 1 -5.6144224158e-05
101 1 -5.61175344957e-05
102 1 -5.60909819658e-05
103 1 -5.61176474871e-05
104 1 -5.61441776141e-05
105 1 -5.61175215323e-05
106 1 -5.60910117645e-05
107 1 -5.61177019954e-05
108 1 -5.61442240905e-05
109 1 -5.61175344207e-05
110 1 -5.60909818983e-05
111 1 -5.6117647412e-05
112 1 -5.61441775466e-05
113 1 -5.61175215035e-05
114 1 -5.60910117934e-05
115 1 -5.61177019667e-05
116 1 -5.61442241192e-05
117 1 -5.61175343919e-05
118 1 -5.60909819272e-05
119 1 -5.61176473832e-05
120 1 -5.61441775754e-05
121 1 -5.61175215711e-05
122 1 -5.60910118684e-05
123 1 -5.61177020342e-05
124 1 -5.61442241944e-05
125 1 -5.61175344595e-05
126 1 -5.60909820022e-05
127 1 -5.61176474508e-05
128 1 -5.61441776506e-05
129 1 -5.61175216343e-05
130 1 -5.60910119094e-05
131 1 -5.61177020974e-05
132 1 -5.61442242353e-05
133 1 -5.61175345226e-05
134 1 -5.60909820431e-05
135 1 -5.6117647514e-05
136 1 -5.61441776916e-05
137 1 -5.61175216485e-05
138 1 -5.60910118952e-05
139 1 -5.61177021115e-05
140 1 -5.61442242212e-05
141 1 -5.61175345367e-05
142 1 -5.6090982029e-05
143 1 -5.61176475281e-05
144 1 -5.61441776774e-05
145 1 -0.00881556005981
146 1 -0.00881555475031
147 1 -0.00881561111367
148 1 -0.00881561971457
149 1 -0.00881556004849
150 1 -0.00881555471034
151 1 -0.00881561107112
152 1 -0.00881561969337
153 1 -0.00881556005503
154 1 -0.00881555474831
155 1 -0.00881561110889
156 1 -0.00881561971257
157 1 -0.00881556004371
158 1 -0.00881555470834
159 1 -0.00881561106634
160 1 -0.00881561969137
161 1 -0.00881556005703
162 1 -0.00881555475309
163 1 -0.00881561111089
164 1 -0.00881561971735
165 1 -0.00881556004571
166 1 -0.00881555471312
167 1 -0.00881561106834
168 1 -0.00881561969615
169 1 -0.00881556006201
170 1 -0.00881555475625
171 1 -0.00881561111587
172 1 -0.00881561972052
173 1 -0.00881556005069
174 1 -0.00881555471628
175 1 -0.00881561107332
176 1 -0.00881561969931
177 1 -0.00881556006287
178 1 -0.00881555475615
179 1 -0.00881561111673
180 1 -0.00881561972041
181 1 -0.00881556005155
182 1 -0.00881555471618
183 1 -0.00881561107418
184 1 -0.00881561969921
185 1 -0.00881556006297
186 1 -0.00881555475528
187 1 -0.00881561111683
188 1 -0.00881561971955
189 1 -0.00881556005165
190 1 -0.00881555471531
191 1 -0.00881561107428
192 1 -0.00881561969834
193 1 0.0317316703413
194 1 0.0317316393969
195 1 0.0317315995593
196 1 0.031731624507
197 1 0.0317316703679
198 1 0.031731639433
199 1 0.0317315995819
200 1 0.0317316245046
201 1 0.0317316703449
202 1 0.0317316393934
203 1 0.0317315995629
204 1 0.0317316245034
205 1 0.0317316703715
206 1 0.0317316394294
207 1 0.0317315995855
208 1 0.031731624501
209 1 0.031731670336
210 1 0.0317316393835
211 1 0.0317315995541
212 1 0.0317316244935
213 1 0.0317316703627
214 1 0.0317316394195
215 1 0.0317315995766
216 1 0.0317316244911
217 1 0.0317316703286
218 1 0.0317316393794
219 1 0.0317315995466
220 1 0.0317316244895
221 1 0.0317316703552
222 1 0.0317316394155
223 1 0.0317315995692
224 1 0.0317316244871
225 1 0.0317316703274
226 1 0.0317316393806
227 1 0.0317315995454
228 1 0.0317316244906
229 1 0.031731670354
230 1 0.0317316394167
231 1 0.031731599568
232 1 0.0317316244883
233 1 0.0317316703314
234 1 0.0317316393881
235 1 0.0317315995494
236 1 0.0317316244981
237 1 0.031731670358
238 1 0.0317316394241
239 1 0.031731599572
240 1 0.0317316244958
