LAMMPS data file via write_data, version 30 Mar 2026, timestep = 40000, units = metal

192 atoms
2 atom types

0 12.4 xlo xhi
0 12.4 ylo yhi
0 12.4 zlo zhi

Masses

1 15.9994
2 1.008

Atoms # full

93 31 2 0.4881878677132364 1.8677880919583651 1.592898929114737 3.3628236302504533 0 0 0
91 31 1 -1.109508838090579 2.2468226525128276 1.0944263123646298 4.142479403496287 0 0 0
92 31 2 0.6213209703773421 2.2018185588635224 1.6693267026142087 4.959467436055919 0 0 0
112 38 1 -1.143736498444175 3.326509515569021 5.096365783334094 3.283065057386746 0 0 0
113 38 2 0.5549177283827637 3.6744583177563963 5.8368629276494515 3.8580440855407576 0 0 0
114 38 2 0.5888187700614109 3.982061903513829 4.341222793407043 3.2791402741248366 0 0 0
121 41 1 -1.247832524843987 12.307981767914468 4.898946364657125 5.881468202736429 -1 0 0
97 33 1 -0.9708967703629534 0.7116085697756014 4.037305990051095 3.0861188151360586 0 0 0
98 33 2 0.4330320301244842 0.18961741269081578 4.257114654520314 3.910263617612873 0 0 0
99 33 2 0.5378647402384692 1.6069218998449304 4.480531759315012 3.1305060989072326 0 0 0
41 14 2 0.4653124310162309 0.920842603098306 1.0304102785209448 0.8748456534683773 0 0 0
40 14 1 -0.9701204626825641 1.629312092875835 1.5490799502557968 1.3534457226042782 0 0 0
42 14 2 0.5048080316663328 1.2887831144074018 2.4663618915418324 1.5599381619666621 0 0 0
148 50 1 -1.045020793981298 2.375865716598137 3.1665216839744765 6.0801127275749 0 0 0
150 50 2 0.5007564175539507 1.6568242551429686 3.847874315632444 5.943206772477945 0 0 0
43 15 1 -1.015165151412249 4.452996971987506 1.164599110485644 1.1451532226165742 0 0 0
70 24 1 -1.105678092100145 5.335738568191059 3.1443983117050314 2.9016572956227176 0 0 0
72 24 2 0.6066395002776315 5.088554082711851 2.3720534797468065 2.316517514727725 0 0 0
147 49 2 0.5256150699670105 2.59911864099912 5.223968212018854 1.1525523525915002 0 0 1
45 15 2 0.5286520376443928 3.458623290718532 1.2537958418792883 1.087967580990025 0 0 0
71 24 2 0.499038591822514 6.165645333032403 2.9225582787485145 3.413562593454714 0 0 0
149 50 2 0.5442643764273475 3.260778783400452 3.6262127719262174 6.1550676497621675 0 0 0
17 6 2 0.4334217671684409 5.184080688929884 0.07489360699636016 5.330327160338462 0 0 -1
131 44 2 0.4100619710695001 9.913567944904337 3.7914906208728465 2.880946775787537 0 0 0
69 23 2 0.541148737882918 9.018849971660053 5.8687985509958285 3.785890847536808 0 0 0
107 36 2 0.4698653167087657 5.43145367964353 5.251172441630804 1.9026427535646455 0 0 0
122 41 2 0.5402731517268919 11.520853930799559 4.337253146784107 5.626643224497838 -1 0 0
87 29 2 0.3679994354078546 11.31888974848785 5.396203000517075 0.7077458137934697 -1 0 1
130 44 1 -0.9850381805637216 8.936547473188396 4.003097038557762 2.8552758906724414 0 0 0
132 44 2 0.5749762094942216 8.632250511490508 4.0580196368772885 1.9042805490459225 0 0 0
56 19 2 0.6072901658740203 8.235178483000126 1.259418839073688 4.5684042581987505 0 0 0
55 19 1 -1.085783224938051 7.729382839312492 1.5317336586106765 3.749856349773646 0 0 0
34 12 1 -1.023305728887415 10.89695009037929 2.1593109844895357 1.0372307591813676 0 0 0
36 12 2 0.4969644034894747 9.981537704092256 2.14121248469055 0.6351140101679231 0 0 0
20 7 2 0.6034263973908384 10.65856781118407 2.411333215748353 5.476507139679712 0 0 -1
35 12 2 0.5263413253979394 11.363974838817823 3.0006583231360455 0.7651502332369348 0 0 0
57 19 2 0.4784930590640315 8.229224377025403 2.255858501506417 3.2746648919611387 0 0 0
46 16 1 -1.013779907008249 11.297753133518764 1.436414287547405 4.054278093716158 0 0 0
48 16 2 0.4954814252640866 11.155424064087116 1.7081465157804445 3.1024854142769063 0 0 0
73 25 1 -1.066524379569686 8.723757407030156 0.2077519257154314 6.050652743851857 -1 0 0
106 36 1 -0.9479191778613818 5.442297215049523 5.80504415683285 1.0701081817064615 0 0 0
85 29 1 -0.8685584878062622 11.790815265140479 4.697377870063603 0.17021905513029442 -1 0 1
68 23 2 0.5548663254681502 8.524388578118934 6.023621361075458 5.3345117914016384 0 0 0
47 16 2 0.5182984817441627 11.80043784729447 0.5724074616411832 4.082660409048343 0 0 0
13 5 1 -1.216404201772484 8.480266757056791 4.606280683816521 0.035808111907847745 -1 0 0
165 55 2 0.5948343278601016 7.364146243767984 0.41627504185665376 2.4167947654872686 0 1 0
15 5 2 0.6292827561761133 8.33808783880185 5.595866450449515 0.058400990903459404 -1 0 0
145 49 1 -0.979529258305874 2.4629331374255536 5.005772145475349 0.18619359019455997 0 0 1
164 55 2 0.4487501214361146 7.161879797245827 0.2984770714888845 0.8006571095963393 0 1 0
44 15 2 0.4865131137678562 4.771782570785964 0.5299734781829871 0.4411423410791341 0 0 0
108 36 2 0.4780538611526161 5.8063043880187895 5.2621592054823925 0.31328589072648483 0 0 0
86 29 2 0.5005590523984075 0.36786326951073645 4.907442772920065 0.13479016516599884 0 0 1
66 22 2 0.4887052571196598 2.1598138874701585 4.187408006234916 10.946617313802355 0 0 0
64 22 1 -1.098050846905581 1.8403060924428687 3.8433892511817844 10.063684056082028 0 0 0
65 22 2 0.6093455897859215 1.9697777799365828 2.8525443318263974 10.025360428575201 0 0 0
25 9 1 -1.13766245862615 2.499339293508519 1.2059014224115159 9.715817402013078 0 0 0
27 9 2 0.5711777822579508 2.5247835754414942 0.5743278192898268 10.490719102138165 0 0 0
62 21 2 0.660078959907467 4.757493163887511 2.9351891853225838 7.769609778812722 -1 0 0
26 9 2 0.5664846763681984 2.63644486429193 0.696721328535613 8.866145131687258 0 0 0
61 21 1 -1.209972155261401 4.8007866231421135 2.365390562451443 8.590256157138953 -1 0 0
63 21 2 0.5498931953539336 3.874346221985755 2.1888343043045735 8.92273374031481 -1 0 0
9 3 2 0.5194525220019782 6.54960229105542 0.12328319212628358 10.085134213860256 0 0 -1
181 61 1 -1.194469442605579 4.893732847445531 4.210704300178817 6.663017217741904 -1 0 0
38 13 2 0.6808598368171098 0.8387453776547784 4.864076581517716 9.145674635997748 0 0 0
183 61 2 0.6440881492434131 4.674059238593744 5.053070999386511 7.155122005505578 -1 0 0
8 3 2 0.6972203999925842 6.110634224889097 1.453063136076988 9.24508580004531 0 0 -1
18 6 2 0.4178969073050514 4.946043594092582 0.07610752281265223 6.945884608369972 0 0 -1
155 52 2 0.5437051250762989 1.9556710272338247 0.4049581376082595 7.208825706895688 1 0 0
21 7 2 0.468748608686601 11.085188139697348 2.478879403930779 7.051347324511468 0 0 -1
182 61 2 0.5503812933621653 5.801204064793537 4.292386480387095 6.2509137311983975 -1 0 0
24 8 2 0.472727007994438 5.233055066175806 3.8243883479864724 10.032865623673258 0 0 -1
129 43 2 0.4920438785747354 9.600133124319724 3.4926199347766116 9.46176978481136 0 0 0
19 7 1 -1.072175006077439 10.563843155072552 2.929378351329331 6.326602281134664 0 0 -1
186 62 2 0.6068676166813669 8.387319006475701 1.3553959672625604 8.778969536976827 -1 1 0
123 41 2 0.7075593731170953 12.275974883465604 5.092385034186987 6.862061040247715 -1 0 0
176 59 2 0.4403288649777321 8.718574628432805 4.563124832005309 7.005476229399113 0 0 0
12 4 2 0.59196056286601 7.750899128925919 1.6770427549707887 11.147879694927743 0 0 -1
14 5 2 0.5871214455963711 8.98445449201139 4.360775707277515 11.607842347569731 -1 0 -1
10 4 1 -1.173837036917274 8.173892171672794 1.9470152644611511 12.012863511196727 0 0 -1
146 49 2 0.4539141883388635 3.351516158285365 4.914039477216443 12.136737691230332 0 0 0
22 8 1 -0.9611783332267816 5.532050789854461 4.546345224773421 10.656872913519987 0 0 -1
37 13 1 -1.17681886152165 0.3526435983761661 5.455305888523409 8.502123364365234 0 0 0
184 62 1 -1.148404175959654 9.336307868301475 1.6284859808928416 8.621339409507314 -1 1 0
128 43 2 0.4591110865070648 10.334984840573478 4.943676746030442 9.316456035865073 0 0 0
177 59 2 0.5147930703807334 7.7006635810552915 5.477614638322271 7.8966857972162625 0 0 0
157 53 1 -0.9465641403932316 12.117811921969729 0.3159113359797823 7.211365833343341 -1 1 0
175 59 1 -0.9551219353584655 7.865171836112722 5.084211662483555 6.992154755670937 0 0 0
60 20 2 0.5990904480532554 10.115941446055652 0.22371576397385395 9.194313927076841 0 0 0
127 43 1 -0.9511549650818006 9.63980263273514 4.426894219796424 9.816118713062618 0 0 0
7 3 1 -1.216672921994563 6.844790169238963 1.0263925781016356 9.773264327470352 0 0 -1
185 62 2 0.541536559278287 9.462223884023 1.853910090210549 7.655247074156725 -1 1 0
23 8 2 0.4884513252323437 5.927009916287743 5.299367942154931 10.130594139433123 0 0 -1
159 53 2 0.4075104661598375 11.636259810612282 0.5558311598201073 8.054307892251124 -1 1 0
11 4 2 0.5818764740512637 7.993181275685376 2.915492308654546 12.184330882558994 0 0 -1
16 6 1 -0.8513186744734923 5.636068438987052 0.0611909385313211 6.222249008470516 0 0 -1
31 11 1 -0.8906760838276232 2.0275426538573385 9.588105629253034 1.0296086928548942 0 -1 0
32 11 2 0.4393308071893224 1.4895733332770857 9.222492601600223 1.78916211205919 0 -1 0
33 11 2 0.451345276638301 2.8087219041741593 8.988578624248847 0.8554489338830451 0 -1 0
2 1 2 0.5246626580037898 0.00530319314948674 11.259551112310298 2.7809463731538147 0 -1 0
142 48 1 -1.100814194447902 12.254145077481912 8.332108092342507 2.7398484422233254 0 0 0
6 2 2 0.5405511526939959 11.447097153306732 10.404384063643136 0.734856746197706 -1 -1 0
116 39 2 0.5865565755271593 7.3636278529376495 7.894810805815529 0.07566598616002762 0 0 0
136 46 1 -1.434890359789693 5.0827006680591245 9.346515755600276 4.850610452898698 0 0 0
110 37 2 0.5458386909837026 5.435032058557739 8.742172369945234 0.19394918379111536 0 0 0
138 46 2 0.7376946322239912 4.585869499408135 10.110830264503692 4.439529689743444 0 0 0
104 35 2 0.5975436355252169 3.622016452833559 12.247806908806343 3.5587543305968334 0 0 0
105 35 2 0.5198979277769452 5.099838695611283 11.867251313311975 2.977455906816731 0 0 0
103 35 1 -1.117441563302162 4.326824450848122 11.539432672266795 3.520584978471424 0 0 0
67 23 1 -1.096015063351068 8.79994253794654 6.520829713546896 4.511797295384882 0 0 0
1 1 1 -1.066089036361358 0.3326799744108778 11.43726918417978 3.7089797790838515 0 -1 0
187 63 1 -1.202627127706774 6.750341080529812 9.389423475179386 1.2175932756439867 0 0 1
3 1 2 0.5414263783575685 1.058471687448584 12.124598257481695 3.6805121346449177 0 -1 0
137 46 2 0.6971957275657028 5.956299040542749 9.224828960593387 4.379416777204089 0 0 0
188 63 2 0.5598061694822687 6.827163042736343 10.385848568757451 1.2528167267879184 0 0 1
90 30 2 0.7842372268457281 4.212185042621906 7.996422790157576 5.148815191155637 0 0 0
163 55 1 -1.043584449296216 7.009926445829453 12.24308336164051 1.677886851752807 0 0 0
144 48 2 0.4986876487421277 11.518402770624856 8.767020880617205 3.2590202798605 0 0 0
88 30 1 -1.379913016299517 3.6391406846054353 7.189835582311954 5.2938755661217325 0 0 0
29 10 2 0.5526533470380454 0.8474261331664853 10.362959146940494 5.418399583147417 0 -1 0
143 48 2 0.6021265457057745 0.44023870229066286 7.8137574115997435 3.362594062225447 1 0 0
168 56 2 0.4828244035163168 10.306478528273903 10.904242638238252 4.242771537288204 0 0 0
4 2 1 -1.012995218395149 11.131303139976001 11.226875037427185 1.2079191223049857 -1 -1 0
5 2 2 0.4724440657011529 10.567587319260323 11.772415385189815 0.587745376538606 -1 -1 0
152 51 2 0.6384479743791298 8.20293438854249 9.652211994795257 3.927958080110421 0 0 0
189 63 2 0.6428209582245048 7.079641257929522 8.999107037341277 2.0773721681609487 0 0 1
153 51 2 0.647809586302476 7.86083353615294 8.070966569998236 4.150036699866313 0 0 0
118 40 1 -1.101253224030294 10.965366140450096 8.127740468853188 5.717257106429291 0 0 -1
120 40 2 0.5302067267189396 10.305007546771938 7.6008933549669075 5.1821272914823595 0 0 -1
151 51 1 -1.286257560681605 7.506333968966574 8.943768858051827 3.814549747313697 0 0 0
119 40 2 0.5710464973113543 11.892508735136133 7.902596290445949 5.417720830582427 0 0 -1
162 54 2 0.6448456040976496 0.5931140273663116 6.381648592713334 5.230841033800466 0 0 0
166 56 1 -1.014068330078957 9.865028157223144 10.315545581585827 3.5655990202087064 0 0 0
167 56 2 0.5312439265626413 9.989971651979655 10.705201867237276 2.6531504601954827 0 0 0
161 54 2 0.8052033024702709 2.0503665502331567 7.080812704927679 4.997874021565192 0 0 0
30 10 2 0.6032157944418752 1.1956840867600695 8.854339408769706 5.937506396202566 0 -1 0
160 54 1 -1.450048906567921 1.0617371160232316 7.230835024776739 4.987366031229145 0 0 0
100 34 1 -1.032969179881105 10.944131430777542 8.482012489993796 0.33407577569801483 -1 0 0
102 34 2 0.5619685071316148 11.474167214371029 8.324331579862765 1.16726487259659 -1 0 0
28 10 1 -1.15586914147992 1.256612572015983 9.82793151822063 6.15753229604007 0 -1 0
75 25 2 0.4884386519059979 7.790370744125086 12.251062881808323 6.090244863870792 -1 -1 0
89 30 2 0.5956757894537883 3.9132835836351654 6.734099580684226 6.140725989887322 0 0 0
51 17 2 0.5723679888372281 3.6705458280049377 7.633720807779647 10.566695345164444 0 -1 0
50 17 2 0.5335975426933746 2.0948903536655874 7.239614079602854 10.397347439980484 0 -1 0
49 17 1 -1.105965531530602 2.901022022732085 7.601162616234459 9.928903568969668 0 -1 0
79 27 1 -0.9896293784283908 5.406001363025585 11.370604756579533 11.3927469813852 0 -1 0
81 27 2 0.549846676162775 4.801784807803306 11.186973894291938 10.617371373495214 0 -1 0
133 45 1 -1.075372014814292 3.900831752593102 10.294043406350527 9.132039433847064 0 0 0
134 45 2 0.5279431729643059 3.455290349931573 10.86044657594344 8.438724512264077 0 0 0
135 45 2 0.5474288418499862 3.3058716384899713 9.525483645294939 9.367291700175555 0 0 0
125 42 2 0.5178217843989823 5.459571740161763 9.794156984474531 7.982135923547542 0 0 0
169 57 1 -1.231264794678884 4.365626354258906 6.5906745736524766 7.936746474536467 0 0 0
124 42 1 -1.171945570381632 6.094443550882553 9.26043733043386 7.42348899807237 0 0 0
156 52 2 0.6075623871170104 2.173445856651761 11.20414066568984 6.970820359744191 1 -1 0
126 42 2 0.6541237859826493 5.84452433978951 9.347939371508874 6.4591814469070865 0 0 0
171 57 2 0.6594693068366801 3.614015051888113 6.768922406686484 8.571816102740527 0 0 0
78 26 2 0.5189177252801177 0.6287558673301589 9.812492602270554 7.96746982323585 0 -1 0
84 28 2 0.6285052822001159 10.65658561824137 9.715022196300577 6.562388073026974 0 -1 0
80 27 2 0.4397827022656156 5.1899891924204775 10.741980686539401 12.139858615089677 0 -1 0
76 26 1 -1.00610973580829 0.21311211010837097 9.88089834829406 8.874424173516845 0 -1 0
58 20 1 -1.149509178593161 10.506329615789877 11.743149591676186 9.463024860305618 0 -1 0
53 18 2 0.4527475909513665 1.1101814008555455 10.679798324933092 10.501586419860196 0 -1 -1
52 18 1 -0.914313590094888 1.7446718736762865 11.217552708002994 11.056786686330584 0 -1 -1
170 57 2 0.5717954878422042 5.1120653220160275 7.231715344660399 8.115354620541448 0 0 0
96 32 2 0.6117881035964203 7.41495003512276 9.388575625210134 8.519118767001569 0 0 0
178 60 1 -1.042305502654511 0.016827495780553647 7.452297946090797 10.534796665586164 1 0 0
82 28 1 -1.231156698433959 10.517664088086033 10.639758405786079 6.916745271099326 0 -1 0
179 60 2 0.5070476582632133 0.5033476635153296 8.247391351686497 10.172678072766638 1 0 0
54 18 2 0.4615659991435218 1.5281960456349755 11.093102101478403 12.02511283743333 0 -1 -1
158 53 2 0.5390536742333939 11.714997238568083 11.887813205264752 6.821495227574729 -1 0 0
101 34 2 0.4710006727494904 11.214515797569522 7.818543548390178 12.036432220419353 -1 0 -1
59 20 2 0.5504187305399059 10.059611183010716 11.421289776760322 10.29780277919048 0 -1 0
74 25 2 0.5780857276636889 9.368185498165623 11.883014233568222 6.2945235814619735 -1 -1 0
141 47 2 0.5127071617862128 8.371477946782004 12.330942632855502 11.778050508731429 0 0 -1
95 32 2 0.5112943575954672 8.134092073696722 10.282038069896732 9.681550953535735 0 0 0
139 47 1 -0.9736915160846501 8.671620804959318 11.41283888890732 11.51919716698461 0 0 -1
172 58 1 -1.015659219694058 6.964329275002018 6.797889137036804 9.535034945214855 0 0 0
94 32 1 -1.123082461191887 8.17665381776284 9.42626314385715 9.165951257643561 0 0 0
39 13 2 0.4959590247045409 0.18355035452011784 6.343996900021916 8.928317021596413 0 0 0
77 26 2 0.4871920105281722 12.217007224446482 10.791580493389684 8.991745197459341 -1 -1 0
115 39 1 -1.098041517381723 8.064597622422088 7.286499434702448 12.103370497947562 0 0 -1
83 28 2 0.6026514162338427 10.577113729767778 10.626670438841419 7.914893415276917 0 -1 0
180 60 2 0.5352578443912979 11.498808628269602 7.414989981270197 10.140012234339324 0 0 0
190 64 1 -1.04031029387944 10.199108060941525 7.720379190734627 8.750461222372344 0 0 0
174 58 2 0.4766375568331665 7.281396883467102 7.60993448586121 9.04508009462668 0 0 0
191 64 2 0.4535626109670582 10.344984081689903 7.74654710222008 7.761501820031174 0 0 0
173 58 2 0.5390216628608916 7.525801873960227 6.6605164158108146 10.35105120031158 0 0 0
192 64 2 0.5867476829123816 9.523422788332821 8.41181082245955 9.006150454702944 0 0 0
140 47 2 0.4609843542984375 8.364486276858525 10.755368273895602 12.207242256019061 0 0 -1
154 52 1 -1.151267512193309 2.529667019151335 12.016999341885317 7.431659299528131 1 -1 0
117 39 2 0.5114849418545636 8.919105306924145 7.793193764375891 11.98899066623053 0 0 -1
109 37 1 -1.04575360271141 4.735663949341523 8.185467581176091 12.145653189527474 0 0 -1
111 37 2 0.4999149117277076 4.916282343146209 7.217837880293362 12.321934301076611 0 0 -1

Velocities

93 -7.645545190260121 17.51770203307234 13.214843601031241
91 -5.387210848678164 1.1486831829835777 1.6514142852330922
92 26.0163572268577 -4.302191082688358 7.216977891941168
112 1.2162799997288034 2.6831656373951165 4.9214090224298666
113 11.759169356787524 -2.9150285367437023 5.751110720284261
114 -1.7403587192444268 0.1911357069969566 -9.446935958988021
121 -1.6281621892090268 0.4457437415274804 2.6191663794620457
97 -1.8094461402203623 3.3616896276749384 -3.4352051927658307
98 16.4696329689123 20.10800428500877 3.6758420132565686
99 -1.1125777020957053 4.87929566690115 -32.64532115339159
41 -11.880939885071264 21.017435666595215 -3.667173568417143
40 -5.806126280839347 8.008111634730767 1.4388050722206487
42 0.930769476612169 6.230398794391188 20.44566134109018
148 -0.12995848966874465 5.064484948194493 0.9395431402648989
150 3.9618839663039536 9.53725350577959 1.708890593749397
43 -3.398562586742806 0.8850637858739863 -0.5398150025802483
70 6.540129404249921 3.66037796821612 -3.7240161048603473
72 4.520192070259338 -3.278455292517205 6.288068820196679
147 16.867987394246438 8.919426829297135 -3.0754997655202723
45 -5.839786639081749 -19.01589910375763 10.868435177521022
71 2.6257967740430246 5.846196118427876 3.5691944087630763
149 0.8918182766733082 0.6913374290263494 15.696590398685686
17 -28.148289185009972 -8.650735293617272 16.88179809094482
131 5.462279912335453 23.092875291645463 -22.142187604023285
69 30.368399159189924 7.603931914716047 5.254259169730219
107 -0.017055274085102212 -7.06520531637598 -4.064292680349059
122 -1.7327011456732782 -3.01037571686566 10.560163359513584
87 -9.40129817027759 7.904448455077344 -8.66651266621253
130 0.11772650442140231 0.7802466559329163 -2.6554159274179834
132 -20.43629732236115 -7.7000087841226605 3.4316478936035093
56 -19.43772701711147 2.485751619660851 8.370917796005523
55 -7.740255606084123 5.702057439326328 2.2128392142659954
34 -0.6978270578183283 -0.005008527261112228 -1.6311066577176572
36 -10.71894162928067 4.31596568361453 20.987322628168833
20 11.282591136051654 -2.4981336333048425 3.8498479065040616
35 -13.379357463934786 10.429203755988091 8.866550893251713
57 5.530179209932552 -1.5140182700439695 5.175381642250139
46 -1.4931045886824523 -4.046367805008373 0.07410286211898148
48 12.357169917479098 -3.678703858167977 -1.892071682763508
73 5.408008848054344 1.5765832639290387 -0.933921962889789
106 -2.786404502305048 -2.9957251220834618 -1.3930036865213986
85 -3.0675656820262205 5.683536919023154 -0.21841459931835921
68 32.47479964243488 -14.347780832479007 8.1214292086433
47 4.953812350972491 -0.06241196878648392 7.1700158523486195
13 5.397389045508843 2.0543614178094938 -0.02535941758534105
165 8.105117437077137 -15.685423744850452 7.7142724422101105
15 14.476983527852848 3.2494842862574034 4.765988410222687
145 1.251832782651904 1.7052942702274496 0.7541227013943181
164 13.659584196589444 -5.224947371813094 6.256658277346677
44 0.8496606356494207 4.540042763417335 -1.9109173338234242
108 -3.073045724071406 1.4587032520251548 -4.726126431488782
86 -4.55957766285766 12.589386180977499 -0.4185556147779992
66 0.7253762207295997 0.12309724399475952 2.3457573618028658
64 1.994319584207133 -2.5993381774873567 2.9473108129696635
65 20.05517882628364 -0.07285641601585802 -1.3576494497457414
25 1.8274901789742215 -8.569191715749335 4.795071353360679
27 14.45618416795624 -20.610282380053256 -5.433533210793477
62 16.900352642348874 13.498688788871604 6.801396003211469
26 -16.364137986883172 4.037219687115764 -5.694981830663667
61 -0.42649327081530247 0.535417168408334 -1.2852968707976986
63 -6.852518953198777 5.607669126056745 -16.497726944113833
9 2.2425326440358493 3.4300670733727108 -5.79248782280665
181 -0.15599085476061952 -3.3714969311323117 -3.9239026112488458
38 10.212666419602865 3.9056129398130164 -12.867224588806291
183 7.244103448846377 -0.5612127273342589 -5.431070242034369
8 -2.4005490798870914 -0.480358010302556 -9.556366417412256
18 18.519197448322263 7.900829866821718 23.74537372444227
155 -8.751786670261204 -9.695877378770634 10.198708796653829
21 0.0439134547530049 12.293261616460276 6.259962935309131
182 -1.254400140254388 -10.411612684415548 -7.7380581969824505
24 7.714860936792694 -7.224757100473312 9.341443850874317
129 -2.413948373672432 -2.1198770249006085 -7.141854579055824
19 -1.4465400636518098 0.9897992506683404 0.3059278293826695
186 1.1531056947529175 8.504036737483567 -0.7548514151149996
123 -0.7465292529725537 12.999680662243781 0.17146490748274656
176 -0.852316852943761 -0.9296499847384943 -2.789536259401918
12 -3.334224996036169 -1.7519743487003132 -0.7613644809912645
14 6.27413278951572 1.846049237243502 0.5702994135782191
10 -1.6021315569646353 -2.512462325877144 -1.371032103159926
146 -5.884098870881152 -14.066013135216648 -10.134873541376601
22 -5.414168389099637 1.697118401415525 5.309943275696578
37 -4.395571549910724 2.4946675040199513 -3.1292309694607128
184 3.481672749083371 1.633277384029771 1.3605337491421479
128 -3.5108683156649656 -0.2226602477285673 6.25602304155386
177 -7.978825449708121 -26.257762612150152 15.060529040169119
157 1.780621860183571 -0.6683878581482858 5.187927586272681
175 3.234128175314865 5.913630944613913 3.1077070466352903
60 -4.804565910500739 1.1787477496186614 2.8096995946280847
127 -7.787901222747871 -3.450190854781474 -3.0327407820418455
7 -3.239006400898613 6.183352306716661 -3.0078847093143626
185 5.352949843899223 8.242888709971876 3.146687555600707
23 -9.573370585578106 1.4102172130174455 1.778054721169322
159 9.887250737072868 -13.358678844115287 13.430981252969726
11 8.798441793344413 0.24483953911662937 -5.983493500086336
16 -2.455594704364504 -2.4205245135273374 3.957557382447711
31 -1.2733650320938774 1.4901468857711588 -2.0653031102466226
32 -25.917438834273206 -11.263413211191747 -25.658934455971163
33 -6.224654369531425 -5.791425562255741 0.7921585198299823
2 21.754379461820246 -4.787017524671013 -9.343200175450887
142 3.6912322422652295 -7.441130415839198 -4.781948186921862
6 0.1496502474497401 1.9357000053284779 7.493127196131184
116 12.472951418542428 -1.0167203248321268 24.40833607360407
136 -1.0452865628037278 5.180570777565984 1.5374642705707027
110 -14.482129442979014 1.3350066309372246 10.575804160935263
138 -1.5972109477809926 5.935536458955978 3.608211767174593
104 -1.95914256329294 2.4045112771685053 4.981396679978138
105 -5.5536277448644835 11.810650158098806 -10.314651910650907
103 2.5124892163938575 7.208901206695441 -1.6119613901489733
67 -5.71310525289276 -1.862594137351996 2.8764878282044757
1 3.830677869291158 -3.3509845525122977 -3.2953632238552917
187 -3.565026400637076 -2.7377801220465203 7.47764453911398
3 -11.262511245478873 13.22011576848924 11.995239598932198
137 -1.6882996027197286 6.030923469221511 0.12570542671782925
188 23.30552542371039 -4.572439171437338 0.7733553773107893
90 8.821748076634359 -5.593496151881599 -18.947986357135292
163 -2.9804019742056043 -4.0358513106716 3.9915791264271654
144 -21.461248691117607 -17.425061852906374 -32.06309839400459
88 3.0976148337575986 1.2738596225058152 -3.3755803123516657
29 -16.75501136946934 -3.9582966973078886 13.314568592746923
143 -4.7822696231030495 11.221117710708977 18.726614496560597
168 -19.60918478438087 1.8837305042890153 10.427812992014914
4 -1.125233938408515 3.702314906424469 3.570545951861828
5 4.106390991879446 3.530013977655251 -1.3363803258603917
152 -18.59798924513506 21.01820682373611 0.3140426059383685
189 18.519527060874733 -7.8730325442286535 -3.3121304672686627
153 10.677876271658084 14.926627203191423 2.038729761256013
118 2.2326076209189667 -5.991437127830057 -3.2546781819116557
120 9.45068313911753 -16.883770806927878 -1.4381537855741526
151 -2.410512527026409 6.232225260724885 -6.750481628058406
119 5.761456221108227 -2.5807218757573605 5.104386699781607
162 1.3681172418431933 4.143572778657288 3.9039247615639696
166 -3.428349760707125 -0.3744108940508539 1.8425938879122166
167 23.18873249606049 -6.3466076652040675 2.9369320348653374
161 0.9918028818894957 9.75987065568347 18.405243365748927
30 -9.456993155303415 -4.932639375302032 5.586861339765621
160 0.21861928983009726 3.2840159974344263 -1.3064879029070608
100 4.4569910472535685 -3.045486012460277 -4.748520673629004
102 30.00078413476574 8.255652730138907 -18.859543713181004
28 4.621141434527178 -4.755306427621525 0.9037336936309395
75 3.761264977246304 4.599782230288377 -12.519732906123986
89 1.4228614865214522 14.350904284266134 4.204036589163493
51 -7.284639914663873 16.638469293483148 2.8802330088237564
50 7.194614456744162 -31.87146549767898 -18.945987551929043
49 0.07825447986951697 1.7495554768923898 -5.243368764901307
79 -3.064178208676899 8.700526437031472 0.5726460660887402
81 -4.320145926937876 16.300757747796943 -0.2485824256300342
133 -3.3785688754785648 -5.941886966136005 2.996122671032975
134 1.0315164107163937 10.560036403865805 13.643327695880465
135 -6.058621260236542 -10.008957016049397 -17.06876653094652
125 17.190176378519034 7.951787234908289 -3.1686042790447826
169 1.8372175890104818 -2.026246644829404 5.3015300520271875
124 7.53512762866095 -3.57893462334316 -3.1248295843492504
156 -8.284630543645113 -10.410694171701486 15.433994776748346
126 -1.0578291974566785 -12.712466551526784 -1.7265803397273818
171 -11.226290608370963 -2.300181772066829 -10.082376897785561
78 -22.3777962779651 -18.866180362676403 -9.326347340831113
84 7.85747039406018 -13.710563697881126 20.339871424828413
80 -4.817054000853392 4.313337232977954 -3.625568894914144
76 3.934148486409871 -1.6002777505843555 1.4297713433178552
58 0.8216119922591727 1.5785484416964155 -4.053967271440498
53 -16.88102194446581 -3.061685145356035 18.304337607428646
52 -0.3754836981490316 -3.9201717629193484 0.2730929750941886
170 -12.905175307865397 15.837788166255699 2.7972875390123972
96 5.313574985675937 -0.5263724953269231 -1.5166731695052007
178 5.281127644320669 2.533330117320809 -3.4852879234200134
82 0.8958426125372182 -6.530645149509692 -1.1261822859349793
179 10.492457485225364 10.647006571254378 21.33129948792191
54 14.616802403108354 11.763461886077486 5.640401564468027
158 -10.901607276832896 12.992913781477826 -10.72584007010818
101 3.9021241449690613 6.195948487549958 -13.75230499173967
59 -5.010492111205872 -13.206047109149477 -12.875326133379527
74 -0.6252481899173272 2.3501213599871784 17.307752910704338
141 24.175146272263753 1.0513937930426902 -0.72429939334793
95 -2.2239968461111634 -5.725498478130394 7.142592033611568
139 1.681058729767488 -5.446361608820126 -3.7600962661360198
172 2.879350277216618 -2.4717008779623306 0.8488761058522191
94 3.714913825481729 -1.3770685077364753 0.41546056340286575
39 -11.671380320473101 -3.0719193610324984 5.591418767921593
77 -7.968606804677925 -5.177158358657082 -10.992028004780913
115 -6.493442117247108 -9.088914554588165 1.8873514514250846
83 -5.4519766158798015 15.977109154989101 -0.4529792881181511
180 15.379439892562354 4.3029859870595635 -27.13481078669097
190 3.0162060880840573 4.865982643403447 2.844817735305922
174 -11.280723855195983 0.8671610609895986 -2.7808328986095447
191 0.3453374437402372 1.021191999356672 2.349119095026559
173 0.25358644534781183 15.46889836260075 5.67579389876314
192 -1.8722879692438634 0.7622518587799121 1.0237235775451474
140 13.318417544468627 4.198130061229316 10.650593869869267
154 -2.9592866355361758 -6.9073790118870475 5.1382061374823085
117 -5.062266015679464 -18.25746700529641 -28.03665271995443
109 2.7167478618843734 -3.3784661979156603 -10.402151310729488
111 -2.3920157627871736 -1.6566099782074934 4.283800441586482
