LAMMPS data file via write_data, version 4 Jul 2026, timestep = 15000, units = metal

192 atoms
2 atom types

0 12.4 xlo xhi
0 12.4 ylo yhi
0 12.4 zlo zhi

Masses

1 15.9994
2 1.008

Atoms # full

16 6 1 -1.039209943525886 4.468186052741423 1.2215728058698978 1.4701991943073232 0 0 -1
146 49 2 0.51329891288397 1.7205698330630577 3.6431651428195284 5.307445450283373 0 0 1
99 33 2 0.6729462728298716 2.9961107169164727 2.0959415465434015 2.051244228920681 0 0 0
114 38 2 0.4325050979787861 3.9276167593530493 4.266484501913408 0.6919687543373582 0 0 0
111 37 2 0.5712539399179238 5.527963058985937 4.609830988470764 2.987843542790831 0 0 0
113 38 2 0.5076460531129307 2.5286951401981295 5.103535631210542 0.596823021890226 0 0 0
176 59 2 0.637129580967723 0.7898125547899189 1.4371979767247365 2.532532738381456 1 0 0
18 6 2 0.5323576681330047 5.125785961110782 0.7602193819838531 2.0657834883257062 0 0 -1
17 6 2 0.506852275392882 4.9373485539645 1.5595829804713293 0.6543309807996782 0 0 -1
149 50 2 0.4508521038815303 1.739017838973321 5.540063367575199 5.391360325431337 0 0 0
112 38 1 -0.940151151091717 3.1714566026477735 4.527446187123424 0.09186368956650881 0 0 0
97 33 1 -1.335280220567755 2.1211795099343353 2.4562439865419696 2.3747914546541735 0 0 0
147 49 2 0.6598765764691493 2.3078829500482865 2.5872352757319326 4.208917153693023 0 0 1
98 33 2 0.6623339477378828 1.992596420295735 3.383932385333169 2.024269135383075 0 0 0
145 49 1 -1.17317548935312 2.1808060807386744 2.7638554786731784 5.184961233486321 0 0 1
156 52 2 0.5102438450828075 5.767981292890121 0.8671850565150838 5.125487512544567 1 0 0
46 16 1 -1.13309750555769 1.049690790492528 5.021293526342822 2.0127928054938766 1 0 0
47 16 2 0.6606426911108157 0.7680156552628411 5.814025934546732 2.5533848140146183 1 0 0
154 52 1 -1.097850596729562 5.760285831402484 0.9976449266654811 6.11691389642428 1 0 0
148 50 1 -0.8668326402194582 2.5823350009723303 6.070510477852504 5.305062585158113 0 0 0
109 37 1 -0.9877278164181217 4.558697700556508 4.522571437879923 2.7578093968923287 0 0 0
93 31 2 0.4302014493825458 2.7707950270470607 0.4004207254777462 3.0531120606380777 0 0 0
110 37 2 0.4164738765001975 4.005594679772369 4.700905019900647 3.5716149353491633 0 0 0
175 59 1 -1.142125483086812 0.12820300882594063 0.6892333331478244 2.5857020260195016 1 0 0
82 28 1 -0.9776211572797472 0.20852954015870848 4.671299132294594 5.974827325035815 1 -1 0
48 16 2 0.4724548144468744 0.28941786312062046 4.7248233515098494 1.4347826119507363 1 0 0
123 41 2 0.6413673965962725 1.0743891279678526 1.8748883334632853 6.19315876914348 0 0 0
61 21 1 -1.10572525344927 3.2757472624456017 5.108696103170012 9.430931831771087 -1 0 0
182 61 2 0.5643297902886822 4.313421078434876 0.01730562341371583 6.578969368063817 -1 1 0
45 15 2 0.572240897211779 6.191685292731054 1.260269861142676 10.638264642869485 0 0 -1
86 29 2 0.5360014614892934 4.644064949368263 2.0663047397456435 7.1739136335377145 0 0 0
87 29 2 0.5270881290700679 3.437952846805319 2.954591301014691 6.52358327047556 0 0 0
7 3 1 -0.9958565356855578 5.88728275141476 4.3040708764878906 11.388729080011121 0 0 -1
121 41 1 -1.262065639238215 0.315743448821906 1.4324233668642061 6.67137081347702 0 0 0
44 15 2 0.5640769167365416 4.843788381550649 0.6646848319642864 11.341927481059113 0 0 -1
64 22 1 -1.02509784839206 1.4725118072968897 1.2261698513022397 9.294394128810712 0 0 0
62 21 2 0.5734145565333187 3.3609870765224854 4.3769659967450645 8.754684467304891 -1 0 0
43 15 1 -1.136317813948321 5.393213559958286 1.4873589262141107 11.195829635482815 0 0 -1
42 14 2 0.5164184128313273 0.4275195056778601 1.972615394915342 10.893812223879532 0 0 -1
63 21 2 0.5323106969159509 3.9307352737544115 4.956508684011932 10.171090576225097 -1 0 0
66 22 2 0.4831338637578775 2.3749838756677573 0.8301970656944166 9.124821161128862 0 0 0
65 22 2 0.5419639846341827 1.103522685261001 1.5927752160471815 8.440314034873701 0 0 0
60 20 2 0.6022391969927632 1.809326860474206 5.1464865547177885 10.002492791999835 1 0 0
9 3 2 0.5762532565342776 5.783963310373212 3.3284232416429145 11.19522957555608 0 0 -1
58 20 1 -1.056802357758165 0.8502879930562445 5.202964985357466 10.280089460125202 1 0 0
59 20 2 0.4545631607654024 0.6475050071729391 4.470009870495555 10.929443856995022 1 0 0
8 3 2 0.41960327915128 5.1429544718570925 4.606461613742389 11.984162138191033 0 0 -1
85 29 1 -1.063089590559362 4.053165429253692 2.86208327477904 7.306501539504578 0 0 0
173 58 2 0.5370329619502187 5.785403799815231 4.26357573538482 6.982310721205181 0 0 0
40 14 1 -0.9850403529527988 0.5250794167365519 2.6644323414140487 11.609267777210077 0 0 -1
41 14 2 0.4686219401214712 1.2037294451874243 2.359538485862841 12.277458729132384 0 0 -1
122 41 2 0.6206982426419416 0.34420152498368867 0.44726925207897206 6.50205814259001 0 0 0
183 61 2 0.5080680360590593 2.8558409695585656 12.200029504919835 5.875449421978333 -1 0 0
103 35 1 -1.038127367789879 3.3821173391115935 10.44918741477712 1.6497157641667755 0 0 0
150 50 2 0.4159805363379279 2.6490602008659794 6.716547458244918 6.065450144343871 0 0 0
178 60 1 -1.110140454170985 0.44901759277650366 8.760281506031864 5.644361292539033 1 0 0
32 11 2 0.4671962508705608 3.662423764494353 8.5272831945306 4.118728326541442 0 -1 0
180 60 2 0.5646416892640149 1.36468154588778 9.000368866987774 5.321990610587514 1 0 0
31 11 1 -0.9330029588626344 3.2043527560376024 9.108376960102094 4.791414181398946 0 -1 0
80 27 2 0.5125063292465922 5.308908143326343 7.892144690398758 1.178112633211378 0 -1 1
137 46 2 0.4275514274183084 5.565131516594933 6.617675714516712 5.237377060071126 0 0 0
157 53 1 -1.022806658563228 6.010267296359326 10.023009258611047 5.45999594282895 0 0 0
105 35 2 0.5265306090058529 3.7034551345760494 9.512193327913543 1.7867901049042798 0 0 0
92 31 2 0.4663402516111423 3.5206265192706594 11.429038763762817 3.5261376924515773 0 -1 0
143 48 2 0.5076149232379285 0.045579105241286555 8.224656590141716 2.5770127113134356 1 0 0
79 27 1 -0.9624644232415679 4.6510693289517455 7.923896007757885 1.9306053047026712 0 -1 1
81 27 2 0.4499580939949755 4.047093276440071 7.1285535478101165 1.8791410268337385 0 -1 1
104 35 2 0.5115967587840266 3.792528389983403 10.824080858138435 0.8184378636143312 0 0 0
91 31 1 -0.8965417009936884 3.178498018023664 12.318624541739107 3.8287769244701213 0 -1 0
136 46 1 -0.9781006719892958 5.7336983863285855 7.282290196081248 5.965304304940182 0 0 0
33 11 2 0.4658067079920735 3.7939891519316906 9.88330652880984 5.019050638671228 0 -1 0
167 56 2 0.4841470323650147 0.47525977640865086 11.307126879332776 2.267585734085965 1 0 0
138 46 2 0.5505492445709874 5.595232710433408 8.207089975360441 5.6109345865050395 0 0 0
168 56 2 0.5729597128506547 1.7876723245779753 10.3371420778197 2.2093466729584423 1 0 0
50 17 2 0.5239804077034291 0.11768550690826299 10.580969777678009 5.57718697845418 0 -1 0
166 56 1 -1.057106745215669 0.8101995352272262 10.376753630795282 2.4166704377554638 1 0 0
142 48 1 -1.021324385174416 0.4202006482772802 7.4767979631553265 3.1250742462117254 1 0 0
159 53 2 0.5480825257974461 6.0858440478927305 10.65372507471121 4.687667653531765 0 0 0
51 17 2 0.6118980692429344 0.18990456978862089 11.459633870841465 4.202624204935998 0 -1 0
144 48 2 0.5137094619364873 0.6789035266330347 7.821853464462469 4.027301930473206 1 0 0
187 63 1 -1.1496260934466 6.031249907096045 11.847631184143042 3.2916912033233983 0 0 1
171 57 2 0.6280451952107855 0.46574205110707845 8.42591766754086 0.053099037264182414 0 0 1
181 61 1 -1.072397826347742 3.405693006823081 12.012533586663928 6.6893986158801075 -1 0 0
25 9 1 -1.065083629342626 0.7486173307650595 11.370613806919302 10.639843093202858 0 -1 0
135 45 2 0.3975277151835772 4.679070433812869 10.64458099249773 11.463734544745769 0 0 0
117 39 2 0.584265423778545 4.988762084981996 8.337842896338916 10.094476740438907 0 0 -1
179 60 2 0.5454987649069697 0.5212774570496422 8.233322303647727 6.491177555690567 1 0 0
2 1 2 0.531844787678818 2.304381397082471 7.044415503866532 8.777339288765852 0 -1 0
158 53 2 0.4747241327657826 6.142665844205263 10.52512545874023 6.314604168038647 0 0 0
115 39 1 -1.044868737480339 4.761374684603273 8.421779076685647 11.06465969240089 0 0 -1
192 64 2 0.4497372761545774 1.9738291219569757 6.941594666541513 11.504137827167234 0 0 0
3 1 2 0.5240823805662468 0.8222704400107982 7.596890140056638 8.371373911799774 0 -1 0
190 64 1 -0.9849645467481648 2.0542968295260313 7.779718692149118 12.04365459079729 0 0 0
116 39 2 0.4606033137017932 5.6018725585198315 8.409116791645793 11.606331422306715 0 0 -1
24 8 2 0.6107651260667344 2.3384345258297237 9.356967596596286 8.615682116585539 0 0 -1
26 9 2 0.5647521990212808 1.375770113980759 10.701564429835976 10.24102284543562 0 -1 0
134 45 2 0.6144552341023831 3.4862032870021595 10.80110342616889 10.35953451856495 0 0 0
133 45 1 -1.01198294928596 3.994109808190774 11.26659398658355 11.084348133502658 0 0 0
27 9 2 0.5003314303213449 1.0662649243052411 12.294305853493087 10.425604250052599 0 -1 0
191 64 2 0.5352272705935872 2.9757218492254154 8.154648538950093 11.941630987892125 0 0 0
22 8 1 -1.220013443484367 2.675730335687434 10.243377434317763 8.932722190934095 0 0 -1
23 8 2 0.6092483174176324 2.95880197821385 10.792875404412593 8.14663841768917 0 0 -1
1 1 1 -1.055927168245065 1.8047054885518485 7.709932766951905 8.222888180488807 0 -1 0
57 19 2 0.5195669677362438 5.911644658483541 7.772616168414478 8.063049285854994 0 -1 0
89 30 2 0.5504173757721099 11.493671646940118 1.7941247860664904 3.68610634341256 -1 0 0
165 55 2 0.5154275462470933 8.340243606231383 1.4176814550430454 4.58310209572052 0 1 0
88 30 1 -1.121824778742859 11.258185876123548 2.394979125091748 4.449994939686592 -1 0 0
90 30 2 0.5714074029707492 11.708267915875282 2.069135827389314 5.281413952781302 -1 0 0
130 44 1 -1.097516628514496 10.906797929381208 4.220588614009302 0.5072731412372955 0 0 0
71 24 2 0.6002008732077968 7.9640980659357545 4.64453794360277 3.001452578191973 0 0 0
161 54 2 0.4315713408858728 9.496224511685524 5.026943215356508 4.373455159450089 -1 0 0
164 55 2 0.5988767096118062 8.453035834348551 2.1868470127086934 3.147013220275376 0 1 0
163 55 1 -1.114304255858899 8.118265535264724 1.3658073424907 3.6094285955384295 0 1 0
139 47 1 -1.279468141316449 9.376151383069894 3.696089274356521 2.9119460536293884 0 1 0
132 44 2 0.5899007906281337 10.44063558052622 4.952189909540209 0.009822157332715908 0 0 0
83 28 2 0.5154441183105574 11.86831213937484 4.28203575713527 5.426596081091725 0 -1 0
70 24 1 -1.086159980614288 7.189963222779769 5.268755579869529 3.1066802346582794 0 0 0
177 59 2 0.5049959021190893 11.930722961396558 0.7150977846377624 1.784232191544962 0 0 0
141 47 2 0.6354655479280528 10.073854480016443 3.297483037940456 3.507201233616506 0 1 0
140 47 2 0.644002593388397 9.763455520702875 3.8537617394069352 2.0035737889507597 0 1 0
160 54 1 -0.8401808201614261 9.427635929144255 5.429138405052729 5.286439227345165 -1 0 0
189 63 2 0.51104352605682 6.730545893447402 0.1606068665541297 3.343228299314325 0 1 1
39 13 2 0.5372117228822682 11.351020390125976 4.947388661706283 9.943429325832872 -1 0 0
128 43 2 0.6638170059537125 7.73314947631316 2.8319468394973604 6.667932717210146 0 0 0
186 62 2 0.4502716753013812 7.96650032745258 1.4027537689254288 8.775563050764209 -1 1 0
129 43 2 0.5336749715174027 9.202705471964217 2.191499547948886 6.979254805077588 0 0 0
84 28 2 0.46217703896919 12.340767199631829 4.679901403556011 6.9382766503378015 0 -1 0
184 62 1 -1.079507468696231 7.57731855203463 0.6851743524265352 9.353163777217715 -1 1 0
75 25 2 0.5807675730229628 11.310408365457107 2.288869848280222 7.673962306204268 -1 0 0
37 13 1 -1.190118141949002 10.49942505725365 4.904794765384918 9.420957870606516 -1 0 0
74 25 2 0.601844055752879 10.823662153575691 1.8247071462215634 9.16202148219049 -1 0 0
73 25 1 -1.182611628775842 10.706179119273317 2.5069167747956405 8.440361567942812 -1 0 0
131 44 2 0.5076158378863617 11.55155692034745 3.7606552307343577 12.296738622133262 0 0 -1
174 58 2 0.499965741570441 7.208703848009426 4.975771504024332 6.616683643511789 0 0 0
14 5 2 0.5527807353616483 7.192637429707091 5.58301460085133 10.369484735264361 -1 0 -1
15 5 2 0.6093081743086944 8.5538290512498 5.767915660692328 9.486502307629573 -1 0 -1
38 13 2 0.6529064190667337 10.405446053509753 3.997966719032764 9.010061151582686 -1 0 0
127 43 1 -1.197491977471116 8.296535650162769 2.0087261422561626 6.597868637620282 0 0 0
172 58 1 -1.03699870352066 6.770693642418483 4.1194836165927144 6.890405009386221 0 0 0
155 52 2 0.5876067516467545 6.678771584008077 1.241597073468864 6.428163868039591 1 0 0
67 23 1 -1.134030447691193 9.038939616215067 7.299848386401996 2.40927255353896 0 0 0
11 4 2 0.5793383673472242 7.483339038627325 7.291698787859839 1.1867938736515269 0 0 0
29 10 2 0.5518117612383612 10.657861161669524 11.691086261498148 5.904508328347461 0 -1 0
68 23 2 0.5325672174147196 9.721154446501027 7.138461192051126 1.6961509851247563 0 0 0
152 51 2 0.5610692882553238 10.979772680651672 9.012144982557098 4.9642516507909455 0 0 0
10 4 1 -1.073363180659435 6.9580820174198825 7.5625260041535745 0.38009507416875377 0 0 0
20 7 2 0.4699934302830103 8.974225030078383 11.919635191619303 3.250891067497804 0 -1 -1
69 23 2 0.6014632302764729 9.459028867481113 7.802492550424702 3.1648379960022375 0 0 0
151 51 1 -1.180408369724077 10.112358321062505 8.914882048624381 4.476258287146212 0 0 0
21 7 2 0.507973616719341 9.860667173778047 11.354681829986417 2.0011962947422317 0 -1 -1
108 36 2 0.5310781544364848 9.148045360391716 8.559517434602473 5.986203033383819 0 0 0
162 54 2 0.4086094792755535 9.214425152815034 6.4028773963517915 5.206571748475376 -1 0 0
100 34 1 -1.087818415392688 7.0739348317833 10.194825692628475 1.4194882545947383 -1 0 0
153 51 2 0.6193390814687529 9.925983245418763 9.749610011113733 3.958089557563701 0 0 0
102 34 2 0.5579255515479429 7.389875794895447 10.690091817979049 0.6102305419913681 -1 0 0
4 2 1 -0.9747484302572195 10.925145980831362 12.171772790327125 0.30898809368313696 -1 -1 0
49 17 1 -1.135878476946363 12.318672373721705 11.470109856526804 5.165083877878541 -1 -1 0
19 7 1 -0.9779670470023514 9.589474042026248 11.191095231349292 2.9497209293916935 0 -1 -1
169 57 1 -1.10719930783035 11.889782876269084 8.635562719620031 0.11274728693178465 -1 0 1
101 34 2 0.5298928638447455 7.149868607065482 9.21074577279148 1.2587834144527899 -1 0 0
188 63 2 0.6385825673897798 6.334744302710687 11.127531677741512 2.6677095327507536 0 0 1
170 57 2 0.4791541126195646 11.767166407505345 9.536049277570926 0.5299935368104479 -1 0 1
72 24 2 0.4859591074064908 7.486831766095719 6.203693507432186 2.9123469845586087 0 0 0
78 26 2 0.5039804957392816 11.565721957956372 11.794379405252455 9.923954686213323 -1 -1 0
95 32 2 0.6168908174075507 10.587749533074987 7.516178547472953 12.001564726018382 0 0 0
96 32 2 0.4509704423655105 9.159806621072782 6.879449233602904 11.530137296903956 0 0 0
35 12 2 0.4895919796108252 8.265308366101522 11.93589566413165 10.876144621737625 0 -1 -1
126 42 2 0.4728782820969827 8.619783547285756 10.487570800919743 7.948820429647625 0 0 0
56 19 2 0.6506963983541876 6.93871173684974 7.455022463588284 9.292258973089483 0 -1 0
53 18 2 0.4773299684308032 9.911663654810452 8.597242773626178 9.068782161267544 -1 -1 -1
106 36 1 -1.0159267351223 8.670814093556846 8.025632767839602 6.684216466671943 0 0 0
54 18 2 0.4395432088873168 10.932251725805868 8.764295788877217 10.33257893268183 -1 -1 -1
77 26 2 0.5183409596580745 10.687009439694998 11.700333199905907 8.550743623954139 -1 -1 0
118 40 1 -1.081725677588294 11.085651149979393 7.2013154586082955 8.02237510675439 0 0 -1
120 40 2 0.5209345653445339 10.378860305749889 7.338586025239622 7.328394727672921 0 0 -1
94 32 1 -1.067861259773061 9.962970559564875 6.7429468848820955 12.110051143263604 0 0 0
52 18 1 -0.91687317731812 10.12425665733172 9.141740916990775 9.88015831303158 -1 -1 -1
36 12 2 0.5628019255522404 8.943268408451942 10.451541238206897 10.81489824051139 0 -1 -1
5 2 2 0.5002328160720123 11.608766162030543 11.915908635798374 12.025466144668718 -1 -1 -1
124 42 1 -1.096129349391167 7.735399803852776 10.58047904165078 8.406246626597323 0 0 0
125 42 2 0.6232510672941842 7.401341243429517 9.676382186464865 8.67274057990774 0 0 0
12 4 2 0.494024813312212 7.150660132953713 6.930627164388361 12.029346915182737 0 0 -1
119 40 2 0.5607911122437601 10.833478917569892 6.430196372866906 8.607003016887813 0 0 -1
34 12 1 -1.052393905163066 8.41330226924111 11.08446352916726 11.379301055347794 0 -1 -1
28 10 1 -0.9509389286171634 10.023874237928332 11.513370208889304 6.657158883167091 0 -1 0
107 36 2 0.4848485806858153 7.725056073923992 7.87223770589517 6.397830371040189 0 0 0
185 62 2 0.6292357933948501 7.663049555636404 12.202374988825786 8.891297182682537 -1 0 0
76 26 1 -1.022321455397356 10.839852833245503 12.22544014714526 9.387945429679052 -1 -1 0
55 19 1 -1.170263366090431 6.344496207320103 8.14738014965601 8.882925354254233 0 -1 0
13 5 1 -1.162088909670342 7.787536852052266 6.246281201453961 9.915417156242814 -1 0 -1
30 10 2 0.3991271673788022 9.119243494935668 11.868802854466797 6.421965078422334 0 -1 0
6 2 2 0.4745156141852071 10.051204830615003 12.34879585727259 12.256334835407314 -1 -1 -1

Velocities

16 1.6625242610488775 -8.144816609621754 -2.5600078155047794
146 17.74256032156203 10.24933989768168 0.017905615309988465
99 -7.399627507759909 -5.780960472988225 -20.301884866900384
114 2.1428654623543366 3.1428433348933296 13.409757472819662
111 0.9021380780381121 8.46784995758967 0.4333387769598098
113 -2.63188751565486 -6.784425907703206 -3.7231892328723726
176 -12.314235094233831 8.550915289519429 4.9340593158344355
18 12.986057650464385 6.546723989153556 -3.682203226975041
17 -2.587533819181126 24.21030037638074 8.400574683448761
149 -1.1617944595376413 -0.5870202588102524 19.57783143314007
112 8.589887817393059 -0.6972256881954777 3.6163185187580007
97 1.6859849337243227 -4.122167212758909 2.4200487977124268
147 -11.028726511935021 -5.926379337011681 0.18419255780001448
98 -16.36965134164057 -12.626584640119603 -13.464246101799484
145 5.014841852566334 3.5113362741152634 0.5651950160653407
156 3.2939130781172112 11.04341424907851 -2.3764566946621977
46 -3.6760201771400602 4.925266492109138 2.6355592165383452
47 -1.5210028398110866 16.734983089491045 -13.559519771940414
154 1.172665039661777 4.189597307233322 -1.4910413981205608
148 -2.3658660973412293 -1.465163598079715 2.4137334107453894
109 3.0227803392336585 -4.988642998222035 -3.397647053874964
93 6.140133032496433 0.34581882772392825 -5.222112321809512
110 -3.1682502712302676 2.563904815290687 -9.260412065806936
175 -7.437245564228548 3.298997753154215 -8.261261342606097
82 -3.2649055476159607 -3.454262456708494 0.6419509278331883
48 -2.125268343879278 -0.2775418509011658 3.2644112112515824
123 -10.617940134785359 3.531102280717634 -12.95614309614509
61 1.2111574007642871 -0.5395634823990383 1.6001759965536602
182 2.51536237770789 -4.592357988351908 5.075830935923323
45 -3.5028114705548488 5.300981751901516 -2.730871517869178
86 -2.43873275512734 -0.8773715950463947 4.777864777217431
87 -4.005899520604416 -9.035569560483628 -3.458931655093852
7 5.217061136827179 1.5988313101597322 -2.029931900792046
121 -2.448993139206044 6.864433861825019 3.0874067871691646
44 20.300579001365904 -19.41104197560692 21.949137397477145
64 5.029477870314038 -1.296386007086542 -1.0759125788229682
62 3.69909669885105 -3.246293552920629 4.842580301523736
43 -5.455724082678607 -6.253455898791137 -0.821603647273172
42 7.776149797385006 -2.0733944756759737 3.7638008081634196
63 -6.566574587237439 -1.5455778230226906 8.27606615958025
66 -5.636315399664276 -20.3160880032324 -13.42632527112274
65 -0.35138393774310295 3.5265371823275085 3.3189785045655844
60 -0.5708750680672994 -3.0297900810742284 5.168987177066891
9 4.677834518251812 5.7698887143801185 -22.77298088021161
58 -2.3188573242441928 -7.852466479254739 0.1112689477390591
59 -0.9893259380398618 -6.352248663893886 2.2198227237601897
8 0.6498792888876519 -8.78645219232362 -2.46502543285564
85 -3.794579490161672 -0.6492128353624862 -2.6340708850185655
173 -2.8889208953855574 14.54444903837118 14.78488982916022
40 5.583139794226034 5.195855773174844 -2.966233821131503
41 -3.8297282266578874 7.434931393599335 7.61565677259394
122 3.5478708895905116 3.8147176955897084 21.840283501729935
183 10.540910245267417 -8.525931385173532 -10.336962170300454
103 -4.029063075357724 -3.5037061873263307 -5.0168696134835455
150 20.201652267924924 -10.580356044621752 8.17780618769497
178 4.8143595144682765 2.3432544039530834 -7.692971238778723
32 11.087576479915802 17.15623146804005 -7.74521898975914
180 3.172735312474706 1.030413385564433 -13.333597832898239
31 0.29724482199879143 -0.5601230748433321 0.21113244940206433
80 -22.662372970326548 0.6978931251149088 -12.409567382863123
137 -0.04943986953340285 6.571132499585433 -5.442233430445044
157 -2.7155357235670134 -1.4106156668511054 3.9538334429406334
105 12.821957313840672 4.51346714115515 10.282669656028428
92 -8.983713252480975 -5.282243664040033 2.435216591908971
143 16.3180408970068 -5.860923801070286 -7.988437985944251
79 -1.6919363112118488 1.4065396197373121 5.893158013397148
81 9.256145409729275 -8.773024051694684 34.72597356404893
104 -4.936280349149635 -7.102592063330604 -7.087814494709857
91 -3.4349564704017546 -1.8015942236683462 -1.5231214948249927
136 2.1831575038225686 -0.4458204500366789 0.4474026923859788
33 -11.352064318209154 3.7433364079122127 15.735792679631297
167 1.2597203392596283 5.301460819990953 5.509043571164735
138 -7.306150812431616 2.5905282724859533 12.079203898181895
168 -0.8572697858814755 3.4226576993140228 -10.905265210368933
50 15.879200968339513 5.736733287369059 9.458986067062435
166 1.5444321760379593 4.5535498578779325 0.20200907394896628
142 3.4868633392152035 -2.5558712561254495 5.29209190090465
159 -7.299973742125298 -7.571051412727993 -1.5256514479899792
51 2.5067007390820515 -2.943981655413875 3.2074112945687876
144 0.4534596611864301 6.993676397603242 2.509674852543185
187 -2.189086050048088 -1.789048536025595 3.4974515517667837
171 -0.8022827368993177 8.70218809430888 -10.654794819484396
181 -0.08754382097860469 -0.4966551690073331 -1.3074874887824073
25 -4.604146085786073 1.373841226561534 -1.54638404849321
135 11.058959791359333 22.02147072729053 17.71112078593726
117 -7.257797750733931 3.544278050512624 -5.037459640219054
179 8.467038565169451 21.549117887219133 3.9468198690589125
2 -0.9576405017794227 -8.80789716173141 -6.428298249382777
158 8.154220788520256 4.362569017230755 -1.1221176255036696
115 -2.0610450230466992 0.560385358124099 -3.56131264605957
192 -5.303634943277858 5.314452524459198 -5.901110723681716
3 -0.16084252168363428 -4.5308208004214565 -3.5166381501072577
190 2.8872556494285546 0.8706393584190918 -0.21942556120269885
116 2.9543918099988673 33.2525808721008 -10.579412145957644
24 -2.557041842584 5.990088624174193 -7.336628665094349
26 -20.026337083635404 -10.801198478697339 -5.373590127829342
134 12.452368117491604 -13.220658612159689 11.21018373096499
133 7.43642014753514 7.927175137657734 1.143479478311076
27 15.50674732771096 -4.7404142247892604 1.909981541979682
191 5.747880928538613 -6.031803437750924 0.25026853576591324
22 6.784686946288925 1.1491465132747458 -3.740450055906963
23 3.34801133575915 5.114864832743161 -2.205844206414668
1 0.36496259322489427 1.046828381714057 4.2085586005142
57 6.654979117636211 14.95781968647588 -11.016022021298784
89 2.650137159866869 4.168189676383089 -2.914700411662184
165 7.754523485458413 -7.048577652474227 -2.8449495857929854
88 -5.095932107923706 3.103755848102896 -4.465344594301441
90 -6.569272848639558 6.961150923426985 -2.1560029657419646
130 -1.6084848609368847 -1.9310480205173517 1.3579194962772465
71 8.256149450499798 6.864798764792681 -2.538389395922778
161 34.82785967272363 0.1623807397111725 3.863803576566096
164 -1.2295494867831995 -4.7505443681923065 -2.3197491908670234
163 -1.2152790477408408 -3.9921480726697185 -0.9628506163770534
139 -0.16585550495407353 0.4963003962493735 5.795883232512193
132 3.3836057857204604 5.382917604727066 7.436472204365862
83 -11.828649260129902 3.4427097562248528 7.30755685641914
70 0.2901048797962031 -2.421737629356243 -6.054317429279667
177 9.30212545273183 -2.3459170010824963 -20.922302814778504
141 9.542106398291818 -2.3765554306274277 -7.506669353460225
140 -14.132375880355923 7.613007176462175 1.0762516504448056
160 1.4238960550760837 -1.749590285178923 2.196583939037766
189 -3.199514329190296 -0.6823700513323598 1.8977027465898324
39 12.388137579583812 7.185027873069966 -26.028173362440878
128 -17.493612153153737 -14.635526329028632 -0.6490120178931882
186 1.2141546035526591 4.492312888587478 7.587852130683479
129 -9.139499461959698 9.45020556207675 9.465289162924716
84 0.7627085665346924 10.020764428842007 1.6409941781027158
184 4.672892918744392 0.6190920783936896 5.106439720525796
75 -3.121334389715709 1.5517418088913337 -9.195530764286882
37 -1.9303984306152646 -2.9074944070969133 -1.8670863572123144
74 11.085697587551834 0.3746868865814594 -4.915543713650065
73 2.1065342230637256 -0.6703423553755528 -4.441677367742884
131 -15.754549695470807 -11.122929584066366 -6.656613915940288
174 -1.6019400678895699 3.3168002743744593 -2.075251128065396
14 1.5164807599588346 -1.8337369391262732 3.8660701703233524
15 1.8863865229776304 -5.792009396836252 3.607428389874558
38 -10.596867743710355 -9.13439587390547 13.857534319596738
127 -4.954018598693326 -6.728137957640183 7.273847585412435
172 -5.819250351360374 5.4029007372827875 -2.2978219374551863
155 -2.717490496137419 16.664726247953546 0.21086381190892678
67 -4.587441116241494 0.6087095667697663 5.96321245031905
11 -3.304488301944393 12.571059549085929 -2.0948938016500254
29 4.737270307072493 17.154588468953843 4.82611910828453
68 -7.474920042321132 -10.82875066762247 5.78929914678893
152 5.786211864961904 -2.703163974952673 -6.34685813656835
10 -8.557047369474642 7.223789743071942 -0.4700527407321425
20 -2.8236506794754157 4.820989383662893 -7.894548069767014
69 0.007104446441928758 7.436407542700927 -1.133488173210945
151 1.5864538644518107 -3.0339697901378844 1.1841982555517636
21 -1.6894265122772842 -1.0921463923482664 -4.41684284813662
108 7.915768147732628 11.732867814238446 21.90801366994443
162 5.409698317943862 -1.3512330985533492 -3.5869975163425143
100 1.4865701313550406 -0.03979011864657345 3.9770378558895825
153 -17.525107179319125 8.090779675793527 25.979322616792025
102 -6.724999302579834 -7.658550072699266 -3.891512272047649
4 -4.851466093272114 7.952739694181307 -6.04053559271128
49 -1.4084179449113827 -1.5486197653819098 2.0888979064527735
19 3.950340519814135 7.803186582204092 -1.2702473462305361
169 -1.7045255774542318 0.9020442749911857 1.9978711557981037
101 -26.43370236923971 -1.873178413450082 2.0113777586697896
188 -2.34820115833829 -1.4514492464602342 3.030457665337724
170 -3.2651840653051662 2.610458168155626 -2.1478010448282583
72 -6.687513140257579 2.9600728831589356 9.178399916615213
78 15.372305163139321 3.1814169663251577 -5.90694473500805
95 -18.68690386350428 6.563235789935792 16.1455739437398
96 -6.20423293989751 -6.7668502831915465 -3.659987490367935
35 18.696368140908408 11.270329166266551 6.974792875221949
126 -3.927884931809224 8.400864398966718 -5.066625813876511
56 3.4273914115095163 -12.142179910873953 -15.321097267910474
53 -16.918145704930865 -14.441226117103538 8.908555399387339
106 -3.653573692882409 -5.434417852467508 0.8674411679931479
54 -11.193108446529985 -8.72699268166808 3.5299337642338404
77 10.247051984859223 11.027147958824632 -3.164640217883161
118 -3.8523169045164773 -0.47267988926613924 2.1841454162456566
120 -14.965954531111475 3.5047559352533098 14.28967814190096
94 -7.593602665570836 -4.845610894556288 -1.2835218161160076
52 0.8700348869509471 3.5140485264412726 -7.80164294567476
36 6.974755906598034 6.54951568162889 -8.363653545489738
5 5.201157851996769 23.824905532916226 -1.927926898612693
124 0.9134938375587337 -2.71436122125851 6.551276205230276
125 8.24320644379277 -8.337451640350897 -3.337372636655825
12 10.60555387137844 20.787479856761024 -6.971010953772791
119 4.092353381359358 -1.990090673589328 3.6095320777465534
34 6.3502203491249976 2.4381087320082893 -4.339544615259316
28 0.284789897187924 -6.06337954101313 -4.406611722659567
107 4.8909801026852335 -10.031433747380268 -24.887722406243334
185 2.690125691888432 3.5950402725878563 -0.9497458302510982
76 5.592586939258549 -0.12353360752152232 4.678993831601495
55 5.038544173588311 -2.887137387571851 -2.005729109953795
13 4.275385680832404 -3.3941795738643474 5.201293141453035
30 -1.6597634827288552 -11.074334713189636 -4.499957229263064
6 -3.9918285411936174 -3.7357665827050255 -12.271370804019487
