LAMMPS data file via write_data, version 4 Jul 2026, timestep = 15000, units = metal

192 atoms
2 atom types

0 12.4 xlo xhi
0 12.4 ylo yhi
0 12.4 zlo zhi

Masses

1 15.9994
2 1.008

Atoms # full

112 38 1 -0.9837178099303423 1.3492556513661076 5.1544401903860235 4.9409476384416395 0 0 0
23 8 2 0.6252297059426482 5.708116960914876 2.933480624982718 4.974364030563589 0 0 -1
113 38 2 0.5319032093988749 0.35916316111503177 5.294723875796548 4.934419173394801 0 0 0
164 55 2 0.5246760883426488 5.696024737789238 4.798237814175131 4.893081404242123 0 0 0
51 17 2 0.6352781886070678 4.197904938343316 5.855407811388892 1.5083651847980777 0 -1 1
97 33 1 -0.9451460230509928 0.4404347933015288 1.5443479343512978 4.903662225087615 0 0 0
150 50 2 0.4640488945692422 3.883908887561985 0.388479401915103 4.3623944036151325 0 0 0
72 24 2 0.521235096627592 3.6319543782053647 2.211021469872662 2.5340376989933358 0 0 0
70 24 1 -1.137311456323572 3.218004983644884 2.7361829512022218 1.7904944320808591 0 0 0
153 51 2 0.6378664194694235 2.9059155526606446 4.406550185527973 2.3483976428044024 0 0 0
149 50 2 0.5045689246378015 2.3924731951041225 1.040638460291652 4.492767475373046 0 0 0
33 11 2 0.4786412298887109 1.1926507547447964 2.8631735844201582 1.175616373133933 0 0 0
152 51 2 0.6329339918532386 2.369116210678453 5.509287108150402 3.4265937037936394 0 0 0
148 50 1 -0.9686178192070438 3.343684639304861 1.2214553516450153 4.242752850355542 0 0 0
71 24 2 0.6160763596959802 3.142526258584761 2.1595865798358904 0.9769559516814357 0 0 0
22 8 1 -1.1935565608334 4.898465037901412 3.35472438368579 5.383048177325084 0 0 -1
24 8 2 0.5683268548907521 4.077540410904411 2.8896248727407423 5.051731902131159 0 0 -1
114 38 2 0.4518146005314674 1.7064529812230622 5.34186705476399 5.8559812501479565 0 0 0
98 33 2 0.4413914366092746 0.13511150211639922 1.3968941297716597 5.844428049230307 0 0 0
151 51 1 -1.270800411322663 2.7333266195931434 5.379111955065019 2.504416670866993 0 0 0
45 15 2 0.7010960598568744 2.3739787548918336 0.30719529328775913 0.5067081875962905 0 0 0
3 1 2 0.6170608606207429 1.766595116204079 6.031120763200846 1.298352823425785 0 -1 0
99 33 2 0.5037545864417188 0.2850342002275421 0.7138632636172276 4.368731257720809 0 0 0
31 11 1 -1.045582114449383 0.2725142203840164 2.8943959010174902 0.785258591629816 0 0 0
49 17 1 -1.190522511430107 4.936180207716852 6.177582662518328 0.9157791029237939 0 -1 1
35 12 2 0.5664362988501976 5.7899367979685685 2.46614713450075 0.9201195475402524 0 0 0
50 17 2 0.5552443228230397 5.17632764228293 5.459813877970915 0.2622177407697749 0 -1 1
103 35 1 -1.054952568806482 5.971906754188374 2.5247455891322663 9.005143433469973 0 1 0
8 3 2 0.6218815799430724 4.739545264681435 1.0065476615919182 11.937386286297594 0 0 -1
91 31 1 -1.022589172032532 2.3441342153788227 5.025355445328183 10.550503396274669 0 0 -1
26 9 2 0.4150382085118785 2.260400076495014 1.7152948943513866 7.346642180898197 0 0 0
25 9 1 -0.9074763999878016 3.2425694200095188 1.6266643650308727 7.512453164951028 0 0 0
9 3 2 0.5929607509487651 5.888362483678419 1.826011589333104 11.1155670431138 0 0 -1
27 9 2 0.4924381914759232 3.631293040607877 0.968026846780524 6.868173847541384 0 0 0
107 36 2 0.4317217374391651 5.747793691353282 4.761618562444741 10.521520238884802 0 0 -1
169 57 1 -1.058478615819704 3.7300961125696466 4.722039923262746 7.402542558503945 0 0 0
190 64 1 -1.04215642528425 0.21701077620967518 5.771321680574658 7.881539414626371 1 0 0
108 36 2 0.5414851227050976 4.214624601031236 4.520594566183006 11.02944638874063 0 0 -1
93 31 2 0.5510606222893698 1.4751364028163496 4.571821383426388 10.35262735185172 0 0 -1
92 31 2 0.4715285497431617 2.1741914297766187 5.85170542141954 11.087411618539473 0 0 -1
106 36 1 -0.9732068601442627 5.17458073017339 4.2942896688615075 11.194599638998751 0 0 -1
170 57 2 0.4448850642753583 2.960059599010524 4.266260305724326 7.848988502065373 0 0 0
104 35 2 0.5041878691300102 5.000965492900346 2.7100242014611244 8.853650280351184 0 1 0
171 57 2 0.6135935515443457 4.131913527595387 4.1085860361078135 6.7226731844204055 0 0 0
44 15 2 0.6249989905813353 2.843096461346553 0.526271326019006 11.357959250752879 0 0 -1
41 14 2 0.5151923259238615 2.9113939516654166 0.2572828868588888 8.849314777316865 0 0 -1
7 3 1 -1.214842330891837 5.723503005731814 1.1550649197297613 11.838517381366307 0 0 -1
43 15 1 -1.326095050438209 2.9854460627895385 0.819223030722058 12.303433291740083 0 0 -1
54 18 2 0.5736282890332207 4.36529108227565 6.050669079164828 8.596938918077546 0 -1 -1
32 11 2 0.566940884560672 0.31982825430660267 3.237818780769929 12.247267450756674 0 0 -1
117 39 2 0.5663106964281658 6.187986991041234 6.145091938429336 7.934276214094337 0 0 -1
136 46 1 -1.312192116816498 5.865027475667846 11.87039072499727 4.681794894262078 0 0 0
79 27 1 -1.245195218923482 5.057381684972147 8.970432100240968 0.8346419340734638 0 -1 1
160 54 1 -1.08175043781009 3.7740280367470374 7.3821158777262195 5.312073140312208 0 0 0
29 10 2 0.636496663467551 1.959042628667753 10.623236493162693 1.3805854226165561 0 -1 0
30 10 2 0.6241903904558971 0.8812989158037379 11.62113776740362 2.0942734050363248 0 -1 0
119 40 2 0.495892383421164 0.5889488226069571 8.625136327575646 4.880221738489211 1 0 -1
1 1 1 -1.22205982581754 1.3848763582606254 6.617344175763983 0.5837633098607969 0 -1 0
111 37 2 0.6079518258858914 2.3994923149131315 8.942877471933702 2.746733311060402 0 0 0
2 1 2 0.604998965196797 0.4070313637854205 6.748315799983559 0.7470755045346208 0 -1 0
118 40 1 -1.076159265985749 1.4750891084728714 8.77631886732327 4.4421526732255705 1 0 -1
147 49 2 0.5302112276985023 0.4318217427535076 10.597138289762626 3.965812569463275 0 0 1
109 37 1 -1.261838334396938 2.515024011310622 9.030131572714499 1.7572665751241492 0 0 0
81 27 2 0.6035112677509386 4.123552938102775 9.27970731525362 1.0144139713851226 0 -1 1
80 27 2 0.6416839511725435 5.055416856735572 7.984769022118694 0.6659122438098657 0 -1 1
28 10 1 -1.260687053923448 1.486461927860946 11.501467348949589 1.3072143270219263 0 -1 0
110 37 2 0.6538865085110459 2.119854258412876 8.231253716174926 1.3037907662595898 0 0 0
120 40 2 0.5802668825645844 2.1710947682706965 8.221151747094915 4.897532583461818 1 0 -1
126 42 2 0.6530134793048417 4.643872058982434 11.45945903256756 5.766271663061051 0 0 0
162 54 2 0.6048405109059095 4.548794662616939 8.009245999612595 5.231762753928558 0 0 0
161 54 2 0.4769099269041805 4.0451337966050165 6.474579976543676 4.991315400675639 0 0 0
12 4 2 0.7384655493597866 5.87691568152612 9.777987897718798 1.9977401946537223 0 -1 0
187 63 1 -1.037517973901793 6.154762301578152 8.681882586835403 4.934270702352643 0 0 1
137 46 2 0.7116028211542729 6.048416078271028 11.145429635455088 4.017863187243384 0 0 0
156 52 2 0.5648978254754415 6.040259878482151 11.793320466369327 10.699081184882335 1 -1 0
178 60 1 -1.250270451883259 0.42185998084563403 9.361944115922775 9.665938757907371 1 0 0
154 52 1 -1.098790653813286 6.0703657184242585 10.797510287619028 10.612704111542936 1 -1 0
125 42 2 0.5610152187674199 4.451792920909722 10.611565358281252 7.148614211716332 0 0 0
76 26 1 -1.078855302364532 2.0757429463624586 7.929689015731833 7.849884085525471 0 -1 0
135 45 2 0.5215378324196431 1.0368438723682496 9.921898707523432 6.654972961356109 0 0 0
65 22 2 0.515586469438407 0.541044905700385 11.276226981912933 12.017137356392045 0 0 0
77 26 2 0.5008726679859548 2.9018696134117192 7.698116626649817 7.336177718906342 0 -1 0
52 18 1 -1.028461622139734 4.937313909684932 6.7225911122195905 9.067381198190855 0 -1 -1
180 60 2 0.6066770015717343 1.2003199934932702 9.11444049065518 9.089096286613868 1 0 0
88 30 1 -1.137393308741007 5.920674403533837 9.539516950494109 8.16312529879768 0 0 0
155 52 2 0.5338928283378447 5.757800484481609 10.37933786355736 11.465605085152866 1 -1 0
89 30 2 0.5163741746964013 6.037009019631961 8.55159413493266 8.265497365741602 0 0 0
124 42 1 -1.214028698072261 4.032484280028985 11.283114470309737 6.537707241452769 0 0 0
40 14 1 -0.9322185427654254 2.9290670276769095 12.134924138855379 9.701860537536593 0 -1 -1
90 30 2 0.6210191340446054 5.944147861631691 9.97304338051141 9.063963299628746 0 0 0
42 14 2 0.4170262168415639 2.7855139557156123 11.165676859413221 9.501966817463678 0 -1 -1
78 26 2 0.5779826343785774 1.479642796189671 7.128426412524361 7.901344013287386 0 -1 0
134 45 2 0.630474995814882 2.3723311867627435 10.855914356623613 6.551158702569014 0 0 0
53 18 2 0.4548333331065128 4.3634541520137775 7.302021275197042 9.646130658024289 0 -1 -1
66 22 2 0.6312817158135972 0.03817272912671427 10.71463714079913 10.568543063849674 0 0 0
83 28 2 0.6976082706104911 0.4244613797184785 12.139823336597408 7.16662482182148 1 -1 0
133 45 1 -1.152012828234525 1.3780222378294187 10.861896554378134 6.6575504310125035 0 0 0
129 43 2 0.4868484406180083 0.022431551528205418 6.635608752239524 11.09792465113439 1 0 0
47 16 2 0.5299405689437063 11.638128814705956 3.1972962068571484 2.5156937490027107 0 0 0
5 2 2 0.52795815999964 11.260117595214421 1.625010112150591 0.3249575074622739 -1 0 0
163 55 1 -1.065196516326888 6.312669163821243 5.58539177703618 4.881099622413251 0 0 0
34 12 1 -1.090288559625284 6.3786798987879925 3.0992721015767923 1.4226527402771108 0 0 0
15 5 2 0.6083271274172989 8.141258576610326 5.920940662352716 1.423209547025523 -1 0 0
130 44 1 -1.177566310219796 9.209734000839564 0.8358570699261194 3.0308980763591165 0 0 0
132 44 2 0.5975046975373978 9.717119615663218 1.6709446220584998 2.8183095285874553 0 0 0
183 61 2 0.3775834325263577 9.40923793054284 3.3124257646828923 5.823561042776021 -1 0 0
138 46 2 0.6005892956622242 6.2200202082441995 0.3382668521922446 4.334265816107866 0 1 0
167 56 2 0.643363161814003 6.977782956238805 0.21433591857885115 0.379867821583227 0 1 0
57 19 2 0.5310398337557912 7.686585241756618 1.799032921844792 3.8359769845023557 0 0 0
56 19 2 0.7014914424343899 6.548333238883095 2.5844299885665083 2.967516953447748 0 0 0
13 5 1 -1.053350144933877 8.54186988511084 5.09522109233734 1.0260911217475772 -1 0 0
131 44 2 0.5800616126823981 8.790692364195563 0.47877605411275176 2.1960911960541543 0 0 0
46 16 1 -0.9956949952826644 11.017722874234863 3.103655340469028 3.2943677049498086 0 0 0
14 5 2 0.4450230175165776 8.578984803185127 4.375908167314286 1.7197889459125555 -1 0 0
4 2 1 -1.017558245483635 10.556037845698352 0.9245947036241048 0.2079308681013794 -1 0 0
182 61 2 0.5642566859298311 10.052680894794502 4.802248179097345 5.641628843143593 -1 0 0
55 19 1 -1.232531276190181 6.713796768922709 2.0235524271589687 3.7787157292335443 0 0 0
36 12 2 0.5238522607750856 6.903863856077205 3.6513984018577013 0.7750852673108048 0 0 0
48 16 2 0.465754426338958 11.48642798423154 2.62792976491766 4.038683477407551 0 0 0
165 55 2 0.5405204279842389 6.628715583351737 5.77542862846707 5.810618814415319 0 0 0
74 25 2 0.5128394940881376 6.819853383089484 0.4310690870388044 6.1589021921402205 -1 0 0
185 62 2 0.5040512400676459 8.932775826774426 3.3599858720207765 8.098858151580268 -1 1 0
101 34 2 0.6213115657363378 9.227400197032232 4.640681645195771 10.205036301308564 -1 0 -1
6 2 2 0.4896000854839953 10.907346249946865 0.19319052773300516 12.023434838094786 -1 0 -1
176 59 2 0.7000004974968377 12.107514824298011 2.002438821125647 7.842974269651643 0 0 0
186 62 2 0.5890386338482351 7.659962924205154 3.227108897409284 9.113244677847007 -1 1 0
38 13 2 0.6100421000130922 12.21946052421967 3.4045447112590708 9.656928565205098 -1 0 0
116 39 2 0.51834573033373 7.527276532819706 5.21575311015954 8.030826022756072 0 0 -1
100 34 1 -1.250664829989851 9.631817681192285 5.240975681911735 10.89503546108262 -1 0 -1
105 35 2 0.5507646996764708 6.263189116978467 1.7707062850497688 8.416429083784008 0 1 0
181 61 1 -0.9418401184561889 9.776803071774852 4.107550895733039 6.305927257827916 -1 0 0
184 62 1 -1.093089873915881 8.53777653921367 3.6808379770568207 8.959691911385562 -1 1 0
102 34 2 0.6293532642535127 9.196380027701478 5.073040361441812 11.779454508006122 -1 0 -1
177 59 2 0.4963306054153577 11.2808814969706 3.291112409852251 7.274919057661224 0 0 0
58 20 1 -0.8193010291342976 8.49692782592372 0.6210913115099228 10.465204739597784 0 0 0
175 59 1 -1.196331102912195 11.990312971706924 2.993037871805549 7.913561230494693 0 0 0
73 25 1 -0.9105009821553487 7.164067257256373 0.821016843020675 7.012988153232958 -1 0 0
82 28 1 -1.344128914775446 12.2591557601616 0.3881198104606013 7.676670418777192 0 0 0
115 39 1 -1.084656426761896 7.137557000649798 6.047843229913796 7.636174288498516 0 0 -1
39 13 2 0.5227978928611869 11.29974438721882 4.064621885558071 10.833835252801835 -1 0 0
60 20 2 0.364859682171473 8.90285649666623 0.3448873821002327 9.594033931921162 0 0 0
59 20 2 0.4544413469628247 9.223100555759515 0.8117531789571539 11.12575488246692 0 0 0
37 13 1 -1.132839992874279 12.228195854439727 3.796295866534027 10.576961172696144 -1 0 0
75 25 2 0.3976614880672112 8.085052878390096 0.4741791977835248 7.19045478674827 -1 0 0
191 64 2 0.5309053043259813 12.289526982669237 4.8301988857607725 7.797589890804 0 0 0
189 63 2 0.4626247617655298 6.574751045025722 9.314949372399626 5.584533090079718 0 0 1
173 58 2 0.4664130498879511 10.748357907321193 9.683033543406436 5.7383393199468316 0 0 0
17 6 2 0.5832489952556783 8.986020442756118 10.566036004080257 4.983284315171014 0 -1 -1
143 48 2 0.5841756425012047 8.935128281920054 7.751860659988948 2.956170369169579 0 0 0
145 49 1 -1.119416400039547 12.28698557275939 11.346481819186113 3.5894575571711997 -1 0 1
172 58 1 -1.020116421347213 11.307316809747064 8.914995992792454 6.050890977670355 0 0 0
123 41 2 0.4520592952876895 9.85411952967851 9.9785593284495 1.043558431599252 -1 0 1
18 6 2 0.6464299498936334 9.353853198822874 11.623340015998416 3.7943788143231005 0 -1 -1
146 49 2 0.5892051723410446 11.316965025721082 11.169909535645122 3.7564534837942776 -1 0 1
142 48 1 -1.16450347565293 9.753477081475587 8.303025001488166 2.793295007541061 0 0 0
10 4 1 -1.366056176423327 6.462291873929172 10.238416640725232 2.665082204781379 0 -1 0
11 4 2 0.6275906270635406 7.092485830667783 10.851577398132612 2.1887475168090043 0 -1 0
62 21 2 0.5437510964273989 6.475434413087233 6.87603964524467 1.8349449827399544 -1 -1 1
86 29 2 0.6289950970764158 10.650074403413383 7.849144806955826 1.4800293326868141 -1 0 1
166 56 1 -1.152176024368261 7.612543693196412 12.002665292860934 0.852036356060844 0 0 0
16 6 1 -1.229678945149312 9.607537490721176 10.75637445074834 4.223354642563803 0 -1 -1
144 48 2 0.5803278331517251 9.723762815593389 9.121494768591296 3.3670803116758914 0 0 0
63 21 2 0.655391708399373 6.728344252328028 6.608182847129854 3.4258498664206116 -1 -1 1
85 29 1 -1.080945200589533 11.19184906824927 7.325007428699523 0.8229406828405965 -1 0 1
61 21 1 -1.199142804826773 7.162380171391729 6.862277398090288 2.561526979627269 -1 -1 1
121 41 1 -1.018576830659832 10.013141683952245 10.000806432542488 0.056531434344548645 -1 0 1
68 23 2 0.4791504086260553 11.128290047777263 7.10976756309319 5.395876213062075 0 0 0
168 56 2 0.5088128625542581 8.310603149398865 11.686263142002465 0.2096906959693896 0 0 0
188 63 2 0.574893212136263 6.379268531098172 8.964361589084497 4.001635812004409 0 0 1
67 23 1 -0.9871280987754467 11.070668231635057 6.39305745147728 4.700885842832294 0 0 0
69 23 2 0.5079776901493916 10.729987408448594 6.784336868383023 3.8459927108450023 0 0 0
87 29 2 0.4519501035131169 10.623829897687413 7.091152622981837 0.033845362732109585 -1 0 1
127 43 1 -1.141709955054555 11.775961872243855 6.823134766785556 10.358386808874414 0 0 0
122 41 2 0.5665175353721428 10.895274379319915 10.433599114378692 12.270688288621031 -1 0 0
174 58 2 0.5537033714592625 10.860478882268803 8.472102844627305 6.828185515394166 0 0 0
19 7 1 -1.162644785104383 9.343822228986802 7.728585510465894 7.824894131931206 0 0 -1
128 43 2 0.6548615144365463 10.978399393266743 6.227487415786095 10.45379958514301 0 0 0
94 32 1 -1.056873047466615 8.130557498123123 10.105777392994534 6.5862198217554635 0 0 0
21 7 2 0.6069779895166707 8.60610880840169 7.0709479271095494 7.6722606148201935 0 0 -1
158 53 2 0.5121477554338763 9.77951517530705 10.239965444993704 8.690475426263063 -1 0 0
159 53 2 0.5434258656581106 11.400513247105163 10.244785753023319 8.888038114687674 -1 0 0
20 7 2 0.5556667955877119 9.226179772420176 8.159807685321795 8.719440363729962 0 0 -1
139 47 1 -1.097669585014362 8.680002967952463 9.400610587834953 10.12135566700514 0 0 -1
141 47 2 0.6210514647018157 9.12951605328123 9.579471655178791 10.996542491178584 0 0 -1
157 53 1 -1.055573621091987 10.611220154973156 10.788084905812694 8.601947713256346 -1 0 0
140 47 2 0.4766181203125465 7.82921124801529 9.92365854741393 10.070566359404273 0 0 -1
95 32 2 0.5995916245872118 7.38296288317568 9.95560650385805 7.2331790695119995 0 0 0
96 32 2 0.4572814228794029 8.728734161293591 9.304472404816902 6.576206427723027 0 0 0
84 28 2 0.6465206441649548 11.511211484678807 12.29796390750848 8.124254851117797 0 -1 0
64 22 1 -1.146868185252004 12.22511468182645 11.337118788212841 11.321622169663863 -1 0 0
192 64 2 0.511251120958269 11.98753861193325 6.293201277777325 8.457223141098359 0 0 0
179 60 2 0.6435934503115252 12.386442557384562 8.531162140385641 10.012663791571072 0 0 0

Velocities

112 1.8943500644496876 0.8049570715131489 2.681582036358711
23 9.056168528546245 17.180030304675363 1.8712885553027923
113 0.8557418723555144 -7.110373702924369 -9.890071543296969
164 -3.3312909356851064 7.83384679089912 -8.735382145427913
51 -4.222570003862041 -12.283629662945492 2.5021140703402542
97 -8.267931827512326 5.331084150968925 1.2479061689362925
150 9.16415208023665 4.348489384018577 22.002068859426913
72 -23.57368217857287 -19.74989856673951 -0.590506858890032
70 3.9191990418456415 -1.4509601591127745 -2.9720278998387655
153 5.6440978285960455 1.395002194243197 19.571726535749974
149 -0.7339532873920693 -15.220455428747915 6.659000053100654
33 6.749628158309256 27.835223928939893 -14.156514813016384
152 -10.434161930766402 19.9896304986022 -7.450986222047913
148 -4.4241528746866 -7.9268287005276274 -2.1058838690994364
71 17.80340657280231 13.260204006072152 -14.68673640932153
22 -0.2771564101328119 -0.41365645452205885 1.515234262579872
24 8.749012155571862 -3.5975738861827646 -16.379949483488883
114 -12.560174172286679 -5.666258473938528 9.649628913044616
98 -2.6427150921536153 8.870799581424087 3.628364873056462
151 -3.6528924148034365 3.2719605144871022 -2.4128709503653094
45 16.549457206173525 -4.237469386669258 12.74853312207488
3 20.855365496671237 -7.418787531827764 -5.087116767984009
99 -2.9227910712418748 0.24399906696290685 7.592852235727017
31 0.18719590524858576 5.3360182724861485 -0.48737178337220655
49 -4.087828000199177 -0.6208004586060336 9.010783561036266
35 3.3387559346205467 -5.039279237559267 9.2325598621666
50 -2.2429485852618516 11.334609996795315 -3.441264316971618
103 5.286937391457481 -0.6575683446136842 -2.0377543531692885
8 8.656379941170023 4.837944299987578 21.559574457712447
91 6.617105484080066 4.018624340358651 0.3235896726858779
26 -3.009638173318082 1.1299063387273065 5.325451488581755
25 -1.510659483754312 -1.8289730072564687 -5.135242463686893
9 -7.896664177977553 10.957288018369189 4.521958475412149
27 -10.34793456297982 -2.9627460824397325 -9.308140782589483
107 -6.426357681972245 13.840781090933394 9.072917808774543
169 6.792301467779033 -2.216403975818833 -2.509133612551687
190 -1.4681668145268558 -2.3490724407691794 3.980822751498104
108 -6.312190704776041 -10.428020052981221 -2.098639625757104
93 11.412189675518453 -3.0968691610678727 -4.425843266585415
92 -4.491995659366767 11.43401066978907 -14.60562090277387
106 -4.404867508008584 0.118913945513898 1.2671810391426286
170 -12.375531969443823 15.540418104114623 -17.442036805732837
104 8.586440876519115 1.9407144493766024 -20.00700107395651
171 -4.238280087653243 -5.546317410711773 -6.023825577505955
44 -8.021601222529819 -10.419056423570867 4.431525870067404
41 37.36839450034551 -4.325121788239455 -6.7427062275302125
7 7.065181452801146 -1.2047469051869422 -3.353374678886848
43 -1.3189355067488169 1.6917444024653998 -0.3301083423883313
54 -5.872385303172946 -7.749107360481773 1.5415097742713453
32 -24.159032069975282 23.442626271236954 4.913857486721693
117 2.0402040454124273 7.01614062204856 -6.258488263192723
136 0.18061859370162225 -4.905349957827982 1.7979380658948398
79 -3.1997049015640306 2.6360174932506792 -2.109101054687753
160 -5.856099192326224 9.330353209128722 0.41094879032177334
29 -0.6538358253998555 2.941867819256244 -9.083079561539286
30 24.98223160210028 13.518662749329305 14.841259610531395
119 -2.1280785157032778 -22.640620012976548 -19.083423303788514
1 10.72613742446116 -2.9022803405414104 4.028884087798765
111 -29.40377076688018 -4.728282037263138 -1.1670245724356707
2 10.964433337249396 -12.282528512979797 12.978386035096472
118 3.6050151940491295 -1.7885921816618506 -0.2900674654169657
147 -10.439702866253391 3.463081065819161 19.2015692373356
109 -0.7106657058522559 4.201239333750461 2.9706592036326116
81 -6.44171773699602 -9.872725415420382 2.5699323575725654
80 11.049530253050333 0.2201634847214171 11.83758962602932
28 -0.11328514438830783 3.7436041438764294 -2.968195284611175
110 8.730682516176618 10.274887095732662 -15.95656421514285
120 -0.47243844508433863 -15.817053996156938 -11.160573223605617
126 -8.114698468803047 9.090631696884545 11.166418286185896
162 -5.479716222000637 5.151726483962866 -28.588210949632145
161 -11.984468993387246 -1.0446242623667494 24.585667649859584
12 -0.026278834991129152 7.589841031068282 -7.058677995203735
187 -1.2302035330269803 1.3250417304233493 3.9548854072915534
137 -11.211338698836204 -9.744528985118354 3.9352985147467017
156 4.370952255150234 -0.9967418823057451 -23.76723576754346
178 0.9492496203428389 1.3387770472664604 0.30671494690441
154 0.5464841885649997 -2.8277228226512143 -3.9914947291125955
125 -0.46923749546272564 6.319171626462843 10.528826750587676
76 -3.4958231491315828 -2.0673023655779432 2.97143129444625
135 10.703710346558644 1.4894050733609725 24.747061133691368
65 13.315147375257208 9.037190163584432 -10.432437205157441
77 10.051962624395674 26.80725097441714 11.74227413218596
52 -7.013123381627479 -1.8834785247998835 -5.4491821139086625
180 -13.592594081255987 -0.5696934713774711 -18.498922639836902
88 0.5651530456075342 -5.217958749989487 -5.721595138719069
155 5.466132104397056 15.300680392090744 6.699675172838783
89 -4.051991842339418 -5.3972937805135075 -2.2053565741327144
124 -7.964183982399198 0.5524051049698186 9.33392941366889
40 -5.650463458872403 -1.6490175869535464 -4.211273796037856
90 -12.67350405527139 -3.7942694456203396 -6.061778255511323
42 -3.0116508624335423 -1.3254314782179653 -7.675337648837332
78 22.81405033121608 -22.186430759537604 -5.528107620004153
134 7.21681790200617 5.252851320412263 13.750662850814235
53 -6.81050416584603 -2.9679795118835344 -4.162498238683503
66 10.359825527819236 31.246335882566424 -18.016535487374156
83 -3.9685572279333803 5.731860563792642 -14.784073458624114
133 6.351232477427696 3.121170253771972 5.780990692656016
129 10.751016268501322 -7.166466639922742 -0.9900787360595609
47 10.424196661116287 4.1002838206412955 1.2160435949259494
5 3.138625895978917 -3.673507596499166 8.871711035627861
163 2.9165595814829928 2.9171821867721732 -10.193414961731692
34 -2.0196067208362645 5.846210615084074 1.7958842087244138
15 -7.898933716841284 -3.476667053658154 5.413028847325663
130 -2.840601443917933 -2.6825965491140997 6.8778128435639285
132 0.2893040490450236 2.1628806695986453 33.38190627397248
183 5.376229719254609 6.281192459171082 -11.605013378223369
138 -7.895387716005603 -6.999634090894438 -11.681517453967452
167 -9.611491102820509 -8.402592518396066 -20.388998741752665
57 -0.934079993995339 16.175620882180958 -4.4652301559083085
56 -23.56952348026506 -16.401081886285503 -4.2588970145424625
13 -2.6052257672820476 0.7149067812900425 2.037851089581213
131 -21.93149189619617 37.15588816193773 -0.5798264690150594
46 -2.3981061779803796 -1.603090812213757 -9.685954255414673
14 1.1541674100270791 -2.1731697423840886 -1.1580077764717815
4 0.7194916234657968 0.3922999517048925 -0.9080349134904752
182 30.42980974478068 -1.8993297114683505 10.01306474788038
55 -5.523526716759562 -2.068017790602095 1.9703280049565028
36 -8.678088559373313 4.548232029844015 -4.710890963772436
48 -19.193390863434217 -19.532159342201023 -10.56902124650723
165 -14.416686532026361 16.942029997859375 -7.167256408576405
74 -9.26508809240911 -2.943843792509474 2.298377660913136
185 9.79789457461334 0.22210785746770823 4.1130559458039215
101 -9.233141055652112 35.732969630847705 -27.53567182728492
6 4.407080233557583 -1.3462677254887845 3.4839137012437003
176 -22.900471024173495 -5.312398774647651 -1.5089320819461922
186 11.778890423080616 -16.25180669410713 4.440774366381986
38 -0.480387063840913 40.007265361879945 -25.983487720710045
116 -0.1652264965091952 5.9314308504625295 13.89325702500897
100 4.359982698197839 -3.2602345960703856 -1.5789865099822458
105 5.133180550380428 -26.339274349104752 30.77990853821353
181 4.529156065452647 -0.6861887458784645 0.5253855973878885
184 2.91319046969498 -0.22346644188733444 1.1200393090097227
102 6.830272461807226 -38.02538795082687 -6.964035608908475
177 10.049155571350402 15.802464855946376 -1.5566252919922579
58 0.04208026820225391 3.9587366003992837 1.3493434102470618
175 2.6694391472275933 -2.2669136042715228 -1.7924671105037382
73 -0.49461322146487596 2.7503994730995394 -3.836106168263488
82 3.1020154183884956 0.09791102231582503 0.21361325364390005
115 2.0835074717892215 -1.2315572853873618 -3.4299335564767426
39 1.3732422924497225 -20.674399088754623 9.498844798452769
60 12.449658390879515 3.2667662227596512 7.350137497635647
59 -9.629004084407148 -10.022022797202993 16.01662571193797
37 0.35694519456802404 -11.01246145404231 -4.267167684342731
75 -10.582735027901983 -19.713066430692116 4.6152825819976675
191 8.941101152344869 -4.768306072365847 -9.504312047949504
189 -18.777367645935144 22.624419887426907 -5.4479611557619325
173 -6.4618899655497355 -2.565977278169183 9.250697430940763
17 34.26262316244823 12.357893088594802 23.681675433817997
143 4.863372226276212 3.9013345055179958 -0.3531361765214064
145 -3.1227124980141774 -3.2928945454714094 -4.842504368242212
172 -0.5032817287356518 -0.7652637377998357 3.01940268332031
123 2.7758204262154424 -12.638626411826348 -1.021810690709397
18 -3.2174364713410677 -0.04277231076881194 1.0577857380752986
146 -5.980409692702041 2.7279029063968525 -15.075802124683666
142 6.80205075532486 1.1580452751725816 0.10434274503434637
10 3.056714844073672 -0.0611814455995133 -4.484226612675239
11 8.672799832112824 -3.298277229551112 -1.221053141263348
62 -8.002978312337486 2.289731933606334 11.387298230073775
86 -15.500853734359117 -19.28668200685063 6.204707403784827
166 -8.026407593266507 6.130275466612965 -3.693308322813479
16 4.6398973648048125 -0.0782186836422255 -3.6604590251000735
144 -3.643484145231721 14.56002200419206 -19.5536967553788
63 0.7585279828798139 6.005297572485611 10.62004203145618
85 -0.562319437582427 -2.591405872127731 5.2043875064667295
61 -2.1790738891030097 -5.605364217297523 5.731555695228961
121 -2.6778137423004993 1.8411284292722963 -1.5740914717048067
68 6.3865858725208735 3.665810347167091 3.889292655133025
168 -4.661553326773119 -6.133529498958883 6.004215915768141
188 -36.93193729797808 13.055140148070096 -1.0864819983827942
67 2.1473255287571513 5.777580527184154 2.063003809000908
69 -31.310569090378454 2.3887868613057806 13.845175748924772
87 7.657094789840944 -12.486482405842942 2.220244030253988
127 8.558644704841674 4.071350255312725 3.775985357998919
122 -1.5825381091652313 0.3480641711826239 0.1477431473227342
174 5.843768700024972 -6.893695557866857 3.1761803154381267
19 -1.1151596589481276 -3.5358310924203593 -1.620238444673734
128 7.439881010963168 4.782253133874659 -1.1377855957589786
94 -0.5696968006976562 -4.78627458039824 2.3905424485421283
21 -5.8530839108740444 0.6413695884395922 3.281346473022113
158 1.6591596341839319 2.8869855193565224 20.42373706015689
159 2.1827447106023397 7.1801488640925095 16.02298317301108
20 21.630561271717486 -21.501499969817306 10.031543120328008
139 -3.235794187221829 -2.698212102726226 1.274829910907087
141 19.314091660715615 11.743410547201782 -13.25865305677096
157 1.994784275394509 -0.6513759979632544 1.6691113585250243
140 0.4273422017634758 4.150293223287003 10.440747899908404
95 -7.066709095638376 13.165671685369869 -0.9501187754513452
96 -12.948134722203395 -14.173116792802144 14.09794120931856
84 28.582416847709617 -9.430264941800228 32.35867383505735
64 -0.2841525253857453 2.215149669540601 2.9687704635190038
192 -16.725301579272347 -12.96282312879189 -3.080071139071882
179 6.138357507437864 2.3680910952862986 9.289520461730332
