LAMMPS data file via write_data, version 4 Jul 2026, timestep = 15000, units = metal

192 atoms
2 atom types

0 12.4 xlo xhi
0 12.4 ylo yhi
0 12.4 zlo zhi

Masses

1 15.9994
2 1.008

Atoms # full

93 31 2 0.543398205379227 5.2384943162512485 3.174061807317687 4.314837457457352 0 0 0
92 31 2 0.59308246556018 4.657923574615122 2.06598133054679 5.364496578770113 0 0 0
44 15 2 0.5010525668193107 2.8122246966166027 3.010287653126086 4.024616505379961 0 0 0
112 38 1 -0.8288894280052773 5.0138286169140605 3.618236740928036 2.2319954784690506 0 0 0
45 15 2 0.5497295528469933 1.3207884499498737 2.3839022576799183 4.248107575671534 0 0 0
116 39 2 0.4683212131632261 4.907816011959536 0.30984189235169424 0.3415913543226006 0 0 0
46 16 1 -0.9301419572464279 0.6326871361273755 0.4639613121219491 4.2974445060313435 1 0 0
136 46 1 -1.112633428869352 4.218807440819674 0.32606089752920664 5.737903014981532 0 1 0
43 15 1 -1.050782119666304 1.8319948349200252 3.1783143060018935 3.920109401977675 0 0 0
41 14 2 0.5991846736440477 1.762801666505525 3.644271512399821 2.176834574188162 0 0 0
8 3 2 0.5226033664915992 1.0506828107026172 4.130354232152611 5.650516261508075 0 0 -1
38 13 2 0.4796298880007353 2.841463164307512 5.723673506874494 5.094019925319753 0 0 0
40 14 1 -1.062296671193521 1.9832646887744914 3.9005973079059513 1.2357190579680122 0 0 0
113 38 2 0.4132199838934815 4.221728171870376 3.2169694191963973 1.7720316820984876 0 0 0
42 14 2 0.4631119975494734 2.2464932867836493 3.0846705516624358 0.7209574567036953 0 0 0
125 42 2 0.532933016505066 3.168273582173956 1.224132416464526 0.6801148295260381 0 1 1
90 30 2 0.5289256939168425 2.9749952101520787 5.508604780764684 1.3347585279214154 0 0 0
86 29 2 0.538189622404754 0.5959172439973894 4.746930176051249 0.0923918955517794 0 0 1
91 31 1 -1.136480670939407 4.644858709675413 3.032165871969007 5.106965971422602 0 0 0
187 63 1 -0.960126581509217 2.8748721774651362 0.01683603533044887 2.4180307686365974 0 1 1
114 38 2 0.4156694441117958 5.116928557715261 4.571395678835376 1.947630020310288 0 0 0
188 63 2 0.4624887509616158 3.696195151988022 0.011985846508693498 2.9884782418443363 0 1 1
124 42 1 -1.151194076509554 3.5269215251508848 1.8640343488933706 0.00048077919289113424 0 1 1
67 23 1 -1.030782445878178 4.377608336519581 4.893708717574734 6.985840099529218 0 0 0
126 42 2 0.6182610600044879 3.052115117216057 1.7276292038009735 11.531022451337934 0 1 0
49 17 1 -1.008564058968494 4.716238122863049 1.669583004812824 9.2713187801872 0 -1 0
50 17 2 0.4728523500797447 5.055547653777732 1.8969715833336251 10.184099558407654 0 -1 0
26 9 2 0.4797568359771157 1.9106007556365965 1.279284574048048 8.338140337196382 0 0 0
51 17 2 0.5357117088887493 3.731992749168675 1.4981657529418357 9.314705905261507 0 -1 0
69 23 2 0.6080956616689501 4.329525191144216 4.203369248697678 6.263950425588996 0 0 0
25 9 1 -1.029446329791251 2.056630820723866 1.755626627246639 7.471088585024102 0 0 0
79 27 1 -1.312981663436277 2.09269720617316 0.8943860865812875 10.2130195052911 0 0 0
11 4 2 0.6247005630090947 5.989249656716267 1.1749470459627946 8.06746624647122 0 0 -1
145 49 1 -0.977534774133373 6.0761839003220395 2.6318800679650787 11.582299801057266 0 0 0
68 23 2 0.4226867842092276 3.4859727217581162 4.9724358391753265 7.431702458686833 0 0 0
7 3 1 -1.137099303253275 1.2255302318771446 4.349678278387869 6.610375946332741 0 0 -1
81 27 2 0.6516288207702942 1.2024860410472962 1.313905306412269 10.390594779970677 0 0 0
85 29 1 -1.098825575514178 0.10640436140436521 4.72015827171743 11.620803876236497 0 0 0
27 9 2 0.5496894938141349 2.7220081883222877 1.2506603739092634 6.921281969769188 0 0 0
176 59 2 0.6526926070869826 0.2577624402682668 5.44174300968054 7.383852923913682 1 0 0
24 8 2 0.574002047853313 5.9903125489187685 5.798940103745787 8.00097054724712 0 0 -1
9 3 2 0.614495936761676 1.4028906096837679 3.5065486924890963 7.117998907068908 0 0 -1
147 49 2 0.5290443479190743 5.126945970920907 2.4700621827097455 11.852054500548677 0 0 0
137 46 2 0.508201183377601 5.065009424833175 0.3516638829361787 6.270154799280567 0 1 0
165 55 2 0.5869412629012017 6.064907829711273 12.046459584979914 1.96071395629696 0 0 0
189 63 2 0.497637830547601 2.6946289579746514 11.491187702777127 2.0853254654495577 0 0 1
52 18 1 -1.084033850148119 0.6923039991475479 10.369755515053036 1.5375778974080685 0 -1 0
115 39 1 -1.082182143299354 5.657394634765151 12.049384891807831 0.2976173714991153 0 -1 0
4 2 1 -1.098476617597028 1.0069156244843758 9.316800158145373 4.222821997033599 0 -1 0
156 52 2 0.4960887324635512 3.965234100416732 9.772421712283675 5.536217906971966 1 -1 0
29 10 2 0.4841257080011998 4.925450338292134 6.5121385237734835 2.8759247369796004 0 -1 0
5 2 2 0.5222299641908726 0.6222366352952035 9.7364882113001 3.4006971367991143 0 -1 0
154 52 1 -1.084400958861497 3.549958145873677 10.23115364800187 4.7506504908766924 1 -1 0
155 52 2 0.588312226397946 2.6081371059655414 9.914097770150708 4.639053127079865 1 -1 0
30 10 2 0.5799322122641998 4.084342501187665 7.2754507057867785 4.049202674704268 0 -1 0
39 13 2 0.5721948325217373 1.5636879531213186 6.7362790131341805 5.001232003847575 0 0 0
88 30 1 -1.095048393202995 3.236875574274366 6.4716282299334456 1.2714356747145334 0 0 0
89 30 2 0.566122699286153 2.4143229985808343 7.038287997246703 1.223381113761341 0 0 0
28 10 1 -1.064057920265399 4.999455036168449 7.0731549672956096 3.700417991827683 0 -1 0
37 13 1 -1.051824720522473 2.5603007908246544 6.672379241541087 4.94941556422235 0 0 0
54 18 2 0.5414215471236389 0.11757006428561911 10.83794466618399 0.8663960327980675 0 -1 0
31 11 1 -1.210563998392405 0.8300523795794332 7.768953300726079 0.56410396410035 0 -1 0
78 26 2 0.5242232171131828 4.9458586888232645 9.381432605430382 0.874443356788314 0 -1 1
138 46 2 0.6044322454917506 4.145147167676956 11.844756646478048 5.271124423206653 0 0 0
77 26 2 0.4343530940736138 3.4297396189373917 9.076871033386556 1.3991472873653805 0 -1 1
6 2 2 0.576246653406155 0.684125911818289 8.373290393717578 4.297664487146745 0 -1 0
53 18 2 0.542612303024481 0.7831577445651083 9.406570296893792 1.2845460714195438 0 -1 0
76 26 1 -0.9585763111867968 3.9798060229493046 9.612102117398384 0.7580857377579437 0 -1 1
159 53 2 0.5098601309876052 1.185033579136745 10.591142453079085 6.02062654003139 0 0 0
149 50 2 0.5327920095210821 5.769665313615708 8.958954029437255 3.6604465455581874 0 0 0
47 16 2 0.4785011295457863 1.2918731425397443 12.38399598581852 3.718555598730065 1 -1 0
161 54 2 0.4742455738845596 3.97217573968579 10.385900028976893 8.722116933401148 0 0 0
158 53 2 0.4989909274033543 1.6204141363084545 11.055780919083386 7.524369824753315 0 0 0
109 37 1 -1.01128056901415 4.534368491812908 6.902319399392795 11.016676123804338 0 0 -1
80 27 2 0.6613528426659829 2.0276877355550056 12.305441455035194 10.34631450506968 0 -1 0
169 57 1 -1.128241066297822 1.9692041643670628 10.640865759291932 11.076371578641043 0 0 0
133 45 1 -1.150950472580813 2.6217606196208347 8.274563701238273 9.559082875438065 0 0 0
134 45 2 0.6251832384361885 3.3183252226541526 7.747985625745157 10.046441631090639 0 0 0
171 57 2 0.5616568615408987 2.4307735575473766 10.342439158028101 11.91177599055024 0 0 0
160 54 1 -0.8682505679993393 3.626432139012162 11.136322692928697 8.158794236786884 0 0 0
170 57 2 0.5665842047569233 2.1140081144080023 9.963295394731496 10.35530605483474 0 0 0
173 58 2 0.594458256059329 5.565749815586484 9.05587890045191 7.4150380544565735 0 0 0
94 32 1 -0.9471477088620898 5.357928549369837 10.133470958522404 10.63655222183911 0 0 0
182 61 2 0.5378589647704112 3.330906723402274 7.481914239895723 6.344169160612275 -1 0 0
135 45 2 0.5257672341446239 1.7502022510345077 7.785390410866755 9.592260799340355 0 0 0
117 39 2 0.6138609301361277 5.413134312315039 11.30916263818644 12.071188458836106 0 -1 -1
157 53 1 -1.008851058390959 0.8500934802633708 10.933129401186022 6.898615907843607 0 0 0
162 54 2 0.3940049941147799 4.056976488853968 11.992752633936583 8.443688237188056 0 0 0
181 61 1 -1.080728579666298 3.6348355500414984 8.236301308284784 6.926004783348661 -1 0 0
110 37 2 0.5484432713998388 4.225192920498039 6.67099522607203 11.939121171186304 0 0 -1
111 37 2 0.4628372976143111 5.3757249778371765 6.402137804760419 10.811876445299129 0 0 -1
183 61 2 0.5428696148958873 3.0815555282788223 8.258844501928488 7.758698180967864 -1 0 0
33 11 2 0.5644000426417275 0.8551065089104186 7.625722798686721 11.974729117851917 0 -1 -1
95 32 2 0.5263507636227037 5.289051264500352 9.328049997995995 11.225244219809115 0 0 0
102 34 2 0.5213365242631132 10.159260292467197 4.157846554198391 0.646522092304316 -1 0 0
167 56 2 0.4878064335387449 7.953835900089943 2.3727210102555474 2.9665850978690544 0 1 0
104 35 2 0.4299792258915047 9.61157741225173 0.4397220447826325 2.6308393598620485 0 1 0
99 33 2 0.3845800221881544 10.728341271695065 3.565370677913145 2.8921408699263855 -1 0 0
75 25 2 0.6020907973063256 6.903476715435189 0.9629897423841998 4.095444908544225 -1 0 0
119 40 2 0.5992231131491002 10.689146620030847 6.193060978508862 2.3955061147424623 0 0 -1
151 51 1 -0.9028883663882478 7.109429018707323 5.799528411729893 1.6545703181886096 0 0 0
48 16 2 0.4516408277006414 12.104919781962407 0.19044805096569928 4.043587252801667 0 0 0
100 34 1 -1.043707170565366 9.205086188667012 4.077595608365734 0.35822218278294904 -1 0 0
21 7 2 0.5669330622738312 8.657530757219051 2.786441897100864 5.1151564092953095 0 0 -1
123 41 2 0.692151600718387 9.652623346835025 4.676494564766751 4.309637833612805 -1 0 0
168 56 2 0.4599802853512504 7.5344202247905265 1.1477710874717182 1.9714583833322852 0 1 0
73 25 1 -1.137701497598555 7.231072158458874 1.5628421670281925 4.825419953911413 -1 0 0
97 33 1 -0.8335908515135811 11.363458877419072 3.1624991902121034 2.2331071349803304 -1 0 0
20 7 2 0.6086161032552613 10.212900285944524 2.6210462573351796 5.58436735488212 0 0 -1
121 41 1 -1.247923878239871 9.715598025079238 5.598609060776633 3.9278730910703468 -1 0 0
166 56 1 -0.9477867188899951 7.961641395842708 2.050622089752628 2.019908472961266 0 1 0
74 25 2 0.5356107002922293 7.168591166223514 1.0858230049180717 5.702092137278169 -1 0 0
19 7 1 -1.175549165529093 9.576095842305733 3.176193652944507 5.049300310288692 0 0 -1
101 34 2 0.5223706463022537 8.814425138430071 3.235223723564846 0.7294348226872489 -1 0 0
98 33 2 0.4490108293254266 11.463148670550153 2.1853274185150466 2.420730551013371 -1 0 0
103 35 1 -0.9386939767816047 10.610433885693437 0.3937221974635759 2.6176093934928133 0 1 0
153 51 2 0.4994982954294143 7.732210516992483 5.097190623350012 1.3097948711113472 0 0 0
122 41 2 0.5557722775214845 8.90948855411767 6.126157708776027 4.195987278162529 -1 0 0
152 51 2 0.4033900709588332 7.470338302598394 6.175128571579605 2.508194521935246 0 0 0
105 35 2 0.5087147508900995 10.91825589478928 0.09074562122635044 1.7156913941892857 0 1 0
56 19 2 0.4811397660615518 11.93520098482038 1.2741319934159039 6.905565522948907 0 0 0
15 5 2 0.4710295314166382 9.68541456352627 4.2265838304181065 8.255449658941375 -1 0 -1
62 21 2 0.4311024738869857 7.151200439142913 3.964164383760539 7.569337480694823 -1 0 0
23 8 2 0.6479862571547317 7.207757390278337 5.932223302783451 9.081133797455603 0 0 -1
177 59 2 0.5725603537817068 11.195008415095144 5.749043662565392 8.041580808814498 0 0 0
14 5 2 0.5248522596477548 9.231202093100018 4.974311589285734 9.634319932146408 -1 0 -1
64 22 1 -1.03137710405333 9.368496828094054 2.1411486827077613 9.951988684847011 -1 0 0
185 62 2 0.6832526113797451 12.180511320870329 3.069358817422745 11.219003363351517 -1 1 0
186 62 2 0.6284736622783667 11.10439202519966 2.190898690236153 10.36053725078287 -1 1 0
66 22 2 0.5072369673824187 8.65628216875027 2.5979940840417153 9.41902730651274 -1 0 0
55 19 1 -0.91514594138667 10.995668344377087 1.6122687020683457 6.959854161752853 0 0 0
13 5 1 -0.9958817910643932 9.745776546515087 5.074148224500165 8.782703204585344 -1 0 -1
61 21 1 -0.9141011652835251 7.7099649419143255 3.188420401114279 7.862610009805039 -1 0 0
131 44 2 0.5289299756150501 8.123910759048062 5.417989803733154 11.462287710918584 0 0 -1
146 49 2 0.4484904262142987 6.675275665191358 2.0023978322344362 12.077119409263403 0 0 0
184 62 1 -1.311726273658111 11.954426356846305 2.15394590655242 10.885971736994156 -1 1 0
132 44 2 0.5828440427970418 7.055249169157935 4.278547996495327 10.986552727748217 0 0 -1
63 21 2 0.4829986913965394 7.40266485225072 2.360200246353902 7.393970166597695 -1 0 0
57 19 2 0.4340061753251179 10.45881607206064 1.0113305638854828 7.552026657133903 0 0 0
130 44 1 -1.111774018412092 7.559241190079802 5.094404561987935 10.703047207714302 0 0 -1
36 12 2 0.5970741353472494 11.71641141804306 0.49278305333157313 12.00095930563144 0 0 -1
175 59 1 -1.22525296086869 12.108376719985474 6.119462571492096 7.872603165230458 0 0 0
65 22 2 0.5241401366709114 8.944329818326457 1.5714374471277233 10.65591817590333 -1 0 0
10 4 1 -1.236418747546466 6.513047856236369 0.6754244234557798 7.377453298561338 0 0 -1
87 29 2 0.5606359531094244 12.246439481808865 5.648714081757571 11.35583663011403 -1 0 0
12 4 2 0.6117181845373713 7.166217560942367 0.0681719552056137 7.829801670016827 0 0 -1
70 24 1 -1.03726977486264 7.378057563522943 6.602127170772448 5.331263786896902 0 0 0
108 36 2 0.5764658376246972 7.612436418635722 8.57346063269943 0.20479643813966908 0 0 0
142 48 1 -0.7837495516198333 10.27813484258414 9.33864636304236 3.265743164391477 0 0 0
191 64 2 0.4414321807939645 9.694186723567464 8.816215800723988 0.6127862774578338 0 0 1
106 36 1 -1.052576690888315 6.706679579909128 8.55227295533172 0.6280704674963978 0 0 0
2 1 2 0.4944444668366574 11.9998707610074 6.757171345963008 5.846455514519285 -1 -1 0
127 43 1 -1.029970039426116 8.668251274342463 9.214064885581974 6.159245784379844 0 -1 0
129 43 2 0.4321797783751676 9.04444039270787 8.287608805474317 6.14635581327812 0 -1 0
148 50 1 -0.9952129272357544 6.532079455684408 9.556281186967746 3.909304367115166 0 0 0
150 50 2 0.4624209177146725 7.136880925775634 9.077307594427749 4.54554705031452 0 0 0
1 1 1 -1.096371314418654 12.087594363912638 6.879648866762085 4.857866065408822 -1 -1 0
163 55 1 -1.224661081595832 6.355675532906369 12.14347307476858 2.912579386952827 0 0 0
143 48 2 0.3637425530501167 10.809760826390864 10.143400424837274 3.0016409382254836 0 0 0
32 11 2 0.6461639557506768 12.387055309363472 7.38024639309746 0.9359482219142725 -1 -1 0
144 48 2 0.4200069985697167 9.698893062446293 9.564160720164793 4.049086963354683 0 0 0
164 55 2 0.6377198186946308 6.455058161299807 11.237787882153851 3.3247234122061826 0 0 0
107 36 2 0.476110853263618 6.607029699456991 7.711537671150713 1.1602728310378116 0 0 0
3 1 2 0.6019268475819961 11.245354616637638 6.581121707791096 4.408957370942846 -1 -1 0
71 24 2 0.5561372586980663 6.429762219065976 6.614096067852322 5.01409197591127 0 0 0
118 40 1 -1.016240136666068 11.11534701699712 6.454491035694379 1.5294733097484656 0 0 -1
120 40 2 0.4170170235169679 10.429943338849379 6.435575494313273 0.8015521101837012 0 0 -1
60 20 2 0.4745708234047242 7.522086744416555 12.365861296667628 11.81814721174697 0 -1 0
16 6 1 -1.141088913453392 11.371115324828226 9.698203143498793 10.313159164074786 0 -1 -1
18 6 2 0.5295507615017977 12.076551080125194 10.290379547018945 10.70263673051819 0 -1 -1
140 47 2 0.5414865260173398 10.127739273416845 9.90864331933396 7.157432090613319 0 0 0
128 43 2 0.5977902610509476 7.749625133566874 9.195364057852096 6.553937518554702 0 -1 0
139 47 1 -1.188190306975458 10.634650838195572 10.576297487997095 7.702669515099533 0 0 0
179 60 2 0.7011657342865785 12.135247506587781 6.711738354313167 9.399203324344036 0 0 0
17 6 2 0.6115381519515947 11.029907696144068 10.100515276139971 9.463613653488343 0 -1 -1
84 28 2 0.5969100247472093 8.949209162060024 11.003744207016078 8.262903397405877 0 -1 0
83 28 2 0.6126815210683125 7.4297098918639 10.410960090979213 8.34301556656767 0 -1 0
141 47 2 0.6467037809581182 11.42431936667276 10.901093762735922 7.182154128632911 0 0 0
58 20 1 -1.033749674322472 8.367467264475298 12.361784819256833 11.283993272196541 0 -1 0
174 58 2 0.7328575762044029 6.642283969584738 8.006667347077325 8.052939560600548 0 0 0
82 28 1 -1.209591545815522 8.048026188313168 11.120877281371266 8.680221457428285 0 -1 0
180 60 2 0.5794334564941667 12.023664241221073 8.087838694453072 10.271319158827627 0 0 0
192 64 2 0.5605531196018171 9.85733765529204 9.076957999978731 11.409014386257342 0 0 0
178 60 1 -1.280599190780746 12.372417371302406 7.150637055442585 10.265877229523015 0 0 0
59 20 2 0.5591788509177487 8.284260748829427 11.706440217000328 10.533256700190456 0 -1 0
22 8 1 -1.221988305008044 6.736749589867029 6.381765856830126 8.322142086991793 0 0 -1
35 12 2 0.5113020667940961 10.400437034715972 11.926637643879138 12.039214634944212 0 -1 -1
190 64 1 -1.001985300395781 9.26604098456796 8.691984663605737 12.117653257596134 0 0 0
172 58 1 -1.327315832263732 6.503940082388882 8.947564567944134 7.743781573253089 0 0 0
34 12 1 -1.108376202141346 11.343116814964993 12.035186375273685 12.354773309872147 0 -1 -1
96 32 2 0.4207969452393864 6.261609344328832 10.157570371265392 10.209017999082723 0 0 0
72 24 2 0.481132516164574 7.396894179793401 6.456470539923484 6.320422318314986 0 0 0

Velocities

93 -0.5408522017864479 19.99919495162943 -0.3041014244545912
92 16.310302861671556 2.8541316399063477 -9.082972725624813
44 -0.04082469905855213 -0.215716978435185 -25.915387014896744
112 2.832372469125178 -13.681195049915685 1.5730886669369881
45 5.984621477643669 -4.325272231028428 2.776602467742748
116 11.059286234994257 5.8596563001255735 -10.78717748946854
46 -0.8441375694475488 -2.502693245463921 -0.04530191547235626
136 2.69938855616767 -1.069496050888231 6.5700589758917225
43 -2.8198218312909624 1.1877536839787566 2.4068643540320402
41 -10.53154384193385 -2.6789319175221316 -4.891025883482347
8 -23.13384484375268 -4.31188330938026 3.9120266555291368
38 -8.96716616603658 -4.250091414450348 -25.069111935942868
40 1.3242365487719168 7.050912133911073 0.5363325065279971
113 -1.8937583116439134 -4.955536866206753 2.0997579547607907
42 -7.81940178818306 10.041289027390857 -8.879279704790115
125 1.5054471624694834 -1.5508583975341281 -4.621211345751605
90 -18.873453023972274 1.0783951789519062 25.117202392785064
86 10.406900034504996 -5.485316874801443 -7.733692439507718
91 0.6813426244616201 4.486192387461417 -2.1670486809400487
187 1.1994010741603731 -2.1689671624568336 -9.868085295245326
114 25.103611365606863 -20.719352042459555 -13.943278407358514
188 -10.011702543769468 8.567641870694997 6.364805526774996
124 6.008194984889507 2.3375528747709122 1.4160128478708325
67 4.709228429795047 -1.3294787864220545 0.776810541800672
126 -4.145633155721896 22.869489418761873 3.7398055107175145
49 6.878124111351086 4.804134458724941 0.23330364326219666
50 -17.21700353969456 16.99041008837898 6.154425884960693
26 14.141259965996063 5.439330690389 9.842438751836772
51 6.554423897469816 0.8729419362814621 -22.641562000630966
69 -12.313111686454437 -0.6325835369457334 1.2441857796407298
25 -3.825216042992846 -3.30123874490761 2.014594064468022
79 4.37461970165958 3.3016886944420016 -3.2999287218386817
11 6.5326440499421405 2.017500415831047 -1.521527120968328
145 2.1447076872374202 2.243332467718374 -6.165973950098353
68 5.4377781515731884 24.172138253729162 -2.269125045216911
7 3.539736189136685 2.5362605080600145 -2.5115887601539786
81 -1.175796527718859 -11.967073987788904 4.9472606032970186
85 -2.4011261668887878 -0.3948331282408115 -0.696638525992635
27 -5.197400979074317 -1.7316938450241208 -1.0875657874578515
176 -9.910080549441407 3.959435603065363 -7.802767208523365
24 4.993122341839392 2.624682606160174 -18.6693640220254
9 2.145808048845663 4.785972275436653 1.7120700146733971
147 -1.1088448515849034 33.83461212212771 1.3357993085406008
137 -1.05772513550784 3.8564586947618618 12.306362737865514
165 -1.852905120243833 -18.15719275330669 -0.5627959181380678
189 8.822682439488764 -8.081929674508977 2.452966019822636
52 3.9212796207566254 3.1559471844753766 -1.3301438598554969
115 3.544501838066411 -3.5314848802871994 2.164189664496039
4 -8.04454402636849 1.7019692226738832 1.2537275633502984
156 11.888184471104749 -7.945543114182282 -5.744289799923689
29 -26.50449018695261 -12.303131733134677 9.470703441822716
5 2.186749071352561 -15.955531600926664 -12.547589219514311
154 -4.150947377330064 -3.511009164905258 5.324051316080626
155 0.4697488426831291 -18.816257045303 9.8111634339654
30 4.1828897041264135 -9.03462635182876 29.343663635107728
39 -4.163148088788753 3.363113282136022 -8.141070463230326
88 -2.4241848114753446 -4.76686648656928 4.249796164685978
89 7.285236014973596 8.052728953096807 -10.778124725073681
28 -5.312317900453945 0.061766555229626485 -0.8450044425592322
37 -3.9484687032644628 0.9082777205207695 -0.9847381105714483
54 -15.392633243039107 -16.835032919862098 1.2634916721112737
31 0.8531420558963577 -0.05516888052704039 0.2669291210109608
78 3.1960473970149383 23.238668430639148 20.720859561044705
138 27.82752063654185 11.603407408806971 -21.322455792815113
77 0.9025059450441728 0.11951661486833487 0.6743408649308491
6 10.706359082751582 -4.469746191855232 4.320499788562933
53 3.8164645331356915 -2.444109871665736 19.949271537799074
76 0.678755080054615 4.209824501091252 3.8974043780227148
159 1.3953704179862183 -10.497837959178042 9.813355823853165
149 -6.613135663368855 6.392515830964918 13.076945906272996
47 5.33854631254635 -6.270131027401713 10.118614040089643
161 2.721680527503322 -0.5146171459512903 -6.434672143227361
158 -2.8331149272424803 10.966886079140659 4.405294336632089
109 -3.609467974755795 -1.7410928925231397 -0.2173491708208854
80 21.84118310005612 1.8486744271927877 -5.561518575985989
169 11.007442520103993 1.718450842194419 0.4846942064406955
133 -0.6629671198124505 3.7832815525798913 -1.2070159301350634
134 -14.458224465938427 -3.599693846323909 10.532949575189084
171 6.108666424395632 -3.238708530524625 1.4205007154247826
160 0.32234671220661953 -2.210418475947927 -7.2211013812698805
170 1.2062036514464687 -2.1521658020500647 2.1535536755300626
173 1.060665909342951 -4.318242267245447 1.462575740589887
94 -7.071167080626685 -1.5569908841248805 8.222456154264364
182 0.17378954578847683 -7.134862069990847 9.337204246954357
135 -9.527590611375231 19.34716026751935 -4.600930113551832
117 12.755744926393692 9.182632655575947 -16.451193033202454
157 -0.8749106144119158 3.6897303346783596 3.4210559383529118
162 -3.677707123551589 -0.27423806324489397 -6.996464494123298
181 4.879602532425817 3.8730668726188355 -7.39341705409505
110 -1.0444354752685694 3.5837350889656387 1.977694127541474
111 -17.155595003559455 -21.103734125368995 -8.578129229416696
183 29.2314094621835 3.157379362236534 8.806425755707814
33 11.405783720011584 -13.546507619444984 2.487279151259197
95 5.173660442352342 -5.787997774859548 3.866441176493091
102 -5.270297685281811 7.7391389782588025 25.298385179870053
167 -26.729795242740114 -11.325189797330074 9.574173490092235
104 3.5224017723243173 -12.548296531648441 -5.028510969700984
99 7.081093177735426 3.7469582416079774 1.4803232020627006
75 -16.46693960904563 -6.109315237183633 4.404245335653573
119 0.6473650420453296 10.028945550269677 1.503341536503974
151 -5.819592905700896 3.7586242694128975 -7.8336742278913745
48 1.5238088582031448 2.47243910584573 -14.059745154002748
100 4.071569403078765 -0.0026489516894158127 -3.4650017626018097
21 -12.613881009276867 19.137796862915607 1.5979683339483044
123 -1.7187807262888066 -0.014114077225614585 -0.11796831281138348
168 -5.787728852299018 3.3552238526097775 -17.32310712074958
73 -6.458101292821512 -0.8553211353484123 -4.404920079271459
97 -2.426574880256607 -3.960010447943043 -2.9709958667948078
20 -19.94320504854385 -17.069206050876492 13.130791506133122
121 -0.07864450668750231 -0.00015720324252024853 0.18629468892966317
166 -2.6320774102259294 0.6261483705641389 5.706518588813066
74 -8.229016421516407 10.705428106343001 1.7593571554387504
19 -1.2902802718382833 -7.7114545125353455 0.6401437323101408
101 -0.9019468011126084 -2.1140723941418567 -13.490422258764678
98 -15.32442504844566 -5.774760943792042 -5.569493178178215
103 4.140052551512089 -1.0925552426848766 1.7728766066368693
153 -7.485795075084395 15.095691177359395 -33.93799940137056
122 3.5371561411156027 3.081049994716351 4.994859538840376
152 -10.091926104737022 -36.03172701614552 11.480664501465506
105 14.173640596494838 12.427185027048306 0.6556958996637586
56 1.5905142561377374 -2.922146150850133 -13.259187779876958
15 -2.1287640456962014 -0.2570621966815154 -7.916620150135615
62 1.8106451103781558 -5.104872882299607 -13.270315285181406
23 -8.996395846161441 -7.638483747057346 -1.6354810498462138
177 1.3402448906534805 6.137034182519786 16.199987911399194
14 -2.1749674398186367 -3.2275927687955575 -6.320993605490383
64 -0.25240147742928654 3.267531912705072 -6.847327317707743
185 -15.671846713940042 4.325886915916941 -10.55416431869063
186 -10.639050386216269 -18.406332715167462 6.3986997441272075
66 -9.673402709747187 -1.1609960989278063 1.9462226787427674
55 1.5286319405381246 -4.57419104240001 -4.040379244078374
13 4.297678331564958 -4.078260267310135 -2.509736411756637
61 -0.36991420397994684 -1.1899555110698437 1.2397131421331817
131 -0.24451706655323147 -13.654930194356403 5.617889027617579
146 -10.909935982611259 10.336552638892034 19.935392344464482
184 -3.375688812939682 -1.0477522716685215 -4.13098374154724
132 2.144380029274288 -9.887881814679744 -8.770909829645896
63 5.636946185744273 -6.7315496830374135 7.094424998447186
57 10.036623026517368 -1.8030983921643329 6.484914743630718
130 -5.041081031541183 -1.072849291287033 3.822803045919811
36 3.8284673655105936 -14.27522712055408 -17.25093763175592
175 -0.6735059606283833 4.528944243443327 1.790015855039685
65 12.43563297501679 19.03873248125188 13.562210822895933
10 3.229914906373179 3.1261842965308007 -4.831285677586975
87 3.5484193782464857 2.320724117451298 2.9825844004681983
12 -3.6736575393161743 -7.269248635735268 -8.81814192530027
70 0.6440193224929516 2.4046476156571557 7.77026062855243
108 -4.387698077908905 0.12468299142404257 1.2439005478837017
142 3.121199393510965 3.1145658797781355 0.25675081773909947
191 15.127209323639171 10.855109590260165 -7.446509330820367
106 -3.5233291605089843 0.08811846035877632 3.0917184776041147
2 5.374299480524756 -0.1601169569428591 -2.2332734388964344
127 5.439284834821425 4.058094411333276 -3.699829222140253
129 10.002623648927031 5.7735560819444185 6.182156497336382
148 3.5908023535065534 -3.186350258056396 4.807526112020092
150 6.323778406395584 -12.024662216236788 -4.444015981181393
1 -4.491637265697184 3.2839950206118727 -2.6820433721054626
163 -4.605021946696276 0.7392746399719943 -1.6480181824195115
143 -5.399785719288693 3.1536707442429828 -16.776453939320188
32 1.8277348052349862 -4.291041087340042 -1.9515640705308765
144 7.9620741961157115 10.801072690213699 1.6234805954301392
164 5.167957069853488 8.61439231797594 13.300914112257468
107 -6.349868980614847 -4.953290153987176 -5.4015817571847515
3 -4.12746084956332 -7.217658408884132 3.6183579009904823
71 -2.314171751087934 -2.1537187285211803 16.442784825823182
118 -6.976484349280971 8.182989944827122 -2.8058207665487194
120 -13.692473645921336 7.978142652345089 3.5232139785727865
60 -1.4548291519745893 -23.642971760341997 6.1001781843499705
16 -0.10026172779248332 -1.3644978438359476 9.872092098209734
18 0.6105029993997741 10.089547192964044 -8.830433221368327
140 12.603048988524916 -7.079053623786123 1.6241702583236037
128 12.854006335832608 6.477709903392608 13.672223993576686
139 1.7608437489219924 -2.358482886764973 5.92382099272974
179 -21.083264037496317 -6.5431218900097585 6.433082188618531
17 -23.20708316337115 -11.109836325673669 14.537593582394752
84 0.860368939401352 2.1502763746443527 10.149437748660993
83 9.25961745751612 -18.16491948675268 19.138416329466512
141 -12.115984587113534 25.203851983705867 2.0700426507837433
58 -4.767965985802483 2.0851517079545667 0.6602829807435736
174 9.154419704665592 -6.082811715535464 -15.09892935830402
82 -1.6718326954761116 -2.3810160819441535 5.953087408326349
180 -6.684805183508543 -5.393235932411081 6.460909452891144
192 -12.824927696979096 8.175727729392554 -10.725682102526811
178 6.238276417718368 -0.522998017063859 -4.09229598132739
59 17.298666034432415 -14.054651393190092 12.303575191774657
22 -0.8323156248995455 0.7520768894431452 -1.7322296809178752
35 2.6585925403254094 -12.23989720941709 -6.091725140523809
190 5.294539705476483 -1.7430986323045945 -0.9950599875258885
172 1.3058543040957744 -1.7465843652331048 1.6101498852678362
34 -0.642589038957971 -4.723304103643738 1.1843875513698015
96 -12.959680376017868 6.08856323409853 -3.7931504057020815
72 11.285957528057354 -21.797843315820323 4.003714341737861
