LAMMPS data file via write_data, version 30 Mar 2026, timestep = 30000, units = metal

1536 atoms
2 atom types

-0.006047832447315216 24.806047832448016 xlo xhi
-0.006047832447315216 24.806047832448016 ylo yhi
-0.006047832447315216 24.806047832448016 zlo zhi

Masses

1 15.9994
2 1.008

Atoms # full

136 46 1 -0.9560905070836013 3.0806500310595366 4.969103193989696 3.5495161924955965 0 0 0
505 169 1 -1.030425063588822 1.1651305258810394 2.6484731934879115 3.2652550145198203 0 1 0
113 38 2 0.3826347127909745 12.022172645729684 2.9203833694965766 3.0992923317538463 0 0 0
346 116 1 -1.001841868219154 3.792600697437307 1.586350226958163 4.721525177325665 0 0 0
138 46 2 0.5126484695908409 3.6195264178841287 4.740505274672083 4.36028473550852 0 0 0
58 20 1 -0.9570856587138726 1.1679879002847795 1.14413602179744 7.365773362576779 0 0 0
96 32 2 0.5209420276644013 4.708976836243564 3.457760437197098 6.564306863277085 0 0 0
95 32 2 0.6462888208174694 5.6087561908661225 4.524908941903382 5.716816143566287 0 0 0
94 32 1 -1.167230848481871 4.706390686154307 4.348636304023829 6.110077955053218 0 0 0
507 169 2 0.4407724216648871 0.7887332448194224 2.6511288622808697 4.191704383651946 0 1 0
348 116 2 0.5765740757753014 4.081798834581958 1.5674478682990653 5.678602780052821 0 0 0
405 135 2 0.5043740710944687 6.073635815146248 5.365705684052972 0.7121268334702106 0 0 0
847 283 1 -0.9983551285217475 3.3055939479982412 4.13169250461565 0.4193752469913552 1 0 0
59 20 2 0.5686471708235026 0.961821036673366 0.2931057931507492 7.848715567825968 0 0 0
506 169 2 0.5896526419239349 2.0346538302314414 3.142291499545292 3.257311266864731 0 1 0
14 5 2 0.3839805042141647 0.757578574697815 4.299797910400597 1.0475396513255124 0 0 0
137 46 2 0.4434420374927604 3.2321136301724303 5.927591528448623 3.307960215168005 0 0 0
92 31 2 0.4866046127165489 5.195885341081523 11.267995614401324 2.1984133521082585 0 0 0
165 55 2 0.5377166904177646 1.9121325171882282 11.80338117448186 4.544206358417844 0 0 0
974 325 2 0.4934856355433817 1.0906023368218392 0.03973650503985527 10.268238410969005 0 0 0
849 283 2 0.5951642387769782 3.908976019137749 3.7549869561074627 1.122236118916402 1 0 0
218 73 2 0.6010219580372174 3.9163321541023657 2.4853281837398034 12.082430730519084 0 0 0
1501 501 1 -0.9764010957690173 8.426360706123758 11.588843994685327 0.5883071420462236 0 0 1
736 246 1 -1.108760834548452 7.227755055480996 3.4585547179018663 2.7345953245865533 0 0 1
738 246 2 0.5794105206611165 7.156470971647666 2.462047986721419 2.6911981652684585 0 0 1
737 246 2 0.529350313887336 7.244081666672406 3.750240360876512 3.690965193822431 0 0 1
382 128 1 -1.096661305921965 7.146492818121202 0.764412476299538 2.530325309646481 0 0 1
404 135 2 0.6039919641692633 7.1857220215270585 4.263033928345197 1.1747590922238353 0 0 0
180 60 2 0.4749039126855328 8.869526400116651 4.675028426928528 2.567967301630354 0 0 0
403 135 1 -1.108366035263732 6.867040038693138 4.83308654072307 0.41747961127182187 0 0 0
384 128 2 0.5850729740169944 8.13840527439789 0.8216652440713725 2.6435604587754433 0 0 1
179 60 2 0.4834834442311282 9.597835850737006 6.130680786584504 2.436472472596728 0 0 0
178 60 1 -0.9583873569166609 9.694336646092987 5.197774752640064 2.783408097257026 0 0 0
851 284 2 0.6324903175302415 9.360429890639477 2.502565192722853 4.206122837923528 0 0 0
407 136 2 0.473287409640307 10.517350286112741 10.761874382773966 9.042394506849643 0 0 0
947 316 2 0.4847004133878986 0.38891310921435995 9.633334315974382 2.3970018866389995 1 0 0
115 39 1 -1.221769374604486 9.79005746413503 1.6050599144025897 2.70614733887077 0 0 0
850 284 1 -1.281644784430436 9.264319199677722 2.848903474900812 5.139291058939171 0 0 0
167 56 2 0.5266261167723689 9.660455943042999 0.425161213984635 7.621441138886842 0 0 0
117 39 2 0.6319692387075112 9.902889610773453 2.1524314640855637 1.8769044959017915 0 0 0
116 39 2 0.5898001358969754 10.681866400283269 1.2660040997140245 3.005660903279242 0 0 0
960 320 2 0.4818480811254061 6.448731030904947 6.025928840250456 4.734585496500419 1 0 0
672 224 2 0.4779650924417156 10.25238580284041 11.850529621735316 3.6221736219704264 0 0 0
436 146 1 -1.021132721893767 1.4742173298232448 11.414810952417024 2.6767276159408535 0 0 0
347 116 2 0.4252677924438525 3.229060253795098 0.7833364123728017 4.527665998287427 0 0 0
1490 497 2 0.5244213571807004 9.635153469713142 7.746116847584668 4.531726994998523 0 0 1
174 58 2 0.4670689312781657 0.5042641089360387 7.180165707230971 11.023981223392921 0 0 0
101 34 2 0.5228238936826534 3.7532989267227514 12.168708189816092 9.438958151715775 0 -1 0
671 224 2 0.4194446742365918 11.491106166034296 12.155520626192102 2.6027611994904554 0 0 0
1296 432 2 0.4345145713206209 2.5660494640629516 2.1056035201930885 0.08911361907129792 1 1 0
215 72 2 0.5690249476249003 0.7009919147700288 4.856425564007037 10.920570087693372 0 0 0
146 49 2 0.492413253417155 1.6271641508894539 0.8215003465780776 3.548802338052926 0 0 0
163 55 1 -0.9096885241592559 2.5530986194321192 11.75146423899163 5.310011481746393 0 0 0
959 320 2 0.5574576534811908 6.141830310805393 6.945434472469361 3.420442932537854 1 0 0
958 320 1 -1.039305734606597 6.075193977700229 6.89750226451021 4.417063473106509 1 0 0
142 48 1 -0.9970041912503819 5.4860102259831 7.059578275324462 1.7478520048757338 0 0 0
144 48 2 0.4944994830565736 6.044256714588202 7.696615284882697 1.2163116905573124 0 0 0
1396 466 1 -0.9859565412582088 2.5976208318649054 6.759951794235393 1.1251940105348073 0 0 1
93 31 2 0.4507243344723077 4.581226795246903 10.257527769883275 1.0724475687361839 0 0 0
91 31 1 -0.9373289471888566 4.529135547175493 10.5420703959566 2.0296896463499086 0 0 0
143 48 2 0.5025047081938084 4.51774426481691 7.2572102931026805 1.5949042578234236 0 0 0
65 22 2 0.5147139982067467 0.05404071405235657 6.954494536879183 2.688764372523147 0 0 0
279 93 2 0.4435440575069562 2.373979491238492 8.739281438376583 11.590150403313167 0 0 0
216 72 2 0.6094377051023901 1.1324438106291872 3.6662371580402464 11.952049684175766 0 0 0
856 286 1 -1.067947566621865 12.313241003487937 0.6743765326377826 3.5858976351877345 0 0 0
229 77 1 -0.9589276971038243 2.870554696529769 8.583114026742349 3.4915661035414267 0 0 0
231 77 2 0.4619861740572959 2.3729806539563647 8.226781024340378 2.7007201875190847 0 0 0
230 77 2 0.4969415230465282 3.2985924085978944 9.454321334817333 3.2512081564352773 0 0 0
408 136 2 0.4343020933278269 11.162679515455034 11.178278850128526 7.601281449722895 0 0 0
535 179 1 -1.278071398529871 6.319569167649697 9.269054593125938 5.919104589196839 0 0 0
536 179 2 0.5869526897046361 7.017700583049836 9.194421888902767 6.631167006141085 0 0 0
537 179 2 0.691118708825235 6.139346109713946 8.364440388832186 5.532862191069681 0 0 0
66 22 2 0.4209188331477595 1.1301078313753665 5.995226453561736 3.455923835374511 0 0 0
1503 501 2 0.504571989532097 9.187599671123644 11.394676988338928 1.2070193620201632 0 0 1
1398 466 2 0.4465381344478643 1.7065879756234685 6.853024581966326 0.6809099745679419 0 0 1
383 128 2 0.5115883319049711 6.933505405902129 0.48258026257709485 1.5948054729368726 0 0 1
100 34 1 -1.16494057319994 4.749165129985097 12.201744117796546 9.354403246506006 0 -1 0
4 2 1 -1.058962977289984 7.969200315413539 10.624026953738074 4.1626295168042615 0 0 0
6 2 2 0.4904753416519629 7.380636931763107 11.211024531936932 3.606736194351718 0 0 0
5 2 2 0.5684876356380211 7.404124316249785 10.058172165022818 4.763035939646151 0 0 0
1271 424 2 0.5444335614984701 4.312572224486922 1.890366576358959 2.9892263025236434 1 0 0
10 4 1 -1.038684942577454 10.14685256902674 3.1389501574549312 0.3818215317649108 0 0 0
489 163 2 0.4487571296935363 9.015801132152522 9.387809019852808 2.7062848792476566 0 0 0
540 180 2 0.4968595218426924 11.607843411868322 9.447606397961453 11.323298969544487 0 0 0
491 164 2 0.4317178483446342 11.233551161171382 10.261760723848326 1.4474984508323747 0 0 0
490 164 1 -0.9271687173922349 11.420840008663479 9.504445554606725 0.8218891307497038 0 0 0
487 163 1 -0.8966312690564636 9.118411670571033 8.393213584489844 2.6907479331729722 0 0 0
488 163 2 0.4478741393629273 9.401579594884128 8.10155423794683 1.77710623559836 0 0 0
890 297 2 0.5441895754426914 9.757305683351635 10.443875717716532 5.047052921565714 0 0 0
946 316 1 -1.053725849906443 0.11898673905335957 8.743621975091811 2.028841453531823 1 0 0
164 55 2 0.3719718337414914 2.3403879870357813 10.950034090934164 5.868987602866799 0 0 0
1142 381 2 0.5293275472138854 8.490753816854895 5.836874789744703 0.1365068252861629 0 0 1
953 318 2 0.4474495920198829 7.3483805085126 9.984444433611783 10.558968451270399 0 0 0
670 224 1 -0.8974097666783075 10.53363408719619 11.873330586972052 2.6628145036712283 0 0 0
1272 424 2 0.4834000680448563 4.899207801276001 1.5037245461062907 1.5151109818703448 1 0 0
1489 497 1 -0.9476272153143536 9.915387678049429 7.40527419576486 5.429103991868379 0 0 1
559 187 1 -0.7904348065249434 10.528634394818638 4.069972592969065 8.881437025268562 0 1 0
954 318 2 0.5303178194439763 6.294028062734453 10.952882003165247 9.77339927414045 0 0 0
523 175 1 -1.278074928117297 3.094206101525808 5.597184894877291 9.735980450672653 0 1 0
599 200 2 0.4836218687262986 9.22504117350457 9.069967347357348 7.655777818186889 0 0 0
60 20 2 0.3884384878903701 2.1323478357311774 1.1521247895029683 7.101318274085124 0 0 0
1332 444 2 0.6050637339518291 4.471834719180642 0.6007399677215536 7.842161141786405 1 1 0
525 175 2 0.570977633883327 2.963235008521519 6.486087966094228 10.174943207761526 0 1 0
437 146 2 0.5554834319598934 0.8015198011127084 11.879682867035903 2.1010866365117136 0 0 0
587 196 2 0.45037653941019 6.056397044007169 2.8065954557560877 9.81428918222856 0 0 0
1330 444 1 -1.111022705044139 4.786725521456218 1.4102109607432625 7.346589861917045 1 1 0
1331 444 2 0.5059589710923096 5.4534821633557575 1.9042433077103758 7.904584503437627 1 1 0
524 175 2 0.7070972942339702 2.6096541790126038 4.8939098783439245 10.256176649083846 0 1 0
1254 418 2 0.7140784372435308 3.700638759830362 5.534402961288733 6.712936296804064 0 0 0
1252 418 1 -1.369700729257181 3.026701898614235 6.174035826771326 7.082624413764044 0 0 0
612 204 2 0.6356180098025702 4.749592045142977 5.351963252458661 9.612924195556124 0 1 0
610 204 1 -1.086754897138946 5.736770647629963 5.336521348301547 9.454083540430885 0 1 0
1253 418 2 0.6556222920136497 2.9813324598610182 6.0729587220370576 8.07646314930341 0 0 0
611 204 2 0.4511368873363762 5.967177358547928 4.563821900362311 8.862611892715512 0 1 0
899 300 2 0.5043420380272554 11.826134978249426 5.909920668027 12.00673344707695 0 0 0
586 196 1 -0.9583061512295104 6.667084115096295 2.8322520284593757 9.022838968497853 0 0 0
588 196 2 0.5079296118193204 7.35815819741608 2.1149522373519596 9.111653504221461 0 0 0
825 275 2 0.6252013791800686 1.4380890892899745 5.7316411434216965 6.600411628050457 1 0 0
823 275 1 -1.110653695806818 0.4817935737683893 5.627425265009129 6.327229752713385 1 0 0
668 223 2 0.5235620438314899 1.0549370730673466 11.609434793504692 9.965158996676204 0 0 0
131 44 2 0.6444604304222962 10.778967085021247 3.559224475010239 5.561745474475683 0 0 0
1141 381 1 -1.036628500660066 9.047120790288558 6.652521342076534 0.29514758888165765 0 0 1
952 318 1 -0.9777674114638591 7.226935506459042 10.592781244800038 9.774642093838583 0 0 0
889 297 1 -1.031431842764219 10.562698755354655 10.235360602525056 5.6018987070223965 0 0 0
90 30 2 0.5709642600924738 7.892747042475567 7.298876476662948 7.855052450046752 0 0 0
88 30 1 -1.099076020046632 7.531910904112155 6.409148791571398 7.575459304627743 0 0 0
153 51 2 0.666578260113877 8.021637016111516 3.9035440344695895 5.556617535221119 0 0 0
1491 497 2 0.4232058581336532 9.906393143433192 6.405334767973334 5.423568792903585 0 0 1
852 284 2 0.6491544669001946 9.131954631080797 2.0821560300962547 5.7674378381225555 0 0 0
1050 350 2 0.5569872577437955 7.358463533515182 4.780624188968068 10.559914968207345 0 0 0
151 51 1 -1.324250372816298 7.316494920148706 4.61132310149301 5.514028615096734 0 0 0
219 73 2 0.468426635976893 5.475389796279899 2.9413131715216627 12.249960720022038 0 0 0
152 51 2 0.6576721127024207 7.458940188315276 5.268720564225724 6.2539801816889495 0 0 0
561 187 2 0.4049179184284053 10.005574579727382 4.687013737277881 9.469364789028242 0 1 0
80 27 2 0.5394837545999899 9.415250010232564 6.047407655034016 11.062068722578598 0 0 0
79 27 1 -1.035034131306035 10.07221541829539 6.782441859453095 11.229733776407421 0 0 0
81 27 2 0.4955503767060451 9.605105660103948 7.55556833176577 11.65877262190309 0 0 0
1049 350 2 0.4705925559628723 8.524999791078804 3.7913294558053967 11.131875131875697 0 0 0
1048 350 1 -1.027579813706668 8.270055199313509 4.74453440750366 10.969412906973314 0 0 0
132 44 2 0.4781572046479541 11.206313142158049 4.463923475499419 6.85230519957994 0 0 0
89 30 2 0.5281117599541579 6.912824347828547 6.063919044949405 8.280823506447556 0 0 0
130 44 1 -1.12261763507025 11.549865271073331 3.9253257328053683 6.0829711982414985 0 0 0
112 38 1 -0.924753160468705 12.18183783134994 3.9074351097171856 3.084249394508157 0 0 0
64 22 1 -0.9356328313545063 0.15830859814343337 6.1607363118921095 3.287985940847711 0 0 0
538 180 1 -0.9196824837076841 10.938069635510852 10.073273432469437 10.923381165781457 0 0 0
1297 433 1 -1.065046370248412 5.478455684695978 8.289435032637572 11.627667226053207 0 0 0
478 160 1 -0.8569115176173154 6.663146323407876 0.17116684002114443 9.97096283675266 0 1 0
727 243 1 -0.9815258066964965 8.211017775852147 8.939413035797251 12.271011296585309 0 0 0
277 93 1 -0.9830775086344091 2.426092084754848 8.142184213847234 10.789682052040593 0 0 0
214 72 1 -1.17846265272729 1.2225936331963283 4.008692638124519 11.016855772206622 0 0 0
824 275 2 0.4854523166267498 0.3970224393583377 5.785554399080272 5.3434617764804635 1 0 0
581 194 2 0.68561160519846 2.711111157226573 7.791750631086469 6.714352349416432 0 0 0
1143 381 2 0.5073009534461808 8.508417442452608 7.4690329622680265 0.08754730840182896 0 0 1
1311 437 2 0.5863778039115047 12.321055736395154 10.54230499320323 6.01256934484083 0 0 0
580 194 1 -1.273441700851083 2.7127992555156175 8.737763560242557 6.390242665009378 0 0 0
546 182 2 0.6142114419056708 3.4609201411360284 9.322741233557126 7.906300151461017 0 0 0
544 182 1 -1.043985023313251 3.744522371901187 9.472986337652715 8.853393907502687 0 0 0
582 194 2 0.5878300956526232 3.08509378358947 8.771692915623516 5.462753590926853 0 0 0
278 93 2 0.539533451127453 2.9804911258108464 8.580633317722326 10.082296382182909 0 0 0
667 223 1 -1.018389420038448 1.8601106848459121 11.96670897536758 9.49182928790826 0 0 0
545 182 2 0.4297735814075806 3.2628439239862788 10.267304712556633 9.223575743141707 0 0 0
1270 424 1 -1.027833629543326 4.297367435819366 2.124754468926912 2.0172069973903692 1 0 0
1502 501 2 0.4718291062369202 7.653740309465496 11.946942563872268 1.112533750247868 0 0 1
1299 433 2 0.4657673908885699 5.158127997342594 8.34562377107506 10.68203336576671 0 0 0
406 136 1 -0.9075895029681339 10.484538934005784 11.424149374351376 8.293858836332344 0 0 0
560 187 2 0.3855168880965381 11.224668399444301 3.601411016796687 9.42547481170652 0 1 0
13 5 1 -0.7525084624680937 0.17245199210861653 4.840665600787822 0.4433216251335603 0 0 0
1298 433 2 0.5992789793598411 5.2040136558916466 7.411957081045505 12.020992049358657 0 0 0
644 215 2 0.6809963744486756 5.6977059796141 10.72760704785351 6.522765858208247 0 0 0
645 215 2 0.5484231964271696 4.299182866802333 11.548076038428528 6.328824948305843 0 0 0
643 215 1 -1.229419570875845 5.196297834938879 11.55657839088689 6.770529423357672 0 0 0
853 285 1 -0.8637798042130346 11.125969565580224 7.368617183661415 8.299655241612335 0 0 0
600 200 2 0.6285508780375694 7.99432283936104 9.617609975251053 8.578853802174077 0 0 0
598 200 1 -1.112172746763868 8.246518314583213 8.98732530299036 7.844599708877138 0 0 0
1397 466 2 0.5394184068103441 2.859470121559084 5.795122096281617 1.1481940706623004 0 0 1
539 180 2 0.4228229618649916 10.037285933495717 9.894800200391833 11.319268052339332 0 0 0
114 38 2 0.5421184476777304 11.336273629137464 4.378079716361606 2.8322469470875853 0 0 0
891 297 2 0.4872422673215275 10.59429196311052 9.25329386328636 5.787740543640492 0 0 0
12 4 2 0.5380026250787365 10.784715814979789 3.872166422583928 0.146205769674803 0 0 0
728 243 2 0.5090498717109067 7.359105825732482 8.43893482794412 12.116875019089798 0 0 0
438 146 2 0.4656492899338739 2.3227064315945776 11.289050699185644 2.162683841330871 0 0 0
29 10 2 0.5757639586737908 1.021423208560534 9.354100371511317 6.000942811792043 0 0 0
854 285 2 0.4222907790991015 10.557172554096464 7.16246942329858 7.503437017783498 0 0 0
855 285 2 0.441489025113933 10.62527067119978 7.141209455780802 9.134865838886457 0 0 0
166 56 1 -1.059470713843826 9.012617578450799 0.6060121510096178 6.881448712390178 0 0 0
217 73 1 -1.06944859401411 4.570986474287125 3.226199247061417 11.932336800166052 0 0 0
28 10 1 -0.9889486723527743 0.13907063171376605 9.790908855364638 5.825892310798182 0 0 0
713 238 2 0.5438524814812264 2.064400781082057 0.5486599866716368 11.902369988424073 0 1 0
102 34 2 0.6421166795172867 5.018836231185943 11.85916938986159 8.45445299660875 0 -1 0
911 304 2 0.5221206163181288 0.19027401388786708 2.455782039571342 10.374863612562496 1 0 0
712 238 1 -1.075461832151076 2.544915005434506 1.2977275358179787 12.358433894410442 0 1 0
669 223 2 0.4948273762069582 1.5872617230950776 12.339313419564855 8.604817981480151 0 0 0
208 70 1 -1.159206076339183 0.6954903256194255 3.1365464311814524 13.512820911259977 0 0 0
584 195 2 0.5929688959129185 8.290447673896775 11.375043154578615 23.57398243859761 0 0 0
46 16 1 -0.9341952284011685 5.994049632134813 1.0624422976862569 24.447023248703328 0 0 -1
1021 341 1 -0.8823054579635852 10.02039950516571 2.1895516815309746 12.422102253888866 0 0 0
1435 479 1 -0.9964516184706756 1.7224627853443994 1.2250223685769908 16.34336613940525 1 1 0
360 120 2 0.4704030855547263 6.1055499501670605 1.7583376418521763 17.326427842698717 0 0 0
209 70 2 0.5260182771874187 0.9634705915124342 3.3438819732833283 14.453665717487755 0 0 0
338 113 2 0.4175328608824462 2.435494371129322 5.292842207478818 16.132770593204754 0 0 0
1023 341 2 0.4206393166315105 10.09111036139543 2.7790315927035145 13.2267784673238 0 0 0
714 238 2 0.5316093506698494 1.879437341727473 1.9067853197119176 12.789914765561273 0 1 0
129 43 2 0.3627379155904651 8.676188406577593 0.4876076490785808 23.420888558088908 0 0 -1
337 113 1 -0.9293574912101413 2.081274390001892 4.384901083139002 15.908802919118969 0 0 0
202 68 1 -1.123136599873967 4.929113542590768 5.436394642797508 17.37826772598606 0 0 0
1213 405 1 -1.012469258543123 12.078700803639968 1.2507981240294128 23.059776043696303 0 1 -1
196 66 1 -0.902075394298586 4.498575972370101 0.6123096030649217 14.756448102921524 0 0 0
1125 375 2 0.4901325487974554 2.3450340264342415 5.115559570306613 19.937710162863475 0 0 0
345 115 2 0.4806460624313936 6.129671094652967 4.0467777730294205 16.010827957000238 0 0 0
203 68 2 0.5811013359939597 4.325832060890487 5.383700337814424 18.174047320718525 0 0 0
171 57 2 0.5803127416457081 3.7114575813026227 11.979863349030206 12.843914402385447 0 0 0
233 78 2 0.4934509488808131 1.8175874026633856 10.523668794079565 24.122932633934997 0 0 -1
204 68 2 0.5420352638800067 4.469155229807795 5.935275985466705 16.643729669946 0 0 0
376 126 1 -1.069499882436595 9.921285286367029 10.299159662938084 20.346921511447132 0 0 0
1436 479 2 0.4482743732873022 1.259282839873126 0.6014956756440395 16.973182938677873 1 1 0
272 91 2 0.4423625730944349 12.320497159680539 8.062456560819182 17.927695581082652 0 0 0
339 113 2 0.5118246303276949 2.1722462790314587 3.7860116119631626 16.70444474560491 0 0 0
1437 479 2 0.5481772451833734 2.507657959062531 1.6403150548391243 16.80270362235174 1 1 0
170 57 2 0.5945072314074232 2.111717159032079 12.163876652000832 13.11524266073892 0 0 0
78 26 2 0.4626500863873075 6.6694670179128535 8.264528655981811 23.542538877886365 0 0 -1
359 120 2 0.3707176546806703 5.489333187373776 0.6291196758156142 18.33230707229356 0 0 0
273 91 2 0.4819589358338382 11.540122645604947 9.455744677263633 17.58650182314749 0 0 0
224 75 2 0.4549580660224763 4.832443065406668 9.384560044643626 23.594832251612146 0 0 0
950 317 2 0.3992619630610929 8.383371890920545 4.926497435072817 14.561100428712528 0 0 0
1381 461 1 -0.9737029702896169 9.506859407558427 3.0796591999625327 15.154560206993247 0 1 0
1383 461 2 0.4478431095066314 10.43208240523784 3.270887163003283 15.482256209485291 0 1 0
344 115 2 0.5089214535108829 6.40892175248648 2.9257519356524946 14.856718135479435 0 0 0
343 115 1 -0.9895675159422764 6.120855362609901 3.0685253979922162 15.803620396965725 0 0 0
271 91 1 -0.9243215089282731 12.280970983711853 9.043602493669908 18.11685355526469 0 0 0
1038 346 2 0.5072077791938649 11.734233449216882 9.02983730243322 14.22747381343359 0 0 0
1015 339 1 -1.10140465776792 7.250322813954016 6.150041637218404 18.66494724857606 0 0 0
1017 339 2 0.4617221804009558 7.29858191788351 7.1486310556317 18.643023935559402 0 0 0
1016 339 2 0.6396824773669639 6.510309154114411 5.838908151753867 18.06865358199373 0 0 0
1382 461 2 0.5258598607829855 8.8460399249227 3.30934844420415 15.869088626149287 0 1 0
1388 463 2 0.554093124593072 12.028394611829189 5.44710266399221 16.458807576524386 0 1 0
949 317 1 -0.825183826810919 7.715257288586483 5.661151250303501 14.678986175296803 0 0 0
861 287 2 0.466791706754011 3.579449715349665 11.8551560826676 24.4541661562856 1 0 -1
800 267 2 0.4332459372899327 9.471468709693157 3.9474780222093533 17.873211224585415 0 0 -1
799 267 1 -0.9746075753639961 8.475006772689524 3.939388278003752 17.78961359618342 0 0 -1
801 267 2 0.5413616380740632 8.102540475689386 4.790492269869621 18.159588260129183 0 0 -1
492 164 2 0.4954508690476009 11.502584736788968 9.855146861418936 24.700999421098548 0 0 -1
1389 463 2 0.4852024514125567 11.627600202722611 5.77864377858389 18.00673963868395 0 1 0
358 120 1 -0.8411207402353965 6.298490798295821 0.907261683954542 17.814724824406248 0 0 0
1444 482 1 -0.9672212528606172 10.392589190827382 7.4431264088279 20.68704944426524 0 0 0
377 126 2 0.5346144732035292 10.419369090748626 9.504063448494927 20.69293442005567 0 0 0
1072 358 1 -1.093315181609636 11.243719116552155 2.8713331431345233 17.701729541678557 0 0 0
660 220 2 0.5099700344757736 10.353694232504514 11.043698763487697 18.561400286971438 0 0 0
659 220 2 0.4340771467846536 9.467951329193 11.798527714870506 17.415825277866784 0 0 0
261 87 2 0.4786345531903365 4.200151773910443 7.888652224714605 15.81205682331501 0 0 0
259 87 1 -1.060092428648945 3.6996173651786286 7.093705794440798 15.469250933629432 0 0 0
1417 473 1 -1.10693585548802 1.917016670212865 10.587837826283089 15.894517730779462 0 0 0
260 87 2 0.5814578754586086 2.8021160402378866 7.383024107916358 15.136419618170738 0 0 0
256 86 1 -0.8898188758675873 4.205004865591834 8.62361116550236 19.16513258994413 0 0 0
257 86 2 0.5419379191976301 3.6160290348971045 8.695620070660345 19.970062765653886 0 0 0
211 71 1 -1.050072502931768 4.692918073087789 9.8423318175797 16.48878353882819 0 0 0
213 71 2 0.49417289042836 4.8900306427321185 9.644088750971095 17.448906822975832 0 0 0
212 71 2 0.5558996125034081 5.54726005282196 10.03435340534088 16.005857156415498 0 0 0
285 95 2 0.4042877541337203 1.8256103818077338 10.909461975250881 19.113532543408834 0 0 0
284 95 2 0.6247538928440924 1.7663485029152712 11.257477187160626 17.519160322098337 0 0 0
1071 357 2 0.4642116437864806 4.356511022261631 5.824027589858925 13.770971305097346 0 0 0
1445 482 2 0.4367791964186954 9.529428827278245 7.3846782455996305 21.188575513722995 0 0 0
1419 473 2 0.5804759765433054 2.8825012578997202 10.358888464518769 16.018663210034493 0 0 0
307 103 1 -0.9570770370927237 1.2567903456608767 8.079455122728326 14.567862598141263 0 0 0
647 216 2 0.3598469316510645 6.534204973742305 4.1103495591501575 21.912204655564004 0 0 0
1446 482 2 0.5304420564419216 10.635551037302891 6.53915109750784 20.335213435571138 0 0 0
258 86 2 0.3478809566699569 3.911122368750304 7.848888083413229 18.60528651872345 0 0 0
283 95 1 -1.029041646977813 1.8716569371250376 11.643247101992882 18.43572025239593 0 0 0
1418 473 2 0.5264598789447144 1.7669123277677405 10.90257035125755 14.957286423451901 0 0 0
1073 358 2 0.5531548984653728 10.950250548309723 1.9313247609335045 17.527801855043435 0 0 0
618 206 2 0.5272433291178994 11.485345190779633 11.040108262659155 15.89921244924407 0 0 0
401 134 2 0.4428512201412705 0.6170400918026929 3.733124997760639 21.176021438247364 0 0 -1
951 317 2 0.4259218637498262 7.178326920937956 5.761001106482257 13.841295190595021 0 0 0
225 75 2 0.5685814472584531 4.771410395761827 10.94811427715084 23.127689325579873 0 0 0
756 252 2 0.3738540373560192 8.087040416306817 8.925764650404053 17.987667226581312 0 0 0
1001 334 2 0.5233489192621072 7.906516139890976 9.964301807566645 15.433051058366425 0 0 0
1000 334 1 -1.140357541308107 7.14621002966263 10.549569867611297 15.151295284736655 0 0 0
1527 509 2 0.522535100530351 10.275237736963799 11.058617000595257 14.091251523836794 0 0 0
1002 334 2 0.6170086220459994 7.459854156926671 11.49713666429127 15.090181238927816 0 0 0
1177 393 1 -0.921773042035152 9.303003757836986 8.41551170431598 15.517981418629837 0 0 -1
1178 393 2 0.4318357455036119 8.659125001823936 7.694726097296514 15.261313041923001 0 0 -1
754 252 1 -0.9129449924212159 7.828614704768628 9.364350811074608 18.848392926567616 0 0 0
1526 509 2 0.3869845532698856 9.910874087237957 11.687800263731486 12.629055610066926 0 0 0
729 243 2 0.4724759349855895 8.104958038727515 9.542396671814826 13.061661076661322 0 0 0
1179 393 2 0.48993729653154 10.141350032275273 8.320203607710551 14.981248440148395 0 0 -1
1525 509 1 -0.9095196538002369 9.595996040468982 11.576955465606192 13.571687906205913 0 0 0
369 123 2 0.4807037069591879 6.936265424755013 9.753464951887972 21.835364127878258 0 0 0
755 252 2 0.5390909550651968 8.648075787869237 9.709939756360189 19.30560427103826 0 0 0
1387 463 1 -1.039295576005629 12.128883203959143 6.104850211412566 17.205306475416332 0 1 0
570 190 2 0.5009964633942361 5.658762363480374 10.664497339464521 13.713173239826345 0 0 0
1070 357 2 0.5992482856351334 4.570062640536876 4.842490607241941 12.483481423123592 0 0 0
1022 341 2 0.4616661413320745 10.127972043621831 1.2344345291562415 12.698090973843868 0 0 0
368 123 2 0.5043431957792649 6.224703038394816 8.969173938145149 20.59229698802734 0 0 0
367 123 1 -0.9850469027384527 6.250327638146681 9.069541286335065 21.5869125794181 0 0 0
1069 357 1 -1.063459929421613 4.821484027336188 5.720026070186668 12.891781798909658 0 0 0
1036 346 1 -0.9039042767721994 11.62415843172584 8.118227055943011 13.831442693000936 0 0 0
568 190 1 -1.009911734363067 4.78308572005482 10.606961693025891 13.23372515621296 0 0 0
569 190 2 0.5089152709688312 4.71862251371265 9.727726893369232 12.761728269111465 0 0 0
966 322 2 0.4761893551511597 9.272902735469176 0.38386911453860423 18.1782694716019 0 0 0
658 220 1 -0.9440471812604272 10.260810946031837 11.211661871079851 17.579997470124688 0 0 0
47 16 2 0.4322312949806729 5.748372279373426 1.6192715710857843 23.653566130795763 0 0 -1
1123 375 1 -0.9533955903147775 2.9552863134185654 5.656800746858408 19.359228932080704 0 0 0
1124 375 2 0.4632630415173222 2.55950560528156 6.56356501316837 19.2138790241253 0 0 0
252 84 2 0.4323805840225324 5.651230969479538 11.63637651787763 17.55208905114463 0 0 0
1294 432 1 -0.9124819242673214 2.2761882115420593 1.5431138577852876 24.12688548306379 1 1 -1
1215 405 2 0.5467423256937506 11.764346413267386 0.6397574052380401 23.786275153513476 0 1 -1
269 90 2 0.6080755370867381 0.12007953219564896 12.131490762890836 13.75960612131832 0 0 0
296 99 2 0.4897407559712191 0.004209099547289498 7.873442551477857 18.6120350815375 0 0 0
646 216 1 -0.912481565317967 5.846596767030286 4.062108443199741 22.63667559916828 0 0 0
175 59 1 -0.9708314163159008 5.927187595113204 0.2040487356383114 21.132744992694498 0 0 -1
1042 348 1 -0.9855315715167378 2.7283695569665523 6.012949947926593 22.706270938430322 1 0 0
274 92 1 -0.9899265295443974 2.1524596482994367 0.566777564905303 20.27883547963567 0 0 0
1394 465 2 0.6428212480094515 3.9455570827491746 2.7812630779058702 18.790479088803153 0 0 0
1393 465 1 -1.110023763484513 3.6083018153513176 2.8488823620659334 17.851502562816133 0 0 0
1044 348 2 0.469832320604842 2.859721667679946 5.4770553033229294 21.872272166111685 1 0 0
1395 465 2 0.4672025154750611 4.363474404722986 3.09212414764441 17.242784078340033 0 0 0
295 99 1 -0.9053231793012771 0.9046286301085733 7.760081703450367 19.03201649356785 0 0 0
1043 348 2 0.5156992509118955 3.2549572625334218 5.604087203682884 23.451607804584196 1 0 0
158 53 2 0.4851564254576072 0.33498066933436593 5.238878303389465 15.161017820505489 0 0 0
275 92 2 0.4407316206275659 2.7393857897426823 0.3680108558783736 19.493978869033537 0 0 0
1507 503 1 -0.9962287215836969 4.817202751263311 2.8965806824526252 20.21093247535481 0 1 0
1508 503 2 0.4958293256571234 5.158278651935484 3.573802956075885 20.862873900194348 0 1 0
1509 503 2 0.5003993959265737 4.828340681967412 1.9908610520799428 20.634652072482208 0 1 0
400 134 1 -0.8890309534319532 1.6073952029658978 3.701438533602625 21.310866242058022 0 0 -1
262 88 1 -0.9719942246945015 7.827747480894366 6.31080637697375 21.427653848516314 0 0 0
309 103 2 0.4651053412644184 0.36337166712167285 7.7102665196881395 14.311946128262768 0 0 0
583 195 1 -1.068215245522928 8.115681649649941 11.123791312741066 22.62197416758577 0 0 0
378 126 2 0.5348854092330657 9.3382852867783 10.668178139145379 21.070749366693125 0 0 0
616 206 1 -1.106123735404732 11.885814655807545 10.698354382189809 15.04902488635148 0 0 0
1152 384 2 0.4457404969267199 12.181849743080113 3.2783798755940348 22.279403646535343 0 0 0
1094 365 2 0.5195029549538599 10.967304995149524 3.9750077196801037 19.259416377921546 0 0 0
1151 384 2 0.5642094540284461 12.168418979509912 4.7730437711091485 22.93701203465931 0 0 0
48 16 2 0.5019639334204955 6.235353773190344 0.14013945696550262 24.145162054045024 0 0 -1
76 26 1 -0.9505496447902877 6.97417457224344 8.531491322199832 24.456800678746642 0 0 -1
342 114 2 0.4782739001476434 10.232809897646774 1.4029233382358168 20.306985510913645 0 0 0
402 134 2 0.4461797332906825 1.836180331038004 2.9462070037620913 21.92509185275853 0 0 -1
232 78 1 -0.9562254493330721 1.2274423662255296 9.772356866318466 23.82755216317846 0 0 -1
340 114 1 -0.9565510818565948 11.186504862172631 1.1036875470383838 20.337222164782027 0 0 0
648 216 2 0.5526346336669025 6.289923131390384 4.17920583705348 23.525348955553316 0 0 0
1095 365 2 0.5471938084858894 11.713697554481106 4.747616666435217 20.489303730838806 0 0 0
751 251 1 -0.9769870339347546 8.270900514903834 1.6193863476029262 19.94211298375066 0 1 0
341 114 2 0.4782771817089515 11.505218211999123 1.1012835864208814 21.28506520081088 0 0 0
263 88 2 0.542701222146852 7.734074950700475 6.256377716839608 20.433544509773462 0 0 0
264 88 2 0.4292930025476498 7.1196273097810066 6.912752074367737 21.79673053429301 0 0 0
752 251 2 0.5048279306797778 8.180244565403035 2.17378830575695 19.114822002929717 0 1 0
371 124 2 0.4148666131899595 8.916087004624883 3.1509123478989878 21.728990980033068 0 0 0
1093 365 1 -1.06669676343975 11.016544758403601 4.829190164312669 19.77704384659849 0 0 0
370 124 1 -0.8904605622509679 9.171863365744555 3.784042839957352 22.45954873438985 0 0 0
372 124 2 0.4755939490610083 8.843889041962521 4.701732900641203 22.235343036883535 0 0 0
753 251 2 0.4721591032549768 7.362539331354017 1.365925236473439 20.274720597460234 0 1 0
223 75 1 -1.023539513280929 4.751196414767384 10.329153713519366 23.912845115836788 0 0 0
11 4 2 0.5006823174987173 9.54221740467134 2.9607776255782787 24.41748600280253 0 0 -1
297 99 2 0.415582423330058 1.0305755265716352 8.452380086755033 19.742544977921433 0 0 0
1074 358 2 0.5401602831442633 12.21203346204235 2.877444846134728 17.951370032659124 0 0 0
1046 349 2 0.4896838599503409 1.9066060081689762 9.033626828887058 21.996733105951645 0 0 0
1047 349 2 0.5379708791885207 2.6644379448721796 7.59637942198612 21.83345424887858 0 0 0
1045 349 1 -1.027654739138862 2.4644736648873735 8.469208761768687 21.38828728056475 0 0 0
390 130 2 0.4904609431215666 0.7604091277344698 6.153182686211992 22.449252453863547 0 0 -1
892 298 1 -1.053798445412352 11.70103433633948 11.271068903256213 23.47080038574897 0 0 -1
334 112 1 -1.024373054883271 4.173471121142314 12.266944502771457 22.034345259925466 0 0 0
585 195 2 0.4752463496100094 7.45697673331871 11.76244548403681 22.22420654444336 0 0 0
964 322 1 -1.065023210898062 9.902338974689542 0.22068675092493295 17.418551144658075 0 0 0
77 26 2 0.4878995584029802 6.972857029998778 9.52875621321515 24.53063427924983 0 0 -1
198 66 2 0.4679101786697855 3.734683344259672 1.1942082169196524 14.47742757456361 0 0 0
268 90 1 -1.201393943515564 0.6088965542701823 11.330406814547418 13.414189234108822 0 0 0
848 283 2 0.4031908897447696 3.3463779184348086 3.5569317467002777 24.41404293308661 1 0 -1
894 298 2 0.5138410798215067 11.362187886557711 12.21099484529422 23.512185241516015 0 0 -1
893 298 2 0.539957365590845 11.99794142967601 11.064514858940267 22.53850643852214 0 0 -1
1189 397 1 -0.9801288640432686 7.15557129856812 2.180358393742247 13.33659780022478 0 1 0
308 103 2 0.4919716958283052 1.1310922305742266 8.890303847872397 15.13945224826491 0 0 0
1295 432 2 0.4779673529467006 1.4394167204135082 1.923658924613961 23.733198649299272 1 1 -1
1347 449 2 0.4631544209301116 12.220102238549496 1.4474506231202435 13.440860692105318 0 0 0
197 66 2 0.4341652156288006 4.860340709005529 0.9339532809174602 15.631469256469963 0 0 0
1127 376 2 0.5347919104723324 0.513381193296016 1.420629345001069 19.627754830523074 1 0 0
234 78 2 0.4627745004522589 1.1550173533146226 9.097024548664765 24.561494448082406 0 0 -1
16 6 1 -1.074850720170595 11.782553455558139 5.483012938663118 24.72911982156757 0 0 -1
1190 397 2 0.4894099145977753 7.071792666567353 1.1868220857803777 13.413129786440633 0 1 0
1191 397 2 0.4907189494454934 8.106938684762364 2.4474589192196996 13.49005074124636 0 1 0
270 90 2 0.5933184064288264 0.09419454216972542 10.92627195109872 12.658049531264274 0 0 0
18 6 2 0.5111951168805824 10.843746109604876 5.82715910011906 24.743069232739376 0 0 -1
556 186 1 -1.072783226907866 3.654994128657228 15.009163816942483 3.783512896847081 0 0 0
1279 427 1 -1.075874685095886 0.8944301965898068 14.755135329178772 5.189765700238125 1 0 0
1281 427 2 0.514250588394922 0.5694924616052774 15.388544727868565 5.892046556710233 1 0 0
634 212 1 -1.124155205454851 4.8046071403521005 14.382854636326444 1.144105630737883 0 0 1
469 157 1 -1.130776883563757 4.595794984337795 18.29043961911342 6.057753332769936 0 0 0
470 157 2 0.5587276671780504 5.176117913756216 17.504872545960474 5.84304406305454 0 0 0
1223 408 2 0.4665089096621768 2.5254934039454273 17.85508549079652 2.503365510364851 1 0 0
471 157 2 0.5720492163857068 4.7611540126917955 19.018689864743713 5.39269816903249 0 0 0
1222 408 1 -1.028753049192134 3.4885739519095558 17.623784017637792 2.641082197735953 1 0 0
558 186 2 0.5747006861242073 2.82750041129405 14.743497510771794 4.278150098059069 0 0 0
635 212 2 0.5478511257769682 4.519610458504315 14.66236402895452 2.060970828082127 0 0 1
557 186 2 0.4980825407836587 4.46009949415593 14.743435811027041 4.313781108839972 0 0 0
1194 398 2 0.4607631271516553 11.42466212865427 21.14121462791968 11.594533481989277 0 0 -1
1224 408 2 0.5622441395299566 3.5661002880338173 16.662167298089862 2.904280509329693 1 0 0
494 165 2 0.3856623356184163 8.02177028245236 18.88912534677521 5.756745558586664 0 0 0
1329 443 2 0.5012063351730186 0.3157632029113994 21.472786275718704 11.248931373965688 1 0 0
517 173 1 -0.976573522192599 6.916037796347662 16.81083784794208 4.834184978605299 0 0 0
1188 396 2 0.5396628270071581 2.76412297943966 18.177035773559627 5.808853953967194 1 0 0
103 35 1 -1.125385856609476 6.1820474976863276 13.749380721933298 5.365878525492526 0 -1 0
104 35 2 0.5346978610308525 6.32686438840659 14.5187656126468 5.988024294132563 0 -1 0
105 35 2 0.5906879955786236 5.935323256197328 12.936257570814206 5.893086538622686 0 -1 0
427 143 1 -1.109619446117929 5.958841195639737 17.73934016781383 0.09208445652810769 0 0 0
606 202 2 0.5295222026784042 1.3101060954203863 18.415720178621417 11.97453354689705 0 0 0
396 132 2 0.5175165204684299 12.220073967692604 13.768290372827874 7.885434218612267 0 0 0
463 155 1 -1.102865899079603 6.43544482547828 12.69758609590067 2.698891013478335 0 0 0
637 213 1 -0.8685629809790095 0.32357671284059975 16.90572802688735 0.9741780370780664 0 0 1
465 155 2 0.5879201723435772 6.4121075119317235 13.108985856938286 3.6100419371716432 0 0 0
425 142 2 0.6096490898269964 8.51350295413746 16.09967945228459 1.7313530246687951 0 0 0
486 162 2 0.5005955216289405 0.1443300273085637 22.528430246072706 8.669814164965368 0 -1 0
1290 430 2 0.4867201500225705 11.184855860160086 17.031852393391475 1.7009647229284452 0 0 0
519 173 2 0.5404825873222244 7.163121347240118 16.69599262893962 3.87202558750465 0 0 0
1218 406 2 0.4603088483790916 3.493200391338045 24.513565176754724 2.7729960560495366 1 0 0
424 142 1 -1.164118045933898 7.781494254840103 16.616568897125635 2.175176148556802 0 0 0
69 23 2 0.4940667445182431 5.140663466390478 23.631442081573248 3.9880788073873497 0 -1 0
501 167 2 0.5434211101792175 10.811371349847887 14.900873421503206 1.3191032666462168 0 0 0
772 258 1 -1.139747382403771 11.30030766793685 21.542905399552684 6.565376559930651 0 -1 0
518 173 2 0.4360909348703744 7.594347576736281 16.353645971454405 5.409390880205196 0 0 0
464 155 2 0.5149457267360262 6.007008322670391 13.317972601094702 2.0419639653463317 0 0 0
426 142 2 0.5544689561069013 7.162054561614015 16.98117223699484 1.4799428996791395 0 0 0
238 80 1 -0.9176516874834569 9.373588682263957 16.137431180987907 6.589806499133221 0 0 0
527 176 2 0.5203335752298783 11.132254533619118 24.23387963341192 0.9908030548640505 0 0 0
52 18 1 -0.8402839856476798 9.664760716521963 14.280393752233223 4.369279767383697 0 -1 0
53 18 2 0.4316157074196595 8.828805880599745 14.48937735200286 3.861839360381823 0 -1 0
182 61 2 0.5073771803263947 8.431742139385536 18.269899421778856 2.9111142085179815 0 0 0
54 18 2 0.4086682782280203 9.560500233682612 14.57489917543531 5.319220137488744 0 -1 0
480 160 2 0.4229239752075531 6.947779129038286 24.46322862793196 9.165581391959478 0 0 0
239 80 2 0.4733372427254497 9.391178144074273 15.862549059049417 7.551118534429016 0 0 0
240 80 2 0.4443144447580072 10.310203947991647 16.25126771861002 6.258470587948229 0 0 0
395 132 2 0.4190042263469527 10.705012161676775 14.377368076990509 7.901602469649074 0 0 0
320 107 2 0.4594928500016506 0.08748099232224675 23.87222720538513 0.8314786343428324 0 -1 1
526 176 1 -0.9242495472494836 10.939645723910754 24.291449536068797 0.01122255686323968 0 0 0
636 212 2 0.5763040796778832 4.616185708135566 15.121439162517104 0.49681847584768146 0 0 1
619 207 1 -0.7800616221977599 10.054205914384896 19.895201138477937 8.970161369892127 0 0 0
493 165 1 -0.7966998818687592 8.377538280208922 19.662555502718693 6.281364777622969 0 0 0
185 62 2 0.4939829630508952 2.7985714739183436 22.647156548269848 3.791889877450996 0 -1 0
55 19 1 -1.121784198655079 11.943434035310343 24.428695383315624 10.286587890948102 0 -1 0
145 49 1 -1.058283823881269 1.7941523237648425 24.664015379727786 3.728373055944939 0 -1 0
763 255 1 -1.077143434770665 5.244905864159308 20.484817972929175 0.495056559203381 0 0 1
1307 436 2 0.6466433370176055 3.8314760914647694 20.574789242634633 3.8562382432128373 1 0 0
1306 436 1 -1.323556883251322 4.535023756832142 19.883664314946483 3.6908374686774965 1 0 0
1308 436 2 0.6769135462337166 4.1157741856474015 19.071825235694295 3.284466325763673 1 0 0
809 270 2 0.4840631491395844 1.47042304178799 19.91068652644568 2.241731814725694 1 0 0
479 160 2 0.4339875424097624 6.105948045763666 24.401398912522886 10.563489418841936 0 0 0
1187 396 2 0.4904910013069637 1.667033954112645 18.54857507777629 4.6577659668756395 1 0 0
808 270 1 -0.9704230992844763 1.049334621341912 19.301467661887482 2.9136896382275412 1 0 0
1217 406 2 0.4828348893425083 3.924395226154634 23.821086630997936 1.358360478880808 1 0 0
243 81 2 0.6947432409168049 5.916206015381432 20.69848438791505 3.4309322021595916 0 -1 0
1216 406 1 -0.9431437377216001 4.103967521903372 23.849541127440954 2.341688771753737 1 0 0
162 54 2 0.3769866147449447 6.8963828125732975 13.189170854171357 11.411408176896437 0 -1 0
975 325 2 0.5332016449233122 0.9132482772641219 23.247450663702388 10.516049154542555 0 -1 0
184 62 1 -0.9967088423549925 2.75183224255344 21.766184019080544 4.262733000367845 0 -1 0
973 325 1 -1.026687280466694 1.3338788230230585 24.085642313490894 10.863173197979538 0 -1 0
1531 511 1 -1.006584894675878 2.4527934539373275 20.62175584881358 0.509747873369609 1 0 1
548 183 2 0.444808170323678 0.37747917520738133 13.320450354605908 6.568098666386442 0 0 0
573 191 2 0.5270180492167933 4.485185717422651 18.507991410612103 7.828515197209704 0 0 0
765 255 2 0.5047316610238505 5.81369618477893 20.71604831780951 1.2843603651669837 0 0 1
186 62 2 0.5027258793040973 2.904372291121323 21.902847014378402 5.24153081331595 0 -1 0
168 56 2 0.5328445970714568 8.28658974087793 24.730547905522197 6.898527284736826 0 -1 0
774 258 2 0.541238169768456 11.190031455506352 20.972818183646087 5.751232762702821 0 -1 0
183 61 2 0.5463614815671989 8.143691890389134 19.87727977774784 2.913301306061393 0 0 0
67 23 1 -1.055295527817876 5.969588720448412 23.878395817451924 4.489962434190635 0 -1 0
108 36 2 0.5719768887578219 10.38895213096761 22.9157899398767 3.3801776665778327 0 -1 0
414 138 2 0.4427195932804225 9.179794773593818 23.62749962781073 5.533184911408164 0 0 0
241 81 1 -1.17758875702284 6.728152663437425 21.23048834552811 3.1907139074203905 0 -1 0
242 81 2 0.4828455161060353 6.66758942679606 22.1375734050352 3.607270252371781 0 -1 0
106 36 1 -1.193824633616669 10.711307922443705 22.747962390023012 2.448560225487009 0 -1 0
74 25 2 0.4033264449434719 11.560200883080913 21.3884522354513 0.6105493163671529 0 -1 0
191 64 2 0.4707448575769833 11.544734662812656 18.69604825164899 4.552235610983307 0 0 0
413 138 2 0.419305856760654 8.07586115843286 22.719112680213836 4.743999847655234 0 0 0
806 269 2 0.512980460471419 7.758478277985418 21.884778848437783 1.8530860783808991 0 -1 0
805 269 1 -1.074944976341049 8.434987288315082 22.12487657740062 1.1568971393547787 0 -1 0
807 269 2 0.5619645158696298 9.273414279255185 22.440057195481216 1.6015225526884145 0 -1 0
764 255 2 0.5724117737468151 4.281000805403805 20.60714071512429 0.731519206951596 0 0 1
1288 430 1 -0.9884641098569626 11.501039174199484 17.93999384776909 1.975368822928099 0 0 0
1289 430 2 0.501743959834392 10.721499730952909 18.485398998666724 2.283332907083699 0 0 0
412 138 1 -0.8620254500410766 9.03269776765799 23.009217689112727 4.761122534098379 0 0 0
181 61 1 -1.053738661893593 8.852270137418357 19.174850004606025 2.846221644660545 0 0 0
68 23 2 0.561228783299633 6.400278654073633 24.66859065417955 4.053970805354045 0 -1 0
107 36 2 0.6218477448588466 11.710181921534959 22.7909121095335 2.428649051084014 0 -1 0
495 165 2 0.4110375462503428 9.205357783461787 20.01097787517264 5.8416977220678765 0 0 0
484 162 1 -0.9670348486388665 0.21524861617264984 23.445895217681052 8.278382205414319 0 -1 0
1186 396 1 -1.030153828314122 1.8010697975608918 18.112194720762265 5.547483324251592 1 0 0
1533 511 2 0.5126949647831682 2.2351212781252694 21.59166989422659 0.40077095966516685 1 0 1
147 49 2 0.5658705704641139 1.0057713181908765 24.272287828108823 4.202709766189475 0 -1 0
740 247 2 0.4919559106963595 2.568156084188693 14.38520829101229 10.298957564746486 0 0 0
741 247 2 0.6299553066349646 2.8965722314435807 13.881885063063343 11.817331003834191 0 0 0
429 143 2 0.5480615702754601 5.746295846790847 18.714549928118824 0.15357264581183763 0 0 0
1204 402 1 -0.878367628638956 2.4949082270229197 15.052303059550713 7.92682807183482 1 0 0
189 63 2 0.5502706950427454 1.010743665078116 15.65764256031876 8.936128000864562 0 0 0
685 229 1 -0.9336838471004626 6.045538862553161 15.313923956716986 7.810662383518088 0 0 0
687 229 2 0.4143599618049549 5.665735764220634 14.938989158973381 8.656336022264629 0 0 0
1287 429 2 0.6071210714046037 0.34622939773108646 17.418582353126144 6.285821764371663 1 0 0
187 63 1 -1.186636536572286 0.28529970203556915 16.322348596389187 9.11469827114852 0 0 0
574 192 1 -0.8851353482209511 5.912637163144691 21.475899913553118 9.441607528121688 0 0 0
642 214 2 0.5075822537528561 3.672258848194504 16.02587629171284 11.86508548349044 0 0 0
1206 402 2 0.459041223493193 2.245214699541138 14.732553429843815 7.012823850855088 1 0 0
1205 402 2 0.419326405145763 3.4805717127101397 15.216680078754026 7.9647502009089015 1 0 0
739 247 1 -1.121911217331324 2.642998481360863 14.668909383597136 11.25494015087684 0 0 0
1280 427 2 0.5616240967009639 0.32356800629419835 14.841314471365253 4.373261006757707 1 0 0
497 166 2 0.5363177326483566 2.6722389331341203 18.343539636046973 9.454242292853731 0 0 0
496 166 1 -1.065371787370152 1.8674166319903451 18.522250288994034 10.020205158629961 0 0 0
498 166 2 0.5290540547217952 1.1310418556665618 17.898095811491004 9.75910407410562 0 0 0
666 222 2 0.4933313421383339 3.355090535121022 23.653557481689994 11.335964091615603 0 0 0
1192 398 1 -0.8472076160002174 10.585997957277792 20.90918340370261 12.087275116084124 0 0 -1
192 64 2 0.4920460077171966 10.07556937474786 19.318547146477734 4.204819692551069 0 0 0
1266 422 2 0.4519887697875744 9.00647742970683 19.323051893730632 11.514657703797072 0 0 0
1153 385 1 -0.8677723772125842 8.843007972594512 13.795100972225692 8.226047148709501 0 0 0
1264 422 1 -0.9963030402271641 8.394161478312409 18.70154387908994 12.003316442323333 0 0 0
639 213 2 0.414478878310307 0.604620957910156 17.83245483780292 1.2235411249163715 0 0 1
160 54 1 -0.9512234514855129 6.058631291708976 13.710838104661883 11.25008220754284 0 -1 0
499 167 1 -1.06625800068004 9.948856385428321 15.323100108564164 1.0402072999872078 0 0 0
1154 385 2 0.4955597548370412 9.273695782027493 12.936646128979424 8.504531784273968 0 0 0
686 229 2 0.5193238852955075 6.688797944186457 16.04731265983272 8.030546815371174 0 0 0
57 19 2 0.5767599235330423 11.227407383738436 24.149745958345864 9.646678950644574 0 -1 0
161 54 2 0.5742368367405682 5.469427294668231 13.208019351456292 10.617624817176743 0 -1 0
394 132 1 -0.9365207468153826 11.677810039356133 14.60849248661726 7.886233807054328 0 0 0
249 83 2 0.4524352305230124 7.433321251609802 15.1395661237118 11.787550455373013 0 -1 0
247 83 1 -0.9240203632747205 8.05057184266428 15.79408427512784 12.224125874564804 0 -1 0
510 170 2 0.4639756150810718 7.289490135488816 18.527910434667135 8.324328138406354 0 0 0
56 19 2 0.5450242751220366 11.56865633589858 24.460098360290647 11.213165425962499 0 -1 0
1385 462 2 0.433322951108331 10.267631878684584 16.491892247957743 10.54843161601144 0 0 0
1386 462 2 0.4245249973367465 10.656043527792718 16.141646985786394 9.001462325669403 0 0 0
1384 462 1 -0.8578479484450776 9.916608113447074 16.4189582408913 9.614914960463986 0 0 0
508 170 1 -0.9895555118291205 7.288522884147766 17.656359926874487 8.81462312728956 0 0 0
509 170 2 0.5255798967480486 8.228862860265329 17.33391732944928 8.923167588289072 0 0 0
860 287 2 0.4627663100523013 3.1474077969992513 13.272480433632554 0.3284966003398482 1 0 0
575 192 2 0.4627336621883799 5.227569538603098 21.151262080867525 10.093744804104908 0 0 0
1155 385 2 0.3722126223755429 8.365309003242793 13.66202966400665 7.357665826396655 0 0 0
472 158 1 -1.032704601285991 10.029897461026474 23.519166760238257 8.638146584846483 0 0 0
1265 422 2 0.5443142704395898 8.028476854053716 18.023873218007346 11.365329271589152 0 0 0
773 258 2 0.598509212635315 11.870821137830767 22.333725881832045 6.343773886639624 0 -1 0
620 207 2 0.4403910039312545 10.156624746258796 19.974001040291935 7.978550883015174 0 0 0
665 222 2 0.5531545575693171 4.082968079476644 22.23971619855216 11.707308197015676 0 0 0
473 158 2 0.5528927735197169 10.328758639926505 22.66241323592475 8.21785407521118 0 0 0
1341 447 2 0.5165151917844596 4.253980378349805 20.667591252553017 7.517497819384742 1 0 0
1133 378 2 0.4726405055605118 11.618883217082447 14.06350382963869 4.501819265940975 0 0 1
1486 496 1 -0.9976898803177744 4.0490688909364785 23.71253085689811 8.380559503512549 1 0 0
1340 447 2 0.4399072670960328 2.7701240468966573 21.347455381799566 7.568532037980228 1 0 0
1487 496 2 0.4938013544600915 4.4002750384518805 23.455141450227796 9.280779107061553 1 0 0
552 184 2 0.4824413417827745 6.754818974297154 22.541041122488284 7.596590915314424 0 0 0
551 184 2 0.5420548691086895 6.347648048110377 23.54747765019476 6.376776711976835 0 0 0
572 191 2 0.4830807907855217 5.401306089749187 18.33369243124894 9.16903474846548 0 0 0
1488 496 2 0.5038885258576831 4.0121089934103935 22.90385080776213 7.793481192350463 1 0 0
1339 447 1 -0.9564224588804926 3.6433334004567444 21.32869414052995 7.0815578702732855 1 0 0
155 52 2 0.5216672999667828 9.32345648246951 20.590076408212784 0.3089594720215853 0 -1 0
193 65 1 -0.9985339392582576 4.270231009004734 20.44808565504499 11.92315978220608 0 -1 0
500 167 2 0.5228368905008226 9.639455058159912 14.913625230067176 0.18195818586168613 0 0 0
550 184 1 -1.024496210891464 6.956300747140833 23.417597648527696 7.159504938414799 0 0 0
571 191 1 -1.010098840002315 4.5626864774936 18.733939052541732 8.799561897748696 0 0 0
194 65 2 0.4760659300920797 4.064250769113382 19.66873540834597 11.331403300976499 0 -1 0
1327 443 1 -1.004301614625242 0.5935610087151726 21.280273511392114 10.307784406699314 1 0 0
1328 443 2 0.5030952794522235 1.0937984911983838 20.414893796298344 10.278274931003688 1 0 0
657 219 2 0.5338051785042124 12.029437158546685 17.181425556894755 11.931637710723818 0 0 0
664 222 1 -1.046485899707651 4.233492609970443 23.180411755601842 11.40329399669062 0 0 0
621 207 2 0.3396706182665054 10.956516734577464 19.912525653227892 9.400888016716706 0 0 0
640 214 1 -0.8805198570375904 4.17995964367369 16.79572819093496 12.251813236395046 0 0 0
810 270 2 0.4863599501448918 0.2048766198893896 19.714339777109082 3.2548900186317176 1 0 0
201 67 2 0.4137952242742813 8.886840857482659 22.07797395019385 11.443820740354717 0 -1 0
190 64 1 -0.96279086529418 10.920780806655412 19.45919411605178 4.72040330813168 0 0 0
474 158 2 0.4798118277662744 9.14394435072329 23.381877675807488 9.081124228721372 0 0 0
576 192 2 0.4224016860325711 6.8237952256561405 21.38903621382786 9.844392932677383 0 0 0
199 67 1 -0.8656871425220731 8.134273674839365 22.706988146927145 11.24895110380468 0 -1 0
200 67 2 0.4518919182477918 8.021554219627568 23.33946796008721 12.015276106459961 0 -1 0
638 213 2 0.4540841026687025 0.4695099101045676 16.76528473993861 -0.005158946202772796 0 0 1
984 328 2 0.5966898501045699 1.3125647329974586 15.508901546216372 12.34525511463014 1 -1 0
248 83 2 0.4715851327517082 8.768449590594122 15.299569401903556 12.714049181626065 0 -1 0
632 211 2 0.552499710390827 2.427030003121981 17.139869033857686 15.841343155441697 0 0 0
452 151 2 0.5160861792126569 4.470352760381775 17.933654294016137 15.385802535178408 0 0 -1
451 151 1 -1.000540955732053 4.243528220701173 16.973584466739013 15.549530829261974 0 0 -1
169 57 1 -1.174819973053131 2.975021196950864 12.645518551521775 12.964117893860212 0 0 0
325 109 1 -1.039758438487972 0.6089814405028547 13.284404513410182 22.7827688600177 0 0 0
289 97 1 -1.041469482132815 0.43509267587426403 21.513370194884075 13.138415711405504 0 -1 0
631 211 1 -1.056464376644193 1.6301194562445238 17.356644196215377 16.405198197622695 0 0 0
633 211 2 0.5039646662533658 1.333445161393311 16.535510442150738 16.892757547900104 0 0 0
1035 345 2 0.5170168324109369 5.757773541177182 23.80326587635982 12.447391127372358 0 -1 0
226 76 1 -0.9325324897953693 1.054995628553179 14.17547545054553 17.069036479613164 0 0 0
605 202 2 0.4971338775040992 2.4357826076900966 18.323542716992755 13.15401927633643 0 0 0
1467 489 2 0.5300884711111913 2.8676039667821183 13.632150483727422 16.267242535658678 0 0 0
288 96 2 0.4502636069700034 0.3804076961988355 15.3124388470278 19.46278977384663 0 0 0
933 311 2 0.6263572267546745 2.5075379500025123 12.93427158752139 19.468324498362424 1 0 0
604 202 1 -1.026656080182504 1.4746564809492422 18.515748303892842 12.95581740905622 0 0 0
603 201 2 0.5639628583971551 1.735310332417641 19.10171005214749 16.76681495595757 0 0 0
20 7 2 0.4927075224794073 11.960788623792775 16.603907623754292 18.57841361248693 0 -1 -1
528 176 2 0.4039159720196051 10.420658442501127 23.48587435189109 24.537637986644093 0 0 -1
251 84 2 0.5693330345290051 5.052916278527228 13.106108364726717 17.166701583658064 0 0 0
1465 489 1 -1.006714144081404 3.708778991555286 13.233942958523848 15.90139318974994 0 0 0
227 76 2 0.4517001814746588 0.8591259333216712 13.499660945462695 17.779599788926397 0 0 0
1466 489 2 0.4766256729702133 3.5307492221041565 12.855194726619878 14.993183094369178 0 0 0
566 189 2 0.4195522993751816 2.3523079619646503 23.95737728898739 13.862232822424817 0 0 0
597 199 2 0.5203644777096917 9.75425076341905 13.545356203868343 13.861422210843005 0 0 0
453 151 2 0.4844547765193959 4.672994760677163 16.405237112942334 14.84772588783869 0 0 -1
1513 505 1 -0.9363181386443605 11.624633513278194 19.524245470091312 19.274548760871753 0 0 0
1408 470 1 -1.090417706230291 1.055551609118516 16.094248417136775 22.92212726392133 1 0 0
596 199 2 0.4738145111589397 10.0744049858738 15.003199278728085 14.523875364677597 0 0 0
979 327 1 -1.125301372454266 11.074196822415999 24.24609353757716 13.000435437273778 0 -1 0
674 225 2 0.4952662287870588 7.209387768595414 16.08652367241913 14.636755313762547 0 0 0
1364 455 2 0.4552090278292183 5.337403377929975 14.185356736312702 13.181660937216266 0 0 0
1235 412 2 0.5381582428888932 11.387470938836113 22.183369433815262 21.4485012372258 0 0 -1
704 235 2 0.4573222435921321 10.95371801065537 17.862929432016276 14.282318538508457 0 0 0
1363 455 1 -0.890796478235527 5.708652166320785 14.430519742713404 14.07723887170527 0 0 0
1365 455 2 0.435587450406309 5.460583639779597 13.728244964274253 14.744518828725251 0 0 0
716 239 2 0.5232273584896597 10.666178306428995 15.163416580561089 16.818774641495573 0 0 0
715 239 1 -0.9906235348709295 9.680572511177271 15.100556069396468 16.66186647779717 0 0 0
299 100 2 0.5847471017699218 7.874856398861154 17.13821371093762 16.63396957231254 0 -1 0
717 239 2 0.46739617638127 9.226800180704188 15.892413254556589 17.070575750679723 0 0 0
673 225 1 -1.014835500841823 7.564062282709154 17.000797885350934 14.83245674947236 0 0 0
298 100 1 -1.060871527147307 8.070951416495117 17.343667481892698 17.59278440917749 0 -1 0
300 100 2 0.4761244253773856 8.718996323056079 18.103464945642898 17.64509131591126 0 -1 0
703 235 1 -0.9540896741281552 10.8188730799445 17.853977610694454 13.291497107124849 0 0 0
705 235 2 0.4967674305360231 9.90159040392091 18.18942185364562 13.076881051177548 0 0 0
595 199 1 -0.9941789888686314 10.093760057775116 14.468150178493387 13.679281828790392 0 0 0
981 327 2 0.601441653955979 10.31010113820863 24.104922321269605 13.629894627686168 0 -1 0
128 43 2 0.3784349768572754 9.638849468904908 24.059080312568124 22.97241047362242 0 -1 -1
149 50 2 0.5165662176769706 4.19641350756995 20.393045854528257 15.037045507903347 0 -1 0
1370 457 2 0.4188077266911054 7.472412312384181 21.753295254365728 13.634203671441448 0 0 0
601 201 1 -1.076062670067078 1.6021655163881328 20.091928749340674 16.72522422350188 0 0 0
353 118 2 0.416437183994149 7.57311305583773 24.03814480681224 19.88649222058907 0 -1 0
759 253 2 0.4886898682507684 2.005682182891674 20.2463637157322 18.690207755021977 0 0 0
1113 371 2 0.5341072299113873 3.138327043934788 21.229064302469123 16.272877643930578 1 -1 0
250 84 1 -1.001713618551537 5.717391734277599 12.617755038602633 17.73236384764747 0 0 0
357 119 2 0.4292240873053576 2.593535032232158 23.232236851627615 17.83198610966235 0 -1 0
1112 371 2 0.5367613139545602 3.1969230341386483 22.73491257168159 15.643880952254696 1 -1 0
1111 371 1 -1.070868543865948 3.7445393698381304 21.95967674544708 15.958708146013786 1 -1 0
689 230 2 0.3995695171877593 5.442417762240498 20.412673680240633 18.35814045854902 0 0 0
355 119 1 -0.9384622728983986 3.3167709745441116 23.66199551869806 18.37256696315115 0 -1 0
565 189 1 -0.9461520766554053 1.750905450231741 23.71815285498619 14.624516948188198 0 0 0
356 119 2 0.5092381855930409 3.509111513655218 23.101082244525582 19.17778234750757 0 -1 0
148 50 1 -1.043920206480847 4.650653541583974 19.634679832666695 14.569565703294124 0 -1 0
1474 492 1 -0.9931376090300003 6.397283177978947 22.318024670225267 16.63206622082122 1 0 0
710 237 2 0.6207041838777124 12.104984646391705 22.22407144153093 17.63226411457154 0 0 0
291 97 2 0.5664932692490395 0.8663841484721859 22.1751500061402 13.751624930523194 0 -1 0
150 50 2 0.5273539888038765 5.6293962886602475 19.826338304169884 14.496626929796594 0 -1 0
316 106 1 -0.9959161192641133 2.4238058688252657 23.515194098052554 24.481625468479386 0 -1 0
1475 492 2 0.55792322902085 5.431720191402642 22.471969616896573 16.8417790522856 1 0 0
1476 492 2 0.4352143800091501 6.497544930835205 22.105790064266184 15.660009405465154 1 0 0
1107 369 2 0.5792043291429636 12.156709478488974 16.23826555225315 20.98675431021662 0 -1 0
245 82 2 0.4867309380716395 10.586742408229338 22.05525219408044 16.34619639064622 0 -1 0
417 139 2 0.5186208111769193 5.615367869519961 19.253707431326944 20.090510171693168 0 0 -1
1193 398 2 0.386444488848562 10.804222433961977 20.714614036535696 13.043557934547982 0 0 -1
709 237 1 -1.187587535052826 11.334513167542017 22.75181455072527 17.98982713042989 0 0 0
711 237 2 0.5668833511751137 11.096165689380465 22.41764212492743 18.90169865033994 0 0 0
675 225 2 0.5195692720547638 7.71309690890845 17.49134919959249 13.973889054050332 0 0 0
398 133 2 0.5162914315021123 6.177494771843994 12.736082779929689 19.85388060974361 0 0 -1
1369 457 1 -0.9167944671086611 7.354324754105839 20.768477662776924 13.761404454496326 0 0 0
514 172 1 -0.8277091115019952 11.239253144848973 18.35941968255692 16.230594737993876 0 0 -1
515 172 2 0.4482828840935167 11.905584439055694 18.503732051279332 16.962145792895242 0 0 -1
195 65 2 0.5224680091661779 4.140240139763262 20.184451257623248 12.878967088709157 0 -1 0
244 82 1 -0.8698492985288629 10.463120557314733 21.72476808172411 15.410521079018691 0 -1 0
246 82 2 0.3831183604572236 9.533319842926836 21.373311958297645 15.301252491755141 0 -1 0
310 104 1 -0.9133734635514966 8.383125538815161 20.46417062649199 17.65769879315654 0 -1 0
312 104 2 0.4938798177014563 7.658704789941438 20.949265734639926 17.167915459441424 0 -1 0
1034 345 2 0.5309004129068007 5.690742545447818 24.38937407798196 13.970097060801436 0 -1 0
1033 345 1 -1.047917245317738 6.274639369108941 23.943075442625418 13.291958117272912 0 -1 0
641 214 2 0.3729376032847342 5.078976540752771 16.48230467486476 12.557417866854209 0 0 0
965 322 2 0.5888338557469018 10.528724521295773 24.29092093310983 17.658139606672236 0 -1 0
859 287 1 -0.9295580168063124 2.806817384040367 12.43089942537145 24.721355891377844 1 0 -1
931 311 1 -1.124835259326987 3.1770997719392735 13.553231655365174 19.878892154604554 1 0 0
1067 356 2 0.6375774663342124 4.276723583505475 15.962766147085715 23.094000944758722 1 -1 0
1068 356 2 0.5101959038986386 2.9744542656413935 16.309923290939995 24.016077882610755 1 -1 0
932 311 2 0.4984780325723121 3.7576628653689466 13.939264276919873 19.162013009297905 1 0 0
286 96 1 -0.8634215011284683 1.0430964991441942 15.839372938783876 19.994931120416048 0 0 0
878 293 2 0.5652255907353337 5.728587065072061 15.612229152496528 21.2324435980801 0 0 0
877 293 1 -1.111238706330917 4.817481328766127 15.344770452777002 21.54603980428721 0 0 0
693 231 2 0.4179105539507427 4.099641128172868 17.139754332880162 21.19354213506752 0 0 0
879 293 2 0.546013115595583 4.452152265520569 14.635751154010242 20.942867599309935 0 0 0
691 231 1 -0.861804538589631 3.896172974777029 17.8811065216766 20.554020405918923 0 0 0
692 231 2 0.4438939846388882 3.889413652036292 17.5233566456051 19.62023256220938 0 0 0
1362 454 2 0.3638032098673475 5.423397841874229 15.810819488997534 18.904474172459874 0 0 0
1360 454 1 -0.8469168081231977 4.617191226287789 15.897587967752107 18.319245564638972 0 0 0
1361 454 2 0.4831135982558505 4.817835813874055 16.52415835705053 17.566157458200237 0 0 0
983 328 2 0.4705322927727568 0.6851180805426353 16.574719241314693 13.411553701910618 1 -1 0
1066 356 1 -1.147773370232851 3.9641097179940004 16.16660426032702 24.021747135272605 1 -1 0
287 96 2 0.4131578941584648 1.8725273986731656 15.296389081940774 20.126092522692105 0 0 0
622 208 1 -0.8887392992636026 8.942405077170212 19.005278093203724 20.144598535493387 0 0 0
589 197 1 -0.9319919035486672 0.07882291672142833 23.43826022956376 17.95703574063738 0 0 0
336 112 2 0.4803855526193245 5.073566092594814 12.410504513536281 21.622993871198226 0 0 0
450 150 2 0.5235350452689439 7.421575448396619 16.472359360987205 19.154967278788387 0 0 -1
19 7 1 -0.945098749564006 11.33375621352579 16.517042857462926 19.352542328001693 0 -1 -1
415 139 1 -1.040613432023642 6.11762415743308 19.71195185530149 20.823818475533223 0 0 -1
440 147 2 0.4708155630077798 7.334749221544343 12.979141015619593 16.776619299247436 0 0 -1
399 133 2 0.5068265288333581 7.638349584058541 12.70027374349101 20.582763500636602 0 0 -1
21 7 2 0.4523912270845989 10.873994072562237 17.391219384233143 19.508825958344705 0 -1 -1
449 150 2 0.5027014375002892 7.408493973661086 16.808850407732592 20.752857133745938 0 0 -1
393 131 2 0.4750487112524612 10.36576993589959 18.720928227734532 21.748116108266967 0 0 -1
1535 512 2 0.5411769604906581 7.160441436044257 17.59164786912307 23.380301441745644 1 0 0
1499 500 2 0.4122275928856035 9.469839884929215 14.307887077645804 20.96068573576605 1 0 0
1098 366 2 0.5654943792851836 7.956145349421879 14.940680025799594 23.358628469764835 0 0 0
1498 500 1 -0.8472883140608466 9.509178193271255 13.895586601832004 20.05049278123759 1 0 0
1536 512 2 0.454855234878815 8.141492487100905 18.550209311014232 22.494102741995988 1 0 0
1534 512 1 -0.996032195369473 7.693316417122749 17.65728306704611 22.53666249369558 1 0 0
392 131 2 0.5270763912969288 10.544244076386516 19.10119964082138 23.326149685750007 0 0 -1
483 161 2 0.4752850530674781 10.416996487792073 14.445898747127478 22.714639360910386 0 0 -1
482 161 2 0.4741911266818443 11.924186908454997 14.896460514407874 22.276437959925776 0 0 -1
448 150 1 -1.026236482769233 7.222180181042188 16.10778471935366 20.064537098740136 0 0 -1
481 161 1 -0.9494761797493224 11.345692187357873 14.12233627330313 22.533470868965814 0 0 -1
391 131 1 -1.00212510254939 11.021131409802386 18.804475658272576 22.49879018182164 0 0 -1
1500 500 2 0.4350607211752431 9.359369349631486 14.601366348538589 19.358089243668037 1 0 0
1096 366 1 -1.072739893412638 8.90590561555103 15.223187070641764 23.223959966284603 0 0 0
1097 366 2 0.5072455141274538 8.93829667690584 16.20496973631523 23.036759496573154 0 0 0
792 264 2 0.6316880936287842 4.219235412491886 21.83587792669852 21.380169448452456 1 -1 -1
352 118 1 -0.9298203026539421 7.503998983188652 23.19175568587852 19.358440044890802 0 -1 0
516 172 2 0.3794262274084784 11.048137959792589 19.230031229120307 15.777272644594328 0 0 -1
1115 372 2 0.4919244052882308 4.622670774933261 20.530404766609188 23.353052954678258 1 -1 0
758 253 2 0.4713156523067212 2.755952613429448 19.747736986924345 20.05223382102686 0 0 0
757 253 1 -0.9600055205574896 2.268802243475994 20.506195166208265 19.619318001652804 0 0 0
690 230 2 0.3783078628868279 5.694281772834556 19.047832040577504 17.497663174184837 0 0 0
688 230 1 -0.7778773800745872 5.074875998766774 19.510632611548726 18.13181025325479 0 0 0
433 145 1 -0.914748561619605 6.570498273644037 13.786099409899647 23.660787439369518 0 0 -1
791 264 2 0.3368747150279859 5.090348137250904 22.54474301890332 20.19470656842886 1 -1 -1
1114 372 1 -1.152211233055898 4.02275127256241 20.564715826929373 22.553734656909814 1 -1 0
476 159 2 0.5619552910427781 1.5603395587296818 22.098386062059703 20.527795072327613 0 0 -1
1 1 1 -1.081755474123223 1.8743282473641858 19.01384873658108 22.94153876686971 0 -1 -1
477 159 2 0.4389876969604359 0.5630574165317043 22.656785114596815 21.694100420457286 0 0 -1
354 118 2 0.5133831186597929 7.250792613653641 23.407022740074265 18.4152873376702 0 -1 0
2 1 2 0.4839424519290079 1.9052417322350201 18.03597441628084 23.148412084345182 0 -1 -1
623 208 2 0.4277787748221502 9.161412786355882 19.093154532065043 19.172845606944634 0 0 0
602 201 2 0.5120998116699232 0.6335219931697073 20.303763359651153 16.855017220748714 0 0 0
3 1 2 0.5978130221942154 0.9386929973648076 19.274890325772077 22.703979580551756 0 -1 -1
475 159 1 -1.000942988003214 1.2822029807028539 22.90718845366147 21.045935144736017 0 0 -1
1116 372 2 0.6602868277676668 3.2380956321414995 19.962236584260957 22.699764405392735 1 -1 0
790 264 1 -0.9685628086567698 4.270415430420902 22.620360461966865 20.7621418139923 1 -1 -1
441 147 2 0.5334956979141228 8.431155058647244 13.942927075803658 16.044731323762782 0 0 -1
311 104 2 0.4194936458500401 8.830874511921547 21.09023637663976 18.296097518802995 0 -1 0
1234 412 1 -1.024666637389062 10.743877489714219 21.867663580070225 20.751287005091164 0 0 -1
1409 470 2 0.5321305073432497 1.0607523540058217 16.438369392253726 21.983221461367243 1 0 0
109 37 1 -0.898038310352241 6.1891032163420965 23.079062637169923 23.885936727680658 0 -1 -1
1236 412 2 0.4865083945001688 10.013858322522605 21.340235672567356 21.185892823336395 0 0 -1
154 52 1 -0.9674825720703583 9.215177879776165 20.102745165378476 24.254465014146493 0 -1 -1
721 241 1 -1.008448296097328 7.986575031270868 21.58694424584785 21.718083226197486 0 0 0
435 145 2 0.4346864653044119 5.8816965483525365 13.61134952167416 22.957221480035724 0 0 -1
1422 474 2 0.5168472380693551 11.923910206200192 14.274939946141282 13.113341390660711 0 0 0
1371 457 2 0.4979867404175555 7.792608848328999 20.279997022320092 13.00689526569704 0 0 0
723 241 2 0.516568534454422 7.9884087136866375 22.211919259701393 20.93744677496012 0 0 0
127 43 1 -0.7411728924477405 8.830985460131002 24.595351421841613 22.72795303352493 0 -1 -1
1410 470 2 0.5582871988870415 0.8939994859079095 15.107418032375799 22.914570642242644 1 0 0
416 139 2 0.5219926208467228 5.495393261559402 19.908951075288645 21.581453228483156 0 0 -1
111 37 2 0.4454286618236432 5.8005525540949785 22.36895037878426 24.473098854090825 0 -1 -1
982 328 1 -1.067222142877327 0.5225820570880823 15.718317687005856 12.921503889963086 1 -1 0
624 208 2 0.4609605244414524 7.951451037323868 18.93321872009441 20.257770691928098 0 0 0
722 241 2 0.4918797616429059 7.344218145281164 20.840178704538577 21.545719492577042 0 0 0
156 52 2 0.4458152721035755 8.639186867924181 20.640892837764177 23.639142467587032 0 -1 -1
980 327 2 0.5238597184982876 11.86043948522392 23.70827191620598 13.304673465960374 0 -1 0
228 76 2 0.4808323083207105 0.41246545037180765 14.058690825232064 16.311734214497562 0 0 0
1514 505 2 0.4557838370814402 11.08946439427345 20.272289746171257 19.66699515774724 0 0 0
439 147 1 -1.004311260921902 7.9288028053406725 13.080798461640741 15.978649060090682 0 0 -1
1333 445 1 -1.012954688438761 8.946974915046452 24.45010397039177 14.782923403779863 0 0 0
419 140 2 0.5009562906681605 11.513525650250473 13.25310787393055 20.037326651427854 0 0 -1
318 106 2 0.4534681620185137 2.477208961294485 23.0353300723673 23.60591488506695 0 -1 0
327 109 2 0.4735513524975868 1.537001552282331 13.051621407682562 23.073597154984704 0 0 0
397 133 1 -1.02311796033547 6.663821566021222 12.507429459206762 20.69720398041492 0 0 -1
110 37 2 0.4526096485285979 7.139539777693007 22.85243595813297 23.673096199282263 0 -1 -1
567 189 2 0.5265997772802234 1.463523736080882 24.551538227872612 15.096609068397125 0 0 0
177 59 2 0.5368532416176439 5.269529147562241 24.285050879806654 20.950671241966354 0 -1 -1
290 97 2 0.4749762128837749 0.7243789494882974 20.589386289227694 13.388530871520384 0 -1 0
176 59 2 0.4339781746982566 6.742452021751409 24.63087693362427 21.565123750536905 0 -1 -1
317 106 2 0.5424479572455998 2.3176438055379194 24.496036665438385 24.31832245670307 0 -1 0
434 145 2 0.4800620963151931 6.126029030244211 13.847432730142735 24.554474025837173 0 0 -1
428 143 2 0.5615578758424687 5.115230060476657 17.223021293613836 24.756556089902727 0 0 -1
276 92 2 0.5491949089168318 1.7970496580179467 24.522894766118558 20.654633834729967 0 -1 0
1334 445 2 0.438271815005603 7.96163457887538 24.289751876826653 14.841078604203396 0 0 0
1532 511 2 0.49388992989271 1.9841018852862138 20.093430535033328 24.61380295761114 1 0 0
335 112 2 0.543987502263946 3.4830258111195813 12.761958969469282 21.50685610288376 0 0 0
591 197 2 0.4224759566849138 0.14414100170089952 22.97061607381968 18.838530431889453 0 0 0
326 109 2 0.5662070859903848 0.033256227521675896 12.467542225097866 22.819692346374744 0 0 0
1335 445 2 0.574682873433158 9.287311495707254 24.759571272377393 15.670837476310867 0 0 0
1243 415 1 -1.070935151555179 13.16002524045025 1.625121492766165 6.4733483089644 0 1 0
781 261 1 -0.998723200225601 17.092293407202494 1.7538954306098415 5.900858910571437 0 0 0
882 294 2 0.414631785584837 15.582573589832345 3.022237664167145 2.3988411451418106 0 0 0
938 313 2 0.4378595877587193 14.500597307638394 2.194676650047913 0.8304966757751973 0 0 0
880 294 1 -0.8195365368288516 15.54890486450123 3.4824544064805876 3.28600368175032 0 0 0
881 294 2 0.4049047512440146 14.69804807121611 3.243008855107402 3.753656271373021 0 0 0
1196 399 2 0.4632393287282467 21.457824878763102 4.396200627427031 0.5339026396080111 0 1 0
783 261 2 0.5329707721730151 17.784034987240723 2.0679754570740436 5.250599175730729 0 0 0
921 307 2 0.5170292204385758 17.439891873532478 4.977372964861167 3.6710872378287145 0 0 0
919 307 1 -1.036766243309671 17.546035677654356 5.559467946286915 4.477244371877735 0 0 0
504 168 2 0.4066199268508991 13.133942265003176 6.584635021706332 4.272257182384897 0 0 0
1322 441 2 0.5962260711139581 15.900245354650178 10.580246164191996 9.669660355875259 0 0 0
1244 415 2 0.5627914230416968 12.611667759420108 2.4470902646680788 6.319524350008174 0 1 0
937 313 1 -0.8809231813562624 13.618624036767327 2.451637688235308 0.43542127328169655 0 0 0
1240 414 1 -0.9526444142506729 16.406146013675574 1.581260836464931 0.9101586051581391 0 1 0
1241 414 2 0.4581565610141797 15.973833414154345 0.6873030021280545 0.7921094371998679 0 1 0
920 307 2 0.5197370228710957 16.70517059043003 6.079972218845152 4.625607462531975 0 0 0
886 296 1 -0.9615276949086757 18.543155511884212 4.788324254616651 12.387902095347929 0 0 0
927 309 2 0.5451312569512532 15.865387268817821 6.0920321050720565 1.4234122067340602 0 0 0
123 41 2 0.5751443065010934 24.5827873423644 3.9240615402731143 6.643533276780079 -1 0 0
794 265 2 0.4950070742350826 18.847978489818765 6.963856940152921 3.7321849522512975 0 0 0
1210 404 1 -1.004198902788416 24.400488066181772 10.47745703388255 10.780905460895694 0 0 0
1242 414 2 0.4944878532364932 17.282651608763228 1.59380869642272 0.42894047133186536 0 1 0
237 79 2 0.5080391079008243 23.861380594560607 9.762138929093746 7.366976984006781 -1 0 0
910 304 1 -1.034139483051864 24.411657092366777 1.758966737771413 9.968073063747367 0 0 0
173 58 2 0.5824853836552759 24.221552553085033 6.545302906572478 12.05604615569457 -1 0 0
1269 423 2 0.4611269548112371 20.848291260729354 11.064559312068827 9.619774281137296 0 0 0
769 257 1 -1.027054420012268 21.990780035835424 1.5106160013102812 5.696659912941308 0 0 0
771 257 2 0.4941899381850201 21.760412294673365 1.9935933323923045 4.851879467603287 0 0 0
770 257 2 0.5328644818272481 22.786103422198437 1.942965415231997 6.121542361058836 0 0 0
43 15 1 -1.013821889007103 21.640921803665265 3.100943936972661 3.0756100094399574 -1 0 0
44 15 2 0.5730828242695958 22.305869788267717 2.640730061015764 2.4873602618986257 -1 0 0
45 15 2 0.4407390647375068 21.85120306031624 4.077755157967229 3.115760114956118 -1 0 0
1511 504 2 0.4132366389452705 21.26015688168237 0.17628906724101787 1.982352590478732 0 1 1
1354 452 1 -1.088650230458206 21.000003762909206 11.897637925993005 11.917728360225759 0 0 0
1054 352 1 -0.96992554579273 19.704270377635524 1.477971330496845 0.7294748533826382 0 0 1
253 85 1 -1.051209472075218 23.647183368101086 1.9594891626457664 1.707673580032392 -1 0 1
122 41 2 0.5763729146582484 24.706823167766466 2.3010056098769995 6.774642299496511 -1 0 0
37 13 1 -0.8081623401504613 18.192750010522854 5.13904725945333 1.4792728826699042 -1 0 0
1310 437 2 0.4785619002924485 13.887998096455446 10.5194046383133 5.553489490204947 0 0 0
1208 403 2 0.4561785626182214 18.78358578041595 1.5875943689119054 2.770249992891758 0 1 0
1207 403 1 -0.9524789523617232 18.80703352544566 2.1076799885098128 3.6240365885192722 0 1 0
431 144 2 0.5827860000312307 14.021188742535704 12.007805703119967 7.346216860563406 0 0 0
30 10 2 0.4131847136789835 24.628049300001155 9.536217434464872 4.91436800278767 -1 0 0
1292 431 2 0.5464392204595478 13.250346991999027 1.1328750690677298 9.72557063463575 0 1 0
822 274 2 0.4927661882678941 12.945891694880512 11.632593962533196 0.4352938859406439 0 0 0
1209 403 2 0.4963003897435016 19.71290682513086 2.5145330900588467 3.7417418050991715 0 1 0
1303 435 1 -1.08301727323889 20.621198674336107 9.951994064662573 6.540831896038918 0 0 0
1320 440 2 0.5070017723848969 18.044812398998832 11.670155319456015 3.5636526687645005 0 0 0
925 309 1 -1.17774976078856 15.710637149227177 7.070027528299094 1.5632969877730216 0 0 0
926 309 2 0.6326185038373068 14.896238375672562 7.354353389754241 1.0574275960589261 0 0 0
1250 417 2 0.6021857639840648 17.27284413425569 8.024580828636822 1.464441403990194 0 0 0
1251 417 2 0.5125537788274698 18.556614688332417 8.502353245017138 2.3534386034959 0 0 0
1249 417 1 -1.114739542811535 17.996741310956967 8.709023223158272 1.5510548294986968 0 0 0
821 274 2 0.5798300766869948 13.420198774324705 11.181844734044915 1.9314580699471158 0 0 0
1493 498 2 0.4144997558216631 14.588599397906444 9.551187632264678 3.210965841253686 0 0 1
1492 498 1 -0.9445413337237509 13.602469174381982 9.647523766596992 3.075847630762757 0 0 1
820 274 1 -1.072596264954889 13.377291637293693 11.941733445676366 1.2828298845746537 0 0 0
1323 441 2 0.5853000969287429 15.288273813494401 11.970738476455397 10.268552082691997 0 0 0
63 21 2 0.5770826456204911 15.237013801526437 7.42998807523587 3.479796528668693 -1 0 0
61 21 1 -1.072235212427965 15.524878475625547 7.575565167280489 4.426333183537615 -1 0 0
1355 452 2 0.5591525557177267 20.148424016883506 12.362996420180936 12.158830467187498 0 0 0
38 13 2 0.3371190369870721 18.021507492941467 4.358040174950176 2.0798512151637523 -1 0 0
968 323 2 0.503714503406572 15.855640702531817 0.27198930399073323 12.123822495229273 0 0 0
816 272 2 0.5038337396570681 17.043350009621875 10.357965561517915 1.9006398698572895 0 0 0
1494 498 2 0.5300415779020878 13.17872645261525 8.741967982944196 3.055816959893756 0 0 1
329 110 2 0.5731642325779237 18.42429074359231 8.705279781171932 4.9638943756156255 -1 0 0
62 21 2 0.4951525668074747 14.89598131077218 7.101613432011289 5.0426516953539595 -1 0 0
1321 441 1 -1.181526168042701 16.11163783952338 11.409009966546746 10.187785993706882 0 0 0
1512 504 2 0.4319290504995663 22.342653813703116 0.1628672426239081 3.2049193922883465 0 1 1
1260 420 2 0.5311142885946639 21.94805684572855 7.061378892411125 1.3425944831463963 0 0 0
970 324 1 -0.930614892426871 20.250472976391606 0.7167003589937501 11.972490346590005 0 0 0
793 265 1 -1.088616190822608 19.424265737494093 7.763706554345885 3.8998870755976713 0 0 0
948 316 2 0.5690254365185442 23.976767929683703 8.781214863444157 1.7320592995143447 0 0 0
863 288 2 0.4665771730770251 22.868049919354483 6.3502332612782615 3.658011972247323 0 0 0
941 314 2 0.5448048467268948 21.55943882707125 8.922468881706893 0.8980343302940794 0 0 0
940 314 1 -1.170043994816653 22.225219382529872 8.864418823240694 1.64191391868054 0 0 0
864 288 2 0.4569338100375847 22.491052430377838 6.970429112938933 5.120844613729475 0 0 0
862 288 1 -0.9235109831146099 22.1213334614874 6.668140992029149 4.242254734814341 0 0 0
795 265 2 0.5936091165875251 20.38522907248741 7.487088868336166 3.904633012582782 0 0 0
1259 420 2 0.3955044961808145 20.7522083750843 6.297118525351054 2.1503703584338094 0 0 0
1258 420 1 -0.9266187847754784 21.43071865302187 6.209208752864077 1.4210651589685792 0 0 0
942 314 2 0.6252391480897579 22.139399969654587 9.668932187924366 2.2296074389373373 0 0 0
302 101 2 0.4314920859559075 22.305904565439008 8.716651877285079 10.125388253106545 -1 0 0
235 79 1 -0.9281762764007808 23.366002028055764 9.559515155818355 8.211686449849314 -1 0 0
912 304 2 0.5120188667337351 23.60624912685386 2.1965902482240036 9.568330557225655 0 0 0
328 110 1 -1.125348370817418 17.68397646071028 9.088324931352613 5.516344893595934 -1 0 0
1305 435 2 0.481681795223207 20.094084089448184 10.171763262021983 5.719953029443546 0 0 0
815 272 2 0.4923645659984241 17.208097290862195 11.859001574503834 1.2790302181136992 0 0 0
330 110 2 0.5521841382394941 16.83846218526654 8.586172702738043 5.334853437458086 -1 0 0
814 272 1 -0.9961983056554922 16.75290569230285 11.311458532933091 1.9811609933693954 0 0 0
907 303 1 -1.040448154508848 21.92698493161588 11.002166298089273 3.312106204502779 0 0 0
908 303 2 0.5217865907433685 22.491246076677136 11.388463690355104 4.041745899308032 0 0 0
1245 415 2 0.5081437285134817 13.551087602541195 1.6526379571016285 7.3932958468593375 0 1 0
828 276 2 0.4774449300900782 18.962706500782083 5.145083982366517 5.583866918709413 0 0 0
826 276 1 -0.9652605529806924 19.813563984646343 5.040457782872101 6.098731269644915 0 0 0
827 276 2 0.4878156228906144 19.91723832658317 4.086751275564196 6.381018230157128 0 0 0
782 261 2 0.465752428052586 16.307579396750413 1.3868087457203984 5.401397513755091 0 0 0
898 300 1 -0.9150744595863046 12.817320144188376 5.796849218897525 12.075587213480604 0 0 0
39 13 2 0.4710433031633892 18.314445629634086 4.817156492951909 0.5403549362746525 -1 0 0
36 12 2 0.5760654766534753 15.750921626244411 4.392245403971662 8.358153568379644 0 0 0
125 42 2 0.5008639509956845 17.012349791477245 5.180451459845237 6.288714740929943 0 0 0
1291 431 1 -1.085466927930438 14.020153272392623 1.709992832657953 9.45294676013494 0 1 0
124 42 1 -1.049856231279269 16.586592715139027 4.492236759374548 6.8761514075899015 0 0 0
126 42 2 0.5489922802835843 16.656303556902675 3.5941339209270575 6.441937071753605 0 0 0
682 228 1 -0.7663464069715443 13.609915400390138 9.302488871554159 11.645075015829295 0 0 0
34 12 1 -1.127909225051152 15.412298892355887 4.339378814360554 9.297584335988207 0 0 0
1080 360 2 0.4831765263536554 18.86272627878055 1.8317372425894123 7.537000588717916 0 0 0
830 277 2 0.501526040120608 18.281499787335825 3.746225086260253 10.70094552544637 0 0 0
831 277 2 0.565752616261831 17.183867960155872 4.283062265619344 9.617589834587243 0 0 0
829 277 1 -1.067278656382439 18.067047574954355 3.827114613468616 9.727571223173396 0 0 0
702 234 2 0.3892699120876437 16.428104392244812 0.8026853726121504 2.9558291650517567 0 1 1
775 259 1 -0.8565895088916772 15.767296160978892 3.41137561969794 12.116869473159998 0 0 0
776 259 2 0.3777153341455837 15.183775656475145 3.71890125951247 11.365256407139338 0 0 0
35 12 2 0.5518437483976764 14.825735176797945 3.535451543337077 9.395739059911513 0 0 0
663 221 2 0.4777659119635881 16.935449834364388 1.5782888642154744 10.159545470041897 -1 1 1
843 281 2 0.5671252110841059 19.21025620681353 9.158266512511657 0.1699191928341781 0 0 0
1293 431 2 0.5390277074708905 14.871956298174883 1.3126232278811545 9.794296143905223 0 1 0
1309 437 1 -1.064939704203954 13.266149828744586 10.618940860000148 6.330269814267064 0 0 0
254 85 2 0.563835539119413 24.48287715520205 2.2764481238123513 2.1561636138899316 -1 0 1
121 41 1 -1.151517221159342 24.083510478797834 3.05963689973171 6.584515875406992 -1 0 0
971 324 2 0.544230747386414 20.92075804004088 0.32276191134823556 11.343585876699766 0 0 0
1349 450 2 0.4969683466662891 12.916827051520666 11.804360304139458 10.567784175052447 0 0 0
858 286 2 0.4756464569075371 12.882451023633621 0.8738754858402245 4.383425681493098 0 0 0
1078 360 1 -1.043343027001049 19.505848545715075 2.5528476177858015 7.794651468572376 0 0 0
1079 360 2 0.5601665006473936 19.082944806235613 3.148166299509528 8.47783408958792 0 0 0
267 89 2 0.4312863547634657 21.346970027415423 5.526287008315618 10.581711680006187 -1 0 0
683 228 2 0.3365742587515105 13.55928357982894 8.317949498326454 11.812732525783073 0 0 0
615 205 2 0.5153404435762353 22.047176753529452 3.5041127061490913 12.339169438506842 -1 1 0
936 312 2 0.5516866308430008 23.071484259796954 0.446181362300593 10.32965743011646 0 0 0
909 303 2 0.5186615637654791 21.77039667731372 11.695872000571072 2.6090820823764065 0 0 0
51 17 2 0.5241425922301002 22.815582780150635 2.9987195251058107 8.000961806796271 -1 0 0
49 17 1 -1.098016551605275 22.183611056305025 2.862957798737715 8.763963047454395 -1 0 0
266 89 2 0.5347769638868793 21.56975042534116 3.9666942000016183 10.151957675192929 -1 0 0
50 17 2 0.5738739593751752 21.25395335173471 2.755219637145663 8.411657157349648 -1 0 0
502 168 1 -0.9086548950099784 12.914904467625066 6.709447743589278 3.3045616584164024 0 0 0
265 89 1 -0.9660633186503449 21.247770224983704 4.575932433111124 10.87662858341829 -1 0 0
887 296 2 0.4218025480574524 19.251322528621767 4.8961413435888455 11.690144722715134 0 0 0
1089 363 2 0.5132878691247879 12.88752130652115 8.422650221606743 0.2458887619404912 0 0 1
255 85 2 0.4873739329558056 23.766322812257346 1.011547602370684 1.4123720553464305 -1 0 1
503 168 2 0.5020349681590796 12.728773186699895 5.819842949927453 2.887489893982749 0 0 0
900 300 2 0.4107324215590493 13.2677639192379 6.391930807620779 11.410028269723924 0 0 0
836 279 2 0.5469438254291905 13.135568048572887 4.994254713719332 5.959721200753997 0 0 0
684 228 2 0.429772148220034 14.555515012995059 9.558176986838602 11.443939838208468 0 0 0
1129 377 1 -0.8952922422358827 16.3688181487696 7.4791984967235665 11.253460616305757 0 0 0
796 266 1 -1.018699636505706 22.729161034506156 11.742806846598734 5.8885302472366625 0 0 0
1326 442 2 0.5533554340143528 14.578963473778007 8.537955942025635 8.737692359422086 0 0 0
835 279 1 -0.9813440425325533 13.991948484025023 5.509977961633108 5.9848703691031435 0 0 0
837 279 2 0.4344002171033625 14.736030692333346 4.906739854904046 6.271986814472486 0 0 0
1325 442 2 0.518091915539592 14.233064968708966 9.852676723319107 7.832975370787754 0 0 0
1131 377 2 0.4966232350696794 17.259773416361803 7.861289590785674 11.008112890983604 0 0 0
1324 442 1 -1.071447349553944 14.889613719189036 9.450279929469236 8.470949475180015 0 0 0
945 315 2 0.5008816249735017 17.895792296197868 8.870332117050971 7.418935682027283 0 0 0
997 333 1 -1.051826606303838 14.0643467873381 6.916915121722163 9.268140578689584 0 0 0
999 333 2 0.5282716504190126 14.569815100817324 6.061368017541965 9.380084028386396 0 0 0
998 333 2 0.5235549558848255 13.255039816495062 6.754522029879667 8.703657532000513 0 0 0
944 315 2 0.4078185790424957 16.790818022526803 8.644722529267924 8.599944363842555 0 0 0
943 315 1 -0.9087002040159975 17.76446519157261 8.76191513220449 8.404323599712638 0 0 0
1130 377 2 0.3986690071662033 15.854190421547328 7.272488288457276 10.421343081635825 0 0 0
15 5 2 0.3685279582539289 24.050178866966856 4.485849556561443 0.4787475190030744 -1 0 0
955 319 1 -0.9103757400276343 18.96234374173894 9.580600016973571 11.509888295629885 0 0 0
512 171 2 0.541994859587987 21.919671414066954 6.9488964789887975 7.776901177075534 -1 1 0
1268 423 2 0.5672700312096008 20.167387688705347 10.823224892071632 8.1552684390776 0 0 0
172 58 1 -1.049554314933442 24.77580496334081 6.367811581349464 11.242847843762634 -1 0 0
1304 435 2 0.6013354780156834 20.749017675206016 8.961953995263881 6.599767142997923 0 0 0
301 101 1 -0.934264935897719 21.458347126024705 8.720945596946791 10.656065509259177 -1 0 0
1056 352 2 0.4887282228289112 20.102242447596197 2.3374327982773466 1.050309103836958 0 0 1
1319 440 2 0.5726818704729447 17.929472890157616 10.848457889230774 4.970123240429444 0 0 0
1211 404 2 0.5213696947769602 24.082744467408656 9.868010177190754 10.054541961234523 0 0 0
1212 404 2 0.4828292080114554 23.898149512877833 11.340907884451369 10.735090552303522 0 0 0
956 319 2 0.5206511488147495 19.869797863016604 9.380760381694182 11.140318901225562 0 0 0
303 101 2 0.5027728499418115 21.023142724269434 7.822599234367343 10.596388538274896 -1 0 0
924 308 2 0.4279754149870385 19.10520067245877 5.704224150687536 9.307985192906603 0 0 0
511 171 1 -1.139860870684617 21.292744133964703 7.247436538880899 7.057299608542039 -1 1 0
1140 380 2 0.5004863695577569 24.00118211740041 6.106746515148063 7.581479928565094 0 0 1
1138 380 1 -0.9664273674416201 23.646222001108875 6.426089080364398 8.460123224343326 0 0 1
1139 380 2 0.4659409978838632 24.33013274239998 6.2695353719557 9.172687210005545 0 0 1
513 171 2 0.5978660110966294 20.78848015953848 6.458530235341857 6.706108652415767 -1 1 0
957 319 2 0.3897245912128849 18.599184788369495 10.404420669136613 11.074657888845092 0 0 0
1267 423 1 -1.028396986020838 20.3490062222277 11.498681395127198 8.8699457229574 0 0 0
798 266 2 0.4846636332931932 23.636562753133564 11.539550734970247 6.2563610146424935 0 0 0
797 266 2 0.5340360032125128 22.08837306832011 11.027749067406075 6.167946700116358 0 0 0
923 308 2 0.464568156252491 19.179503653450833 7.285148151043389 8.905731901792477 0 0 0
236 79 2 0.4201371684999562 22.515340778037924 9.081554525062737 7.99278128202885 -1 0 0
922 308 1 -0.8925435712395298 19.525542679123063 6.584171732372112 9.529333900274963 0 0 0
661 221 1 -1.045854501526458 16.516559325622936 0.6848392434746727 10.321622353702244 -1 1 1
1497 499 2 0.4647658452191869 16.77209334159808 11.354960798043923 12.365724010201502 0 0 0
1318 440 1 -1.079683642857842 18.376743599441355 11.612509362127076 4.505188128059219 0 0 0
939 313 2 0.4430635935975429 12.97841805513614 2.679434453933524 1.1690665104050866 0 0 0
700 234 1 -0.8029774620968119 16.15190467315526 0.02643820187401502 3.522732027594132 0 1 1
972 324 2 0.3863841450404568 19.58694489797045 0.01580668389382467 12.234238589452797 0 0 0
1076 359 2 0.6586017591425537 17.368663563242244 12.390259970430828 10.16366331162813 0 0 0
1257 419 2 0.4849260194625813 15.67820147444468 12.351052464217572 3.3274790473440086 0 0 0
832 278 1 -0.8968353147356347 15.357178041654054 4.681614963644903 0.019118123703208312 0 0 0
17 6 2 0.5636556032900126 12.412787482280505 6.224273868466338 0.1478672461625088 0 0 0
1144 382 1 -1.031898980787122 13.525967186032648 7.396638130586127 21.93443134656506 0 0 0
157 53 1 -0.9173071725407582 24.157476243048563 5.383119929950127 15.169063413569855 -1 0 0
1006 336 1 -0.9860984332061694 16.97072790216654 0.9439379931667843 18.605902308890848 0 0 0
1101 367 2 0.5688310745469924 14.717046843479373 3.7275948727291515 17.029967189885692 0 0 0
1099 367 1 -1.158808142284266 15.237801602809393 4.296481616745072 16.393435374144406 0 0 0
1100 367 2 0.589977067737274 14.62047614786505 4.677237755961182 15.7050136687488 0 0 0
930 310 2 0.498182485801396 17.447822066784788 5.402591572271774 14.958789075657068 0 0 0
1345 449 1 -0.8834712162677958 12.789504100564386 2.058891353142925 13.990397266750467 0 0 0
1346 449 2 0.4203167953376841 13.66495981155809 2.2033202299278147 13.529194494673183 0 0 0
1087 363 1 -1.123043340112168 13.574993939676833 7.767815729004057 24.744034397636963 0 0 0
331 111 1 -1.10757216886167 23.6887540663009 11.0528333862725 22.63460083841839 -1 0 0
210 70 2 0.6331877991517637 24.51807929088056 2.997601998111197 13.470957017429408 -1 0 0
1018 340 1 -1.094786396972979 17.289071418797587 2.5755937956760486 16.32069036043677 0 0 0
1020 340 2 0.5033122787973033 18.066360196616518 3.0948551024593205 15.965471765080265 0 0 0
1019 340 2 0.5914741181756761 16.465832634760357 3.1422176929122787 16.28596770399601 0 0 0
1359 453 2 0.5576089047326913 12.831938940291794 5.172472215681147 13.859991712684614 0 0 0
1424 475 2 0.4563177380086843 19.28002630614006 8.020110633907038 12.80803545661684 0 1 0
1136 379 2 0.4310194127736653 19.22162082022061 3.497532870929542 19.319660835653597 0 0 0
24 8 2 0.4874709141505494 17.812254518531144 0.6572909528646095 20.51152553295859 0 0 -1
98 33 2 0.4328137491321752 24.699413992548994 5.562732319834904 20.027850282871608 -1 0 0
888 296 2 0.5397251468512232 18.70230680671276 3.942000074645297 12.89633838362172 0 0 0
865 289 1 -0.9477342916161351 15.579278706387543 6.007820336590541 13.584379055502627 0 0 0
987 329 2 0.5353677352300668 22.243425334211008 7.390139274555486 18.22821648259751 -1 0 0
1195 399 1 -0.927589171134542 21.411658343652835 3.7435424362624685 24.589720481296705 0 1 -1
1085 362 2 0.5829963476551629 22.144357758536998 11.927623642508815 23.25367925248336 0 0 0
1197 399 2 0.4643498424062955 21.812284546327472 4.153724985488716 23.770428517846945 0 1 -1
364 122 1 -0.9990225164421157 19.473021260616658 2.692200744308978 13.98352341577174 -1 0 0
365 122 2 0.5450922115256495 19.86529155706653 2.0618132788002406 13.313653236419606 -1 0 0
366 122 2 0.4539303049164664 19.972453301780636 2.6148281827921704 14.846408994696185 -1 0 0
205 69 1 -1.117843213431493 21.311811749167077 2.9325092733460596 16.43476681056701 -1 0 0
207 69 2 0.5454156824127276 20.650575354914395 2.409225317511081 16.972289583865102 -1 0 0
206 69 2 0.5724275310187658 22.175022866081214 2.4299176528865454 16.38724176440808 -1 0 0
1145 382 2 0.396368168208064 12.530214073643192 7.3118815240036765 21.970242743357346 0 0 0
1471 491 1 -1.022055596917223 19.805071396916297 1.5047885878322322 18.329485616295607 0 1 0
1505 502 2 0.4842768771949666 21.315827775715977 11.733534404246901 19.308288854583783 0 0 0
322 108 1 -1.091577743438974 19.239825874861417 8.507246548020523 20.500010107766077 -1 0 0
1037 346 2 0.3966964975783345 12.495033728324637 7.815652145656053 13.444122969587164 0 0 0
1031 344 2 0.5547806623749689 23.083540954970587 6.260245878782439 14.107428277114252 0 0 0
1030 344 1 -1.06723031065421 22.79579944362105 6.775906824038782 13.300403487212195 0 0 0
1039 347 1 -1.166960512278826 20.92264227963543 5.529030176581428 15.82960486140111 0 0 0
1041 347 2 0.5995906720300836 21.305333549616904 4.616968846729615 15.976852685838395 0 0 0
1040 347 2 0.567369840248742 19.94594685596942 5.452333455732633 15.629170179438342 0 0 0
1004 335 2 0.5463104667282765 23.211501919167695 11.123228434937142 17.15326672396878 0 0 0
614 205 2 0.3859381200188826 22.545470229391075 3.3473853531342375 13.886321277456387 -1 1 0
306 102 2 0.4684260879656431 24.58878937281124 1.7945966730578076 15.913976036331956 -1 0 0
304 102 1 -1.069674077198003 23.68438610152616 1.9414986606790088 15.513395297585692 -1 0 0
613 205 1 -0.9012785635951177 22.765427804747272 3.141432113235171 12.932805505509656 -1 1 0
1423 475 1 -0.944648290256945 19.961488282219076 7.289423790204641 12.849226607748477 0 1 0
993 331 2 0.3841515171606254 14.581741876974084 6.684424773991537 16.165986892413656 0 0 0
991 331 1 -0.8701057651499847 14.097250141204643 7.408150602885131 15.674581680906808 0 0 0
994 332 1 -1.020151935400064 19.221170428117592 10.362441934197106 14.70149423615868 0 0 0
992 331 2 0.4859542479893594 13.117550972932616 7.341158331800022 15.863504878621255 0 0 0
1404 468 2 0.5069234303754413 15.000910746116997 9.679887071279541 15.659103141655336 0 0 0
1496 499 2 0.475070504498496 17.430818096826076 12.113600374430503 13.653026153969568 0 0 0
929 310 2 0.5235611454221469 17.919568790060715 6.570420544120899 15.998154199030605 0 0 0
903 301 2 0.5851952041556538 19.05988610891666 11.212867880476214 16.190496988075385 0 0 0
996 332 2 0.5269321157077396 18.522922935557723 9.97457219579155 14.099831619324483 0 0 0
995 332 2 0.4932198196923238 20.066931696461875 9.836244988935281 14.613204649578398 0 0 0
1506 502 2 0.5245283585273482 19.740229153485377 11.843724595596974 18.89356431774924 0 0 0
901 301 1 -1.180835790693601 19.083418474398446 11.641698874020543 17.09356985672068 0 0 0
902 301 2 0.5956405865379474 18.214341386574386 12.10571627588846 17.264985333022032 0 0 0
1091 364 2 0.5196543411724741 16.92138471559003 8.898075675166961 16.989824367055263 0 0 0
928 310 1 -1.021743631223543 18.170482947771262 5.69496574846197 15.585102887991981 0 0 0
380 127 2 0.5223412778198301 14.242341119974382 9.463153288834489 18.223930931570322 0 0 0
379 127 1 -1.035762285759839 15.236657263136486 9.56681234737404 18.199835156783287 0 0 0
381 127 2 0.5134210079400089 15.596665589453265 9.546038598323502 19.13254778973388 0 0 0
99 33 2 0.4492947218682911 23.29777548092301 5.375689054905188 19.21110452202035 -1 0 0
1495 499 1 -0.9398363497176832 16.940087027325234 11.29676975846629 13.34977516620081 0 0 0
617 206 2 0.578880406286833 12.853786390250642 10.946775759602215 15.013061193631803 0 0 0
1425 475 2 0.4883305522482607 19.498773047664717 6.405484626152775 12.916580637319354 0 1 0
220 74 1 -1.00532144190599 23.850249966800742 10.009753603005324 15.643730918821566 -1 0 0
1032 344 2 0.5124496482792411 21.82172811933733 6.620910196317895 13.135626365207447 0 0 0
1090 364 1 -1.119621254160335 17.544393955437208 8.116964713480229 16.948405145300516 0 0 0
697 233 1 -1.193550402224987 21.13923421455486 8.225599607802105 15.574081008791469 -1 0 0
1092 364 2 0.5999669129878612 18.442040325234277 8.387740396646814 17.29611468432515 0 0 0
135 45 2 0.6638357653907365 21.6396226960944 10.623941097555015 12.78739014296219 -1 0 0
293 98 2 0.4883248539192148 21.024667188973023 11.860561774855903 14.647392713430591 -1 0 0
1086 362 2 0.533064969480978 20.528196309020352 12.156031818646225 23.203667131281513 0 0 0
1055 352 2 0.4811973229638186 19.737818088303232 1.4474531805971893 24.542512888352547 0 0 0
134 45 2 0.5119887007586472 22.2398018847203 9.108157437113487 12.881380431694174 -1 0 0
133 45 1 -1.175824466149384 22.10259057309666 9.964342016149368 13.379488273347183 -1 0 0
305 102 2 0.6012479892323603 23.38992141630559 1.1105550699174438 15.04136383945716 -1 0 0
841 281 1 -1.085870347131828 20.06271145105361 9.499211732238837 24.585711011650584 0 0 -1
840 280 2 0.4805276170575936 21.474578136523096 5.635181378534123 20.209710487046653 0 0 -1
699 233 2 0.6663031549876365 20.99532941020041 7.2360653343089005 15.584265712941372 -1 0 0
698 233 2 0.5272472472373514 21.598464624289864 8.486936685233951 14.725081148917134 -1 0 0
222 74 2 0.5497703848314646 23.10980848969477 10.02923839622602 14.971899718930631 -1 0 0
1128 376 2 0.4624248869382999 24.57550374509024 2.8504061576546733 19.38216952848566 0 0 0
1008 336 2 0.5133618812999391 16.773151598135552 1.6402503605723264 17.915900069462424 0 0 0
1137 379 2 0.435139754186065 18.151768366547444 4.71922409286538 19.147801521935467 0 0 0
1122 374 2 0.5671163922959944 14.35983231565295 2.7581778529854226 19.215253402042716 0 0 0
788 263 2 0.5082537178018892 16.609353980528862 5.670246023920469 20.408916400065987 0 0 -1
985 329 1 -1.048586525123801 22.859561173809062 8.16993633110691 18.117385182464194 -1 0 0
1135 379 1 -0.8661591669597302 19.088192770053872 4.484582934614857 19.408652557404157 0 0 0
1214 405 2 0.4657269328493721 12.782852091012419 1.8624863035987265 23.42026436823462 0 1 -1
1103 368 2 0.5589636075777532 16.430796894778837 5.351718484153456 17.766930765296493 0 0 0
779 260 2 0.3957642608433278 15.447014321604174 1.634564159476025 22.824779034088195 0 0 -1
778 260 1 -0.8726344596661828 15.044370571416525 0.7192974096117161 22.812321652323465 0 0 -1
780 260 2 0.4768701988228549 14.832957871558762 0.46093818968196865 21.869694693686633 0 0 -1
1120 374 1 -1.11561173430858 14.062256124158058 2.466862675276234 18.30609209796949 0 0 0
1121 374 2 0.5484953420125851 14.319354614977902 1.5113661782704353 18.16146426676026 0 0 0
978 326 2 0.5371486864148786 15.50506479167285 4.080405088822382 21.131499031529398 0 0 -1
976 326 1 -1.020311744713845 14.897900804203596 3.328629591640949 20.87425227549382 0 0 -1
977 326 2 0.4831630582989666 13.992184119335402 3.4814365733041917 21.269622623950973 0 0 -1
787 263 1 -1.066490755339911 16.655630256870662 5.480634834073309 21.38967962443029 0 0 -1
789 263 2 0.5582370375380211 17.594678963451354 5.606503352319699 21.70957811163579 0 0 -1
1148 383 2 0.573447960377714 18.627806153370692 3.0811335535547317 23.506467450157995 0 0 0
1149 383 2 0.4318417217878885 17.212612751238805 3.7220344180202196 23.003354088590857 0 0 0
1102 368 1 -1.175343919313139 16.623763543605428 5.990229696808646 18.511952713353722 0 0 0
1147 383 1 -1.005289682165603 17.850943696413804 3.652991820757052 23.770007284976224 0 0 0
97 33 1 -0.8821084710004662 24.066352510507304 4.896050513059843 19.634456170303938 -1 0 0
866 289 2 0.5049529087934979 15.831159125586424 6.42351568812594 12.710454557351506 0 0 0
708 236 2 0.5344690672574377 14.46316377252236 12.374752278889739 15.527673608048795 0 0 0
1504 502 1 -1.008805235722315 20.403551118821095 11.990256709020926 19.627405383220044 0 0 0
1402 468 1 -1.033251355624378 14.708162179754373 10.511106851543962 15.186490876555833 0 0 0
838 280 1 -1.012221031682626 21.327694508624983 6.196093792371212 19.394975644787138 0 0 -1
315 105 2 0.5669329942311189 19.116626139220013 1.0819657309774333 22.088161615929508 -1 0 0
313 105 1 -1.101362809399445 19.656578819856513 1.7830531410102142 22.553906122606396 -1 0 0
314 105 2 0.5344298151683267 20.61577528510218 1.699117307306204 22.283929612121955 -1 0 0
1519 507 1 -1.086229347568697 21.8131246293566 2.164250931927877 20.710824940341418 0 1 0
1357 453 1 -1.09455531347955 12.837750698814153 4.723876682044315 14.753702331395598 0 0 0
349 117 1 -0.9109022248596319 24.329414586761484 2.186773397918742 23.11721411676764 -1 0 0
1521 507 2 0.4864531054216334 21.201224338423543 1.9553186785768042 19.947990917241768 0 1 0
1110 370 2 0.6108451334764922 21.970309941597584 3.836815593749391 21.556864262010006 0 0 0
1520 507 2 0.5997762421470635 22.722930054802735 1.7963396635417646 20.51876821498137 0 1 0
1108 370 1 -1.169478646354361 21.915997806687745 4.771896822112353 21.907098023514028 0 0 0
324 108 2 0.4972018012554995 19.42683992113663 7.611556672661732 20.903440142602662 -1 0 0
834 278 2 0.4369857175845899 16.180227639881085 4.166791229624404 24.591346573080553 0 0 -1
1109 370 2 0.5586335128778692 22.82871030625059 5.1804802837787385 21.909516148193685 0 0 0
362 121 2 0.5707272658041642 20.074941586323636 5.312010548014162 21.866856257559323 -1 0 0
363 121 2 0.4100523330152276 19.27522108463128 5.790137152218753 23.207934707025316 -1 0 0
777 259 2 0.4788741747460935 15.992604442417893 4.189057021819984 12.703677456036134 0 0 0
350 117 2 0.3976029755163221 23.73178285561202 2.1572593994462155 23.91843545769043 -1 0 0
388 130 1 -0.9004115574803181 24.605819288694434 6.356144711567832 22.292621441195596 -1 0 -1
1302 434 2 0.4708092909723858 16.05113234821395 11.330498318583231 17.479689180164723 0 0 0
351 117 2 0.5132992493433101 24.072295891496957 1.458018263145305 22.482551742414582 -1 0 0
1146 382 2 0.6355308125790577 13.846273195258846 7.177046238143612 21.012925046771088 0 0 0
1479 493 2 0.4692329129534732 16.66633241760889 11.57931437305167 21.082779169080286 0 0 0
1358 453 2 0.536946408746858 12.730972830232089 3.7370689980573597 14.632049214139293 0 0 0
1473 491 2 0.5015404782994907 18.848278597396746 1.320376208061539 18.554274433427604 0 1 0
1300 434 1 -0.9806278708438594 16.52171327964057 12.16615963460012 17.76291020908597 0 0 0
33 11 2 0.4503988072722837 16.10718922885232 9.84358140996463 23.70286610492622 -1 0 -1
681 227 2 0.4632302444543897 12.717684402262082 9.918153998361236 20.240343924275333 0 0 0
333 111 2 0.5952106353322483 23.258324064175532 10.34083780193595 22.07981916921117 -1 0 0
32 11 2 0.3298822145304365 17.38394620566824 10.861687787929506 23.702263280738375 -1 0 -1
31 11 1 -0.7802810218027201 16.39607480142966 10.790998080491562 23.840478523323583 -1 0 -1
1220 407 2 0.4791734948646806 16.214619447509506 7.130674429537822 23.998643535190897 0 0 -1
1450 484 1 -1.051393881873321 14.138136735369482 6.703105913654674 19.493773722812477 0 0 0
1451 484 2 0.4803784854612664 13.485305075305728 6.601149702644372 18.743169863251797 0 0 0
680 227 2 0.4402663352584828 13.93753587851836 9.879256254555761 21.32528571050155 0 0 0
1472 491 2 0.5205151186177319 20.32782592427333 0.6534340443558322 18.373229698896235 0 1 0
1443 481 2 0.5245984396311231 17.37098455334313 9.31931546980977 20.407806731926303 0 0 0
1441 481 1 -1.001239407970988 16.455772462307227 9.46195926307851 20.784675377473157 0 0 0
1442 481 2 0.4766409683398646 16.396258486475194 9.034125126558111 21.6865658573216 0 0 0
1452 484 2 0.571015396412055 15.05108481884767 6.443272867172492 19.17912632625268 0 0 0
802 268 1 -1.178649848648976 19.750832465150577 10.803315596869927 22.08504498382119 0 0 -1
679 227 1 -0.9034965797128727 13.136378428857059 10.391272776050535 21.015485416923077 0 0 0
332 111 2 0.5123615335294223 24.46936496193351 10.666356246167698 23.12579575810792 -1 0 0
1221 407 2 0.4769841241851361 16.261088565278246 7.253510337326031 22.370945375534436 0 0 -1
1104 368 2 0.6163803117353859 17.028533050622357 6.825126448656651 18.138992314282095 0 0 0
1219 407 1 -0.9561576190498166 16.324671111634704 7.7610635546870945 23.23021098678507 0 0 -1
1082 361 2 0.4899068464628331 21.013214840317715 8.13441646215693 23.779697808226 0 0 0
42 14 2 0.4986941469980474 22.490386433339072 8.39205364505813 21.774517930615584 -1 0 -1
40 14 1 -1.021182983536667 22.54214772406105 9.03540946668142 21.010708756214765 -1 0 -1
1007 336 2 0.4727365519062299 17.093838265931247 0.0575889952352604 18.15942899646855 0 0 0
1005 335 2 0.4935010910666339 23.131732968128 10.459028627662603 18.642939462715013 0 0 0
986 329 2 0.5132187898937345 22.932210189628936 8.402140751368181 17.147440015434512 -1 0 0
1081 361 1 -0.9101283047105508 21.615276489463355 7.509066811987077 23.283260516120205 0 0 0
1088 363 2 0.6097554709873798 13.647549081979806 7.812498754168183 23.747676240185367 0 0 0
1440 480 2 0.5471644779406908 17.133864408006154 0.8238295921976813 15.525866791148392 0 1 0
389 130 2 0.4099506143587516 24.250354428491733 6.894894156901461 23.056417335166202 -1 0 -1
361 121 1 -0.9807795988193917 19.31553144970133 5.863848064638444 22.211474885862994 -1 0 0
839 280 2 0.5316934146250324 20.523997649879064 5.863365377476755 18.901666856606283 0 0 -1
281 94 2 0.6684808611767148 20.3939967280093 8.872022942638424 16.90441844601434 -1 0 0
1003 335 1 -1.039811557794911 22.828388547519143 11.221693508947398 18.071699722612024 0 0 0
804 268 2 0.600796746161239 20.235086869735184 11.26664755061314 21.342878175338367 0 0 -1
803 268 2 0.5778531024877368 19.52989995998358 9.868649097434039 21.80651713543691 0 0 -1
842 281 2 0.5187451360477223 19.854806213685404 10.097569535262835 23.811932134213322 0 0 -1
282 94 2 0.5251395178056798 19.755484076612646 10.045342834689583 17.84371145834918 -1 0 0
41 14 2 0.5224888365386194 22.512649957630547 8.531222923719056 20.147623470160188 -1 0 -1
1083 361 2 0.4202214582477179 21.140620818656373 6.642819105517001 23.127352515879792 0 0 0
280 94 1 -1.193620378982394 19.961165110417625 9.068539389727425 17.784207327604253 -1 0 0
159 53 2 0.4321507470831511 23.744781661233787 4.822581410235329 15.887025912165257 -1 0 0
323 108 2 0.5943759421834742 19.791200192292134 8.622360070126957 19.67373797436282 -1 0 0
867 289 2 0.4427813828226372 15.006315807660245 6.64271328399623 14.102659733657973 0 0 0
1126 376 1 -0.9972167974106322 24.445925273305917 1.8960790319535452 19.65135265599157 0 0 0
1403 468 2 0.5263279252489363 15.37990644800863 10.75002754694046 14.485301216969006 0 0 0
221 74 2 0.4555510570745256 24.68979848543593 10.35544308018984 15.224627745898738 -1 0 0
1150 384 1 -1.009949950955166 12.406654184660052 4.24044676022882 22.124869922488593 0 0 0
1301 434 2 0.5098185798714737 16.349281049044894 12.33315669190127 18.73370181544085 0 0 0
833 278 2 0.4598495971510447 14.548071531052315 4.13031906813637 24.6277426305656 0 0 -1
1181 394 2 0.437869201249116 23.13659359117398 24.604398556767787 5.444147679853754 0 0 0
1276 426 1 -0.9544832087399419 18.130768493765046 16.385117730282932 2.2155762095723723 0 0 0
1277 426 2 0.5035166083137715 19.02152516231203 16.027884544765936 2.4965164308599235 0 0 0
1278 426 2 0.4509666004261705 17.85141921226957 15.948947753675892 1.3601756427224239 0 0 0
456 152 2 0.4419076102139248 15.647874107771171 17.016406476563308 2.978962092740352 0 0 0
454 152 1 -0.9281586240522159 15.179262669260263 16.881102212251083 3.8519377367810836 0 0 0
455 152 2 0.4862510138382911 15.635529975919635 16.154873303438485 4.366138199841278 0 0 0
724 242 1 -0.8491255241257732 18.71602979858909 13.078382968348008 0.6956246314696459 -1 0 1
969 323 2 0.4065368724933123 14.569308195918381 24.085480604529124 12.245425718930163 0 -1 0
1480 494 1 -1.107239423720397 22.114378468175154 24.00106420570689 7.395674931304202 0 0 0
1200 400 2 0.4485695026961878 20.7071597652057 24.66100223198901 0.1016669876867251 0 0 0
1273 425 1 -0.8505661443158996 16.477722007865353 18.389233114041957 7.293241456525302 0 0 0
656 219 2 0.4925144554095402 13.104111323174115 16.00785254986547 11.56487052336231 0 0 0
884 295 2 0.594989138050552 19.01356041377783 23.642551949312317 6.332948751735351 0 -1 0
72 24 2 0.5031913035809662 15.05130249983484 19.341064792358765 6.182155453141267 0 -1 0
731 244 2 0.5204791812485678 14.817654740860368 12.988100645062282 0.4435056695288164 0 0 1
1314 438 2 0.5445212975007693 16.536393347211664 13.996151773211048 5.116160428126778 0 0 0
1132 378 1 -0.9056160186317397 12.54650345120134 13.734325077769242 4.678391606226476 0 0 1
608 203 2 0.4558462112085164 13.519003089098106 17.10434745304112 5.058526930269606 0 0 0
563 188 2 0.4929260422173063 23.645075823717985 15.775237820614862 11.87844495267239 -1 0 0
1134 378 2 0.4329755130712279 12.786974731781864 13.911134809084734 5.632803614460268 0 0 1
543 181 2 0.517473017057322 23.504826650419922 12.527521064970454 1.3130637207168432 -1 0 0
934 312 1 -1.089740047833457 22.387610438115296 24.532159832361128 10.256913707447849 0 -1 0
607 203 1 -0.9150530657997161 12.702509430969725 16.991837967895744 5.62480435461314 0 0 0
749 250 2 0.5368471829273341 21.29806682106734 13.885907100492934 2.0514708684391887 -1 0 1
750 250 2 0.5546224415102065 21.342162789276333 13.14446570451445 0.5971773836105516 -1 0 1
748 250 1 -1.09146962443754 21.722107059551128 13.151054546795478 1.5221581066397292 -1 0 1
895 299 1 -1.11283132642685 20.52227136222485 15.198558044905079 3.3257239299829013 0 0 0
896 299 2 0.4489317567866445 21.15157315774463 15.884758606267408 3.6905505176575715 0 0 0
897 299 2 0.6638995696402051 20.374602780816026 14.48442467364956 4.009973823995807 0 0 0
549 183 2 0.4915497956343411 23.698744451117882 13.236511408260432 7.229423548825373 -1 0 0
462 154 2 0.3980348003404681 22.946134852297355 14.917886547397549 2.8957416091831427 -1 0 0
542 181 2 0.4516734443074711 24.57572579317171 13.237760731994337 0.3054010889114328 -1 0 0
541 181 1 -0.9691464613647932 24.393858228029917 12.429751140276204 0.8657894254903459 -1 0 0
747 249 2 0.4208601894672508 20.973749246231 17.41983545065622 1.055656623469529 -1 0 1
733 245 1 -0.9277505742360646 22.283368465703237 17.32597105288562 4.839648970301139 -1 0 1
735 245 2 0.453733447482611 22.232255642401 18.15671835616661 4.285359518193124 -1 0 1
460 154 1 -0.9015272041322648 23.935319472706563 15.05729573427439 2.9412307803448905 -1 0 0
1316 439 2 0.6284195919866041 19.523108573133797 12.796602516573667 4.966120454953135 0 0 0
1338 446 2 0.3980246254772483 22.935578835553383 20.930856757922193 7.427027327331687 0 0 0
467 156 2 0.4968909087841622 15.674527293724973 20.861010383238032 0.4781128895651239 0 0 0
726 242 2 0.3595279006666617 19.488145829476274 12.589326822896846 1.1013971302619965 -1 0 1
1434 478 2 0.5718861763941163 21.37417058294792 22.398401113321974 7.621705296648187 0 0 0
1412 471 2 0.4691518083879778 20.260991643357208 20.754958575062894 0.6167420415108651 0 0 1
1199 400 2 0.4165451928907915 22.231686881714815 24.078941996795237 0.162266424418772 0 0 0
1156 386 1 -0.9023700511787747 18.866461959545546 19.51797567316148 1.64729319920938 0 0 0
1230 410 2 0.6536724296265553 13.902213118428891 23.216340691008412 1.781685585490439 0 0 0
1160 387 2 0.5060947610616636 17.391559111419024 22.260704139903837 1.772448135560973 0 0 0
963 321 2 0.500150090764344 13.718718709971254 23.30657203503253 5.983141310555976 0 -1 0
1159 387 1 -0.9328088556719477 18.139371461041446 22.789643658903085 2.1736838198236943 0 0 0
468 156 2 0.5107344778939577 15.349562959643286 20.46208620963413 2.0279215949822365 0 0 0
1158 386 2 0.426579130066676 18.910409817331796 18.51941961534752 1.6780305467164869 0 0 0
466 156 1 -1.00762538667812 16.009308113470514 20.903112939371788 1.4194627590770772 0 0 0
1165 389 1 -1.028423566130538 13.760815129745328 19.313493638727703 2.7022256165948093 0 0 0
578 193 2 0.4933518889800903 22.994360357140927 20.268442148217364 0.8708836406579583 -1 0 1
1166 389 2 0.4662472351286921 14.047914773760834 19.123883933762638 3.641167762587711 0 0 0
649 217 1 -1.040786177467868 21.030868297469123 20.681412452690243 10.475106019555783 -1 0 0
844 282 1 -1.019621457392501 14.647202449192715 22.07338608812201 4.792502772602968 0 -1 0
845 282 2 0.4989682151798761 15.5739886108626 21.77302771020648 5.017985930922834 0 -1 0
846 282 2 0.5206532422126249 14.021170252765362 21.29583578557526 4.851575739165947 0 -1 0
70 24 1 -0.9672601660741059 14.151648262846994 19.453082728149177 5.760178397765219 0 -1 0
423 141 2 0.4766004492839786 18.233415897504397 18.073381487786893 4.120457663720001 -1 0 0
421 141 1 -0.9659699944859284 18.826900855928713 18.73472562254241 4.579140494095515 -1 0 0
422 141 2 0.48936954520195 18.271207341833975 19.348455967908613 5.139970397811811 -1 0 0
1247 416 2 0.3761076446534913 18.377149588660323 21.081245927111564 6.6987707851307645 0 0 0
1246 416 1 -0.9264556712210363 17.57508094051084 21.093937538443033 6.101681842015805 0 0 0
1161 387 2 0.4267140946102841 18.547209834523787 23.37486767893433 1.472847814165818 0 0 0
1229 410 2 0.6324464512814753 13.851372972554126 22.91202672887357 3.3852620975767183 0 0 0
71 24 2 0.4640688624931396 13.597865878099153 18.638940155072653 5.9347846415828585 0 -1 0
1157 386 2 0.4757909211120987 17.910560519880722 19.810514500787 1.6730588994895472 0 0 0
961 321 1 -1.056770342859274 12.809082133029722 23.696416628194292 6.126573839660591 0 -1 0
962 321 2 0.5566202520949295 12.86211906226991 24.693734694102993 6.076233409769662 0 -1 0
1228 410 1 -1.28611888090803 13.31507096000748 23.19737755318295 2.590941345149143 0 0 0
321 107 2 0.4842110946070578 23.890251728486927 23.015047966811924 1.787321083842966 -1 -1 1
734 245 2 0.4740171267534537 21.378294791951443 17.115627864989204 5.209226820989976 -1 0 1
746 249 2 0.4513714607901159 20.83089306089093 18.896068548262825 1.7390139896684726 -1 0 1
1162 388 1 -0.9983100212654232 23.61446673630812 21.488827751635267 4.23873740134587 0 0 0
745 249 1 -0.8722316502573667 21.45842738335635 18.140404164449684 1.5514975570636045 -1 0 1
1163 388 2 0.4968669201713763 23.781321756547346 21.25810031727863 5.197337762595952 0 0 0
1164 388 2 0.5014431010940469 22.66117687463511 21.292065917276872 4.00957889833105 0 0 0
459 153 2 0.5431875663569542 20.22531752427287 19.870410842054987 4.565743940728529 -1 0 0
458 153 2 0.4896792510200608 20.37278756602253 21.475548726479015 4.827343437804615 -1 0 0
457 153 1 -1.032866817377015 20.87296351911901 20.615938710785404 4.72301206095222 -1 0 0
520 174 1 -1.078639189207185 19.688516777215685 23.26021340514544 4.650763012438181 -1 0 0
522 174 2 0.5622236332513355 20.385640955430823 23.789599489433492 4.167277073404961 -1 0 0
521 174 2 0.5164155559558493 18.886588757900988 23.150277100005756 4.063552777528196 -1 0 0
579 193 2 0.4540655839260081 23.710771667192745 18.801133969423933 0.8506134316567444 -1 0 1
1356 452 2 0.5294976747404787 21.54642993056931 12.488677341794508 11.324304787930533 0 0 0
1180 394 1 -0.9272204369746967 23.934071238859122 24.158723682412383 5.0374614283728345 0 0 0
743 248 2 0.4866331813607853 13.517364148743603 16.44264119140325 0.5437482706476494 0 0 1
1238 413 2 0.5353339494086887 12.461204521231837 20.668812708356374 8.004956759366458 0 0 0
319 107 1 -0.9437039446087083 23.99993311270539 23.862708080409195 1.2682519891119781 -1 -1 1
1350 450 2 0.609211682559502 13.261063881404858 13.274434679222704 11.189908900989616 0 0 0
1256 419 2 0.463059507734623 14.24898411440654 12.864983547964659 3.927363967159326 0 0 0
1075 359 1 -1.184447839526634 18.175883918464358 12.972353171877272 10.065922827295669 0 0 0
1400 467 2 0.5526556375840505 21.393408963859272 16.758064210693025 11.708136331549923 0 0 0
75 25 2 0.4974961981594923 12.969480158318355 20.8200070963126 1.2085710553069164 0 -1 0
857 286 2 0.5923011097143287 12.450868216316946 24.535799199917758 3.30755854188972 0 -1 0
432 144 2 0.5308765920322281 13.80127817366665 12.755850686205747 8.78107402027879 0 0 0
655 219 1 -1.026319633913753 12.744761560885058 16.9002398684821 11.291918107641713 0 0 0
1427 476 2 0.5219851827065288 15.59691419578947 15.318194022497051 6.65438877649833 0 0 0
1275 425 2 0.3940757609230286 16.114796043004116 17.493732617967304 7.550834167781367 0 0 0
1184 395 2 0.5380817599174131 13.882971022325055 16.910861476750235 8.11107987452099 0 0 0
1469 490 2 0.4464816330533478 14.56520172177001 18.626723402887936 10.086783974279001 0 0 0
1468 490 1 -0.9648337064227714 15.208732353648951 18.72717689695537 10.845577635754731 0 0 0
1401 467 2 0.4417625413249077 19.77454723430987 16.566167422996884 11.612681307744332 0 0 0
430 144 1 -1.113662592063459 13.787512744715393 12.873887299803435 7.788165026388156 0 0 0
1428 476 2 0.5755127575926379 14.513714534982533 14.524330520746679 7.583425144738905 0 0 0
1274 425 2 0.456490383392871 17.119114342914266 18.70292249419148 7.993388044501396 0 0 0
1351 451 1 -0.9658376935054394 18.30105055962624 15.362278318083991 8.506073616573175 0 0 0
1352 451 2 0.3875832302623558 17.36462352329406 15.67877830010719 8.354671614148504 0 0 0
1353 451 2 0.5782544632430836 18.28713058234956 14.540157530650403 9.075208086127551 0 0 0
1426 476 1 -1.097497940299166 14.87290009544229 15.42418847214186 7.335974544010808 0 0 0
1185 395 2 0.5630442717875783 13.162460310860775 17.293567443771106 9.525664546984753 0 0 0
1313 438 2 0.4519365878657704 17.794238343529734 14.810586885667057 5.765137123343114 0 0 0
118 40 1 -0.9720362234647397 14.928661884097371 23.618033284226982 0.21535081531599276 0 -1 0
1183 395 1 -1.101126031704991 13.379829330076232 17.619565006377986 8.605628298789927 0 0 0
701 234 2 0.4137075500091681 16.831581801510485 24.10932561870985 3.4434557292103602 0 0 1
1312 438 1 -0.9964578853665395 16.865684455255792 14.895498269665042 5.40379499630612 0 0 0
1373 458 2 0.5591692500591672 16.535301496780356 17.590859058256704 11.761270437208148 0 0 0
577 193 1 -0.9474174729060985 23.832134002377174 19.771934743962273 0.6437138446901708 -1 0 1
1432 478 1 -1.002154389125401 20.78723541519961 21.59886405065629 7.749133682877599 0 0 0
1411 471 1 -0.9643609424617495 21.16544267237163 21.102376671843906 0.3692356749734208 0 0 1
83 28 2 0.4530791578810331 13.020328981835087 14.677516017974835 2.5019579079195258 0 0 0
1285 429 1 -1.20251253150062 24.401357475572862 16.849764409525466 6.6077498002622965 0 0 0
1372 458 1 -1.051172450492083 17.174331264660054 17.021908687941778 12.278886927686157 0 0 0
1317 439 2 0.5451360283043225 21.092147399676552 12.820100875099316 5.418021247213716 0 0 0
1391 464 2 0.5053224660611726 20.940764319156727 13.183101824831583 8.139810305432876 0 0 0
529 177 1 -0.9974851685844851 23.26868866700762 13.291207262090927 10.455725742345704 -1 0 0
905 302 2 0.4496293869146115 18.858906493270954 13.81446877945751 11.727678851713149 0 0 0
1315 439 1 -1.173555620290927 20.31250222623341 13.383773145382374 5.145225765994605 0 0 0
530 177 2 0.464443216150889 23.555176335092487 14.205130673984936 10.74323089457793 -1 0 0
1392 464 2 0.4208506791542609 21.630909587032345 14.314457332582935 7.185670083868502 0 0 0
1283 428 2 0.4209572114792395 21.23234895936034 17.671898112844108 9.818343231300764 0 0 0
1284 428 2 0.4578132423527758 21.25814548954209 17.60510371469915 8.186925937808926 0 0 0
1390 464 1 -0.9261731452154334 21.796690436480155 13.647216179801735 7.911821826498253 0 0 0
1282 428 1 -0.8787704538320151 21.42292035581052 18.187475896667205 8.982967572680232 0 0 0
1413 471 2 0.4952091340737718 21.150391915278913 22.10225709528778 0.3709714334166024 0 0 1
531 177 2 0.5330419524335961 23.140077492438195 13.278738785825809 9.464113871597746 -1 0 0
1286 429 2 0.5953914600960165 23.657375355211975 16.875878340555975 5.940067940000863 0 0 0
562 188 1 -1.052202426181909 23.075811409100023 16.2185483187275 11.186054724661147 -1 0 0
1336 446 1 -0.8160200448263921 23.889011261451436 20.70997766697316 7.221675347159965 0 0 0
1013 338 2 0.4292754414129352 18.671486363253273 19.50616337935369 10.43053616655101 0 -1 0
1012 338 1 -0.8018418861123393 18.243692845940174 19.411337669471912 9.531652864546142 0 -1 0
1014 338 2 0.372566444699404 18.90723591567963 19.03570981480249 8.884656180837442 0 -1 0
1231 411 1 -0.8869510527793792 16.406535578524352 21.36756136782284 11.311758585113035 0 0 0
1470 490 2 0.5183520733694239 15.540782653852823 19.66986002970048 10.878463935409657 0 0 0
485 162 2 0.4664393270099261 24.136373973903364 23.725359578391444 7.920203676421311 -1 -1 0
650 217 2 0.5523794294854784 20.75242050450019 20.97987067701609 9.562209577315055 -1 0 0
1239 413 2 0.5970195354538644 13.314801011928125 19.40091893863404 8.579820010816631 0 0 0
564 188 2 0.5592763839646026 23.652791743331456 16.536074635274534 10.433551481118021 -1 0 0
1182 394 2 0.4893512357255806 23.719221599318264 23.201025113864347 4.846036551402904 0 0 0
883 295 1 -1.083672002518211 18.41320293244858 24.054244348767146 7.01856574552698 0 -1 0
870 290 2 0.5541290774608295 14.531627754905998 21.45150618231294 7.834691836097462 0 -1 0
869 290 2 0.4057403781227634 15.650320316479776 22.540521235520163 8.31346370731034 0 -1 0
73 25 1 -0.900822643102964 12.549299022032738 21.346514230920302 0.46949835979615345 0 -1 0
1237 413 1 -1.132353484862553 13.17742058231114 20.389323762612765 8.644418159602559 0 0 0
1232 411 2 0.4321351730990541 15.814175272346162 22.17187554414753 11.358431626156408 0 0 0
1483 495 1 -0.954931730513742 13.261704722440385 21.962425524952966 11.074043851839074 0 0 0
1485 495 2 0.4933250933032856 12.961015154119693 22.76196135764315 10.554122093225038 0 0 0
1484 495 2 0.4616066372104565 13.348293598193008 21.178391657747525 10.459402768764113 0 0 0
868 290 1 -0.9598694555835929 15.431759160485544 21.83882429893457 7.635346586445941 0 -1 0
1248 416 2 0.5503480265675452 16.76330161575342 21.32319986826202 6.638751214960336 0 0 0
84 28 2 0.5248995573396348 12.859861750642844 13.655936359256385 1.2381246092983567 0 0 0
461 154 2 0.5034924037917967 24.24717561847758 15.508407454310264 2.1050284365764234 -1 0 0
141 47 2 0.4178513890200092 19.48040996175024 17.160445795102003 6.119596304285576 -1 0 0
139 47 1 -0.9422204312325679 20.10960772295586 16.68402635131414 6.7337014176068966 -1 0 0
82 28 1 -0.9779787152206679 12.683523539456196 14.584400063286859 1.5650043806305762 0 0 0
1167 389 2 0.5621763310018463 13.0868711899161 18.63251420797456 2.4157697208776536 0 0 0
27 9 2 0.6360231160719296 18.49026070132768 23.678080647565658 8.622481436537802 -1 -1 0
26 9 2 0.4218426485081789 19.34868004577962 22.941027859529186 9.79998674642652 -1 -1 0
1077 359 2 0.525846080384081 18.894176617701618 12.46836924830001 9.586291508123589 0 0 0
140 47 2 0.5243690422125588 19.59705176935904 16.292434728116753 7.497856372054479 -1 0 0
1233 411 2 0.4548158796803249 17.198110755510967 21.569572114357797 10.735051729946889 0 0 0
651 217 2 0.4884067479823892 21.466571722864607 19.783420250148673 10.413763305188455 -1 0 0
25 9 1 -1.057865764580109 18.518170255415725 23.460122847910387 9.598035563018152 -1 -1 0
1399 467 1 -0.9944181789089583 20.512893944005086 17.231911772373234 11.720472758650383 0 0 0
1433 478 2 0.4302682127312845 20.59695885600414 21.18011799318859 6.861193949726287 0 0 0
654 218 2 0.5306925235139611 20.12198420360313 20.777887628427546 12.269916154996249 -1 0 0
935 312 2 0.5380534169904562 22.734899923676014 23.702202326123565 10.69343512776043 0 -1 0
875 292 2 0.4647174545725254 22.12290600561774 21.61812361654473 11.864593781647713 0 -1 0
874 292 1 -0.9822131757930453 22.746761180268688 22.350273030362136 12.13800255297872 0 -1 0
885 295 2 0.4886828644676593 17.75006980647041 24.650470128369584 6.566061959575268 0 -1 0
609 203 2 0.4592068545911997 12.92480844430874 16.431435056309063 6.422627721459697 0 0 0
1337 446 2 0.4179954193491437 24.180637307403714 19.936493267486647 7.784406661737366 0 0 0
547 183 1 -0.9363579659580192 24.67967432009063 13.194275096535279 7.419115629476523 -1 0 0
188 63 2 0.6363658415295406 24.62217238592403 16.53470342323201 8.260766638871011 -1 0 0
1255 419 1 -0.9479855271972042 15.222353792775982 12.747659669359093 4.124282671381875 0 0 0
1510 504 1 -0.8451656894448368 21.40271432060612 24.754413498683334 2.944165954480037 0 0 1
1481 494 2 0.5636275472013482 22.054656299089494 24.34888641946994 8.331326238931902 0 0 0
1348 450 1 -1.106180029225791 13.58139562211187 12.551506469266632 10.577738354100896 0 0 0
662 221 2 0.5680885895628689 17.210327434859234 24.782332387053135 10.232070991530195 -1 0 1
1482 494 2 0.5436118765190482 21.93244013624917 24.74413661511258 6.751561085609861 0 0 0
1028 343 2 0.5162784868500896 21.450774587961337 14.545962277086726 14.850986896526692 0 0 0
706 236 1 -1.140747465922889 14.168241367555789 13.271061850469087 15.19653798976514 0 0 0
732 244 2 0.4056148750369936 16.183559141805876 13.040946471946297 24.362145550398335 0 0 0
707 236 2 0.6062783986654509 13.684913621144844 13.753733413329744 15.926889173297813 0 0 0
917 306 2 0.3688141762356519 12.404970169520384 24.753110526885763 16.635690561308195 0 -1 0
410 137 2 0.4877447820793877 24.035441022968474 21.22695083112505 24.02725995475287 -1 0 -1
1051 351 1 -0.9179251086215318 16.356469814016904 14.378124801076865 13.698477923639986 0 0 0
1053 351 2 0.5152364280181706 15.56741579997341 13.966487248137152 14.154480870192186 0 0 0
1374 458 2 0.4920032004329155 16.71815981444301 16.176629193695852 12.5569339306648 0 0 0
1010 337 2 0.5502334166688491 14.353644664088637 18.847104375482136 15.064317067061944 0 -1 0
1009 337 1 -0.9981849265959879 14.855224393558357 18.636603546907658 15.9034222901938 0 -1 0
1528 510 1 -0.9891371629423816 13.884654984072805 17.13386987801728 18.047643909089786 0 0 0
876 292 2 0.51749572122052 23.56350745659225 21.953344367760796 12.55684549963235 0 -1 0
696 232 2 0.4764058950892879 13.311656254138017 15.408719194214113 17.279391658255495 0 0 0
904 302 1 -0.9290571289751538 19.16980789153189 13.928476334784945 12.671233750359296 0 0 0
730 244 1 -0.9260940562855615 15.43805342212945 13.585123523654165 24.74696103560776 0 0 0
1529 510 2 0.5399916004973565 14.158036260888839 17.72426767723928 17.28824709879038 0 0 0
767 256 2 0.3985538779740476 12.526515050099992 19.558804954370448 13.295743108532431 0 0 1
1456 486 1 -0.920849317990719 12.66938258716861 22.859928321091427 22.807167991957648 0 0 0
694 232 1 -1.089413908243483 12.852756018704042 14.520268680667545 17.27186449210241 0 0 0
695 232 2 0.6130080131541943 12.968903483382281 14.077557689666492 18.160969178980448 0 0 0
653 218 2 0.5821779536262353 20.394982880287717 19.92693672058025 13.636686471768211 -1 0 0
1173 391 2 0.5604966598020025 18.51756769131992 16.337791490409803 24.265405448972032 0 0 -1
1530 510 2 0.4491455624450252 14.58679218186634 17.15941783849981 18.759220367752157 0 0 0
443 148 2 0.5435008345425191 16.022280339004325 16.605375887696514 24.493693816118526 0 0 -1
1344 448 2 0.4946979230524829 22.457375803863595 24.072335083929275 13.639833308882357 0 0 0
553 185 1 -1.094680641452332 24.44863771866247 13.642896572481474 14.538991038662411 -1 0 0
630 210 2 0.4343884909776915 18.94146407309055 16.499847888144043 15.30921758310889 -1 0 0
1407 469 2 0.4843144847511638 22.9559531354025 16.408980041129826 16.63067773909786 -1 0 0
1175 392 2 0.4344012733816294 20.124508478000518 15.465202091526804 16.603198951261025 0 0 -1
1052 351 2 0.4026886806033612 17.036731957158025 14.641611298812453 14.382443333183993 0 0 0
628 210 1 -0.912618052644328 18.712035109153206 16.018938659434628 14.463003033729473 -1 0 0
374 125 2 0.4430687489528169 20.882625406772522 18.335818753000932 15.671936988667294 -1 0 0
373 125 1 -0.8942159263689882 20.455236966720616 17.947200219467167 16.48821216043028 -1 0 0
375 125 2 0.4511471774161714 20.68995197983134 18.504383492934625 17.28473338533338 -1 0 0
1406 469 2 0.4699709470937634 23.141221328205994 15.904079215754287 18.172559768102726 -1 0 0
1405 469 1 -0.9542854318449272 23.139513077663256 16.70150150334159 17.56914848508599 -1 0 0
386 129 2 0.5107988985575559 23.852693695278255 18.515335190626747 17.91746968145585 -1 0 -1
1027 343 1 -0.8997195838339945 21.85020745322259 15.46252745434407 14.832223599345607 0 0 0
1029 343 2 0.383441096983905 21.122335044557882 16.14143527763208 14.73590992681838 0 0 0
742 248 1 -0.897486472977732 14.049930767010244 16.740087917305626 24.56337924770312 0 0 0
385 129 1 -0.960734819711669 23.950744140581634 19.5103041624448 17.897141016279917 -1 0 -1
873 291 2 0.4193978408476191 16.65921667859679 21.343382519129566 13.530165656573628 0 -1 0
554 185 2 0.4826709142204758 23.47799455195763 13.590301660889764 14.773673840624168 -1 0 0
1176 392 2 0.4041799808268572 21.11367156901299 14.341306288169969 17.25516823019441 0 0 -1
629 210 2 0.4782295616666364 18.250147673117723 16.647404208845735 13.837158445218371 -1 0 0
1174 392 1 -0.8385812542084867 20.22634662071559 14.794893733743466 17.338254117562713 0 0 -1
1447 483 1 -1.115968353426444 21.54469522258303 18.614497756304768 13.82279266310035 0 0 0
387 129 2 0.4499359211541128 23.253369908046576 19.92597635553302 18.48098706364348 -1 0 -1
1430 477 2 0.4853498781304186 17.58379895477779 19.529562650888018 18.781154851753477 0 0 0
1011 337 2 0.4479515099271387 15.784389908981815 18.347725903305665 15.67278935389145 0 -1 0
1515 505 2 0.4805343015629203 12.59944361434284 19.722915399347904 19.375971906257302 0 0 0
1380 460 2 0.5480246506433047 18.49194057035689 19.682757906692586 13.978633654269085 0 0 0
1024 342 1 -0.9746471851582234 18.21291606829365 20.244258355666002 17.041535737392525 0 -1 0
1025 342 2 0.4904227974133207 18.04637105349798 19.65781822543695 16.248856022099957 0 -1 0
1064 355 2 0.4175936941501884 16.648645559886795 21.948543321364767 16.849095164362936 0 -1 0
989 330 2 0.4718396165357177 14.053778990986803 22.707054665634047 14.126347157248297 0 -1 0
1063 355 1 -0.9572148156081258 16.376049083314133 22.87081307399526 17.123139072661832 0 -1 0
1065 355 2 0.5396211214579374 16.426011274590945 23.481772823368896 16.333061631254466 0 -1 0
1227 409 2 0.458503790398522 13.921554211191852 20.52224018190069 17.174906940641215 0 0 0
1226 409 2 0.5370380971479984 14.414844392528355 22.033838523874735 17.546907730473716 0 0 0
1225 409 1 -0.9955418875465204 13.618506773168509 21.44031724093159 17.43042046928781 0 0 0
988 330 1 -0.9179665299952419 13.14245120797747 22.817488145486006 14.522928192820968 0 -1 0
1439 480 2 0.5392392131188455 16.37918562065218 24.789230295381888 14.350932109836958 0 0 0
872 291 2 0.380743051258554 15.823851994280846 20.46451666792193 14.62397093991999 0 -1 0
1378 460 1 -1.01591811094712 17.78086757573281 19.058588892911565 14.302328939815164 0 0 0
1449 483 2 0.6050538929083419 22.39093434749304 18.16899346244213 14.115018033241563 0 0 0
1376 459 2 0.4788215273509063 18.72467617094469 24.00670458965339 14.465364144204102 0 0 0
590 197 2 0.5095159468637536 24.11887246714167 23.068617552421323 17.439988269808893 -1 0 0
1460 487 2 0.4717639608111973 22.496176001691225 21.8378920904399 20.45784410416705 0 0 0
766 256 1 -0.9033017968813315 13.481344464297411 19.30826461104955 13.45549518358823 0 0 1
409 137 1 -0.8556779755056518 24.333237079522046 21.94305838062732 23.39599306541065 -1 0 -1
652 218 1 -1.112870477140196 19.812918621122893 20.617489171958784 13.207351044123637 -1 0 0
871 291 1 -0.8001408921061731 16.050371888007685 21.390540688368407 14.322046030985891 0 -1 0
1379 460 2 0.4678934603038146 17.53670754376384 18.422915243954407 13.570007091074338 0 0 0
444 148 2 0.553963212775518 16.584976416794813 15.074044473873684 24.42265464962617 0 0 -1
1421 474 2 0.5636834025319747 13.426479433075492 13.903193368447493 13.633663592203149 0 0 0
594 198 2 0.4695835502174443 23.34364451010073 20.974114535309397 16.478154427687272 -1 0 0
1062 354 2 0.5721953090565074 20.049111200766664 22.51742833815537 15.702598674691655 0 -1 0
1060 354 1 -1.014654503436959 20.303450580908848 22.08057533578391 16.56542040214212 0 -1 0
1061 354 2 0.4424591943804513 19.84123244528865 22.542939470935487 17.322100123663716 0 -1 0
1026 342 2 0.4842243877449025 19.010831054780763 20.821339993556723 16.867470069090846 0 -1 0
1457 486 2 0.4198346028737353 12.688056529082269 23.848876338707324 22.95421730912589 0 0 0
1462 488 1 -0.8970813958594538 21.892931657749184 24.383253118617706 18.544055657302295 0 0 0
1463 488 2 0.426866883602274 21.92035847187563 23.53176338864198 19.0677000107956 0 0 0
1342 448 1 -0.9884958101126458 22.959525849367683 24.193674484092213 14.49605318782758 0 0 0
1343 448 2 0.4937978870601629 22.84116509451854 23.383134479350197 15.069643661734679 0 0 0
593 198 2 0.5353437511418876 22.01160657849586 21.915310224911885 16.397687286960466 -1 0 0
592 198 1 -1.004927301359332 23.01124325481089 21.91116732426593 16.37123447855187 -1 0 0
1198 400 1 -0.8651146955869793 21.277839647683354 23.851022707420007 24.778351787204407 0 0 -1
1438 480 1 -1.086403691059536 16.952732633971504 24.720109204771983 15.167177475935972 0 0 0
719 240 2 0.4642788950425988 13.409328790812022 24.088930641224547 18.520475200249816 0 0 0
1517 506 2 0.4413546617363752 20.657860043510798 21.513427734692534 21.873761281733916 0 0 0
1458 486 2 0.5010147151169838 12.662338253558085 22.39162669483856 23.690703143236615 0 0 0
1366 456 1 -1.02541955119996 22.53438534405748 17.27807181585871 23.23407561142581 0 0 0
86 29 2 0.4510019960761139 23.8959454851964 14.485376507158426 23.107070506101277 -1 0 -1
447 149 2 0.4334869527189665 17.883160428528363 23.986228292245116 23.291884349137046 -1 0 -1
761 254 2 0.5405165910502806 14.196987969776204 14.899265883749502 21.47961531448981 0 0 0
1261 421 1 -0.9951783198923144 18.889580459077393 16.930693886773934 21.305537156050644 0 0 -1
1262 421 2 0.4273562619018694 18.151014872438967 17.151898890040584 21.942388488855897 0 0 -1
811 271 1 -0.8939529989221843 18.637177572023568 13.745063970408173 22.751518559509357 0 0 -1
1453 485 1 -1.052827989066926 18.512732996144507 14.777149528200178 19.564529543346254 0 0 0
1455 485 2 0.4998970567994674 18.176460898290713 13.855023827134842 19.755829483159566 0 0 0
1454 485 2 0.552930932267459 19.2068539998777 14.736410898038647 18.845831557039205 0 0 0
762 254 2 0.444751095351253 15.003147327343823 14.010044140230239 22.586882725351412 0 0 0
1168 390 1 -0.8199068982644984 15.827179136511 17.58875428074358 21.890275681837963 0 0 -1
1169 390 2 0.400560796872286 15.361279408978458 16.82901806573245 22.343848968990287 0 0 -1
760 254 1 -0.9852676864015335 14.920004753699558 14.221447880418681 21.613031519871427 0 0 0
1368 456 2 0.4371193842920955 22.139311514002987 17.885086242772235 23.92359758617186 0 0 0
812 271 2 0.4412387978333295 18.674968597696488 14.396865133741999 21.99407715505086 0 0 -1
1263 421 2 0.5678220579904447 18.61544983642264 16.158406941841395 20.732461527758634 0 0 -1
1170 390 2 0.4193461013922124 15.672015712233486 18.430938327298566 22.406648360072637 0 0 -1
533 178 2 0.4881558190392079 24.740803229829233 18.319166694343117 14.031719423978398 -1 0 0
1448 483 2 0.5109144605181017 21.03540235708028 18.00006314121632 13.220230400540059 0 0 0
1461 487 2 0.4555320420520197 23.970550390293564 21.24753164801999 20.837770476451094 0 0 0
786 262 2 0.5851264730460063 14.385025012123515 19.552684543751393 20.877731537311334 0 -1 -1
1202 401 2 0.4554723359776129 21.971335773747885 17.64076509636632 19.093583027374997 0 0 -1
1105 369 1 -1.030042352662082 12.958053112598604 16.238698296933535 21.584877003783102 0 -1 0
1377 459 2 0.4535460892634506 19.24408039454856 22.632498863140217 13.752323323620757 0 0 0
819 273 2 0.4683568384665299 23.857811988039312 24.054396365279196 21.022989918964292 0 -1 -1
718 240 1 -0.9509136745014439 13.570837501362089 24.374829547136866 19.465021203019027 0 0 0
9 3 2 0.4925358215723452 14.023373478332866 20.141644726548698 23.111063713277527 0 -1 -1
813 271 2 0.4527142010888547 18.667227232266473 12.812842764623833 22.39089265814053 0 0 -1
1518 506 2 0.4669856242327625 19.942519320285133 22.573512431486858 20.858302063737046 0 0 0
1201 401 1 -0.861216615460057 21.535155854111924 18.469274440204625 19.444737899492225 0 0 -1
1203 401 2 0.4057442794824442 21.11166442603292 18.273748009517323 20.329280054835305 0 0 -1
534 178 2 0.4939807928017629 24.572494982359878 18.08583585744493 15.63916410187053 -1 0 0
768 256 2 0.504747918907284 13.902756071579825 19.03289533166393 12.591449804831498 0 0 1
678 226 2 0.5131350247523575 23.351988774815634 18.671606034850292 22.162776966230926 -1 0 0
1172 391 2 0.4017406384151503 19.797730511129746 16.26194020343028 23.254426183538012 0 0 -1
676 226 1 -0.935056537730735 24.020630070446465 19.222285180151705 21.663115384718132 -1 0 0
1416 472 2 0.442135979685299 22.786727203808557 14.073362503742015 19.355370596468184 0 0 0
817 273 1 -0.8890000246220374 23.39666035495493 24.69432072452143 21.63766575636528 0 -1 -1
627 209 2 0.3953442567741543 21.402391934914665 15.331636401250739 21.098714290874433 -1 0 0
1415 472 2 0.5246179122371155 23.31666760524598 12.84613129574106 18.417438791308324 0 0 0
85 29 1 -1.016380751300041 23.08047004707764 14.564073990741907 23.680478663730057 -1 0 -1
625 209 1 -0.8425443641656638 22.26282176017212 15.701168228817144 20.747862265719295 -1 0 0
626 209 2 0.4472001073915094 22.52608851831328 16.50155849762371 21.28643113874315 -1 0 0
818 273 2 0.4206431861555076 22.458754758221623 24.386231196975356 21.79705312714898 0 -1 -1
1084 362 1 -1.116061317136141 21.39248320011172 12.512247036336356 23.558539987925002 0 0 0
1414 472 1 -0.9667538919224148 23.457184022110088 13.805110062540082 18.663620148752447 0 0 0
906 302 2 0.4794277420605423 18.813232595812327 14.787652376422152 13.038195583922109 0 0 0
1375 459 1 -0.9323676166143569 19.53172172491761 23.484819309939244 14.189133030889792 0 0 0
990 330 2 0.4461269134595243 12.759203336970101 21.918102372577053 14.73320586683821 0 -1 0
1367 456 2 0.5883001669078647 22.73180843279859 16.388795403808817 23.646631045684487 0 0 0
87 29 2 0.5653787552239269 22.4685097785747 13.794748829372777 23.497083393369113 -1 0 -1
914 305 2 0.5231844933531877 14.99269556750473 21.431990084170817 20.58447564319441 0 -1 0
913 305 1 -1.069395706229382 15.268360273290659 22.34811096653412 20.875545906557925 0 -1 0
915 305 2 0.5462112128761939 14.530640258101911 22.99514778953693 20.682924702634274 0 -1 0
1431 477 2 0.4543164777951331 18.067898133222947 18.365432044395565 19.818987812568402 0 0 0
1429 477 1 -0.9396663559255516 17.5544756405693 19.219067653906194 19.73127242312338 0 0 0
23 8 2 0.58065215211093 18.2384426584609 23.894447188274203 20.44196130129907 0 -1 -1
1477 493 1 -1.029169621805722 16.86636465763834 12.454324457439677 20.641898851728943 0 0 0
1516 506 1 -0.9083402859691377 20.818312296789642 22.24905582710692 21.215660390227786 0 0 0
1058 353 2 0.5776400194803605 16.932083602341937 22.20200730266697 19.837663715334116 0 -1 0
1057 353 1 -1.044595367337244 17.927280861422176 22.221904365967482 19.74186746423899 0 -1 0
918 306 2 0.4780218453208766 13.63384145815692 24.415149268629577 15.614704094866669 0 -1 0
677 226 2 0.4219215129783773 23.896110747130688 19.08692138345409 20.680179995184712 -1 0 0
1524 508 2 0.4512399480259042 19.13413780274897 18.915836790875552 23.347746345294496 0 0 0
1118 373 2 0.5502878117188273 17.113317963690978 20.62925644402777 23.259805108074584 0 -1 0
1119 373 2 0.5379746992635257 15.946598153745493 21.557386048689313 22.593479616945086 0 -1 0
1117 373 1 -1.088262510982353 16.270656213812536 21.13640122997948 23.440680039191253 0 -1 0
784 262 1 -1.097047135774518 14.77408903555651 19.753197844592894 19.978613079493645 0 -1 -1
785 262 2 0.5119206627285116 15.702055505012066 19.384122171357852 19.927117659066198 0 -1 -1
555 185 2 0.6120097272318565 24.627421108391104 14.496275016714673 14.049325714376495 -1 0 0
1522 508 1 -0.9270158962790245 18.48815411128351 19.32983625278856 22.70641966159182 0 0 0
446 149 2 0.3848686253944634 17.62301194712299 22.861556690687948 24.44691071003559 -1 0 -1
1523 508 2 0.4757759482531203 18.385221679501033 18.73704530002495 21.907674270280157 0 0 0
8 3 2 0.6048363627683481 12.833677360677058 19.21051299957619 22.49117163173627 0 -1 -1
1059 353 2 0.4669553478568833 18.256969064458914 21.309899476645626 19.497852772131907 0 -1 0
445 149 1 -0.8183555781134298 17.926372918184747 23.79844841858592 24.273139565234686 -1 0 -1
1171 391 1 -0.9622372982171528 19.460509764491594 16.636407124119327 24.11816636014157 0 0 -1
532 178 1 -0.9821366118409709 24.08250386696068 18.223002474355408 14.778301496475272 -1 0 0
1459 487 1 -0.9272960028632172 23.446334226183488 21.758349769804035 20.15640958890654 0 0 0
7 3 1 -1.097372184340693 13.746571153699923 19.584675053240254 22.32802115030585 0 -1 -1
1478 493 2 0.5599367088522482 16.121589625136213 13.096663345269686 20.822733869010833 0 0 0
292 98 1 -0.9616845021182202 21.148239704518275 12.708078791017876 15.16352691462965 -1 0 0
411 137 2 0.3679331934262642 23.8197855222972 22.781816173540808 23.577220167531415 -1 0 -1
725 242 2 0.4895976234591115 18.949871458714213 13.355949721095525 24.575812191296826 -1 0 0
720 240 2 0.4866347794588451 12.721479236612552 24.729664809490455 19.855754966629007 0 0 0
1420 474 1 -1.08053064060133 12.891413630742376 14.247137720379813 12.862043692718846 0 0 0
418 140 1 -0.9557447920149096 12.484490507769799 13.290693653776891 19.80104335307767 0 0 -1
420 140 2 0.4547885013467492 12.989827955768082 12.635690819221768 20.36282244641249 0 0 -1
1106 369 2 0.4508380235191184 13.518026432445742 17.04428157567029 21.391341835372288 0 -1 0
967 323 1 -0.9102513758998843 15.339481760846638 24.488640421017124 12.739568545770576 0 -1 0
744 248 2 0.4108532916169468 13.434120203668783 16.919763554073626 23.79625186912659 0 0 0
442 148 1 -1.097464047318037 16.840572865284113 16.040230788166593 24.388818856072742 0 0 -1
294 98 2 0.4733596481990056 20.55141530841014 12.699820425670165 15.965850315101473 -1 0 0
119 40 2 0.5060292513702721 14.898123010621454 24.3679359289619 24.3664259777858 0 -1 -1
120 40 2 0.4660069720944675 15.483718034734862 22.872013271695792 24.65958670044331 0 -1 -1
22 8 1 -1.068123066261479 18.372630466640757 24.75577798950672 20.931954446472115 0 -1 -1
916 306 1 -0.8468360215565286 13.396692202282386 24.787372567820242 16.5120337139646 0 -1 0
1464 488 2 0.4702145122571799 22.823964472847457 24.723959451322344 18.412647133514813 0 0 0

Velocities

136 -0.6773193143820362 6.493025788540853 -1.4315806626563115
505 -3.0473991493627723 -2.1796543917787394 -0.25836159255251956
113 2.2004212800400094 -0.10987314237610155 -23.0065804401422
346 -1.7822773354611487 0.8432548899553524 4.121912787993595
138 23.012097161907654 12.31288551466174 -15.535802429967848
58 -0.44941930310634676 0.8584716485748785 1.146451023728186
96 4.725371053447555 1.0659040067042884 0.46771506536071783
95 -1.1448687805427131 13.583017632245499 9.996667172568873
94 -1.8497592236402152 2.5618944736969467 3.4392258022651054
507 -14.067555897212525 -4.2677572375117805 -4.729638561611373
348 -17.489015964808456 -14.474960919970995 8.565449164615774
405 -5.941448967200347 6.642501228523998 -27.39421142549315
847 2.6472311243732336 -5.575280932473761 -0.35274790904930664
59 15.413712911080058 10.069313829480466 24.149529284748173
506 7.495143235861006 -20.489719512500034 15.49502771090195
14 -14.65706188721872 -29.245600920160943 -11.355693823962296
137 19.833637325189734 -4.901779564716578 -33.78484625811166
92 0.35568621344890006 -4.848244514555279 -8.69548758180288
165 -14.195234894288015 5.026191300328016 -3.704492776792746
974 4.791120223603866 -7.423258626779471 -20.506144614152362
849 12.257218947398872 -22.220398126301216 -17.523717073560565
218 -4.625879514395041 -1.604156062646771 2.954072043818548
1501 -8.474964070411975 -1.8933656305280882 2.03096590213997
736 -1.2883457084819467 2.288141345100918 -1.3165108476690324
738 -11.706772661639308 2.6626441438030026 7.197259786016119
737 -11.127972727942266 11.213018586370124 -3.87055491633649
382 -6.396127250998898 -1.5237282267738186 -5.196384556934917
404 -24.68279705687946 1.9597826564164738 6.49554203087337
180 -4.675950673043233 4.93674608878473 10.46391287219289
403 2.073573152943111 4.856566505956945 -2.583607852253887
384 -5.755701299573855 -4.944152384206442 -9.076961674153509
179 2.1282074971441265 2.0635095512591746 16.343225076679758
178 4.551232186632054 -4.497037692616818 -1.9719823215629093
851 26.05048669833714 12.640718543203267 -1.9210458945930198
407 -22.481299092538645 -16.961072684418323 -13.385848330163125
947 2.9414284354265936 4.3194614078111115 -5.737893852528562
115 -7.180101097772554 2.118307504781424 -1.5848045499472172
850 -2.286317465602667 3.2920977658287542 -1.3698961433026353
167 -9.67751195893965 1.427754938547014 3.874249218621877
117 13.604394980141766 16.853179726324765 10.969550594418099
116 -17.823913636098723 -23.89796585484481 0.6564240855011186
960 -9.608228289975548 2.308578671629621 -4.152811690307091
672 -8.905482850740725 -10.122152467717369 -8.013178790011237
436 5.880794167632334 2.0103853934160263 4.669146990262364
347 7.6498978419134165 0.03399344327021968 -19.944856120322697
1490 15.86589052286938 5.146353972291468 -0.17548981505224415
174 -3.0003442973872128 -2.564073560154871 -30.639155420526734
101 6.118824913346108 15.522272775211205 18.557044476560723
671 -2.5111849967271063 10.518163432213493 5.9319697340133795
1296 3.7764084122079282 0.49984133230339456 -3.293218728127377
215 1.5109630594859174 -3.7800157363462947 -8.961440044237253
146 -4.744754713824325 14.023174064375091 13.798754633056184
163 -5.266258824904816 6.88741592037056 -11.051716944260258
959 -4.736525630827498 12.233473319077685 1.6539155876640148
958 -8.705901220954022 4.579950748680475 1.0204198449942226
142 -0.5888728135722603 -2.4920635545194183 -0.11762743846659052
144 16.77199275041602 -30.238709997894667 -15.138122065583257
1396 3.210228614702581 4.666079506146904 -3.7183433056298414
93 0.9960647570670214 -13.449863309225247 -1.3257742379738477
91 1.6018608569588642 -7.28766686866473 -3.1245364559375313
143 4.694105065225032 12.174629139501771 -14.610940515008695
65 -2.4639660702551045 -1.1253332774114193 -5.437371109385147
279 1.1667688362805793 4.473343920493446 -5.306625756705395
216 4.008269314046152 13.27001394948725 9.667411365840751
856 7.846487946512396 5.863490776678822 1.0765904187225632
229 5.949111005523156 -10.189706638812275 -5.912701329760055
231 -22.63710181711206 11.16061880659895 2.4529382642020128
230 18.777493492789432 -16.425266261136926 -5.669038171612501
408 7.42913596416236 17.70827199316608 10.025602868330456
535 -0.32284822025878324 0.6132533332088692 1.4651907550172527
536 18.021466483492276 2.5439050794331863 -16.317874783369227
537 9.934131303905447 3.80941508180473 -10.806474797527763
66 -1.8413757554432584 -9.354141437557585 -16.60008552768122
1503 -3.781567482341763 -23.171855081132403 -10.421312731629964
1398 -6.038519503950445 4.527618092415354 14.801456635292439
383 -10.66655503851819 -15.87735928198981 0.09998948490906656
100 4.6202521096596865 3.0501514919947033 -3.9656714329499643
4 -8.52825171670317 -2.6106155644306988 -4.517734071131455
6 -12.55375311562911 24.753604465605843 28.63969536128815
5 -3.377767151362473 -18.023170457159164 -14.19593297004632
1271 1.5555323830240275 -26.726447998205565 -12.376107360781955
10 -6.345915603252599 3.366192917027681 0.34652739610878774
489 -5.440469910441468 -2.7147732718001776 -2.179561166572879
540 -3.063388615438103 -16.388303944301363 -14.252343006798629
491 27.178110571006393 -8.667923886564669 22.15582856491295
490 6.9069419269615455 4.819438539633417 -0.23953467748353052
487 2.2190258068993987 -1.9596242449641712 0.06523033190403177
488 7.3285456612241155 -1.558033771493681 1.520641703610583
890 2.467408492637374 0.15686238362079288 -6.117418905489015
946 2.4713141184354104 4.6294644950400485 -6.142384145024992
164 -1.8098554133696507 10.974359402330418 -3.876788850202736
1142 22.515604480190902 -13.865280214863352 3.775149588256072
953 8.787387979298526 -10.092747603613702 -0.475499467812881
670 -0.0816311567987682 -0.091774268768474 -5.187964119865902
1272 -15.818727024405817 5.506494975024054 -27.744626284327527
1489 -2.131701442468219 3.942875786384452 4.987718353014943
559 2.0758761836254904 0.8872077578584516 1.6022489132095903
954 -9.10910231384175 -22.039429215086763 8.81660773278031
523 4.129203966138571 -2.231581369875829 2.6102971734634046
599 10.358192539920365 -0.2747647149144119 38.32312749920975
60 0.45128178412056946 13.637127139182939 4.816963692531392
1332 6.466849229311016 -4.213173351716746 -5.9713361428427865
525 6.276152569375089 2.8655804872997397 -7.070921917483039
437 4.359017662085234 -8.227681543404533 -1.8204786929010783
587 -8.065931438028176 2.900521628313723 -5.553955065468859
1330 0.6474806289846762 2.185252539276459 0.7822322103238969
1331 14.437920721108608 -10.278816827497371 -4.660856052739843
524 -5.928078523616576 6.171400141947979 4.602490501967969
1254 3.1352090091490803 6.218664493899084 -2.038420113074075
1252 -0.8647111264465619 -0.25677449079693904 1.8735529945085085
612 -5.387205786424636 10.277794663704649 -32.80704720782118
610 -0.32888754160382 -4.050585414886672 0.02284135972110024
1253 9.566222109652733 2.8882199116499754 2.6695901048648016
611 9.757728532766523 -15.256134381773336 18.591010395343858
899 6.879515379001835 6.042719195778522 -16.800117349920974
586 5.641533269796772 2.7560759954032683 5.018112955279351
588 0.9150045196325314 -0.6176696169437337 14.54802254379275
825 -2.013097240132415 5.000326525427104 -7.46495351252914
823 -1.814412202930205 -9.612127098125768 -2.5859765364058247
668 -2.538135286942281 7.727673904035422 8.5609544035708
131 2.54016042069865 -17.208581250217925 3.227913877839181
1141 3.825932875054924 -0.4009858339603709 0.09520470703787656
952 -2.3465281353788767 -4.530964958140243 5.562287659457437
889 -3.116968082143612 0.01685257444059715 1.936033351731481
90 8.189753528620418 -3.288072005704533 -16.39045933451105
88 0.5660729848569326 -4.336823058705599 -3.214162438423424
153 7.295931955365367 0.07700637335549199 -1.244995462869306
1491 -10.86051215528294 4.014398308207459 6.25115994085482
852 12.51398686650322 -5.293327700081889 -8.730941831598134
1050 2.2730543495157916 -5.617424471808876 -0.19331485578407825
151 5.398013356134328 -1.5986356141806528 2.331474097291327
219 -4.0238237958805705 -8.817204053895567 16.98381106646347
152 11.500797498461232 2.396439188188425 -2.3927064032247687
561 9.339657497621374 -7.9060462408476075 17.29327796332359
80 -4.960970360626143 2.9381314280732784 -11.585887053031795
79 -1.3555046762893672 -0.7787895305250798 -9.41848366856666
81 -0.8377965718155169 6.597648892106313 -22.14715233286192
1049 4.6032725959209895 5.9669236924294955 15.091054771406796
1048 1.8277964705352243 2.9166866732597123 1.550009127676081
132 -0.4130125652682781 -15.764759209628098 3.19366708975937
89 0.4364226317531451 9.743522485782417 3.563455878065712
130 1.3292022982837293 -1.3662557009463867 -6.108482366909382
112 6.639311326457282 -0.48530108675814926 -0.5263033601936691
64 -2.4636802011750847 0.4913696925233382 -3.2958569506564936
538 1.930729665891798 0.4054820628729838 3.6573093292905066
1297 -3.4943740993093857 4.384276904724638 0.2966486852299268
478 -3.9744493195159154 -2.9528593213845697 1.020059066684695
727 2.3355429799762586 0.44855709232211927 2.4436288843598435
277 -1.21221331848605 3.4877190875241824 -4.726291854133712
214 4.887276035378225 -0.13463066042474747 4.84354366573545
824 -9.172113981263424 -11.396695062262378 -2.2388128272882266
581 31.76507987233691 6.3653968047107155 9.484452667907659
1143 -15.032340185990726 -13.666471861827691 -3.1437536185366004
1311 -2.2085954423357013 7.459656838477287 12.221477877420355
580 1.198968978946855 3.5326085097098674 1.0568953206725054
546 -9.557083756484994 -23.86777012910914 3.964064966860767
544 3.3265157039243416 -1.3189111802853304 -3.470967903263913
582 15.749417641681589 9.449885010988957 7.113917395042611
278 -0.056083772589034186 0.9021750680265379 -5.422761075648546
667 1.0914890171885516 -2.0562280045993626 7.350259556273805
545 1.909355018601064 2.2967188686988615 -13.0732141560532
1270 1.4806875028427164 3.8785388445955333 -4.995002550567925
1502 10.648699668159928 21.164455983920174 14.465206424409939
1299 8.021748475464047 25.443887461846437 -2.353023738414757
406 -6.385727493871323 1.5084911111432444 2.249762905262826
560 -5.142491532053243 -23.073659846861414 -9.799371815993434
13 2.726766986074213 0.255011195773516 -1.7826799308415733
1298 6.324153311435117 -11.348080848642702 -27.95018399442194
644 1.7620748843956267 0.23157984734774129 12.338759448777886
645 -8.05686617506471 -17.022078092774784 10.152138281121083
643 -0.5692981234288116 4.14195503455534 -5.4627215011876995
853 -7.292194443171556 -0.4864284008818122 1.974780590217428
600 -15.839078417818264 -15.941697257307853 12.689721393831771
598 2.892265831093006 4.387076393491323 1.6731615307051584
1397 0.08044361344852691 3.862372844702415 -1.8013081403070732
539 3.7629196496233135 7.815007637732432 11.166547333345815
114 16.101061493104698 7.447119788720532 -17.45933782948111
891 5.15844631998948 -2.678966815526316 -13.716639357974726
12 -12.402222110485951 3.8333326356294766 -14.595515768547672
728 5.862416684671087 -3.296429034066892 -4.889504684116481
438 9.062989727227176 5.034934577662543 9.181778589506507
29 -7.75923236887195 -5.476397627687969 0.44067995595404774
854 -3.2871898901262435 1.693785112314366 -1.4507636537881499
855 -13.981777111574038 3.381647854044633 -0.9823612631004421
166 -6.477514188715195 -3.1843651639597184 -0.05442283297527195
217 2.1503943242804633 -8.1988496716264 -0.0420565941841502
28 -3.2627686706336005 1.4739389413966832 -4.88064358518254
713 1.5678939148119735 -7.095561967275698 16.07805006765003
102 -21.02283431110302 14.542023037360547 -16.024142579140168
911 8.899425903884298 1.3790611106663562 9.463507622464382
712 -5.0474546608903506 4.753413020877749 3.586569181267371
669 6.6227398161959155 -12.767155550099508 1.149810041684166
208 -0.05054149877388647 -1.0695595273556484 2.16382227847861
584 47.8238028277909 5.46295718734338 -11.269951089367355
46 -4.343834536201733 -0.32218771844605176 -1.0358678705648536
1021 -4.8174341406099055 -3.9166098007928345 -1.613403258234384
1435 -0.4831300889526555 -0.9602756796416603 -1.149521245564508
360 10.17562207243958 8.326585012432744 1.8628193391360188
209 3.378467711388548 -12.734097418032777 3.7576733335265438
338 -13.453217051790078 -4.4418320762738865 19.513328776069436
1023 -12.258362508140277 -6.530859349523684 0.9555828423444988
714 -10.111548531042326 2.5227856477110557 -1.073894783529103
129 -7.781861694367352 9.977622367043526 -5.163164243225411
337 -1.1275806027742052 -3.3840459688258577 -4.268648867816382
202 4.082994354587008 3.703034534634506 2.4690735241038144
1213 1.66940478461594 2.651522006620812 0.24560392429336725
196 4.250282101915793 11.359673738659751 -3.037885704390407
1125 8.476542121468707 -7.28441321012167 11.958484141466466
345 -4.990526404078441 -4.184195946889025 -4.866507384105649
203 -5.263042350801366 -18.003839234443465 -6.053536936332956
171 9.245459187485125 18.584662235270343 16.024215277498282
233 13.551226458910147 -8.921945604081863 -5.557317384421209
204 1.2705478880617411 -2.0945958062846404 0.29257434329781185
376 7.316810592649169 -2.211704502579418 -6.693395598202836
1436 10.102908423642415 11.492377438848216 18.963950438366123
272 -6.947790447220085 -4.963076133568844 7.996155228919997
339 -19.987657564777194 -14.750717219155653 -10.668064705657795
1437 -4.415623343299906 23.162829398906503 -16.2372827332738
170 5.164696971903351 -14.36937863513025 14.313452211513848
78 2.60459741765884 13.681436747586272 -0.06934766555340133
359 -6.4493539264477455 2.345670339473817 -15.036172799745245
273 7.76716069773464 -4.3365196225938405 -23.101128533182013
224 -6.916463592288139 4.212966166745369 5.042882632313541
950 20.239214690384294 24.725153799629325 0.12394701887925985
1381 -1.6810778529859738 -2.63452911100847 0.03203367667760014
1383 -7.4168809462993845 -1.439877798942021 15.529464699709939
344 -15.971932171130678 -8.430548100601756 -3.3989644666602215
343 -1.5888140177887118 -5.354269099766899 0.5128246040673885
271 -4.354699843002763 -2.415633444444512 -4.675359617041319
1038 2.907694421335764 3.647800009938809 -5.619410998294661
1015 2.9179063800046343 -3.8967634550470915 0.5730615114955335
1017 -15.064933838442267 -2.723539400287832 14.427416974572836
1016 -5.141599877387068 -7.929354054044821 12.679208356765859
1382 -15.246122059393889 15.105795408720677 -18.216095965734
1388 -11.16868263604277 12.679177098181887 -9.4000118555506
949 0.26190024444424864 6.622600258307235 -0.28344296331379193
861 5.6981916516816264 -3.5018503372122294 9.245645572879265
800 -0.22660439437772317 30.019268116405048 9.292875687329214
799 0.3730046193136811 2.8853555676508087 4.771441830454845
801 -23.82880925459384 -3.428212248324278 -5.069386685690127
492 11.335294299229588 29.556994661447707 9.448588079502391
1389 -11.533181930934411 3.658010623837902 -7.5622061935008205
358 1.6869053302597599 4.743749000524652 -1.0277276761826573
1444 4.79264139555263 -6.511547391711144 4.582247372228182
377 8.669223830809495 -2.0014463758819407 -8.157039518894866
1072 4.651441627671817 3.1187276367456964 3.2198722643959927
660 7.780069255997622 -2.7689487217333264 1.731912660901749
659 6.5907485712687786 10.375462226100218 11.31244139217699
261 -2.5785948688631315 -4.346021239273736 17.63251407507167
259 -0.1057791831048579 3.993017517509327 -5.315803516580094
1417 -3.5978040211620166 2.210157673812836 1.955001618298713
260 7.096155053616508 13.951375407316203 -16.079845370608012
256 -2.614880439673808 -5.763586991769311 -4.692681003095744
257 9.67716821351339 2.4807444959526173 3.5640032197319456
211 3.408938478244072 -3.9617636763710182 -0.7945142172659482
213 -4.982996395326605 21.21562395233931 6.126886908659213
212 7.677292991476257 -17.114652148200744 1.5267421022483278
285 11.406037167089426 -5.434907735602353 4.711335452363133
284 6.584686338185916 -11.662329570991389 3.5312376084435924
1071 -7.0246300836437925 7.4322654866941305 -3.5397345690485773
1445 1.0943699174890744 -6.875263646352285 -1.825116264926602
1419 -6.121304785442179 -7.98646675008963 2.7757358209211027
307 6.257216154653497 1.6468580691681804 -0.31598560851296453
647 -2.099984119135403 0.4432776500606792 -7.476824902029642
1446 15.511760829000647 -9.373682642647667 19.338089657721262
258 -10.38240980574933 -12.256768690564133 8.370121503853628
283 -5.3171868313059205 -6.297982173379325 2.6409126181289158
1418 1.9908569609573297 11.208393138363302 4.08164321746413
1073 8.549493097764078 8.436498102965956 -32.097704342126896
618 2.3864460730346484 -11.483145658898145 8.544559932558608
401 3.3023918594852777 21.117042530500402 -2.431716540674642
951 16.61756450049862 10.500154384477375 -10.304655741799456
225 -15.926818130994425 3.5603663990262033 4.035805117509707
756 -13.842334089559712 -13.53878562854052 0.6605524557687703
1001 -7.054606468233677 -13.838256170036653 -11.090524410296133
1000 -2.0285283792988476 -1.8146120055420025 0.32254078404653674
1527 0.20274935239890013 9.101757321302562 -2.671326486835156
1002 7.483054537956901 -4.117712129673097 13.427726430423505
1177 3.115097678283446 2.8037309914340014 2.9597803150144926
1178 -3.5593395679948894 4.848638165403133 13.960701927411373
754 -2.9044260258777634 6.256504855103508 -6.1421998944593295
1526 -4.848021276348703 7.7521788692715035 -1.9934521769857865
729 -8.487424025848856 3.09601603955455 -1.0269084720006856
1179 -0.9020356283051387 -8.300866932578518 -1.3429004264001976
1525 -4.913618034325096 2.4270026117340464 -2.6415554392829295
369 -0.09029903739816625 4.714231242677477 0.48526470089700213
755 2.081270261363441 23.775769305632977 -28.32023271412
1387 4.568870466834088 -1.061366620061896 0.5884347276743963
570 -2.312790396958555 -5.014165715749338 11.72163897269313
1070 -10.56916727523588 0.8117585189224396 0.9195865173730654
1022 4.575023286083129 -3.9532954601472348 -5.401273974097017
368 -3.7947895819770494 1.8068205179897026 4.440185621235266
367 5.1546425018025115 -2.0401392168682824 4.597817909915264
1069 -2.4501976606412343 -1.0310059183668607 -0.11933355584866417
1036 -1.6440058794455568 2.6391188130834435 -2.0324388351830076
568 3.89859510520592 1.4742050702110716 -0.40162945556975904
569 -3.9191436705637073 -5.647605254200463 13.932575210812864
966 -2.5295426236375365 8.722048148991753 -3.002878162053846
658 0.5795681022362084 -0.10772610467461707 2.8688499235768434
47 -32.8140993652167 -0.9768595804173856 7.319919340564288
1123 -7.697202994163325 -0.657911154346834 1.096369966520883
1124 -13.163919364517383 0.0076303272678188705 20.133947275253263
252 -17.95664324286081 -1.627946363383316 12.014035714785088
1294 4.89627852921587 1.4167034894767732 -4.378792379682331
1215 -1.1752590873897448 2.009818363462181 -1.5249965007913304
269 -9.931150016223738 1.0852625863142311 -2.298551539067383
296 -2.909831441364739 2.237152632541971 -9.678936051689249
646 3.121025969564923 1.7285291288145552 -2.4358893308117104
175 6.025779643463611 2.4240211184751788 -0.910302508271276
1042 -2.35369318175568 -4.9001097059722625 4.830405813415121
274 -3.9347463861846186 8.222920250869349 -1.1393696747215978
1394 -10.905322662636303 -2.5742372889632583 -2.0242218697068632
1393 -1.2307766692265845 0.5587100295734969 -5.2734446740390135
1044 11.221180973596287 10.802493937759769 -3.1214677937824833
1395 3.0884974722664063 12.125006643743607 4.706873376968029
295 -6.595457327498047 3.9728470470799997 -1.3086386521672257
1043 -7.2579591810899835 -13.690771961535473 3.473102613493621
158 1.9010428392937144 4.83370937895853 -7.721930928957073
275 -4.784271178905107 16.85459207057368 -3.960645917723647
1507 7.366865377029928 -9.567630348323586 2.3023065148771575
1508 -15.57800504559189 -9.008286628454972 13.725330172759687
1509 3.476888608148607 -10.928413352396515 -0.5041758754486794
400 2.138666325212396 -5.150301519543427 -0.05726631313809408
262 4.790700200420371 -2.605857209868425 -1.817229474615911
309 1.2570382338593706 21.396345632299315 -11.350966573497189
583 1.9592541694866101 0.4356019291420412 -1.5235052089967667
378 -24.000797880362235 -29.074397454416886 -18.222843721110483
616 -0.9395510920219561 7.047197421138778 -0.4708353683649438
1152 2.1156477042355926 -1.5586210466854493 -24.37529832036867
1094 -11.784071374980993 7.0500649346203765 -5.856501782274347
1151 4.288114421214667 -13.799130195190944 3.4902601256088106
48 -11.405456706901973 0.5414223165585729 -9.319505201788239
76 -1.35324444283766 4.949533387809814 3.7994309627289016
342 -1.7439164048878029 -15.01944884542091 20.269311708469097
402 -19.117113189376372 -12.956838449434361 -1.738629922549799
232 7.453813696948155 -5.26434741745369 -2.6784515953741703
340 1.6837154017316598 -5.539774585901754 5.973504746424146
648 7.488274383686357 18.17591957759043 -6.781763876490189
1095 -6.74087722084829 3.5803597310827557 -6.737458323930989
751 5.673236016718945 1.6592280519140516 6.038036872108956
341 17.349133039975307 2.1491776487799976 0.7254904608582162
263 -3.602482021427673 -42.33130920096062 1.1486552880459238
264 -6.532137052871584 -6.2961776330862165 -17.52279196586382
752 3.8004290031476384 -5.8826211019449755 1.1891566909495097
371 6.836514967968461 21.4975117510861 -14.988892194321766
1093 -10.328619148057237 5.255714542710107 -3.0339381247807147
370 1.0210459364022821 3.0375526875865626 3.0453048199155086
372 11.215387035523444 10.589552869040642 19.0436198329155
753 6.594683426303242 -0.516738268031192 6.896358229011285
223 -11.854879135999239 3.9804622513785177 4.471811407286392
11 -3.1374068501186905 -19.261407153272813 3.0388224883412196
297 -16.123750949256014 1.7044918866457701 2.5904838764659415
1074 5.736618210738531 -1.7928631712333423 -0.8691033039787686
1046 8.305010312123942 -9.62868393762249 16.367702587138286
1047 4.445371404794499 -7.3035669546087085 -22.01280849085447
1045 -2.8031479591235002 0.5843854753452604 -3.291111104360084
390 -10.492674774430647 -31.247559645268126 -0.8835240212023556
892 -1.5684917910099538 1.9515129978441992 -4.199788240939994
334 1.3250635630204401 5.498123213923385 1.8738378420370707
585 7.614118329551605 17.88169332791088 17.12339260187638
964 -1.5220550039877643 -5.422035675864699 0.8698917103003567
77 -14.03305464528177 3.9159493041868676 17.533705412335188
198 2.3623419234289194 8.778293110272603 -3.2526305662934196
268 -0.45050091840514295 4.5150320446386525 3.1637448037363605
848 -8.893844444247186 13.512660503140463 -14.350965390361619
894 30.59216142124066 13.627758156782694 -6.0672000130920205
893 -3.7654663127177517 -8.355590867318408 -2.615870772043348
1189 -4.28130079266284 -2.9102220225176554 4.519220384489619
308 17.171342752610684 -3.2702676622650944 9.059499533191136
1295 7.49400950567682 3.980401065588809 -7.42208632435774
1347 -2.099533925204817 11.80093660391608 -23.59433294217809
197 -7.787846317171672 2.438837027245297 5.218258798173338
1127 9.98408456834216 4.073653770340482 -2.9566744946028387
234 7.983933445540643 -5.502707440437751 -2.8454651326003577
16 2.1926720221069855 4.837903004411972 2.403787938358727
1190 -5.340910137400326 -3.280481523229109 -1.4474205098689517
1191 -7.376199234546904 -3.17188253404698 24.16221374291721
270 9.744806633470077 -0.37614011703452377 -1.1619798010774924
18 -3.978652841789649 -11.919779277181906 0.49739317704070274
556 0.6329665659532369 -1.7879451459738682 -5.42591958926965
1279 3.6379592975374 -4.329241064647591 -0.8982782579209908
1281 13.829674129706273 12.414996182530114 -11.284841476692966
634 2.885092642848625 5.525904967287091 1.4212216070642472
469 0.43254180265404596 2.781179443239049 3.772328372130493
470 -4.898134631067157 2.2114177928464707 -8.550976416770258
1223 0.8193700004897346 -15.832621776150582 -8.28150593055295
471 6.964320846034574 12.912786490039888 16.49072290193815
1222 2.17437782607979 3.2647461121325163 14.31755382218827
558 -3.546915233738625 26.59387120189961 2.8251104040033095
635 -5.791732972921474 -4.59775913848094 1.8103657221871894
557 -3.4699374421039555 -4.901036980152768 -0.7565196711049147
1194 -4.316645797805335 23.408080229689027 17.16263869151597
1224 15.919851854035429 1.9068788198998199 5.307677898374686
494 -7.512152725644867 8.27347872609795 -1.4466093346846112
1329 -29.02811708449708 -23.194260320567306 -8.142752324824981
517 1.9938905968821614 -5.268135631997194 5.401573490386637
1188 5.979727212953939 -14.566382835263495 -2.146292970446554
103 1.1805101657593675 2.2690540119356664 -1.0409751966882448
104 12.445708887450692 -4.303831065885921 4.465270425682945
105 0.9339797814281219 -0.8314861464674306 -5.93837042124202
427 1.970416033844249 1.725883428583136 7.39680018826645
606 -4.804629770499742 15.374129558980322 7.3323746200749405
396 -4.429467214741781 -1.0851077647668657 2.4409054644930928
463 -3.1975148580741806 -6.50884649453761 -0.9591501047670126
637 4.719017760946427 -6.234687461953314 0.859008263448189
465 3.2622198030797787 -4.988304967879976 -1.480246615952268
425 12.356705078197756 7.124442626500628 10.109791854414976
486 4.400226337148981 0.4861540796423045 3.101865086005965
1290 -6.941646839237823 3.207679940962744 10.69781391259216
519 6.298948194193064 -30.24297463554071 9.488162271020375
1218 -2.714799433033285 -8.111830779472056 3.4090686535476293
424 2.6404699790185124 -1.8069172290798474 4.486283647526815
69 -10.347313131524741 21.24650396352786 -2.1403026964685488
501 -6.579518539483253 -11.575996922786658 3.8129404122575923
772 -0.20390310967365854 -4.486045199657825 0.29901991828683483
518 -1.6251926557605976 8.020374489801686 20.231495125217883
464 18.107417077149574 5.00123335970439 -3.9840100511802086
426 0.797413579673846 -13.478863223734354 0.007257066386459066
238 3.292484460057524 -1.6293244379885317 7.3008626865904604
527 2.570655477318688 -9.988548543750904 -0.9687823909807053
52 -4.782012934730599 3.7963393915203016 -1.0366103709865513
53 -7.850350108481952 -9.531139659132517 -1.470618475551336
182 6.049267514733894 -1.3765458014159586 -5.530026177226697
54 -14.021542337087592 -7.726980057364747 1.5218262959589866
480 -18.339970196487364 -10.65319747856991 0.9135479832595805
239 2.178291582161592 -12.338485170447544 4.2590212595829655
240 3.7550761304208544 -1.8170880451135925 8.544000081088704
395 1.9900012641344476 14.836428826211975 4.199818882422216
320 -7.5010635606722005 3.176601656174989 -7.6312339813286965
526 -3.5595387777073464 0.26283544869782566 0.8390328941329716
636 -14.12953245478063 3.0396291481834683 3.537122056105404
619 1.4121140896180775 -2.592544810114379 -0.43673097489959656
493 -0.9025235237134404 1.166301698303125 4.548997337176883
185 -11.458883250188336 17.801905272552876 11.051749457074123
55 -1.948168058474179 0.3757287939933467 0.7228103646519676
145 -1.4713206947719981 11.676946015719096 -1.9166112261055157
763 3.094680147105954 0.5081791349285918 -1.414355914185378
1307 -3.9088636653900806 2.562348944259994 -6.693335796488299
1306 -7.981330495542817 -3.3663677222998967 0.7571090414010692
1308 -9.746822264229271 2.038597892097818 -8.219366538716539
809 12.21422396649341 12.124706943575656 12.648451585538218
479 -6.880718441754698 7.571596577779066 8.6204843059037
1187 3.1192764631035006 1.9250439465448974 5.902946063498468
808 -2.7257479593950134 2.9851204804389027 -5.000063325088731
1217 -3.761675384169746 0.7409362631990999 -1.2435492055543689
243 -0.9206884059249241 -1.7551121056653236 -25.856046716222956
1216 4.515886884181534 2.5773404860894438 -2.8083112777039343
162 8.300110215261833 13.60960733110431 -20.78812042108629
975 -14.217340522403111 0.14189966437153279 14.861021365305422
184 2.3651030717811565 11.774123832991183 1.1457167720711012
973 2.5376962500807214 1.3305929068106495 -8.312346091892215
1531 0.4321610414717407 2.336181989115581 -3.5620638327254035
548 7.16102793481784 12.11668867908288 9.447899594013517
573 -15.841841313450013 -4.590897798364802 1.4545517895514177
765 8.878476139163562 -11.402792928603404 -2.092914657426816
186 14.668704324432571 1.3285704208025262 0.6867135848524529
168 -12.125349348473831 2.9668330248359482 7.447781110835961
774 -35.67839183786655 17.54374685728276 -10.32184410515944
183 0.04639198211734352 -2.4764757777309434 12.245150390759646
67 -4.047140582522063 0.011771568170115154 -2.09721628465532
108 -9.949184051335719 -6.186261709725853 6.78719286062266
414 8.067652908365794 5.2682203449291825 -6.58422476727005
241 4.068936112802443 0.4087261184942762 -4.198747851562344
242 -14.01356303331643 3.601226804613638 -13.779695058510818
106 3.035742076629033 -1.3369064641362907 10.406608493345432
74 -0.3497517280018201 -2.517935434880231 7.673395992767899
191 6.9283491460314295 -1.4880154794280704 22.238737396456578
413 1.0997654548010853 14.41730639025695 -7.368356636701853
806 3.978994595279413 1.2513946382833248 2.4642770411628465
805 2.961382395717263 -1.7144712360995988 0.45257963495004416
807 -6.879705872522678 28.628045463520593 -2.4989816205149618
764 4.91851872756951 -1.1121196525427732 6.858437457409457
1288 3.117884818358343 2.180787450354498 2.50517970167689
1289 9.985249453142789 11.616680016172268 3.1773268964543617
412 4.283811413818777 3.7552053867213786 -4.651658668631171
181 1.7660377463337598 0.7604590390937483 -3.4856357506856246
68 9.139047430197742 -2.913149526828941 5.627475361032959
107 3.388299765512008 -2.832720160894895 24.86662597206663
495 -3.577709639883978 3.8866805285050914 1.667884504637012
484 3.6506240016072105 -0.8346887877675002 -0.12982760751848188
1186 3.1717094995795927 -0.49327123946065055 4.70893412060088
1533 -21.306050377966944 0.5026882292972927 23.53975367806434
147 1.2217222315585028 2.102414275191922 -5.347642287271732
740 1.4857270966954097 2.1697928233280983 -1.7063902001852758
741 3.7042485931229088 -3.7618175135524408 -4.152504870357911
429 -3.793203731252225 2.3591906579893385 -22.570547792835956
1204 5.600275886218789 3.587712470099083 0.7809503713936353
189 -7.975577617518139 -5.360056723692974 -10.48334739546295
685 1.7241243502846322 -5.264458681330057 -2.1385214793813256
687 8.393267407250054 -8.041560911150608 -0.3745680284752684
1287 -18.864780202034883 10.819185403494824 -19.582891088587917
187 -5.395167194722248 -6.945543985527344 5.901385134710513
574 0.028973400208898603 0.48260238377236075 1.8344600500298234
642 20.407505200887666 -9.77807506532283 1.3606866713078773
1206 -14.880450492474933 7.453253290977279 5.0237092993947945
1205 10.676788221197715 -23.853217629673573 -12.221340409778735
739 -6.688074999288569 -3.6671517916886813 0.6657183930173121
1280 4.831550318943401 -8.755494070839774 -2.199956840368075
497 13.399096493589429 -8.706185879025233 11.741404073439584
496 3.6849226232142818 -1.589943666302633 -4.31960029645688
498 5.4288917879289915 0.724753531736116 -14.771274707436067
666 2.0947991095892737 1.1458071741290765 -17.373747779751604
1192 -6.566642883782147 3.4460719010056717 3.9329850130300414
192 -5.2606834706886065 -32.37970976844921 18.432515894875756
1266 15.058036769139878 -12.545100671045365 -7.4826701295926235
1153 3.123385858393213 -4.563315510772922 0.5871891050201142
1264 1.99153651310081 3.0626790160110717 -4.004714049843973
639 6.489728611048989 -5.32098683412705 -4.532322806097641
160 0.44469788884215716 7.302144598079421 -0.3916095856004811
499 -0.6113116799066182 -1.9583105364341689 -0.08393870024769845
1154 -7.358609874682128 -5.701892970984843 13.288250470451503
686 16.102618338782847 -17.27863118493629 -4.13065181435396
57 19.49479687472695 -12.798000784770844 -17.52811465704067
161 -3.6194032815833754 10.850355795415851 0.5736372957498952
394 4.3452485790996125 4.581287596932474 -0.9427153075767329
249 -14.180202141414021 4.278862839060393 9.303360775494397
247 1.6858388244836782 -3.2473314789814327 -1.8454399990953236
510 -14.088599646398523 -0.6613514861975602 6.110540175213965
56 -23.354719179033836 -17.08768983607007 -7.343751111007264
1385 -7.479769385341355 -22.02786349797358 7.480730561254731
1386 -6.808340813388527 -21.963929029296583 7.634837003855312
1384 -0.28405789510166435 6.729262717888235 2.528233827499464
508 -1.9554256574571074 -2.5297842247798115 2.8131422618510293
509 2.278259484609037 8.29708378863153 -1.7016891412711077
860 -5.262535338638965 -4.19061744729434 3.769036992382677
575 -15.391537967550253 -0.24755638593856677 -14.728203441576252
1155 4.660494778611275 -10.604705165908133 0.667407640484234
472 1.5917403540634152 0.9029760934840556 4.090116336359429
1265 -6.085944892721709 2.3532038338797037 1.3787817727898495
773 -2.4267779315640925 -3.208282166822212 -0.8638670003754488
620 -4.27935133799631 -4.439089292087597 -1.1713145379635157
665 -4.7949707917529105 2.052586946447314 -0.41656067966834165
473 -4.334816879166467 -3.8707963684930413 9.607056196981944
1341 0.9785639271567923 -6.858345202316318 -5.410084121089137
1133 0.2112428825398338 -13.085218304346624 -10.296377552645321
1486 -3.7464612602162553 0.7606640595305512 3.746753000225805
1340 -0.7700389789054634 -10.692907829334908 -5.168950065544235
1487 17.273561608977154 -10.878577055105714 -7.781743575775571
552 -3.6662277055166435 6.429654633190973 1.9957832032322589
551 -7.454497419441662 3.0629884827762597 0.4825506984330721
572 19.90130246954116 19.72940352479931 -19.810351408211364
1488 5.692558300683725 12.904125751564168 -13.57468470266479
1339 2.368244923853763 -1.9276421941062587 0.12071777612206552
155 11.143649381875317 11.54310037816744 -9.212191226665249
193 -1.6498189861030808 -3.7503220731858358 5.705602662869412
500 -9.625593276151744 -9.933166651333666 6.97057942191532
550 -0.46758153414021253 2.155658398540826 -5.101059419001418
571 1.6153502662990933 -1.009816887356244 -0.7719965343718272
194 -9.752496470987914 -9.319150517355855 15.860217719051459
1327 -0.25065045791152885 0.3497174223457183 -4.464473620936778
1328 14.764156813437669 9.159997439041067 -8.302841422591726
657 9.189301222791986 7.775015623690953 5.554356498934936
664 0.19222377493985815 -0.9393030548205176 -7.204936053367156
621 4.036326752006472 -4.582141917853032 -5.854057004116004
640 1.671669801521194 3.1809125946126846 0.16009343152979033
810 -4.855086748661403 3.109155717930646 -10.42018585564914
201 12.079918709482367 8.701461669621573 -0.23578147642369807
190 0.3201292629911371 -2.2233866149162607 1.0573280181369449
474 -9.206301180975075 15.289279925006225 -13.04726318323059
576 -10.739073222987265 14.634059235959944 29.24518613899118
199 0.014702746952933499 -2.9507303410462695 8.747102764148202
200 16.533970207951246 12.281744090297906 -1.3950558848192536
638 0.8643968646829481 -10.929684680653002 0.9577337003709696
984 -17.969406998277826 -3.161524421813308 -18.21820167540091
248 -10.050869297544173 -12.299703039663166 6.215278431427894
632 2.1627930256062813 -6.744377902164182 8.632611850791742
452 11.631581828237417 -1.5158989047088578 24.408769889215616
451 0.119252323279605 -2.4078747842992763 3.2295473933322945
169 -7.0574390338695485 3.295874308417477 0.7996571172851752
325 5.503765393536654 1.4500305790020005 -1.1089267161019063
289 -1.6239651305705132 -2.7063439331082813 -9.630342410988765
631 -0.7359568578782474 0.7193170360394336 1.6663035923207843
633 7.173991757480157 11.225813479524867 24.1741629703285
1035 -7.395332872737997 28.96844077224504 1.8661403415770907
226 5.0906681769752575 2.110752283170231 -4.611340051521116
605 -0.9498247479857893 -25.88890539902725 0.4305739036372529
1467 9.749412351726729 2.145633382956495 16.976905107842654
288 -2.530366778349693 8.128906016338812 7.371888295133974
933 14.932770650628452 -23.107829310433765 1.845418095419062
604 4.493905270287691 7.6543706106268266 6.561161476675826
603 -10.367707329749365 -4.075133236381121 6.219936892020401
20 -3.341529645816517 8.431742584098647 -4.365916044136878
528 3.8934194520339087 -1.9482575100362542 -6.46697908943264
251 18.150589130358256 3.8836697772821736 -23.031385734839976
1465 0.13728948878655411 -2.665659728734663 0.1131751782557131
227 -5.712958060421992 27.006314416514606 16.08868601316142
1466 -20.52649154006111 -2.7244135692789904 4.188246689354097
566 -14.279619333089125 -19.72851687926953 -19.05720207049945
597 -10.816625914653756 7.451760423602325 -11.531977378161558
453 2.7250770220008658 6.832389410054923 -2.65893378167714
1513 -2.231786420355729 -0.282636713613047 11.421364147282127
1408 -1.0123985559043285 -1.6028388124433692 0.4377119893555807
596 -25.954308790204735 9.446025693589505 -8.60487639557844
979 3.879305398593874 -3.1739209388191956 -1.5991533051339948
674 16.01345287874297 -2.284935180747354 -10.041809479062426
1364 -29.721289565050828 14.253169030593597 5.962529112047608
1235 9.981142014481502 -11.477715935557569 2.339644160487747
704 -11.380361337035383 -45.140324286926244 4.605764171215956
1363 0.9177724873702433 -0.3574036133851315 -2.7388272408250973
1365 -12.362354071731428 10.165309774361917 3.3987087994478102
716 2.6642108970484353 -13.327260833764047 11.70784068201816
715 3.6076123743827044 -0.790498196617416 0.7594666105945793
299 16.61526376739403 3.5442473147800952 -7.484598216923064
717 7.161407018195163 -4.534311858703974 11.958574948625131
673 1.7813270270260033 0.9399887482942975 0.6852836904874302
298 -0.8707264171098807 -4.602011022756403 -2.162825073650934
300 -18.821003733712732 9.424236769338915 16.486304628864726
703 -0.4518232819686494 -1.0378295802116257 2.719999945609068
705 -5.272341516778621 -10.404779568640581 8.682687187104317
595 -3.2462733171520965 5.802558008864667 -5.776356327336047
981 0.9640761308848513 9.846728738110585 -2.217736933517624
128 -26.95235196600325 -16.53875584685346 27.040699438301402
149 7.803588074840625 15.475137830526482 -14.242384212961646
1370 11.668259032668729 -6.102884246174074 -23.986897411649736
601 0.8684331106010768 -2.7564454888278673 1.645730639989659
353 1.808194724297267 -3.203255975044227 0.659739363109743
759 0.2803811675694041 0.13825587417864194 -5.429254679280649
1113 -0.23531315390725038 1.2153355225855402 11.944878906955358
250 -2.312333014656074 -0.03732009140178881 -2.3789897418117376
357 -6.748347576172462 11.424795385121753 10.022360086118812
1112 1.7225621009232197 -0.9900209917340645 6.847541046100074
1111 0.6119396132278495 -3.3884618424701354 2.8734172018453803
689 -1.3071499351563725 3.084108627668754 -7.6100509779776635
355 5.522302194370559 -1.8815520999327162 4.184090435136969
565 -4.222756327026444 -5.835035571131843 -6.762727402198985
356 -7.419567075361007 1.3008837523036019 9.492380253250232
148 5.225039288457374 8.09594120468814 -4.777051470006925
1474 -2.688865341144237 3.2999157848475704 4.3088761414696855
710 -0.039970504223157954 -11.93344938164573 3.829578703939814
291 -2.8064653182260892 -0.17519357288941206 -11.530284427583958
150 10.682142988645367 -10.216324170287537 20.33167722469084
316 4.237571145847915 0.13394389523542455 -0.47892965951392985
1475 -5.747468430185512 -1.9080694558298648 -5.950538641314569
1476 7.175227019137234 -10.202209347396458 8.27429188315954
1107 2.6604787483247 -5.762021829422631 -4.646753895558953
245 32.26464402249532 -6.057765165129297 -7.024257133665813
417 15.836440500672621 -21.72046867741833 3.0560311887155382
1193 -18.421523789606717 18.765666343734903 9.756430563415911
709 0.4851162287300085 -8.121094756839007 -0.665795426199357
711 -1.3834443496160036 -1.6951059892641238 1.200719226146909
675 2.6099880088933927 10.12726025550317 6.078367213805673
398 0.9058191611575434 -11.070591553024723 -1.8625578672074488
1369 4.913071494602812 -1.9140833073699208 2.172542571356864
514 -6.3820897742610825 -1.4954053623116197 -2.1893326784189386
515 15.186321956646104 -24.33829038094569 -17.328668180627126
195 -13.436290176600593 12.802751891932544 8.670126709096142
244 -3.418723135709493 2.3788540149523376 -5.289600598674205
246 0.44442910158301485 -20.13068722220851 34.23826831098136
310 -7.075546412821478 -3.6310869185722487 -0.8669555606416502
312 -6.4436902061074885 7.722324671756968 9.443225144175436
1034 0.2248046002011801 -2.7888249037972024 14.425347511119558
1033 -7.876110664123129 -2.722311611714 7.406456281675698
641 7.531421111683032 24.582977903045446 4.872791958357025
965 11.581228296088694 12.994276663510796 23.63220916586589
859 1.3893658707800425 -4.806654115784681 -0.4004080178774714
931 -7.856557747697118 4.501268731219039 -2.6119835679740993
1067 5.224776726167725 7.770809266983053 7.1393377080185
1068 -2.816520376652349 7.782336325827737 -4.221900995186688
932 17.384637065386634 -26.349342500600056 1.2167842656708268
286 3.26211613676683 1.960887861973771 6.2660269881928325
878 -8.605329293948916 15.33724059636917 -19.11338316503929
877 1.009431299181368 1.5398958493566972 -2.946594333917971
693 -8.56496208488826 -16.90411721902087 -10.89719487664923
879 -8.726570055216081 12.919560410040841 -10.426311560986932
691 0.4074822706869251 -3.5952240013685905 1.6762175132530956
692 20.72766574931909 17.292856308931924 -6.473448250688575
1362 4.635430140803474 6.359014119666515 -9.80968111346945
1360 -0.6627325777662544 9.420619933406607 -2.0570445325912954
1361 -6.7510204825977285 11.606243621421907 -1.8606995524700822
983 18.077339925786546 -7.671923838125821 7.501305530551654
1066 -2.7561762778174996 8.535418894920616 4.2820765518203245
287 5.5363787190203 1.2786273066916605 -10.940255408000167
622 -2.2836101044248815 6.227788742396104 5.968117661142762
589 3.6990660826697717 1.7699098207081476 4.993856714267296
336 -4.009594114093342 -4.4207064695898985 -13.260779461657641
450 9.342488550627012 -20.447241191740176 -6.321593342592781
19 -2.752331377761904 1.8430944668720435 -4.6279848250380065
415 6.652548181913972 2.5269693296155844 -5.80597891501235
440 13.814459534786405 32.19776982149499 18.81458362797723
399 -0.8095484383462309 9.067119802051073 2.5647858014083647
21 -0.00808375815010276 1.4938588052551525 5.398623689136813
449 -8.624707542776155 13.447839142676715 -13.606468734282627
393 -2.831746334193582 28.090737505299188 0.8286052193944169
1535 12.753221472840686 3.0039428016881087 3.1480975831450753
1499 -14.569871021916205 5.490483489690442 -2.810906902939032
1098 -0.2235132466399969 -5.853961994540441 -15.869465754499291
1498 -9.047761240357783 -0.17252000643205062 -0.007007487353889785
1536 12.869351675402465 -10.682032108221213 -11.526848554465106
1534 -1.3015272727900793 -3.316521514860793 -6.221157969295504
392 -0.9956401555273571 8.074976069805881 5.444301942794704
483 0.7747607040693231 -9.006821728499554 4.599340121623795
482 -6.109321636767422 -0.1636418249422995 -9.985789408035497
448 2.189291866006275 -2.214207345979013 -0.5815301827148507
481 1.093906238831375 -3.4536516130733643 -3.682499387779569
391 -3.2944527381727107 10.73939826412375 3.163706194161865
1500 -8.726464859810674 -5.164480745311716 -5.1649213790522515
1096 -0.25959894202476747 0.9291020803577574 -1.8944784450220387
1097 -2.0886559426402114 6.469044789520073 26.843561750302758
792 -22.520386403387576 2.3221391045804554 -6.792945614987717
352 -7.6755377835948115 -0.9586896934440277 -1.6966889628995268
516 1.0075649349554894 7.864793832617902 12.671673145196449
1115 17.911958743432482 -16.396234637443726 -12.292565576526478
758 -23.308622084499437 -13.893214216353083 2.4279118327155484
757 -0.5203771412971085 -3.0956460269505945 -4.298102590256653
690 8.076783500706325 -5.399249268750738 8.5924862241568
688 0.4698324162269581 1.4049242768414445 -3.803320815108498
433 0.059952507679873285 -4.431413751751927 -4.694602634555278
791 5.5108470694487135 -12.543338968986125 4.9161900462782695
1114 -1.7412506116719955 -2.1901078245916725 3.067736926961412
476 -14.789624496000602 -2.0010501318095604 -1.5981615877750712
1 -3.425014086669351 0.570802332025528 -6.074224772917918
477 -6.702582781944219 8.945822850260338 0.07579008048865732
354 21.699798600639635 6.530241977300107 -7.873739588196299
2 6.270954075399178 -0.13964334078836854 -10.881334537652299
623 2.438409084835926 -0.010028624285874699 6.4682462582804305
602 4.347349609586644 9.285148244837359 7.955806189862788
3 -9.797597294863026 -3.586313963155696 14.45637778802207
475 -1.877767384764132 0.12137444993872304 2.0198517159724187
1116 1.2163073815392762 -3.8361144706958386 12.168483435667365
790 0.32002349388960305 2.561724461972867 -4.597375318500275
441 20.486892119450914 -7.077138412394749 -22.908898735711382
311 0.28910127034328337 -15.198808974203093 5.3120059415726155
1234 2.3503884359539424 0.043878265436958275 4.166440319503967
1409 15.700541058576434 -15.85590708549403 -4.69364411066314
109 -0.32864526557533214 -2.1525339349541928 2.2009557287328576
1236 0.9213671373441685 2.5235883440478353 4.775395258795604
154 1.606395620056532 0.5398594438269175 -1.8325228953633945
721 5.376234321737247 1.0896768666175602 -3.9421552218888083
435 -4.262605088063697 0.35568181451088865 -1.6517596912752226
1422 -1.357728552543215 -31.167272216075673 -1.841193419682088
1371 20.26937573354971 -25.73701442532171 26.516135488055305
723 -32.494427057376676 9.749043779302433 2.9015492732131603
127 -5.10182302387262 4.50603584080395 0.997138973495884
1410 -13.753090718060161 0.3848683950370173 13.241846658685276
416 4.3762626137477 -2.1928503967192894 -6.448207115186567
111 -11.859333258857351 -3.5669046589349502 -7.139937013255517
982 -1.0149028711598753 -2.4921208919006776 4.781553295938263
624 -2.1876542155376346 -3.1318413824965132 0.8488266460493854
722 11.309274741890555 -7.3832903796274465 10.655988775954528
156 -2.5898630605413455 -5.81952788385721 -3.4662712609694513
980 2.146866271311689 2.3235297822617236 12.596197063954001
228 3.0074639619509 -10.593730221964428 -0.8846777468723492
1514 -0.008988576793808711 -3.5247340449207596 20.632316633081977
439 -0.8825343460078705 3.2973237483392728 4.191547767744671
1333 -1.8115691962740592 -5.483027187611745 -2.1979493260910794
419 7.129893287025379 26.613034148782205 8.871408318346434
318 24.737536518269913 -5.725880961518781 3.982225390991922
327 -0.979621004337889 -3.875059560941175 15.31699205205485
397 0.9713394907236494 -0.9545968756255314 0.8424442267764598
110 0.86828843460527 -6.628873787732854 12.312129580041926
567 20.230342156388783 1.1897516247889 -4.278003740163861
177 14.44038957878982 -1.3544564485607244 -16.126493912452574
290 -3.6838540881032253 -1.8237442588943364 -3.987319836722171
176 2.4664244795830137 5.620971032133662 8.650754642432435
317 22.72684497404599 0.6323726032806242 -9.504968730044784
434 5.3844558221144485 -9.147718250187655 -1.7228174315228908
428 2.4500677645627373 -9.702405839635171 44.65287806871339
276 10.374974506035233 3.003714012705184 0.5044856192346099
1334 -5.645090191032379 10.989092967505556 -21.73160934431371
1532 -11.430482818335634 8.333457181593955 -0.1859016368140589
335 -7.161679247173978 -16.98375781119399 -8.115083183107703
591 2.146708155300554 -6.229513566067081 0.8650893090320166
326 -0.7651070538562328 5.571366811167067 -7.6770427293368035
1335 -17.357709467467405 6.218036728321808 -0.31733543156621735
1243 -2.352903936494017 -5.14043047036183 3.1612717853612025
781 -2.832680915534784 5.797258217377855 -1.417884688477378
882 1.5395528933016773 21.269568324513667 -15.918121789970208
938 -10.919489297211346 -30.14380425138678 -2.686977956993408
880 1.7959480230625464 -1.8822660348241413 -3.8983465575759317
881 -24.319173262892626 31.281855969855155 -34.43218127005367
1196 -1.90423504934438 -20.484844377297264 11.31733596622152
783 -14.123314171901573 11.553805455989599 -10.648325476597353
921 10.32825493809358 -17.29438616347584 12.463361372565064
919 1.4689537414679479 2.8442616800419125 -0.9115074416395605
504 9.14390342638552 2.1514177165278174 -1.291487186663457
1322 1.6909700620399828 3.2272709742040835 -5.113555806388814
1244 4.589077468056121 -1.2369577446207822 -0.7272951055574053
937 -0.86916867159155 1.057843256721902 -4.829623166736628
1240 -2.812775075530015 -4.084700860623651 4.575169898041283
1241 -4.24939236828834 -4.524263445568017 13.164965068815627
920 -14.153569265050741 -22.572474065417936 -0.2840914243228525
886 -1.217518627896676 1.0797583746856008 -0.25705804200907323
927 -29.174261730142824 -0.8247829309840462 -9.736615262150625
123 5.850575307875049 -1.7544737329694051 21.698381198868105
794 -5.552284501316702 3.5109185478661336 6.542021277889062
1210 -2.839791254715506 -2.7781612081515075 0.6828081478586843
1242 -9.588281850729278 -5.213182061260095 -7.795373112784118
237 10.823394115627229 13.60142854608426 2.364216804095687
910 2.921240219423737 7.51404146329976 7.633225122879572
173 24.621028697142055 6.364374311552013 4.151837445672113
1269 11.824555387228077 -17.45200546749925 -18.534430660914367
769 0.22081928550751995 -2.060237886100099 -0.4915148466071454
771 -19.29772504032957 5.2036797163995026 8.984024683390622
770 22.11337610867898 -17.86438257164371 -25.389577318452176
43 -4.104365091952653 2.4666683308758692 0.13632575106900302
44 13.399819732774086 -2.251259017617539 23.61381657969656
45 2.36115854173215 0.7171089289643975 8.838938521169915
1511 6.701837471901804 -13.245026330652852 -1.8242657203934347
1354 -1.3934225365732087 -3.8209219110676385 1.3078324913059143
1054 -0.9229509412365722 2.465431220918142 -2.0083580852434366
253 2.1082333864211393 -4.980723457125512 1.786363740953556
122 -13.475040218637288 -2.9467089660481585 25.208798377483078
37 -4.45247231674243 2.1522087840929878 -3.9310431307040044
1310 -9.662902519124849 5.647037558028658 -13.128854611853717
1208 14.895175768794262 -27.125366608829147 9.780014466121749
1207 6.976896717704757 -4.990275847254432 -3.4861537582701447
431 32.63786826950688 5.95759493467375 16.224784760920397
30 -1.2140310620645227 1.5828188295987873 -5.6371362595913155
1292 1.2391821021210367 -10.264365736714467 -33.43606972756213
822 -8.634156405970819 5.044470203194909 3.316646022887433
1209 5.589717541822216 -1.142707430817282 -6.109542723606623
1303 -1.6786335488348345 5.236807808182355 -2.185522757313978
1320 3.232054301568075 15.599943616964078 0.14919417626788883
925 -2.673225198326526 2.170691320262788 -1.362019714587181
926 -3.267082850185676 25.58646786614809 12.754959684368602
1250 -3.4834678394958756 -0.8168493836532049 24.116643346239172
1251 8.301830557300791 11.862362783850399 0.283725875112566
1249 -1.5936354943847446 -0.27772262134663744 4.061490221763401
821 -15.863206078302609 -0.9520892225409865 3.8017832225779316
1493 -3.989654516803354 1.2775667008521774 2.3518448459833747
1492 -3.9949059084314875 4.2790192981341 4.530136695279637
820 -0.8874197223441129 -1.7659735081261325 1.8576345917432726
1323 -6.323047297133796 -3.5378644792381735 2.4045281538310546
63 18.735995080343848 -4.261526754158426 -0.20133380417119762
61 3.324714565412422 -3.447802145130302 4.3604584501088715
1355 -1.4902017347746874 0.4664463497030211 -7.309124909415796
38 -7.153036100908465 0.7663561533021364 -6.503250585475143
968 -10.243147065061216 3.961526467768291 -2.4542199115493046
816 14.41485952469472 7.659696208082379 -15.708820483052577
1494 -3.720792029230839 4.641024713887756 -17.634366036525975
329 14.6344850794938 14.823506394979868 4.366090419186186
62 -3.010394338583511 -8.228184939161535 -5.780081918902247
1321 -1.5331418164247719 4.7176109698024264 -6.181997087102824
1512 -6.387859430390419 17.41084335903522 10.102292748796414
1260 -13.820478898514697 9.031753675578813 -24.146130115062054
970 -1.5862250330606233 1.0325008898235724 -0.00013205133761862164
793 3.081785815395907 -1.4748525682895264 0.6515918925573778
948 -2.1827069943154376 0.7059173895100583 8.327779379185234
863 -10.80161151156933 7.618226318651204 -18.314089009898424
941 0.06539673579275096 -0.37853413489972776 -2.9750775443592774
940 2.038945733205006 2.15642645530838 -4.543605509727604
864 28.36109331507852 -2.374940175786598 -3.98438293720252
862 4.921099876696842 4.31877852632357 3.5763444464090113
795 1.2967272572957265 -8.022170813544758 -19.51896614935037
1259 1.916777755856411 15.960608055645203 5.707228758153665
1258 -5.977084653986852 6.448472716660845 -0.4902549941936759
942 -1.6507147632018133 0.3828075091869929 -2.654430948104193
302 9.376444169450213 14.640095628910455 4.653332504180373
235 3.2993512983795745 1.0343304208652455 -5.062765655637605
912 -4.034351460891365 13.32566990747592 28.009827691976636
328 5.073208397698086 -0.23860363231267956 1.9968619542312291
1305 17.598249388242632 15.325928446372068 -11.862770553375341
815 -3.1426263117858175 19.555712057112395 8.363843288330063
330 9.629219554331778 0.6160343458351935 -21.592848153932515
814 2.1347855407887883 2.706815990683901 -1.3540931735878945
907 2.2052748388192693 -8.724518999325396 2.1488044267711377
908 -17.148841516683223 -15.781514175713237 20.852384820540987
1245 7.413048294317389 1.4794146151090608 -1.1881621919337668
828 -2.403625202250507 1.6405226324151663 -2.423652609563438
826 -4.460277888885933 -5.325139789293055 -0.44035828721712816
827 -18.4515677320083 -3.9371666171447015 9.387431166981548
782 -16.3377158834359 20.673824295278138 8.866395257127525
898 4.046556712746673 -9.712403485757312 -1.9017066832934466
39 -37.344414949362324 7.83122432500018 -10.14120026985556
36 -9.02930213635925 25.62676837703948 -3.9300540002157196
125 27.483731095056605 -1.2169891211586465 20.963815124956696
1291 1.464086228088636 2.177604652171653 -6.462589332233891
124 -9.655900551085438 3.190331396311942 -0.7904929416317455
126 11.7425350510742 0.9868806896556654 7.2023990608730735
682 -0.06351027173500179 1.6951758589703156 -1.142000797346363
34 1.4793667770785932 -0.6406785418048794 -1.6203533437947397
1080 12.988737528508823 -10.923183741101488 4.341515853745397
830 6.756431020073416 3.3189389082680667 1.245104101736536
831 6.384126206485144 10.806272800419594 5.332526965484558
829 3.3276919926838895 4.097781271206066 2.065241698081649
702 -10.18382865144089 21.45256725169662 22.91083012710147
775 0.2832744734924346 3.227303909163146 3.5418074855323898
776 -4.186965440433948 -4.77324657261423 3.738853346954396
35 6.907406036724043 -6.374471445589085 -16.14498902546565
663 5.99684448812763 -8.54015474885496 -12.347583192586033
843 -7.668718988983516 -22.529572067123972 -19.05248831690639
1293 -0.22428151598653656 -5.547334728384891 -11.242147852363
1309 3.3853156266146627 -5.862096796436955 -1.2083832606369669
254 5.633184740886447 0.28837481231518325 -8.505655060054051
121 0.9152200213143609 2.573001584339565 0.06632763749145276
971 -0.8937777580067563 7.382892001238352 -3.2399343553266027
1349 3.7279425854141723 -0.26251817622855866 -21.363147475225844
858 1.2674211266286193 -4.050909884428346 8.25274484445555
1078 1.7884022529915713 -0.324015800604737 2.6338370064141783
1079 -8.436790883112021 -3.6929794494505295 -0.7600804391221643
267 -3.791202532026587 -3.318854373605668 4.364985373600003
683 -11.012249302913423 -1.3516792985930288 -22.340594633798503
615 2.1227935025599525 5.111550599268432 8.497278353787255
936 -3.618207155722386 -1.3096766565722786 5.318888058784469
909 23.283201416400427 -2.8073391952321023 3.2927561352623393
51 -2.2043672304343978 7.973956581766014 -1.9638449939312042
49 -3.185318856166452 3.7392736173105083 -3.5298209008228913
266 5.970900127561666 1.0116608947633985 -6.290029594177155
50 -2.8749933730485275 6.716739268669498 -5.259236073543485
502 -3.54154016081735 -0.2861358410590171 1.2654678333412441
265 1.350131679701956 -5.976081781933818 -2.4684272368953164
887 -6.6859090332578495 -6.554641110406098 -6.986693059030219
1089 -2.0153561123416317 3.99701288783431 -1.1079485327703105
255 7.7297070730244 -1.2581798149877574 -7.895315285254154
503 1.0281278750397966 -2.312614359552633 3.548544561589085
900 23.4325912871565 -18.418610068095454 3.434282541224403
836 -2.2565516332591224 9.59984256345919 -13.742723965685464
684 6.512309448576973 -0.9210761266670162 26.447146493591937
1129 -1.2691499628609 0.7873768028482362 -0.815838678855936
796 2.3466769281892184 -1.0506087838743419 1.3496131186555556
1326 19.241746442463423 -12.601485969202354 -12.085432496259127
835 2.736184880543707 0.7353889323914714 -1.9760148761935001
837 -5.608914591026666 -9.532822550318302 -1.9228532085795194
1325 -9.589078795990611 -11.967042621622248 -0.1406416508726358
1131 13.806026101737169 -25.838965862655925 12.46172124317338
1324 -0.9244241217549063 -3.2401781988655864 -3.5531719097690893
945 -0.7442366593313973 3.013122871415032 0.3491322336267749
997 -4.748378025498499 0.4015642018164959 -1.8494736705116521
999 -12.612999326915492 -1.7479436273201503 17.234373330232998
998 -5.276619013532027 -4.3754247420617425 0.282138829194002
944 -2.3256797521515304 1.4460811405426006 -1.4298500923563666
943 -1.5105702495913658 -3.773242859735068 -0.4996681902584484
1130 17.80024529355048 -14.066499333080017 -8.919491624188446
15 -6.1097670107342505 21.95959519541952 -17.4345873163853
955 -1.4364404053227182 -1.1533442156633866 -4.695084559849214
512 4.653286537588559 -3.7397540203055772 -1.2913985590238957
1268 -23.461290760237905 16.34656786255063 -7.698352622441165
172 6.946295207360909 -2.5309249204598556 -5.953231721124731
1304 -18.278131157444165 3.1072794369560515 -1.9579376782384106
301 2.8558757582065732 5.437066702154588 -5.686362623683076
1056 -3.9535159215354714 2.8144730533224793 0.8158173619906994
1319 -5.999945878527682 -0.23665086595256035 -9.860047140357196
1211 6.7715069971874176 2.637530721851838 -8.065573236885044
1212 -4.158029191501824 -3.465700087153534 2.1789523137753264
956 5.273688654188182 6.102310497483042 7.857813347855658
303 15.48158408297098 -0.5548377209857822 -7.562434631313609
924 -3.4987831123077893 -1.0939975120389032 -10.632031954228273
511 -1.8585059397642485 -3.0415966362836997 4.671412642738191
1140 0.6034270421193559 17.74125238796055 -5.953352019004072
1138 6.583269950627449 0.32303708437371514 2.7930679760865185
1139 14.474439901712683 -6.68962731065959 -6.321502277885884
513 25.52249494936411 -9.184778045755072 -20.844215359886505
957 8.400408115181898 10.006631939244006 8.221014897510543
1267 -3.5740199225336697 0.5736246433338155 2.1551018853207538
798 4.4270718345062745 10.132027488399999 2.396793744025536
797 6.202315903305244 2.04626323920923 18.117020478520217
923 12.570209600468054 -1.1234623709512017 -7.779619350469098
236 -1.8669415407339889 17.424642915047755 -20.77349102482248
922 -2.948753185544186 -3.553386049130468 -1.8995106060076001
661 -1.1442879332669835 -2.32235784721121 3.4716726613327853
1497 -13.36871757635067 15.364962094437102 11.155364520663301
1318 -1.3022512561174928 3.630905993415586 1.0149192498947575
939 -6.1006177737160385 -13.479914484663514 -4.88080705219962
700 -4.438497292700747 4.394945531812964 2.353483296382221
972 -4.7835079318121 -0.3167044628839617 -11.718133396355203
1076 2.3647119788475117 -4.873037517856493 6.804678041641218
1257 -9.601530859749184 -16.417470539612903 7.503056430753585
832 4.1310622557997965 -2.4925076541314883 5.46594235575151
17 -12.580622205245703 12.58799172935652 17.85535549183006
1144 -2.5730670271416063 -3.7346269705039887 1.1430737500386305
157 0.055674498403753936 -8.052709396737738 -3.7466033711855977
1006 -1.2605201338580891 2.594931096630111 0.36015018851153097
1101 2.122067317461717 -15.153465498744591 -11.582717170689836
1099 -4.8451846481288054 0.6385411045761188 -3.168945124949496
1100 -7.748001822924878 -5.602169915160743 -4.017561744978192
930 4.806557929057194 -18.279791404196366 0.9994675771595223
1345 -7.5101536941777995 1.4090183185599814 -6.427361961712395
1346 -2.3605525405030408 8.87728595894562 5.686358042594015
1087 -7.149119764334148 -2.3667164635442965 0.924946078076036
331 1.7525238155078724 5.219761643890499 0.20052081389145715
210 1.2116803419666262 -11.217666832649586 5.995867763561325
1018 2.7477336134037236 1.6620291141708803 7.668283709582326
1020 -12.321195639596993 1.149867633810592 -26.05420547952869
1019 -0.8998880168153185 -2.17868973125585 31.474656834160687
1359 11.475904389380005 3.2314819616660513 1.887494756637265
1424 -3.810700273876843 -3.0477929417037113 -22.56648308340485
1136 29.827256113009703 6.538955719278428 -2.1747077497236926
24 22.234251025837814 0.22178717368115652 -21.125808566278614
98 -10.199312769377094 22.672133284590487 -20.12549889695749
888 -1.781421228367466 2.6426758858049064 2.520802939407305
865 3.1849348373258866 0.3582864359955351 3.7526125809334148
987 -1.0466711230743844 0.7470237134081095 -1.4377852982519608
1195 -3.741540716418228 -8.906524586492031 1.4352235382018799
1085 -9.682368095403735 -14.981003858235942 11.996668590790765
1197 8.429732084138546 -2.072653945959946 10.808274448997198
364 -3.1657907998811425 -2.461896944066509 -8.747835784737232
365 -4.122860684582886 -11.70160947072819 -0.6131717225355837
366 3.3489055492603077 15.40690804442425 -10.916249451290396
205 -0.8037589536476288 -0.26520360009300814 -0.6959141775702278
207 7.967457483307387 8.20280829100054 18.337739462137467
206 8.271410778088988 13.429387478414577 19.314601445288826
1145 -2.297957554297761 -0.15628388019577333 17.26166679745372
1471 2.576112611682197 0.11764864018568094 0.8106265997623308
1505 -0.1847494050217171 -4.37200684627385 -8.644461384815012
322 -1.729031729810176 3.6463245358490766 1.6349706915863806
1037 -3.1942761782284412 -3.1673840247692153 -0.9826418978265083
1031 14.796569561459968 0.19194893489427844 2.5925275538530266
1030 4.443919496097413 -6.015822538994593 2.3171727783106912
1039 1.7872203840131806 -0.898956145487774 -0.8205645579765066
1041 -20.10039063142529 -11.479473063725827 -9.471848062350068
1040 -1.2113804166283062 24.841344155037092 3.9417003521031937
1004 -14.676976705524893 -21.03379080292852 -6.1641679545782
614 -6.284226538663447 -16.444490459801226 9.020759943983169
306 3.146445870928719 -14.565198450764619 -2.9810560868711793
304 3.9391032857968193 -4.171212994478435 -0.9589539599581428
613 -1.4871453450459688 -3.8286995153967953 7.402424184728721
1423 2.423190009267326 4.149764898953157 1.9776629811925341
993 10.652729389989736 4.520955987825097 2.4350088350967116
991 1.5070196363708181 -3.9512297848888194 -1.0255138409023394
994 8.306019165231728 4.285639265896067 -0.5043746700780857
992 5.3716314056375545 1.2294491752752839 20.852277956780554
1404 9.493937146058315 13.448663355367483 2.787084501803993
1496 -15.319808590173398 11.088485698301614 14.673998406485563
929 -31.50879394447028 -10.868424774195082 9.154868782007664
903 -4.299268298589547 6.3827602626354505 -9.256361172125288
996 12.324380340667076 -6.322654815469926 1.670973438148529
995 7.623439984177096 0.1582610324618825 17.555680272066134
1506 -0.26287214206842524 24.640678437037856 -0.6391394785112354
901 -2.7477815747531094 4.770943942909659 -8.531406781506046
902 3.6547411921206985 18.41000775843556 -12.991197292399715
1091 15.354656253393449 14.347030660424164 -1.809842654938044
928 -3.155127780535161 1.023017160043148 1.175028222221692
380 2.4799361227254857 -29.11763824065499 11.64130571870447
379 -0.6292060414484772 -2.027876645275907 -0.11889143995983237
381 10.46988303136169 12.6316664160937 -4.076413490790991
99 -18.708552051297374 -14.172007580700557 2.915117639014488
1495 2.3870583240180183 3.0266415019140496 7.735361229903468
617 2.7676023365409197 -6.088249917046928 8.565029026474972
1425 9.338042125176159 -0.7139333529335183 -14.34810038081416
220 -3.971154394966855 1.5220403451956401 -0.5764404023660783
1032 -0.28975085729015415 1.9298371119453952 22.825979206158102
1090 2.633082557152906 3.711471783627725 7.4103611054537915
697 -4.204005261253948 -3.25141164621346 3.6998491217892218
1092 10.0000241391438 -3.9214616585297812 -5.664044655654242
135 -7.7778198501608955 -6.616387720261537 -1.9095056896351117
293 -5.872286635019982 14.097593447162387 -23.962228233978585
1086 -6.481783558948889 9.197656962652998 18.993821828794665
1055 0.7492820106408798 5.113356663177802 -2.032970595994117
134 0.018900297542932876 -3.038906288842606 5.998319013458285
133 -5.3522331480826875 -1.5070598726151725 1.8857085048441862
305 -15.947959556564415 -7.916911971575386 18.04084383601091
841 -6.939096410768186 -6.30922689393433 -3.525721431075298
840 9.348632255034618 -7.860305673048451 -9.428139538568281
699 -13.334570453458138 -1.8330622324947576 12.49472010827508
698 -7.890143964585101 -14.1791004364691 -1.6577456830841895
222 -2.660353639009492 5.782129442251939 -1.8975524509266315
1128 3.467765986552643 2.398396312635028 7.190143873376687
1008 2.2132538307855754 13.704640472979756 10.576772995271927
1137 -2.0919971070221104 -20.094474791929205 7.199605905037035
1122 -15.475925342597947 -1.403975996488806 3.122011255371157
788 12.514375918444149 -21.119729968899456 -6.042207272325185
985 0.8416555816153943 -0.8981608570281652 -2.515498234370972
1135 5.055508721793527 2.801653037070084 2.136467372019748
1214 -1.9324569784132417 4.392618157308179 4.327391452509783
1103 -4.14937497675662 7.979156074606606 -5.949120570182621
779 21.330712124397227 -14.363922199553212 9.768603162554454
778 1.1147487555699742 -5.348200322451504 0.7812286267836112
780 -4.585150755918427 8.574515751973191 -1.7563933855437273
1120 -1.6272296439256633 -1.5720225184835317 -1.3569383023371122
1121 -2.3253263599619323 -2.5702154510681776 3.9967355501125184
978 1.397566179628737 1.0739241170941685 -3.153095879651942
976 -2.019177076458537 3.55228996651661 -2.331516069921066
977 -2.2701064517959217 9.834741450456129 -5.334455909254686
787 -0.443597803614464 2.221363868540976 -0.9182596947634989
789 0.9640166237676525 -17.89742153356106 2.8657632015516414
1148 12.385221757096431 34.386295932098946 -20.751715236706225
1149 6.999431040993516 37.52424640639193 -1.6048362345058895
1102 -2.862001211764228 2.887383550654952 -1.9187243443465052
1147 -4.279633955113106 0.14684434479457575 4.420239150493554
97 -4.513114385102817 5.639398159414565 -0.4106602568456945
866 -6.235152478557659 -13.448109759417365 -5.529642670024485
708 -2.1347248460946373 -4.2418792666697 -0.05314707338930491
1504 3.3003355302861657 -5.388400897423929 2.13621698320702
1402 -2.4257261250782016 6.923115360432861 -1.3065465339812201
838 -1.4452792632698024 1.0469389258433994 -1.3498880507975564
315 -6.3659326946601835 3.830894202636684 -1.0735440891078252
313 -4.854987849588434 0.3710583106829399 2.3828759913435196
314 -3.010866914767059 -8.354327672499466 11.647559146799228
1519 -5.089960507829945 -1.9439749459271118 1.8848515389478364
1357 3.801465406360749 -0.9798714777614104 -0.17647574870359622
349 1.848882866240656 -0.35875399192017055 -2.3540458079498174
1521 -6.181678189407896 -2.702778292508602 2.9683911229156896
1110 10.447206322249029 -2.142006880838464 10.34481641984202
1520 -11.107922731521366 -21.51242216352733 10.862811314619124
1108 -0.5325617110190548 0.4231605245507649 1.7934576980893833
324 -5.949988319069591 11.345780436463077 20.685864782737003
834 -11.231235911323848 -28.817712266306724 9.255150485074402
1109 -5.343571901596518 11.192823090336999 -2.026393164551306
362 -2.0024735220076204 -9.922727347216423 16.605259465689834
363 2.7276069112228676 15.415850350746133 10.392121213926394
777 16.287305116662782 12.304941526880203 -14.63367019347054
350 -10.814574365123766 31.00194428441352 -10.644519272925203
388 -4.417086477003682 -1.2189996448762033 0.5260692656848746
1302 5.568790967284992 -4.073116705526839 -10.871713128059254
351 1.9308514322685046 -15.537135864529722 15.041420699293983
1146 -16.434993185832035 -24.321253971562367 1.2305372151394427
1479 -10.456090071319585 8.812977335312386 20.626732281560013
1358 13.611359015748679 -1.2931749574749103 -6.2454468205307645
1473 3.4964846452677643 -15.761012259091567 -8.298440014486973
1300 -3.0817225828173394 -1.8097232632626636 -3.1768876788330553
33 -14.23716194235087 7.330983243333559 1.619133715572115
681 -22.258007279112533 -5.282191782847661 20.125866765022398
333 -15.150063007458499 0.2967414058503399 19.632578056559606
32 3.0955197298138692 -14.424993637638405 -32.01682502175309
31 6.41816659184529 1.300760850087864 -0.2258537571093706
1220 -4.9656823782511506 9.083735097778497 7.706735062068429
1450 1.9426707783296113 -3.3205990638927325 -1.485973431850617
1451 4.8935942319465155 -1.8678379889662482 -4.2498471386321945
680 -10.16623902234228 -21.272987590175983 5.957210499511137
1472 15.063537411420649 7.728192412837811 -0.30007974111374186
1443 8.84993734186747 4.152206468439284 18.051445765440665
1441 2.5503793407555904 1.317306736651946 3.8261955015411164
1442 -15.41611852766579 -13.474864373515429 -4.376411843145727
1452 4.508765281308877 4.553043044490843 -0.5424453879733098
802 1.6308216361919674 -0.366718557657726 -2.6841619744521594
679 3.5492496471128674 -1.1863821322840127 3.6860955823358106
332 7.609995067848512 6.000173934192095 -8.49418305860172
1221 4.306466565804158 -16.80620718881966 6.017634435028187
1104 4.511505973992399 1.9544590357427252 3.995241928843069
1219 -1.8289801581984118 -2.947862980577522 -1.7142470431263204
1082 11.040456941917483 -6.132135223080065 8.501584543670756
42 -21.778575509806423 -7.4497351969469054 -5.750319417103026
40 -1.8611080111893838 -0.6153893031766776 1.3559974815436329
1007 4.481053128593792 10.440080737892806 -13.628547901300315
1005 12.80870106764725 8.104475143458952 8.299501648867725
986 18.846694134034113 -16.489735161698043 -4.89953417820231
1081 3.8874058458236598 -4.8583935974700285 -1.7778841837346202
1088 -4.900141114981361 -4.142041983059564 1.0091006066961292
1440 -15.597883291719683 2.772747805782286 7.4115597371381
389 7.147323952633945 -11.029783742501083 12.828172617844052
361 -2.2640008329543737 -5.318624765847044 8.656405861325132
839 9.40651574680026 -12.043928728669842 -10.200024155545169
281 -14.184102882365686 8.22819949387398 -9.9466843995845
1003 0.2201717074520443 -4.41586931952596 -1.7316052159804622
804 29.954594772620833 -11.930684073291632 8.577399530135972
803 0.8110891195357715 -0.5477083520825128 -1.4265833944565718
842 -4.526591942854015 -2.055884313116586 -0.8848527440405061
282 8.436849951893716 1.1152060005417326 14.315799223528845
41 11.353171736093813 7.771313647829494 -3.9948694372566367
1083 -1.4586464296657589 -1.3870744985681216 -4.789199691174556
280 3.0431292328621664 0.8406630675813574 0.17877108264255673
159 12.050915019621609 -1.5752229540911893 8.205624564804767
323 1.0546918337669309 -15.308427302818178 0.8518454488723339
867 5.629087941214382 7.036006750930728 -1.7255551475416264
1126 7.526227543292947 -0.5546579668573931 -1.3255850933998354
1403 -17.499613707188896 0.14563748100325924 -18.056761188459067
221 -2.575158194608858 1.923090261067996 2.550821242143244
1150 5.944880076910283 0.5853933023908464 -5.457009327587701
1301 11.983688733830663 -23.650277631494273 3.2568628639378447
833 -13.216220513053894 31.99980059190548 -18.98487414924293
1181 -1.8234620171359928 0.2746593175344052 -15.267331305484296
1276 4.4447561744865425 2.6885117699196366 -6.08694360097389
1277 6.419006068110108 22.738626019576685 13.148429321047505
1278 22.15155947257037 -20.494610835549995 -0.048370018276658655
456 25.21242281048293 -1.8418726166513992 13.505351525155302
454 -0.5969508698760887 -0.9359569675780889 -0.20865476896900936
455 -25.656235978035905 -11.566845444313177 7.012797274933323
724 -1.300426992783805 -0.414475252447144 1.984396755119451
969 -17.472411459842828 13.74709091751813 1.432762381521015
1480 -4.116716877129238 -8.114307998950228 1.6080634879295723
1200 11.517048993369396 11.584021631560224 -4.253635893640956
1273 1.1016736678201777 -0.10976102067304921 9.58227876140308
656 6.024091512005914 3.4478403818561087 10.12537518246752
884 13.438131451938535 11.943400665888472 -1.2688557033846113
72 5.193683086916193 -21.434806203512267 -13.112829497357355
731 7.36424069656432 -12.361145366249744 -1.4278566224406395
1314 29.864854738907393 -3.21361360097157 -19.65094932099224
1132 1.8714471719587626 -3.6181144280427397 -1.3666496326175128
608 -6.399103086402047 18.72389129077741 -0.3141219868792706
563 6.5361346120039885 -32.02137984808034 -14.076559789532148
1134 2.123984017045887 26.27882326841671 -6.968839602642634
543 -6.7891824277994 12.092941655326662 -24.281370680797252
934 -4.9566726659990294 -0.262028449187835 7.443981618443344
607 -5.466825038501438 2.5565259266093436 -2.182080683595662
749 5.674064330187161 6.794567533509417 -3.239442759914806
750 -1.3204265343048216 3.375519987600523 -1.708393792299368
748 2.449827594066579 4.954842893987294 -3.2683099366816277
895 -5.0392364862340076 0.8139765685457437 -7.103043241585835
896 -9.001207984179974 -8.476449817659082 17.205414197028826
897 -19.26450383277627 -12.10190134405341 -23.652968327084817
549 1.4210776130545264 2.28674498060228 -4.739313972874573
462 3.9873467055119813 -1.7197618628933942 17.773737392718775
542 13.395801080099337 -11.86729684815877 -19.717770152810758
541 1.3897017354352812 0.6756995521334699 -5.528785788504964
747 8.1597171043361 -2.1565089811315996 -4.532582104676663
733 -6.197856207125618 -2.8249157196264245 -7.682061429102433
735 -13.155735040048416 2.362749723292911 0.734616699323575
460 5.407112341457604 -7.899052404954054 5.837699697332938
1316 -3.9860000365311796 -1.7411557580570973 19.842895173937354
1338 -6.1837310408324155 13.818618796615056 -20.16303537009737
467 -1.570474101199982 10.828753736988935 -1.1296253186596217
726 -5.729639424276496 -9.837306516917941 -0.9444060060717014
1434 15.512094670054188 -15.818647611068409 -21.94276150115024
1412 -2.320753619069215 -0.5696906857299942 -1.8339788789231177
1199 -0.7151655917890647 -17.91444136239225 20.143629190766863
1156 2.0710496637736533 -1.048072272777133 1.8839647601627556
1230 4.612881639005254 -5.4418438869435874 1.9677322991484552
1160 3.3485390289663766 -5.5976217227410725 6.50147253639811
963 7.954014646831171 5.477823427025758 8.562087846721454
1159 4.183956131403338 -1.3172467894394853 -0.6982726456719754
468 7.494177326735606 -11.972782224370954 -5.098112173731394
1158 4.941135062717328 -0.478547728031154 16.282347027218485
466 4.036543656235197 -3.2101459043502008 -2.49580008811395
1165 1.779023614069791 2.0105251006312015 0.014145903811863647
578 0.9119402461294243 13.57591087410788 -22.291236731453907
1166 -9.723058502558914 0.33392479438426115 3.1925568468562133
649 -1.676054276941875 4.362927285788625 -1.049299908130305
844 2.031591240766179 -3.575807927101831 3.163329849427818
845 -3.2009053683925233 9.106978395059087 41.56436449895673
846 5.035170160551186 -5.691455741794998 7.146784948944331
70 -0.09188051564901736 -2.1304142044168826 3.2805211486378596
423 -10.482318889215875 -0.291798366973663 -0.21924447006309145
421 -5.7896115174084 -6.060894655296352 2.0269847005902646
422 -3.922061353514808 12.330374860629677 -16.248600482176514
1247 -8.656852612400122 -9.448811098673426 5.814479570925569
1246 -4.733287256675095 3.180838004286604 0.8124138023924935
1161 -1.0275267260180283 -4.531980412611976 -6.415419016488422
1229 -16.8937714630408 12.28021334836698 4.649031283677584
71 -4.631534612276539 -2.0050334409395254 -10.532860328647422
1157 1.6151093862935277 -3.0857784410424656 8.104413035289936
961 5.875015943029198 3.5300180548423055 0.6713263954632742
962 2.290464505025809 3.200959760642385 -9.624362052983622
1228 -7.025182245041751 0.22907201934709376 -6.343187343406278
321 14.31404386618646 7.533944950439147 19.312041585029284
734 1.826456863474232 2.9694426662038618 15.266820136781892
746 -8.885632764064475 -3.147161375084881 -5.955848840234853
1162 -3.3010720734271857 -5.624819102476308 2.0614946981126963
745 -3.799183305563475 -2.188735304588071 7.203921396555261
1163 10.34644347197339 -0.9206066491599363 0.8182596017200434
1164 -10.718151246096074 8.314187180280307 20.94781956175048
459 -9.103877370332478 -0.5671433798072316 -1.2412463761065602
458 7.711391449756913 3.09249870164182 -33.175476512897745
457 -2.329233559326691 -6.86049251850475 0.6936418861154776
520 -0.23155370394174024 0.47302987811088026 -3.235094429408524
522 -3.771046632066984 3.3877026182384435 -5.147205693262356
521 -8.774708448238284 13.306772145946654 6.0292211995343035
579 -24.282106681294927 1.139712441118475 -12.501722028942167
1356 12.924736011472264 -1.8068716378042926 16.496560174551636
1180 4.342931554567541 -4.081610652277634 1.598350990734094
743 -2.041474677252765 2.8233943581539482 -3.5063638090634477
1238 0.21299871890894284 -7.494360809563483 0.416940363696364
319 -3.7839329878287034 -2.0028300287270886 -0.08605978009265125
1350 -19.732908970462717 -0.10008898730419546 -8.76491798812913
1256 -5.007406811002163 -4.003501128205174 7.813244410620255
1075 -2.2787677927404526 -0.2105638192656955 -3.7776017156105635
1400 2.906920358571492 -6.233130829839 -14.965265080911543
75 5.451575321250063 -4.847926896084639 -8.214683008576383
857 9.412589555530241 9.044209218442523 -9.014213739483875
432 -22.591554739946982 13.743360583274425 3.7012300851341404
655 -2.516457342523923 -3.8325965346493516 -2.4333170296336544
1427 -1.828086477754849 -6.889087068667424 -7.894185970285922
1275 7.0062087120829055 -2.197933139515934 10.64189690180773
1184 16.36507359147366 1.8770457926650135 7.032791651299515
1469 -12.882498708386443 8.235225013472764 0.21025057317827311
1468 1.3445289279735029 2.7556599841188 -11.130232443880804
1401 0.96762821669294 -3.3628486725150015 12.153767547514516
430 1.7258691871729634 4.726693024939269 2.2922019823808375
1428 2.222916224340823 4.502959535573126 6.563563178567299
1274 -8.35631426248944 9.325675631241204 14.019184892284198
1351 2.1906572053728945 -2.80233259313747 5.825142296829181
1352 2.742677834661518 -2.7950752584521896 2.4260452747301366
1353 -1.370067524517788 -17.11088618476631 -14.93080411837138
1426 3.012059340205481 1.2768807699816058 -4.022645983916424
1185 18.738707334962506 1.6421885941517997 8.305327557835504
1313 -2.064955958477192 14.7630737099131 19.675435517763553
118 -3.867017947835641 4.278200559123685 -3.7276959337235893
1183 -1.5023846996955648 -6.37616831478987 0.6819853845114099
701 0.5787255840563326 11.23461241648672 -17.544643902427985
1312 2.8798985834199433 -0.6857318661561003 3.3381669495650206
1373 2.087190824372353 -0.6020021540351075 -4.324395693583942
577 2.5838191135545325 2.273525493877688 8.577189461873873
1432 2.439106208102163 -3.4288948134122106 -4.418645021449352
1411 0.40530717965624863 -5.004924853457693 1.9021184755388376
83 4.538881632240011 -2.747525736179467 0.13524536228097758
1285 -1.2360364450378796 0.47674575526596463 3.5937221984948424
1372 1.5371150087760042 -0.11632664351614012 -3.1114511798965396
1317 8.21116089998146 -4.604678414739842 -22.357807563377577
1391 -3.5058276780542337 0.6919312347085294 11.926261024883816
529 -1.105291774481735 -1.6449080664769822 3.462140611682729
905 0.991497820542131 1.7768356350244756 0.49782140610015135
1315 0.8672933897652143 -2.881614592293198 2.1911846906699655
530 16.286533012626236 -9.053958876986133 9.683808831362743
1392 -3.7098362875588027 -6.998065259752494 2.66041595804732
1283 14.18303623594738 -15.864336871249886 -1.4907732239179792
1284 -16.279999186758346 3.501385772544687 -2.765347429817955
1390 -3.559985425693309 -1.126272529741139 8.021636097512692
1282 -5.548731006819911 -4.6146856745851625 0.9509543675269432
1413 2.35794852907431 -4.956690516628329 -8.95183333337312
531 -8.060010768001087 9.391999626865125 4.225383952417699
1286 -6.732143133540317 -40.38838538490196 8.119614051407497
562 4.789227792879609 -0.799144896486651 7.350080587779433
1336 -3.4921660638090506 0.9294358176730823 6.197442578269371
1013 1.9555809877341135 15.729926844691375 8.799588716242454
1012 10.009569198610365 1.00632609673189 6.519795502132006
1014 15.215208382252971 -11.460674711022044 19.096550184714555
1231 -2.327311509392799 -1.1160969254805333 2.5745888494598406
1470 -14.606537256547382 7.888584843948536 2.791511046158112
485 6.181452169681739 -7.532557136535927 -11.650011271968186
650 1.674467161418087 -0.36088321328653716 -3.6156429071913165
1239 -6.97308240132307 -5.5541686729251865 15.366532508467023
564 -1.401114493394263 1.8958100968641487 3.740811588147701
1182 -2.6428594686257143 1.6711878459886775 -19.342251229549888
883 4.730627541980013 5.273123671036479 -4.888242033476885
870 4.648371451747936 -8.626121120217404 -3.4870922939989297
869 -7.559881870107519 7.79717883212593 -12.3178923987765
73 -1.5040030984404522 -0.3526978829686322 -1.0579134199569729
1237 3.3901683631094484 -3.0316216794497075 -1.191059232473395
1232 7.125347806668069 7.125184881852717 -19.47667670035744
1483 -0.35789660002263457 5.273997089043968 0.8060403603547639
1485 10.390873569494804 12.437953308852936 5.606371560117509
1484 9.19557601611926 12.936923533575278 -7.622894092143724
868 2.2749269855411858 -3.349974792092508 -3.9529415919608937
1248 -6.6395046718677175 2.159616044656668 -1.632894432591271
84 2.135166442216138 11.691154173062586 -11.230608179149032
461 -0.20507252725948533 -20.033627169430225 -2.8016485301094916
141 -0.6851716099005198 12.91719625748211 5.713833713851757
139 -4.3704715375172825 -2.8528288249617417 -2.7445946590657977
82 0.34636415608413834 7.166173295543883 0.6570846415720651
1167 12.81601531192223 -3.4523330112878314 -12.965931367995102
27 5.714961847315982 15.914892378195653 7.940834441001744
26 5.422014355167307 -8.713698114564112 -7.261729270256474
1077 0.8471362096862429 -2.3369493028547357 3.1380812056844447
140 -2.7349756207351117 17.57439577307368 8.820354511984053
1233 15.611262091172767 -16.21062848476252 21.90931997669204
651 2.3391059840753874 5.921486754138404 4.653819575085039
25 7.83136601512387 -0.38477991793543487 4.2386220190311175
1399 4.194003750150232 -4.088849122173049 -5.462221906229721
1433 -19.242956626831585 -9.17904214238489 2.939331643441906
654 -12.245761331945191 -8.77672998696962 -5.219930209576717
935 0.21945592251897583 -4.480729389934318 -4.695073420945346
875 -3.4256825278752845 0.16721185693389073 9.120179773995238
874 0.3344059230437252 -0.610120221823637 2.622116808427814
885 -4.099838613212646 -8.116959524007054 -9.590386485360128
609 3.301051871878596 5.23890803675452 -2.740945791175061
1337 -33.116548822094025 -10.61628038809013 5.679984688619317
547 -0.3228237436658244 -8.086251814599485 1.969072580822254
188 -20.60390471504082 -2.7015115222040174 15.419158070597497
1255 -2.707854779645415 4.063207108211191 1.2526856847227255
1510 -1.262766367915329 3.4661055405217542 3.4207283495666956
1481 23.724454716528236 7.907404840663349 -2.570814304273534
1348 1.0921366402816257 1.7992278510420132 -0.11070648508757452
662 -7.925756196085628 -9.862413491726699 11.102783381744576
1482 -9.682316008126662 -16.054566557681873 -5.978766932313756
1028 6.44345665199273 1.7575444253889831 -8.279983778089397
706 4.284080269450312 -1.7132236467578967 1.0748880218010626
732 4.076330390449481 3.8997453137570153 -5.49292994214384
707 -35.29283480924769 -19.00771230425727 -13.686590495349773
917 2.8754733211479566 -0.11213869958485945 14.77041664443968
410 -28.386763294694585 27.933165967343207 12.575859820782828
1051 -5.540101386719072 4.812288864650483 -1.5104429799976604
1053 -4.235345990968312 -10.000539314234096 -12.624392790254495
1374 1.8224438474750784 -0.7158271729971234 -4.465883385483439
1010 3.200676994265054 6.761688071828497 0.22930425020664524
1009 -1.1803410128551712 -2.518384148079656 0.520050784212306
1528 4.511554811506768 -0.7975321045663668 -1.5758024765126577
876 -1.4112321177196963 -1.113740228810476 5.548428810144031
696 8.24012967487452 -3.145428617715424 6.664584345300303
904 5.069324222629202 -1.8070840381841975 -0.41295623657453795
730 1.0907267305618757 -4.324636517478638 0.35334012332432585
1529 15.493117242815549 -3.142999628788508 0.5540388298013501
767 -1.6586894149826996 -21.608526757929003 25.675070493187203
1456 -0.8730734402174553 2.1722744434297194 1.387541934185341
694 -2.5026939836522804 2.4623382683567803 -0.2887713522099831
695 -6.218556533086662 -6.740856384167152 -4.38589002062675
653 -9.536428453258539 -6.4791732815519625 -4.33085012875043
1173 -2.17015085333746 4.478662938264645 -14.084954959115382
1530 -12.97390980462731 13.31417783629525 15.171055257063136
443 3.0522064090522023 -13.039217911478087 27.644815139621514
1344 5.89017543486816 24.98608310944248 -1.7151080592716226
553 -6.314596187002522 -1.179925011558395 -5.76874773522519
630 -5.205182909050909 5.131647097281408 -7.3945956741109296
1407 25.26067386426288 6.427629695304785 -9.107879922439015
1175 10.180494707419538 2.8974016406405356 -5.742702483450625
1052 -5.642432059456136 -13.048622684000609 5.4719579520148365
628 -4.108584839557917 -8.026724016710979 -0.2139217551632029
374 -6.017350682164682 -11.03767816089308 -7.574518284344375
373 -1.318118061259094 2.6179897209754643 1.3872186139694591
375 17.06566310323384 6.339177797403174 -6.6330738665452476
1406 21.26169590577655 -10.15454683861035 -14.057331991733971
1405 -2.039195598753177 -0.7303239402578698 -1.5370338873873328
386 2.049532010662352 -3.223253128014533 20.14230768149877
1027 3.7325354126348294 3.0424984897893697 -3.2215385190083667
1029 1.1659642127293415 1.8066770748899152 7.463627018954513
742 -3.0021313667350804 -2.668990912881779 -6.214041529969876
385 -0.7177259175122824 -3.3796456041543856 -0.8593926080575776
873 -12.370069114339161 -3.4906763216790653 -9.168894549146959
554 -7.658493964109727 32.569757552260555 -3.7634181045089394
1176 0.5294333330932592 -4.536528804275357 -3.915146324606235
629 -1.367628375455742 -17.18538337852377 -11.43382421990315
1174 3.184417818537941 1.1126021158593196 -6.401018462927026
1447 7.526756248810154 -3.7418378129971606 8.36540338192276
387 10.852347281987885 6.074529239280811 6.22951952135578
1430 -2.8688232349574116 -4.155588470528099 -3.0002406467111173
1011 3.470653501670779 10.63947593615064 2.7770228702009687
1515 -1.6753025508973056 2.5303665361573433 0.5585991582145873
1380 18.551834310457654 -16.28026791901433 -6.987459146865532
1024 7.211697697009465 -2.7441980018893926 -2.549414166823009
1025 -1.362603128596449 16.357754263133693 -14.879923106942277
1064 2.8943192253182506 3.714965412826714 7.388226566146774
989 6.9507355681691285 -4.838898135014967 11.516630941008444
1063 -5.532285836963767 2.295691018704182 3.782567125661964
1065 -13.324956447007235 -0.8341575265116496 0.869497771044105
1227 -23.233624865136285 9.305999648366033 -15.001815345130446
1226 4.328420798655257 -3.147252007043697 -0.9474687041990904
1225 -5.981345996059908 9.71978553415546 3.973193954473605
988 0.5856668259642781 -1.3967552445265954 -4.068561614038284
1439 -8.352153199543835 6.788981836598164 -0.13631862360934344
872 2.5358757086534642 -2.563859233360167 2.959816093155154
1378 4.624674721945304 4.3399358294624415 2.1793878692525945
1449 18.366905800765785 6.271650250123594 -7.760187424244609
1376 7.496449390345295 11.946728519528712 10.932102743059563
590 10.866993015239263 -0.665334230997727 -3.965805020762069
1460 -2.6353915573333007 -5.789895969888818 13.203047370116144
766 7.078760290300333 -2.2653143552956276 3.787912494339728
409 -0.3998420007827364 6.477739858404009 1.4395275710072735
652 -2.985202856348158 1.4784588068595217 -0.41333490909775494
871 3.413389537625924 -2.7899815689795235 2.924640542062651
1379 -18.673600955612276 7.279596975089772 7.395458663376567
444 18.22647891796908 -6.87894275000419 15.047268002546296
1421 5.368344302171995 -13.166591301745777 -8.40432195071756
594 -4.535235510405107 -2.5257509321848834 -15.072072392274382
1062 -7.720546479652058 -11.98540838538712 -3.279049168199694
1060 -1.933827536313346 -0.5189507870837287 0.8207153680162607
1061 -16.940935854486707 -6.7397453899108415 -4.545207883131474
1026 10.431433601036037 -4.581989960701168 6.116967615283745
1457 28.19711945716793 0.5620334843179382 8.525212009946785
1462 0.19701973669005907 4.985299687850102 1.3797050732266019
1463 -18.68425609899625 -11.950972527071544 -25.17115624994704
1342 2.4956715180519775 5.542965739830532 3.031063566906379
1343 -11.722526629968826 -1.391651992823074 -9.702170486918659
593 4.015531052577279 10.802933977318265 -0.7189418066591946
592 3.936408665507447 1.9344423941221218 -2.3199952702365545
1198 -1.098250059621217 2.2174991989509034 -1.4029026093875951
1438 -1.9704890462443518 4.854576672122169 -4.784299203166732
719 14.695862598218492 -17.141575732666926 6.083886838154768
1517 -13.283905855614115 -16.179108005773717 -17.666291955231976
1458 3.0436348353007543 -4.326446886070987 -2.0257587851533367
1366 -2.5290241441074426 -2.0127585193095228 -5.837683213458299
86 3.230160713140596 -9.295976539174967 8.301563514647786
447 11.203944855071478 -7.972457868816105 -1.1910004441393487
761 -11.910205790823225 -14.986499051405593 16.499264748585148
1261 0.4341840805808683 6.293958706099588 7.085225179655397
1262 -4.708407990537269 -7.149246553900394 5.790673022932545
811 0.1853029458931833 4.829559584349404 -3.4030642902234023
1453 4.126771873605473 -1.372371561945707 -1.5408635902954941
1455 7.044173845934747 0.3384336254894347 11.834040326897394
1454 -11.073753113353655 -7.111135475789046 -15.896287533477908
762 16.510764369543956 -17.585141750383805 -6.279876396616832
1168 -3.6854735893153427 8.801109620726836 -3.714854779577324
1169 19.021044829433894 -1.565481911157586 2.2446798933713663
760 0.8246772026084623 -5.088523988008049 -2.227908940054646
1368 -2.9276737951113145 9.951597436976481 -16.598809022971786
812 16.895439364801728 6.313681413269692 -1.292213840785208
1263 18.654818134772267 -3.8691792384578143 12.065414276505294
1170 -5.941797469039461 3.1773841068202655 4.77922934887423
533 12.008929989514112 -16.170273771390903 4.381465769909918
1448 11.91124184652157 -2.8398499434527746 3.7398236262156628
1461 0.09061187892480849 -16.832031371192993 -14.533878411274292
786 11.44210275987572 8.251547141643515 14.652479232032587
1202 22.56464792272763 8.363687666502258 5.417914501636538
1105 -0.2688196937493668 7.186515195333077 -0.7326020133322619
1377 -13.671809376250081 0.24397697062282808 18.066484166827518
819 7.241015002368564 4.852828804183741 5.6978747112657775
718 -0.85177807939154 1.0304586034424563 3.2420079576253626
9 -0.5350987272541161 -20.365057074310595 17.10960568336315
813 -10.490069334501687 5.355379548884589 -5.651854042369985
1518 9.338878443013815 16.475183845672817 0.4863978506449027
1201 5.966019612772138 3.0816615375082455 -2.7374055221676756
1203 19.7281858227728 6.21655777884598 4.544457140306918
534 -9.860849296313557 -12.463608637218847 2.629626353592097
768 -7.757043627636744 4.188271806395148 -5.504538507175285
678 -10.892933795731008 9.727994638328262 -4.637578014361848
1172 16.994042713260093 -23.56989401089128 12.286315085343123
676 0.6593483252731677 3.29947906188883 3.7366568207883857
1416 -18.81458762995825 -9.649362608443763 -9.590866751674561
817 -2.5575958517396513 2.2715211192637743 1.0339469031182007
627 -22.099979971924945 22.403927780717307 -23.47930948934852
1415 8.019037288414623 -1.0652357931447196 -5.66146205528224
85 -2.139713328960992 -2.122131357373667 -0.31980659454934957
625 -0.8597549533542037 -5.222664747941767 -0.4872293637085896
626 -7.5347528146640155 7.152422592115591 -15.61546057640638
818 3.534620164389512 -13.301378727181232 6.781429513051355
1084 2.119247395120147 5.573247219513682 1.6866932885586072
1414 -3.9786110824584004 -1.1430659822330547 1.4897864263250906
906 1.5476509286116946 -6.194073421025908 6.4364058674062505
1375 -0.5916866911886882 0.9144485946011838 8.144908495507755
990 -3.484949514567973 0.3557633390340844 -3.991828624234925
1367 -23.639517885168324 -2.083449861050766 4.112094187582231
87 7.910198974368181 -14.189216854869423 16.76550569225543
914 -7.570449269695268 4.227656897832437 5.218529385710095
913 -2.546670623846577 6.437578209980916 -6.494908755933133
915 -4.087560536139505 5.765414281246248 -2.851330052139261
1431 -7.948334570458401 -2.1360998953311148 1.6343546165677647
1429 0.16528317226131595 2.5007821526017446 -0.7313216234040499
23 5.212337168807419 -5.36329384334531 1.0373107074231374
1477 -2.633716419440754 -1.1570895770759222 4.386660336954032
1516 2.2167270025915427 -5.791033237804307 -2.275230758542718
1058 -3.2435254093572663 -8.184981279932767 -12.041677041810576
1057 -2.6580346457444444 -2.001744151149891 -4.6749267185963435
918 -7.498214820767565 -14.420136647136859 7.019087324961077
677 -5.183664128248729 24.407754999953056 1.5699544733532427
1524 9.325998979495434 13.060433648584139 -4.869530676711264
1118 4.125591733672389 4.292638355174863 12.156568300395541
1119 22.194625215911895 16.894534689286402 -1.9285993431583952
1117 -2.136918088601575 -1.2017259550200388 -1.6139374189801363
784 -0.061181979598634806 0.08399640896187366 7.8533564384983405
785 5.160153249727571 13.610257187630074 4.998932036916323
555 22.50109044448206 -7.011464164912846 -5.410837312599992
1522 -0.6797745118424905 1.5630687615753667 -2.213062978491529
446 20.203181327350833 -8.593403929291792 0.23128510480480302
1523 -11.717892553229932 -11.855257080500412 9.167838359531599
8 -14.78263854806724 17.864175069800897 -12.970159313555309
1059 4.829312024363601 0.012914261356354206 -2.088559720723199
445 -3.0919401983507773 -0.9482719632785035 0.7827587727570712
1171 -0.8155341031737824 3.9029042476607656 -6.577474511672673
532 2.1558563824246852 0.018002388618622023 -2.221343632524152
1459 -6.643921383270947 -4.169987600776492 0.14021397251795237
7 -5.341715961858314 1.8093701576576886 3.0362957661975964
1478 3.243895359599895 8.946809295556294 -7.295970010741832
292 4.516479211496227 -0.34114143123653673 -2.7425064760421503
411 29.204118284534474 28.061114164907302 -14.579179644734042
725 0.8862729536440319 2.272158349527942 3.3333092367559263
720 -7.032311442058656 9.520265084881038 -17.902747299718687
1420 0.32165651084845187 0.38454888758990746 1.1355411184879638
418 4.240831105515316 2.117523647066171 -6.901566546924628
420 -4.6032810159391175 -17.824333231245085 -22.19710145427082
1106 -1.8179721219984815 5.535948616229973 -12.085333833624384
967 -2.767807376354482 -5.748700932877522 -5.576807548444581
744 -5.481262981896986 8.19331041255697 -1.6797667262221418
442 6.3580805001290575 -4.084632623064233 5.18504083800147
294 2.6627752513360505 -12.070453803185076 -4.242151996443604
119 12.792828662945132 10.82859511288766 2.933411060995338
120 14.3244203557597 12.309895222435983 7.432710659664336
22 -0.9405666352680624 -4.657448375284841 1.4815582137482983
916 1.2806887486241878 1.9478869539028878 2.549548805586257
1464 8.243721690463435 -15.20912676164527 6.039866789605759
