ITEM: TIMESTEP
0
ITEM: NUMBER OF ATOMS
240
ITEM: BOX BOUNDS pp pp ff
0.0000000000000000e+00 1.7650658050000001e+01
0.0000000000000000e+00 2.0381224350000000e+01
0.0000000000000000e+00 6.0000000000000000e+01
ITEM: ATOMS id type q
1 1 -0.032182841771
2 1 -0.0321827931282
3 1 -0.0321827672046
4 1 -0.0321828096132
5 1 -0.0321828418378
6 1 -0.0321827931449
7 1 -0.0321827671613
8 1 -0.0321828095354
9 1 -0.0321828417748
10 1 -0.0321827931353
11 1 -0.0321827672084
12 1 -0.0321828096203
13 1 -0.0321828418416
14 1 -0.032182793152
15 1 -0.0321827671651
16 1 -0.0321828095426
17 1 -0.0321828417843
18 1 -0.0321827931437
19 1 -0.0321827672178
20 1 -0.0321828096287
21 1 -0.032182841851
22 1 -0.0321827931604
23 1 -0.0321827671746
24 1 -0.032182809551
25 1 -0.0321828417877
26 1 -0.0321827931404
27 1 -0.0321827672212
28 1 -0.0321828096254
29 1 -0.0321828418544
30 1 -0.0321827931571
31 1 -0.0321827671779
32 1 -0.0321828095476
33 1 -0.0321828417793
34 1 -0.0321827931309
35 1 -0.0321827672128
36 1 -0.0321828096159
37 1 -0.032182841846
38 1 -0.0321827931476
39 1 -0.0321827671695
40 1 -0.0321828095381
41 1 -0.0321828417721
42 1 -0.0321827931271
43 1 -0.0321827672057
44 1 -0.0321828096121
45 1 -0.0321828418389
46 1 -0.0321827931438
47 1 -0.0321827671624
48 1 -0.0321828095344
49 1 0.00950708287885
50 1 0.00950714597357
51 1 0.00950713638552
52 1 0.00950707679709
53 1 0.00950708283539
54 1 0.00950714598417
55 1 0.00950713644392
56 1 0.00950707686931
57 1 0.00950708287596
58 1 0.00950714596874
59 1 0.00950713638263
60 1 0.00950707679225
61 1 0.0095070828325
62 1 0.00950714597934
63 1 0.00950713644104
64 1 0.00950707686447
65 1 0.00950708287116
66 1 0.0095071459667
67 1 0.00950713637783
68 1 0.00950707679021
69 1 0.0095070828277
70 1 0.0095071459773
71 1 0.00950713643624
72 1 0.00950707686243
73 1 0.0095070828732
74 1 0.0095071459715
75 1 0.00950713637988
76 1 0.00950707679501
77 1 0.00950708282975
78 1 0.0095071459821
79 1 0.00950713643828
80 1 0.00950707686723
81 1 0.00950708287804
82 1 0.00950714597438
83 1 0.00950713638471
84 1 0.0095070767979
85 1 0.00950708283458
86 1 0.00950714598498
87 1 0.00950713644311
88 1 0.00950707687012
89 1 0.00950708287862
90 1 0.00950714597416
91 1 0.0095071363853
92 1 0.00950707679768
93 1 0.00950708283517
94 1 0.00950714598476
95 1 0.0095071364437
96 1 0.00950707686989
97 1 -6.06207743687e-05
98 1 -6.0592533629e-05
99 1 -6.06209678764e-05
100 1 -6.06492217317e-05
101 1 -6.06207881426e-05
102 1 -6.05925016944e-05
103 1 -6.06209095186e-05
104 1 -6.06491719598e-05
105 1 -6.06207742882e-05
106 1 -6.05925335566e-05
107 1 -6.06209677959e-05
108 1 -6.06492216592e-05
109 1 -6.0620788062e-05
110 1 -6.0592501622e-05
111 1 -6.0620909438e-05
112 1 -6.06491718874e-05
113 1 -6.06207742573e-05
114 1 -6.05925335876e-05
115 1 -6.0620967765e-05
116 1 -6.064922169e-05
117 1 -6.06207880312e-05
118 1 -6.05925016529e-05
119 1 -6.06209094073e-05
120 1 -6.06491719182e-05
121 1 -6.06207743298e-05
122 1 -6.05925336681e-05
123 1 -6.06209678375e-05
124 1 -6.06492217706e-05
125 1 -6.06207881036e-05
126 1 -6.05925017334e-05
127 1 -6.06209094796e-05
128 1 -6.06491719988e-05
129 1 -6.06207743974e-05
130 1 -6.05925337119e-05
131 1 -6.06209679051e-05
132 1 -6.06492218144e-05
133 1 -6.06207881713e-05
134 1 -6.05925017773e-05
135 1 -6.06209095474e-05
136 1 -6.06491720427e-05
137 1 -6.06207744126e-05
138 1 -6.05925336968e-05
139 1 -6.06209679203e-05
140 1 -6.06492217993e-05
141 1 -6.06207881865e-05
142 1 -6.05925017621e-05
143 1 -6.06209095625e-05
144 1 -6.06491720275e-05
145 1 -0.0093261972134
146 1 -0.00932619131495
147 1 -0.00932625052909
148 1 -0.00932625994392
149 1 -0.00932619720164
150 1 -0.00932619127229
151 1 -0.00932625048332
152 1 -0.00932625992078
153 1 -0.00932619720877
154 1 -0.00932619131299
155 1 -0.00932625052446
156 1 -0.00932625994196
157 1 -0.00932619719701
158 1 -0.00932619127034
159 1 -0.00932625047868
160 1 -0.00932625991883
161 1 -0.00932619721072
162 1 -0.00932619131763
163 1 -0.00932625052641
164 1 -0.0093262599466
165 1 -0.00932619719896
166 1 -0.00932619127497
167 1 -0.00932625048064
168 1 -0.00932625992346
169 1 -0.00932619721546
170 1 -0.0093261913205
171 1 -0.00932625053115
172 1 -0.00932625994947
173 1 -0.0093261972037
174 1 -0.00932619127785
175 1 -0.00932625048537
176 1 -0.00932625992634
177 1 -0.00932619721607
178 1 -0.00932619132029
179 1 -0.00932625053176
180 1 -0.00932625994926
181 1 -0.00932619720431
182 1 -0.00932619127764
183 1 -0.00932625048598
184 1 -0.00932625992613
185 1 -0.00932619721628
186 1 -0.00932619131968
187 1 -0.00932625053197
188 1 -0.00932625994865
189 1 -0.00932619720452
190 1 -0.00932619127703
191 1 -0.00932625048619
192 1 -0.00932625992552
193 1 0.0320625767383
194 1 0.0320625445524
195 1 0.0320625024117
196 1 0.0320625283154
197 1 0.0320625767663
198 1 0.0320625445908
199 1 0.0320625024362
200 1 0.0320625283135
201 1 0.0320625767418
202 1 0.0320625445488
203 1 0.0320625024152
204 1 0.0320625283118
205 1 0.0320625767698
206 1 0.0320625445873
207 1 0.0320625024398
208 1 0.0320625283099
209 1 0.0320625767331
210 1 0.0320625445391
211 1 0.0320625024065
212 1 0.0320625283021
213 1 0.0320625767611
214 1 0.0320625445776
215 1 0.032062502431
216 1 0.0320625283002
217 1 0.0320625767259
218 1 0.0320625445353
219 1 0.0320625023993
220 1 0.0320625282983
221 1 0.0320625767539
222 1 0.0320625445738
223 1 0.0320625024238
224 1 0.0320625282964
225 1 0.0320625767248
226 1 0.0320625445364
227 1 0.0320625023982
228 1 0.0320625282994
229 1 0.0320625767528
230 1 0.0320625445749
231 1 0.0320625024227
232 1 0.0320625282975
233 1 0.0320625767286
234 1 0.0320625445436
235 1 0.032062502402
236 1 0.0320625283066
237 1 0.0320625767566
238 1 0.0320625445821
239 1 0.0320625024265
240 1 0.0320625283047
