ITEM: TIMESTEP
0
ITEM: NUMBER OF ATOMS
240
ITEM: BOX BOUNDS pp pp ff
0.0000000000000000e+00 1.7650658050000001e+01
0.0000000000000000e+00 2.0381224350000000e+01
0.0000000000000000e+00 6.0000000000000000e+01
ITEM: ATOMS id type q
1 1 -0.0280939332816
2 1 -0.0280939101772
3 1 -0.028093894517
4 1 -0.028093914264
5 1 -0.0280939333177
6 1 -0.0280939101883
7 1 -0.0280938944967
8 1 -0.0280939142241
9 1 -0.028093933287
10 1 -0.0280939101859
11 1 -0.0280938945223
12 1 -0.0280939142727
13 1 -0.0280939333231
14 1 -0.0280939101969
15 1 -0.028093894502
16 1 -0.0280939142328
17 1 -0.0280939332972
18 1 -0.0280939101945
19 1 -0.0280938945326
20 1 -0.0280939142812
21 1 -0.0280939333333
22 1 -0.0280939102055
23 1 -0.0280938945123
24 1 -0.0280939142413
25 1 -0.0280939333006
26 1 -0.0280939101911
27 1 -0.0280938945359
28 1 -0.0280939142779
29 1 -0.0280939333367
30 1 -0.0280939102021
31 1 -0.0280938945156
32 1 -0.028093914238
33 1 -0.028093933292
34 1 -0.0280939101808
35 1 -0.0280938945274
36 1 -0.0280939142676
37 1 -0.0280939333281
38 1 -0.0280939101919
39 1 -0.0280938945071
40 1 -0.0280939142277
41 1 -0.0280939332834
42 1 -0.0280939101755
43 1 -0.0280938945187
44 1 -0.0280939142623
45 1 -0.0280939333195
46 1 -0.0280939101865
47 1 -0.0280938944984
48 1 -0.0280939142224
49 1 0.00343613427821
50 1 0.00343616646088
51 1 0.00343616432299
52 1 0.00343613352888
53 1 0.00343613425589
54 1 0.0034361664636
55 1 0.0034361643491
56 1 0.00343613356328
57 1 0.0034361342732
58 1 0.00343616645455
59 1 0.00343616431798
60 1 0.00343613352255
61 1 0.00343613425088
62 1 0.00343616645727
63 1 0.00343616434409
64 1 0.00343613355695
65 1 0.00343613426772
66 1 0.00343616645236
67 1 0.00343616431251
68 1 0.00343613352036
69 1 0.00343613424541
70 1 0.00343616645508
71 1 0.00343616433862
72 1 0.00343613355476
73 1 0.00343613426991
74 1 0.00343616645783
75 1 0.0034361643147
76 1 0.00343613352583
77 1 0.0034361342476
78 1 0.00343616646055
79 1 0.00343616434081
80 1 0.00343613356023
81 1 0.00343613427624
82 1 0.00343616646284
83 1 0.00343616432103
84 1 0.00343613353084
85 1 0.00343613425393
86 1 0.00343616646556
87 1 0.00343616434714
88 1 0.00343613356524
89 1 0.00343613427891
90 1 0.00343616646354
91 1 0.00343616432369
92 1 0.00343613353154
93 1 0.00343613425659
94 1 0.00343616646626
95 1 0.0034361643498
96 1 0.00343613356594
97 1 -1.89316924073e-05
98 1 -1.89199994553e-05
99 1 -1.89317653928e-05
100 1 -1.89434639666e-05
101 1 -1.89316979862e-05
102 1 -1.8919986638e-05
103 1 -1.89317419203e-05
104 1 -1.89434440025e-05
105 1 -1.8931692377e-05
106 1 -1.89199994284e-05
107 1 -1.89317653624e-05
108 1 -1.89434639397e-05
109 1 -1.89316979559e-05
110 1 -1.89199866111e-05
111 1 -1.893174189e-05
112 1 -1.89434439755e-05
113 1 -1.89316923656e-05
114 1 -1.89199994399e-05
115 1 -1.8931765351e-05
116 1 -1.89434639511e-05
117 1 -1.89316979445e-05
118 1 -1.89199866226e-05
119 1 -1.89317418785e-05
120 1 -1.8943443987e-05
121 1 -1.89316923925e-05
122 1 -1.89199994702e-05
123 1 -1.89317653779e-05
124 1 -1.89434639815e-05
125 1 -1.89316979714e-05
126 1 -1.89199866528e-05
127 1 -1.89317419054e-05
128 1 -1.89434440173e-05
129 1 -1.89316924186e-05
130 1 -1.89199994873e-05
131 1 -1.8931765404e-05
132 1 -1.89434639986e-05
133 1 -1.89316979974e-05
134 1 -1.891998667e-05
135 1 -1.89317419315e-05
136 1 -1.89434440345e-05
137 1 -1.89316924245e-05
138 1 -1.89199994813e-05
139 1 -1.89317654099e-05
140 1 -1.89434639926e-05
141 1 -1.89316980034e-05
142 1 -1.8919986664e-05
143 1 -1.89317419374e-05
144 1 -1.89434440285e-05
145 1 -0.00334376908863
146 1 -0.00334376841717
147 1 -0.00334379901693
148 1 -0.00334380107765
149 1 -0.00334376908111
150 1 -0.00334376839956
151 1 -0.003343799001
152 1 -0.0033438010722
153 1 -0.00334376908324
154 1 -0.00334376841502
155 1 -0.00334379901154
156 1 -0.00334380107551
157 1 -0.00334376907572
158 1 -0.00334376839742
159 1 -0.00334379899562
160 1 -0.00334380107006
161 1 -0.00334376908539
162 1 -0.00334376842041
163 1 -0.00334379901369
164 1 -0.0033438010809
165 1 -0.00334376907787
166 1 -0.00334376840281
167 1 -0.00334379899776
168 1 -0.00334380107544
169 1 -0.00334376909166
170 1 -0.00334376842541
171 1 -0.00334379901996
172 1 -0.00334380108589
173 1 -0.00334376908414
174 1 -0.0033437684078
175 1 -0.00334379900404
176 1 -0.00334380108044
177 1 -0.00334376909433
178 1 -0.00334376842611
179 1 -0.00334379902263
180 1 -0.0033438010866
181 1 -0.00334376908681
182 1 -0.00334376840851
183 1 -0.0033437990067
184 1 -0.00334380108114
185 1 -0.00334376909363
186 1 -0.00334376842344
187 1 -0.00334379902193
188 1 -0.00334380108393
189 1 -0.00334376908611
190 1 -0.00334376840584
191 1 -0.003343799006
192 1 -0.00334380107848
193 1 0.0280204997338
194 1 0.0280204806899
195 1 0.0280204610426
196 1 0.0280204767018
197 1 0.0280204997488
198 1 0.0280204807056
199 1 0.0280204610488
200 1 0.0280204766959
201 1 0.0280204997372
202 1 0.0280204806864
203 1 0.028020461046
204 1 0.0280204766984
205 1 0.0280204997523
206 1 0.0280204807022
207 1 0.0280204610523
208 1 0.0280204766925
209 1 0.0280204997285
210 1 0.028020480676
211 1 0.0280204610373
212 1 0.0280204766879
213 1 0.0280204997435
214 1 0.0280204806918
215 1 0.0280204610435
216 1 0.028020476682
217 1 0.0280204997198
218 1 0.0280204806707
219 1 0.0280204610286
220 1 0.0280204766826
221 1 0.0280204997348
222 1 0.0280204806865
223 1 0.0280204610348
224 1 0.0280204766767
225 1 0.0280204997181
226 1 0.0280204806724
227 1 0.0280204610269
228 1 0.0280204766844
229 1 0.0280204997331
230 1 0.0280204806882
231 1 0.0280204610331
232 1 0.0280204766785
233 1 0.0280204997234
234 1 0.0280204806811
235 1 0.0280204610322
236 1 0.0280204766931
237 1 0.0280204997384
238 1 0.0280204806969
239 1 0.0280204610384
240 1 0.0280204766872
