ITEM: TIMESTEP
0
ITEM: NUMBER OF ATOMS
564
ITEM: BOX BOUNDS pp pp ff
0.0000000000000000e+00 1.7650658050000001e+01
0.0000000000000000e+00 2.0381224350000000e+01
0.0000000000000000e+00 6.0000000000000000e+01
ITEM: ATOMS id mol type q x y z
1 1 2 0 8.24512200 15.58107900 22.60780130
2 1 3 0.000990446581148 8.99930700 15.99494600 23.02750430
3 1 3 0.000989260539058 7.50380600 16.13955400 22.84187130
4 1 4 -0.00197970712021 8.24676900 15.70555000 22.69149230
5 2 2 0 15.94739500 18.39865100 22.69035230
6 2 3 0.000990079982081 16.71765600 18.46088800 22.12550130
7 2 3 0.000989372640495 15.55165300 17.55682700 22.46462430
8 2 4 -0.00197945262258 15.99533800 18.29885400 22.58914830
9 3 2 0 17.43363900 10.16011000 22.73132430
10 3 3 0.000989307723829 17.04728200 9.37132900 22.35081830
11 3 3 0.000989995288962 0.66633495 9.89504700 22.98756730
12 3 4 -0.00197930301279 17.49726000 10.02520600 22.71541730
13 4 2 0 1.34938300 4.55603100 22.80664330
14 4 3 0.000989197896094 2.25303400 4.29537500 22.62858430
15 4 3 0.000990060535695 1.36124800 4.85802700 23.71487830
16 4 4 -0.00197925843179 1.46658000 4.56132300 22.90011430
17 5 2 0 13.79454900 8.69815200 22.91890230
18 5 3 0.000989880902116 13.76817500 9.65498800 22.91982030
19 5 3 0.000989815224909 14.31482300 8.47167600 23.68978230
20 5 4 -0.00197969612702 13.85777400 8.79164700 23.01770230
21 6 2 0 2.45384200 11.13179700 23.00931330
22 6 3 0.000989602529033 3.34523300 10.88819200 23.25893330
23 6 3 0.000989661047664 2.56797500 11.78723500 22.32112330
24 6 4 -0.0019792635767 2.58256100 11.18451700 22.95317030
25 7 2 0 5.78675400 16.92692800 23.09641330
26 7 3 0.000989817227527 5.28323000 16.47580400 23.77404430
27 7 3 0.000989309186286 5.17677800 17.01724400 22.36429030
28 7 4 -0.00197912641381 5.64421300 16.88074000 23.08943730
29 8 2 0 9.01000400 19.57176400 23.18088730
30 8 3 0.000990372970475 8.78238800 19.25232600 24.05403330
31 8 3 0.000989064484522 8.18499100 19.55303200 22.69587630
32 8 4 -0.001979437455 8.87525500 19.52847400 23.23057330
33 9 2 0 8.83043300 2.85815800 23.19435430
34 9 3 0.000990031214715 9.21769000 2.02205600 23.45357830
35 9 3 0.00098961057247 9.56648500 3.46996200 23.18191330
36 9 4 -0.00197964178718 8.97423000 2.82944500 23.22594530
37 10 2 0 6.02784200 0.12173500 23.20701130
38 10 3 0.000989018469049 5.47821600 0.33162200 22.45196730
39 10 3 0.000990498720971 5.79197900 19.60317635 23.43282430
40 10 4 -0.00197951719002 5.92729000 0.03342000 23.13926330
41 11 2 0 4.18397800 8.35952700 23.26490830
42 11 3 0.000990384700697 5.05229100 7.96143000 23.32642530
43 11 3 0.000989366009023 3.81527900 8.00719600 22.45487330
44 11 4 -0.00197975070972 4.24793400 8.26346300 23.16908830
45 12 2 0 0.45553800 19.51483400 23.37309230
46 12 3 0.000989512428056 0.12126100 20.35801600 23.67892930
47 12 3 0.000989985164664 0.15406600 18.88529700 24.02809630
48 12 4 -0.00197949759272 0.37415500 19.54218300 23.49609230
49 13 2 0 15.09732900 11.54517500 23.49740530
50 13 3 0.000990067269411 15.28848600 12.42944200 23.81007330
51 13 3 0.000989949854712 15.91183100 11.25434900 23.08723630
52 13 4 -0.00198001712412 15.22606500 11.62114200 23.48492330
53 14 2 0 10.74610700 16.76684700 23.56450830
54 14 3 0.000989965720258 10.79944800 17.51104700 24.16413530
55 14 3 0.000989693683349 11.09645100 16.02988700 24.06489030
56 14 4 -0.00197965940361 10.79778300 16.76777400 23.70532230
57 15 2 0 10.92097000 4.49939700 23.57670830
58 15 3 0.000990531936282 10.73334500 5.43784000 23.59550930
59 15 3 0.000989498880399 11.43992200 4.37428700 22.78218430
60 15 4 -0.00198003081668 10.96338400 4.60351300 23.47740630
61 16 2 0 11.20759600 7.43499100 23.63896930
62 16 3 0.00099003282997 12.08038100 7.79234200 23.47532730
63 16 3 0.000989969137775 10.71998500 8.16114200 24.02777930
64 16 4 -0.00198000196775 11.25690300 7.57369300 23.66779430
65 17 2 0 2.77487200 2.13963000 23.80555830
66 17 3 0.000989582544646 1.87563000 2.20241100 24.12751330
67 17 3 0.000989996721301 3.06142600 1.26344600 24.06328030
68 17 4 -0.00197957926595 2.69644000 2.03550400 23.87976330
69 18 2 0 6.66557400 7.03157500 23.85975330
70 18 3 0.000990641605767 7.12119900 7.12854900 24.69595530
71 18 3 0.000989305954196 7.35394200 7.11666000 23.20009930
72 18 4 -0.00197994755996 6.81201900 7.05488100 23.88235330
73 19 2 0 13.64690200 1.83257800 24.19527930
74 19 3 0.000989974523853 12.85765800 1.41328700 24.53809330
75 19 3 0.000989601703657 13.96923300 2.36706000 24.92099530
76 19 4 -0.00197957622751 13.58713200 1.84732400 24.33206430
77 20 2 0 5.00715200 4.70371400 24.22363830
78 20 3 0.000990448401303 5.69863400 5.36154900 24.15057330
79 20 3 0.000989240355245 4.71389900 4.56278300 23.32343130
80 20 4 -0.00197968875655 5.05813000 4.76988400 24.09904830
81 21 2 0 15.07740200 5.32894500 24.27709430
82 21 3 0.00098987473362 15.73547300 6.01263700 24.40255330
83 21 3 0.000989581321174 14.93436300 5.30425000 23.33096330
84 21 4 -0.00197945605479 15.14333200 5.41330500 24.17203830
85 22 2 0 1.93368600 15.47494700 24.31767830
86 22 3 0.00099018024559 2.65042100 14.86751800 24.50085330
87 22 3 0.000989336860007 2.23595500 15.98270500 23.56465230
88 22 4 -0.0019795171056 2.06413000 15.46218800 24.24473030
89 23 2 0 9.63670000 9.69834100 24.31854630
90 23 3 0.000989865049093 8.68003500 9.72351600 24.29875530
91 23 3 0.000989817510121 9.90754500 10.40837200 23.73654030
92 23 4 -0.00197968255921 9.54890600 9.79245600 24.24150930
93 24 2 0 4.31714800 14.06587000 24.39000730
94 24 3 0.000989688787995 4.78988600 13.85099400 23.58590530
95 24 3 0.000990205399846 4.04766500 13.21824400 24.74376130
96 24 4 -0.00197989418784 4.34316700 13.92985700 24.33235730
97 25 2 0 8.26061000 12.83181700 24.44569030
98 25 3 0.000990309328796 9.17832700 13.10211800 24.47678330
99 25 3 0.000989956991186 7.78734700 13.53820400 24.88531730
100 25 4 -0.00198026631998 8.31750600 12.95684500 24.50594830
101 26 2 0 3.49508600 18.95208400 24.47556130
102 26 3 0.000988815694785 2.58902400 18.66568000 24.36042530
103 26 3 0.000990768159965 3.69139100 18.76415800 25.39337430
104 26 4 -0.00197958385475 3.40422900 18.89136400 24.57831330
105 27 2 0 6.70188600 10.48890000 24.57235630
106 27 3 0.000988934027131 6.46010100 10.31878300 23.66195430
107 27 3 0.000991028275169 7.31296500 11.22413700 24.52500130
108 27 4 -0.0019799623023 6.74916000 10.56124200 24.44975230
109 28 2 0 15.29878900 14.08884200 24.76001430
110 28 3 0.000991247498351 14.60940900 14.74576100 24.85719830
111 28 3 0.000988639847677 16.08598800 14.51512300 25.09888730
112 28 4 -0.00197988734603 15.31131100 14.22750500 24.81583530
113 29 2 0 10.77183900 14.15511100 24.80595330
114 29 3 0.00098982372602 10.57829100 14.62850600 25.61506930
115 29 3 0.000990070337667 11.47870900 13.55459400 25.04248130
116 29 4 -0.00197989406369 10.83755000 14.13883800 24.93980830
117 30 2 0 16.91267600 2.62313000 24.96988530
118 30 3 0.000990080551237 16.99912700 3.50638200 25.32852730
119 30 3 0.000989329621299 16.30921700 2.72117700 24.23336830
120 30 4 -0.00197941017254 16.84649300 2.74874800 24.92151230
121 31 2 0 6.30170800 2.23170000 24.98602930
122 31 3 0.000989512958895 5.83233700 3.00106400 24.66353530
123 31 3 0.000990548015487 6.33270000 1.63767700 24.23608930
124 31 4 -0.00198006097438 6.24559000 2.25414600 24.84874530
125 32 2 0 11.01134000 1.83247200 25.20326530
126 32 3 0.000990201762909 10.71999300 2.01679600 26.09622330
127 32 3 0.000989474826456 11.10650300 2.69489800 24.79904030
128 32 4 -0.00197967658937 10.98622600 1.96646900 25.26582930
129 33 2 0 13.32813600 15.90542400 25.21628930
130 33 3 0.000989887594867 13.85549900 16.61335500 25.58636330
131 33 3 0.000989864285295 12.97239400 15.44774900 25.97800630
132 33 4 -0.00197975188016 13.35010600 15.93746000 25.36117230
133 34 2 0 12.52022500 12.01202700 25.25169830
134 34 3 0.000989917122633 13.16850400 11.76504100 24.59218030
135 34 3 0.000989929691834 12.46499600 11.25163700 25.83048030
136 34 4 -0.00197984681447 12.59614300 11.88307100 25.24136330
137 35 2 0 16.40840300 19.45741800 25.26426230
138 35 3 0.000989473016797 16.45952200 0.01605565 25.09025530
139 35 3 0.000990517132921 16.01683600 19.08778600 24.47288430
140 35 4 -0.00197999014972 16.36482200 19.53041400 25.14068130
141 36 2 0 8.47517700 18.06131700 25.42277330
142 36 3 0.000989572606007 9.37481800 18.02996000 25.74818930
143 36 3 0.000990291700094 8.14606800 17.17026200 25.54085130
144 36 4 -0.0019798643061 8.54821200 17.94323700 25.47954630
145 37 2 0 15.19334000 8.74581100 25.53532230
146 37 3 0.000990429342847 15.44104000 8.06498400 26.16090330
147 37 3 0.0009895007918 15.78328000 9.47463600 25.72772030
148 37 4 -0.00197993013465 15.30056800 8.75195500 25.64003330
149 38 2 0 0.84938300 5.70515300 25.53580530
150 38 3 0.000989511931199 1.03248100 6.59229700 25.84513430
151 38 3 0.00099027354415 1.58163000 5.18159800 25.86128430
152 38 4 -0.00197978547535 0.96655800 5.75169700 25.61706830
153 39 2 0 11.22479500 18.68220300 25.59883530
154 39 3 0.0009899149242 11.22328700 19.60210700 25.33424530
155 39 3 0.000989898030057 12.03922400 18.57516400 26.09024130
156 39 4 -0.00197981295426 11.32885800 18.78626000 25.62787030
157 40 2 0 0.41183400 11.55787700 25.60587830
158 40 3 0.000989967308258 0.64613800 10.64146400 25.75257830
159 40 3 0.000989600957853 1.16805100 11.92914000 25.15142030
160 40 4 -0.00197956826611 0.53863300 11.48809100 25.56648230
161 41 2 0 8.12633200 4.17882000 25.81706730
162 41 3 0.000989006244392 8.77924900 3.69358300 26.32152430
163 41 3 0.000991016631017 7.91021400 3.60075600 25.08537830
164 41 4 -0.00198002287541 8.18224700 4.04270400 25.78797930
165 42 2 0 7.56908800 15.36448100 25.83811130
166 42 3 0.000990107888724 8.22538200 15.13923700 26.49748630
167 42 3 0.000989713745132 6.73050100 15.24906300 26.28496930
168 42 4 -0.00197982163386 7.54575200 15.32087200 25.97972230
169 43 2 0 0.99370900 8.71985900 25.85117430
170 43 3 0.00098861276819 0.75134800 8.66391400 24.92685630
171 43 3 0.000991204157965 1.94997400 8.76190300 25.84641530
172 43 4 -0.00197981692616 1.08509800 8.71807900 25.73224130
173 44 2 0 12.80925900 5.16015400 25.90682430
174 44 3 0.000989386609523 12.15851800 4.87924200 25.26350730
175 44 3 0.000990613584269 13.60881700 5.29227200 25.39742730
176 44 4 -0.00198000019379 12.82831000 5.14110600 25.75926230
177 45 2 0 8.66085300 7.03336900 26.04967530
178 45 3 0.000990012745705 8.59535500 6.07871800 26.07381730
179 45 3 0.000990311768683 9.58679200 7.21454900 26.21105330
180 45 4 -0.00198032451439 8.77100000 6.93435600 26.07342430
181 46 2 0 3.89553600 11.60235000 26.06317630
182 46 3 0.000989306867535 4.36255600 11.87078400 26.85442130
183 46 3 0.0009904506834 4.10647500 10.67404100 25.96328430
184 46 4 -0.00197975755093 3.98232300 11.51787800 26.15167730
185 47 2 0 3.62978500 8.71462200 26.07897430
186 47 3 0.000990631987154 4.19971700 8.10610000 26.54919830
187 47 3 0.000989532605198 3.81499100 8.55099900 25.15422730
188 47 4 -0.00198016459235 3.72645200 8.61577800 26.02079030
189 48 2 0 3.21464800 4.26027600 26.49332830
190 48 3 0.000989567188895 3.37191400 4.89379200 27.19343930
191 48 3 0.000990089553243 3.82220800 4.51447600 25.79871730
192 48 4 -0.00197965674214 3.31255500 4.37391400 26.49403230
193 49 2 0 14.18334800 18.39282300 26.57302230
194 49 3 0.000989520326699 14.05279500 18.70785100 27.46741930
195 49 3 0.000990480751876 14.96614200 18.85201600 26.26870830
196 49 4 -0.00198000107857 14.26684300 18.49193300 26.64856030
197 50 2 0 6.69366900 8.81958100 26.69397730
198 50 3 0.000990088853023 6.66206100 9.56283700 26.09164430
199 50 3 0.000990000738276 7.49209700 8.34957300 26.45348230
200 50 4 -0.0019800895913 6.79183100 8.85456000 26.58608530
201 51 2 0 9.63566200 11.01814000 26.78542030
202 51 3 0.000990177177408 9.80181200 10.80716900 25.86666130
203 51 3 0.000989473752087 8.84712900 11.56050100 26.76830830
204 51 4 -0.00197965092949 9.55599000 11.06056200 26.66561830
205 52 2 0 2.56207100 1.31779700 26.86136530
206 52 3 0.000989445005356 2.86473400 2.03251100 26.30117630
207 52 3 0.0009905514054 3.10342600 1.38371200 27.64801730
208 52 4 -0.00197999641076 2.67011600 1.41772700 26.89035530
209 53 2 0 1.35572600 16.76575200 26.97442730
210 53 3 0.000989126681486 0.76187300 16.19088100 27.45722630
211 53 3 0.000990133972154 1.52887500 16.29958600 26.15653930
212 53 4 -0.00197926065364 1.30187100 16.63248700 26.93153130
213 54 2 0 15.20294000 12.00841700 26.99576630
214 54 3 0.000989339853597 16.02440000 11.63625400 26.67493830
215 54 3 0.000990190324818 15.01914100 12.73415100 26.39930930
216 54 4 -0.00197953017842 15.28456800 12.05367800 26.87834230
217 55 2 0 14.20052200 2.94209600 26.99865430
218 55 3 0.00099028364476 13.94774800 3.86530700 27.00281030
219 55 3 0.000989273340925 14.89590700 2.88072000 27.65356130
220 55 4 -0.00197955698569 14.25718100 3.05242100 27.08302230
221 56 2 0 11.24978600 7.42906100 27.02862630
222 56 3 0.000989859346356 11.65519100 6.82977100 26.40194430
223 56 3 0.000990102833093 10.98777200 6.87013000 27.76018530
224 56 4 -0.00197996217945 11.26814200 7.28079500 27.04205230
225 57 2 0 4.12556900 17.85664100 27.04741530
226 57 3 0.000990084622766 4.62032600 17.03731100 27.03536130
227 57 3 0.000989557861201 3.20873000 17.58389200 27.01209730
228 57 4 -0.00197964248397 4.07153700 17.71684200 27.04135130
229 58 2 0 13.02757000 9.70643000 27.07282030
230 58 3 0.00099017112481 12.45232700 8.95602600 26.92375030
231 58 3 0.000989762767573 13.84320600 9.47563300 26.62818230
232 58 4 -0.00197993389238 13.05834300 9.58082500 26.99681930
233 59 2 0 5.09463500 15.28001200 27.15941430
234 59 3 0.000989442340067 4.68903500 14.99026100 26.34224530
235 59 3 0.000990347886985 5.01627300 14.52778700 27.74614230
236 59 4 -0.00197979022705 5.03268200 15.14662600 27.12991530
237 60 2 0 6.66157900 0.62793900 27.18777830
238 60 3 0.000990345296429 6.64215100 1.27150000 26.47948130
239 60 3 0.000989742090452 6.86266800 20.18023435 26.75341430
240 60 4 -0.00198008738688 6.68483400 0.60421000 27.04150430
241 61 2 0 9.88209000 14.93647000 27.29756330
242 61 3 0.000988949472666 9.67706800 14.14177100 27.79016230
243 61 3 0.000990875974072 10.37561600 15.47930100 27.91237830
244 61 4 -0.00197982544674 9.91902200 14.90422800 27.43932630
245 62 2 0 7.39681800 12.82525900 27.51775430
246 62 3 0.000990409924189 6.44357100 12.88146200 27.58404130
247 62 3 0.00098897603957 7.67311700 12.44228000 28.35035130
248 62 4 -0.00197938596376 7.31016100 12.78342800 27.63282230
249 63 2 0 10.32713300 2.90882100 27.55348030
250 63 3 0.00099073837722 9.59637700 2.71213200 28.13960530
251 63 3 0.000989672022274 10.47085900 3.84955300 27.65643630
252 63 4 -0.00198041039949 10.25198600 3.00406800 27.64169130
253 64 2 0 13.08636200 14.70248000 27.75652730
254 64 3 0.000988513662239 13.84954500 14.83373000 28.31916130
255 64 3 0.000991685498173 12.89162000 13.76821100 27.83034430
256 64 4 -0.00198019916041 13.15912900 14.59968400 27.83800030
257 65 2 0 15.86894400 6.99060100 27.75915330
258 65 3 0.000989544228673 15.29772500 7.08061000 28.52193630
259 65 3 0.000989797571126 16.66471700 7.46600900 27.99782430
260 65 4 -0.0019793417998 15.89769000 7.06298100 27.88735130
261 66 2 0 5.11344400 6.80445900 27.87901130
262 66 3 0.000989447119621 5.75585700 7.32598600 27.39781730
263 66 3 0.00099039617531 5.57738500 5.99710300 28.10074930
264 66 4 -0.00197984329493 5.25507000 6.76787000 27.84579730
265 67 2 0 0.21195400 1.70798400 27.89629830
266 67 3 0.000991451266562 1.01377200 1.56700700 27.39286430
267 67 3 0.000988072111675 17.34354205 0.91769200 27.74717830
268 67 4 -0.00197952337824 0.24814900 1.58877100 27.81276330
269 68 2 0 12.39997200 12.20247200 28.07804930
270 68 3 0.000990781400356 13.06349600 11.58825600 27.76387230
271 68 3 0.000989287907857 11.63854200 12.03851500 27.52165530
272 68 4 -0.00198006930821 12.38743900 12.10285700 27.96660630
273 69 2 0 12.13002900 1.09927700 28.33719430
274 69 3 0.000989358812261 12.99724300 1.38319500 28.04811930
275 69 3 0.000990214319346 11.53462500 1.77161700 28.00600730
276 69 4 -0.00197957313161 12.16482400 1.22169000 28.25779330
277 70 2 0 4.82940600 12.94086300 28.46305530
278 70 3 0.00098910020657 5.04059100 12.13789100 28.93936330
279 70 3 0.000991098317952 3.90801500 13.10414900 28.66457030
280 70 4 -0.00198019852452 4.73849100 12.85897500 28.54982430
281 71 2 0 6.39772100 4.46443500 28.63961930
282 71 3 0.000990570663546 7.00222600 3.77491800 28.91416330
283 71 3 0.0009890411597 6.37638800 4.39875300 27.68491330
284 71 4 -0.00197961182325 6.47237400 4.36776000 28.55255030
285 72 2 0 1.91486700 13.23845100 28.66041730
286 72 3 0.000989922579163 1.83367200 12.46438900 28.10322130
287 72 3 0.000989581790629 1.06628100 13.67554600 28.58912830
288 72 4 -0.00197950436979 1.79584400 13.19531500 28.57996430
289 73 2 0 9.81651600 18.75151400 28.70247830
290 73 3 0.000989662020031 10.30103900 17.98385500 29.00607130
291 73 3 0.000989914657044 10.40674300 19.17743600 28.08082230
292 73 4 -0.00197957667708 9.95409700 18.70776800 28.66176230
293 74 2 0 11.38663600 16.46598000 28.87761430
294 74 3 0.000991103926838 12.14939100 16.00750800 28.52513730
295 74 3 0.000988805285444 11.22185300 16.04443800 29.72104830
296 74 4 -0.00197990921228 11.46318300 16.35332800 28.94046230
297 75 2 0 4.50752500 1.14806100 28.94505830
298 75 3 0.000990306567055 5.27861900 1.26247800 28.38958030
299 75 3 0.000989294903801 4.52803900 0.22481600 29.19690830
300 75 4 -0.00197960147086 4.60886100 1.04452100 28.90619030
301 76 2 0 10.16258100 5.47986400 28.95691530
302 76 3 0.000990274090506 9.46082900 5.86992400 29.47809630
303 76 3 0.000989341593929 10.78444500 5.14588700 29.60342630
304 76 4 -0.00197961568443 10.15235400 5.48704300 29.10639430
305 77 2 0 8.19492700 2.24313000 29.08671030
306 77 3 0.000990753502602 7.92380100 1.55035300 28.48439430
307 77 3 0.000989307886238 8.54768800 1.77743200 29.84494430
308 77 4 -0.00198006138884 8.20537700 2.09483100 29.10667030
309 78 2 0 15.05156300 19.31191500 29.12141530
310 78 3 0.000989558440672 14.47225600 19.29359700 29.88318930
311 78 3 0.00098963064685 15.35830900 20.21744000 29.07490830
312 78 4 -0.00197918908752 15.01667200 19.42548800 29.21297830
313 79 2 0 2.52582400 9.94933400 29.33243830
314 79 3 0.000989298176865 2.51448200 10.63251900 30.00278330
315 79 3 0.000989661722883 3.45518100 9.79256400 29.16525330
316 79 4 -0.00197895989975 2.64334100 10.01672100 29.39684930
317 80 2 0 7.65495200 9.21183300 29.36535130
318 80 3 0.000988790268384 8.27486400 9.81540900 29.77478630
319 80 3 0.000990353830535 7.81334800 9.30574300 28.42603130
320 80 4 -0.00197914409892 7.75458500 9.30111900 29.29751930
321 81 2 0 7.30022100 17.67514900 29.50165530
322 81 3 0.00099074779292 8.09221800 18.08947200 29.15915230
323 81 3 0.000988408416689 7.51513200 16.74326100 29.54201330
324 81 4 -0.00197915620961 7.42911700 17.60889400 29.46297730
325 82 1 -2.84121123721e-08 0.00000000 0.00000000 10.00000000
326 82 1 -5.3021613259e-08 1.47088817 2.54765304 10.00000000
327 82 1 -7.01438007112e-08 0.00000000 5.09530609 10.00000000
328 82 1 -9.77850432945e-08 1.47088817 7.64295913 10.00000000
329 82 1 -8.8107256631e-08 0.00000000 10.19061218 10.00000000
330 82 1 -8.17570217425e-08 1.47088817 12.73826522 10.00000000
331 82 1 -4.75528401241e-08 0.00000000 15.28591827 10.00000000
332 82 1 -3.85890575746e-08 1.47088817 17.83357131 10.00000000
333 82 1 -3.92972872198e-08 2.94177634 0.00000000 10.00000000
334 82 1 -5.62496096492e-08 4.41266451 2.54765304 10.00000000
335 82 1 -8.42325485621e-08 2.94177634 5.09530609 10.00000000
336 82 1 -1.04316816757e-07 4.41266451 7.64295913 10.00000000
337 82 1 -1.04006362865e-07 2.94177634 10.19061218 10.00000000
338 82 1 -8.2039386997e-08 4.41266451 12.73826522 10.00000000
339 82 1 -5.97914354149e-08 2.94177634 15.28591827 10.00000000
340 82 1 -3.49810692724e-08 4.41266451 17.83357131 10.00000000
341 82 1 -2.65087409274e-08 5.88355268 0.00000000 10.00000000
342 82 1 -4.02143900941e-08 7.35444085 2.54765304 10.00000000
343 82 1 -8.02750630168e-08 5.88355268 5.09530609 10.00000000
344 82 1 -8.97182176706e-08 7.35444085 7.64295913 10.00000000
345 82 1 -9.55580918673e-08 5.88355268 10.19061218 10.00000000
346 82 1 -5.67622714673e-08 7.35444085 12.73826522 10.00000000
347 82 1 -4.13043852471e-08 5.88355268 15.28591827 10.00000000
348 82 1 -8.07272395017e-09 7.35444085 17.83357131 10.00000000
349 82 1 -2.20456830506e-09 8.82532903 0.00000000 10.00000000
350 82 1 -2.19026084325e-08 10.29621720 2.54765304 10.00000000
351 82 1 -6.14175713365e-08 8.82532903 5.09530609 10.00000000
352 82 1 -6.85402461195e-08 10.29621720 7.64295913 10.00000000
353 82 1 -7.06993658326e-08 8.82532903 10.19061218 10.00000000
354 82 1 -3.22643808937e-08 10.29621720 12.73826522 10.00000000
355 82 1 -1.0542524671e-08 8.82532903 15.28591827 10.00000000
356 82 1 1.44609474131e-08 10.29621720 17.83357131 10.00000000
357 82 1 7.92923645442e-09 11.76710537 0.00000000 10.00000000
358 82 1 -2.00578405392e-08 13.23799354 2.54765304 10.00000000
359 82 1 -4.77746435643e-08 11.76710537 5.09530609 10.00000000
360 82 1 -6.25849977729e-08 13.23799354 7.64295913 10.00000000
361 82 1 -5.50336911552e-08 11.76710537 10.19061218 10.00000000
362 82 1 -3.28829025931e-08 13.23799354 12.73826522 10.00000000
363 82 1 5.74574968806e-10 11.76710537 15.28591827 10.00000000
364 82 1 9.62314212423e-09 13.23799354 17.83357131 10.00000000
365 82 1 -5.363132186e-09 14.70888171 0.00000000 10.00000000
366 82 1 -3.54577466597e-08 16.17976988 2.54765304 10.00000000
367 82 1 -5.25159018053e-08 14.70888171 5.09530609 10.00000000
368 82 1 -7.72177526004e-08 16.17976988 7.64295913 10.00000000
369 82 1 -6.3842851661e-08 14.70888171 10.19061218 10.00000000
370 82 1 -5.71803806576e-08 16.17976988 12.73826522 10.00000000
371 82 1 -1.79030916626e-08 14.70888171 15.28591827 10.00000000
372 82 1 -1.644409223e-08 16.17976988 17.83357131 10.00000000
373 82 1 -3.94267155206e-08 1.47088817 0.84921768 12.40195032
374 82 1 -9.07839848803e-08 2.94177634 3.39687073 12.40195032
375 82 1 -1.34355186721e-07 1.47088817 5.94452377 12.40195032
376 82 1 -1.83002180051e-07 2.94177634 8.49217681 12.40195032
377 82 1 -1.58049776521e-07 1.47088817 11.03982986 12.40195032
378 82 1 -1.247300411e-07 2.94177634 13.58748290 12.40195032
379 82 1 -6.83376358559e-08 1.47088817 16.13513595 12.40195032
380 82 1 -4.09029551591e-08 2.94177634 18.68278899 12.40195032
381 82 1 -3.96595586894e-08 4.41266451 0.84921768 12.40195032
382 82 1 -7.8292302729e-08 5.88355268 3.39687073 12.40195032
383 82 1 -1.51921329244e-07 4.41266451 5.94452377 12.40195032
384 82 1 -1.7147747877e-07 5.88355268 8.49217681 12.40195032
385 82 1 -1.6681177703e-07 4.41266451 11.03982986 12.40195032
386 82 1 -8.28546596074e-08 5.88355268 13.58748290 12.40195032
387 82 1 -5.61596391595e-08 4.41266451 16.13513595 12.40195032
388 82 1 2.36999736828e-09 5.88355268 18.68278899 12.40195032
389 82 1 7.61683253868e-09 7.35444085 0.84921768 12.40195032
390 82 1 -3.5969330599e-08 8.82532903 3.39687073 12.40195032
391 82 1 -1.23233392634e-07 7.35444085 5.94452377 12.40195032
392 82 1 -1.19701728884e-07 8.82532903 8.49217681 12.40195032
393 82 1 -1.1401141617e-07 7.35444085 11.03982986 12.40195032
394 82 1 -7.32879392432e-09 8.82532903 13.58748290 12.40195032
395 82 1 1.88677098869e-08 7.35444085 16.13513595 12.40195032
396 82 1 7.25348825844e-08 8.82532903 18.68278899 12.40195032
397 82 1 5.30957262841e-08 10.29621720 0.84921768 12.40195032
398 82 1 -9.03608182707e-09 11.76710537 3.39687073 12.40195032
399 82 1 -7.98895711746e-08 10.29621720 5.94452377 12.40195032
400 82 1 -8.18750882067e-08 11.76710537 8.49217681 12.40195032
401 82 1 -5.55163202703e-08 10.29621720 11.03982986 12.40195032
402 82 1 2.33411366867e-08 11.76710537 13.58748290 12.40195032
403 82 1 7.85253512342e-08 10.29621720 16.13513595 12.40195032
404 82 1 9.48091039736e-08 11.76710537 18.68278899 12.40195032
405 82 1 4.92667574446e-08 13.23799354 0.84921768 12.40195032
406 82 1 -2.17137260371e-08 14.70888171 3.39687073 12.40195032
407 82 1 -6.50166468259e-08 13.23799354 5.94452377 12.40195032
408 82 1 -9.27968607586e-08 14.70888171 8.49217681 12.40195032
409 82 1 -4.91091258245e-08 13.23799354 11.03982986 12.40195032
410 82 1 -1.89909350026e-08 14.70888171 13.58748290 12.40195032
411 82 1 6.19943375851e-08 13.23799354 16.13513595 12.40195032
412 82 1 4.92964911889e-08 14.70888171 18.68278899 12.40195032
413 82 1 4.39302499728e-09 16.17976988 0.84921768 12.40195032
414 82 1 -6.08068119683e-08 0.00000000 3.39687073 12.40195032
415 82 1 -9.07574631585e-08 16.17976988 5.94452377 12.40195032
416 82 1 -1.4207748603e-07 0.00000000 8.49217681 12.40195032
417 82 1 -9.89472623908e-08 16.17976988 11.03982986 12.40195032
418 82 1 -9.11654887818e-08 0.00000000 13.58748290 12.40195032
419 82 1 -1.0225104334e-08 16.17976988 16.13513595 12.40195032
420 82 1 -1.63690670832e-08 0.00000000 18.68278899 12.40195032
421 82 1 -6.62534155113e-08 2.94177634 1.69843536 14.80390065
422 82 1 -1.92953660285e-07 4.41266451 4.24608841 14.80390065
423 82 1 -3.05031548413e-07 2.94177634 6.79374145 14.80390065
424 82 1 -3.64149398756e-07 4.41266451 9.34139450 14.80390065
425 82 1 -3.08230639241e-07 2.94177634 11.88904754 14.80390065
426 82 1 -1.68875881787e-07 4.41266451 14.43670058 14.80390065
427 82 1 -1.03639681802e-07 2.94177634 16.98435363 14.80390065
428 82 1 -1.59316351148e-08 4.41266451 19.53200667 14.80390065
429 82 1 -2.8492747434e-08 5.88355268 1.69843536 14.80390065
430 82 1 -1.32787288318e-07 7.35444085 4.24608841 14.80390065
431 82 1 -3.07534076045e-07 5.88355268 6.79374145 14.80390065
432 82 1 -2.71255483336e-07 7.35444085 9.34139450 14.80390065
433 82 1 -2.34942243437e-07 5.88355268 11.88904754 14.80390065
434 82 1 3.19280536198e-08 7.35444085 14.43670058 14.80390065
435 82 1 3.26764942373e-08 5.88355268 16.98435363 14.80390065
436 82 1 1.38700265251e-07 7.35444085 19.53200667 14.80390065
437 82 1 9.00626218835e-08 8.82532903 1.69843536 14.80390065
438 82 1 -4.13060196783e-08 10.29621720 4.24608841 14.80390065
439 82 1 -2.02657931095e-07 8.82532903 6.79374145 14.80390065
440 82 1 -1.32085018935e-07 10.29621720 9.34139450 14.80390065
441 82 1 -5.88077483384e-08 8.82532903 11.88904754 14.80390065
442 82 1 1.83704718992e-07 10.29621720 14.43670058 14.80390065
443 82 1 2.41072078248e-07 8.82532903 16.98435363 14.80390065
444 82 1 2.64847153076e-07 10.29621720 19.53200667 14.80390065
445 82 1 1.39673529254e-07 11.76710537 1.69843536 14.80390065
446 82 1 -1.60476429621e-08 13.23799354 4.24608841 14.80390065
447 82 1 -1.11696867511e-07 11.76710537 6.79374145 14.80390065
448 82 1 -8.83143379038e-08 13.23799354 9.34139450 14.80390065
449 82 1 2.57374572883e-08 11.76710537 11.88904754 14.80390065
450 82 1 1.36207566745e-07 13.23799354 14.43670058 14.80390065
451 82 1 2.82815742951e-07 11.76710537 16.98435363 14.80390065
452 82 1 2.23991021447e-07 13.23799354 19.53200667 14.80390065
453 82 1 9.04820182218e-08 14.70888171 1.69843536 14.80390065
454 82 1 -5.82809369179e-08 16.17976988 4.24608841 14.80390065
455 82 1 -1.17214869447e-07 14.70888171 6.79374145 14.80390065
456 82 1 -1.74405969089e-07 16.17976988 9.34139450 14.80390065
457 82 1 -4.50209441e-08 14.70888171 11.88904754 14.80390065
458 82 1 -3.8737643456e-08 16.17976988 14.43670058 14.80390065
459 82 1 1.3739685803e-07 14.70888171 16.98435363 14.80390065
460 82 1 8.45253208919e-08 16.17976988 19.53200667 14.80390065
461 82 1 6.51075222715e-10 0.00000000 1.69843536 14.80390065
462 82 1 -1.40377942344e-07 1.47088817 4.24608841 14.80390065
463 82 1 -2.05013343221e-07 0.00000000 6.79374145 14.80390065
464 82 1 -3.09975545109e-07 1.47088817 9.34139450 14.80390065
465 82 1 -2.04260156353e-07 0.00000000 11.88904754 14.80390065
466 82 1 -1.908084679e-07 1.47088817 14.43670058 14.80390065
467 82 1 -4.17713147373e-08 0.00000000 16.98435363 14.80390065
468 82 1 -2.78189226605e-08 1.47088817 19.53200667 14.80390065
469 82 1 -1.15109032528e-07 4.41266451 2.54765304 17.20585097
470 82 1 -4.04540598068e-07 5.88355268 5.09530609 17.20585097
471 82 1 -6.8622726371e-07 4.41266451 7.64295913 17.20585097
472 82 1 -6.22184349253e-07 5.88355268 10.19061218 17.20585097
473 82 1 -5.03668614432e-07 4.41266451 12.73826522 17.20585097
474 82 1 8.12376142099e-09 5.88355268 15.28591827 17.20585097
475 82 1 -4.41453810635e-08 4.41266451 17.83357131 17.20585097
476 82 1 1.52946965714e-07 5.88355268 0.00000000 17.20585097
477 82 1 5.5971351357e-08 7.35444085 2.54765304 17.20585097
478 82 1 -2.10562083794e-07 8.82532903 5.09530609 17.20585097
479 82 1 -5.49554933664e-07 7.35444085 7.64295913 17.20585097
480 82 1 -2.84895961721e-07 8.82532903 10.19061218 17.20585097
481 82 1 -8.98183149691e-08 7.35444085 12.73826522 17.20585097
482 82 1 5.59359971602e-07 8.82532903 15.28591827 17.20585097
483 82 1 4.58234181042e-07 7.35444085 17.83357131 17.20585097
484 82 1 5.19333856312e-07 8.82532903 0.00000000 17.20585097
485 82 1 2.35587856853e-07 10.29621720 2.54765304 17.20585097
486 82 1 -7.77851624696e-08 11.76710537 5.09530609 17.20585097
487 82 1 -2.68915135046e-07 10.29621720 7.64295913 17.20585097
488 82 1 -3.94128297382e-08 11.76710537 10.19061218 17.20585097
489 82 1 2.58058836161e-07 10.29621720 12.73826522 17.20585097
490 82 1 6.23470886689e-07 11.76710537 15.28591827 17.20585097
491 82 1 7.95581967478e-07 10.29621720 17.83357131 17.20585097
492 82 1 5.96988381124e-07 11.76710537 0.00000000 17.20585097
493 82 1 2.21985213009e-07 13.23799354 2.54765304 17.20585097
494 82 1 -7.13701141576e-08 14.70888171 5.09530609 17.20585097
495 82 1 -1.41067517562e-07 13.23799354 7.64295913 17.20585097
496 82 1 -9.02154480891e-08 14.70888171 10.19061218 17.20585097
497 82 1 2.15545107175e-07 13.23799354 12.73826522 17.20585097
498 82 1 2.50663701458e-07 14.70888171 15.28591827 17.20585097
499 82 1 5.93619837513e-07 13.23799354 17.83357131 17.20585097
500 82 1 3.82666138579e-07 14.70888171 0.00000000 17.20585097
501 82 1 1.32073616552e-07 16.17976988 2.54765304 17.20585097
502 82 1 -1.68035024187e-07 0.00000000 5.09530609 17.20585097
503 82 1 -2.55696541596e-07 16.17976988 7.64295913 17.20585097
504 82 1 -3.85570126332e-07 0.00000000 10.19061218 17.20585097
505 82 1 -1.01173139561e-07 16.17976988 12.73826522 17.20585097
506 82 1 -1.81983640937e-07 0.00000000 15.28591827 17.20585097
507 82 1 1.69455507923e-07 16.17976988 17.83357131 17.20585097
508 82 1 1.29838239025e-07 0.00000000 0.00000000 17.20585097
509 82 1 -1.30400704336e-08 1.47088817 2.54765304 17.20585097
510 82 1 -3.68296460153e-07 2.94177634 5.09530609 17.20585097
511 82 1 -5.102108549e-07 1.47088817 7.64295913 17.20585097
512 82 1 -6.72124225808e-07 2.94177634 10.19061218 17.20585097
513 82 1 -4.63972159562e-07 1.47088817 12.73826522 17.20585097
514 82 1 -3.55599613609e-07 2.94177634 15.28591827 17.20585097
515 82 1 -1.2362870017e-07 1.47088817 17.83357131 17.20585097
516 82 1 -1.258281487e-08 2.94177634 0.00000000 17.20585097
517 82 1 -2.32682254466e-08 5.88355268 3.39687073 19.60780130
518 82 1 -5.92861449236e-07 7.35444085 5.94452377 19.60780130
519 82 1 -1.1109189115e-06 5.88355268 8.49217681 19.60780130
520 82 1 -5.41263767824e-07 7.35444085 11.03982986 19.60780130
521 82 1 -1.96452003451e-07 5.88355268 13.58748290 19.60780130
522 82 1 1.1167345438e-06 7.35444085 16.13513595 19.60780130
523 82 1 6.6288708994e-07 5.88355268 18.68278899 19.60780130
524 82 1 8.38533714503e-07 7.35444085 0.84921768 19.60780130
525 82 1 3.32531075222e-07 8.82532903 3.39687073 19.60780130
526 82 1 -1.98909627493e-07 10.29621720 5.94452377 19.60780130
527 82 1 -6.12221960694e-07 8.82532903 8.49217681 19.60780130
528 82 1 1.19528911155e-07 10.29621720 11.03982986 19.60780130
529 82 1 8.47843470297e-07 8.82532903 13.58748290 19.60780130
530 82 1 1.79364013641e-06 10.29621720 16.13513595 19.60780130
531 82 1 1.62676990527e-06 8.82532903 18.68278899 19.60780130
532 82 1 1.20851862043e-06 10.29621720 0.84921768 19.60780130
533 82 1 3.87460645191e-07 11.76710537 3.39687073 19.60780130
534 82 1 -5.23399021253e-08 13.23799354 5.94452377 19.60780130
535 82 1 -8.13226900935e-08 11.76710537 8.49217681 19.60780130
536 82 1 3.17647688909e-07 13.23799354 11.03982986 19.60780130
537 82 1 1.00384890176e-06 11.76710537 13.58748290 19.60780130
538 82 1 1.20378446012e-06 13.23799354 16.13513595 19.60780130
539 82 1 1.64547293543e-06 11.76710537 18.68278899 19.60780130
540 82 1 9.92778060103e-07 13.23799354 0.84921768 19.60780130
541 82 1 3.36859593144e-07 14.70888171 3.39687073 19.60780130
542 82 1 -1.14893776689e-07 16.17976988 5.94452377 19.60780130
543 82 1 -5.42890865102e-08 14.70888171 8.49217681 19.60780130
544 82 1 -2.59036162121e-08 16.17976988 11.03982986 19.60780130
545 82 1 4.78326035122e-07 14.70888171 13.58748290 19.60780130
546 82 1 2.7444699082e-07 16.17976988 16.13513595 19.60780130
547 82 1 9.47681588468e-07 14.70888171 18.68278899 19.60780130
548 82 1 6.81976986227e-07 16.17976988 0.84921768 19.60780130
549 82 1 3.13088366154e-07 0.00000000 3.39687073 19.60780130
550 82 1 -3.86743144171e-07 1.47088817 5.94452377 19.60780130
551 82 1 -4.78473141502e-07 0.00000000 8.49217681 19.60780130
552 82 1 -7.05865020604e-07 1.47088817 11.03982986 19.60780130
553 82 1 -2.72920902181e-07 0.00000000 13.58748290 19.60780130
554 82 1 -3.56931359611e-07 1.47088817 16.13513595 19.60780130
555 82 1 3.17949736334e-07 0.00000000 18.68278899 19.60780130
556 82 1 4.23490003771e-07 1.47088817 0.84921768 19.60780130
557 82 1 3.01367006552e-08 2.94177634 3.39687073 19.60780130
558 82 1 -7.58531081078e-07 4.41266451 5.94452377 19.60780130
559 82 1 -1.0057792834e-06 2.94177634 8.49217681 19.60780130
560 82 1 -1.0463830709e-06 4.41266451 11.03982986 19.60780130
561 82 1 -7.69271239728e-07 2.94177634 13.58748290 19.60780130
562 82 1 -1.33406862457e-07 4.41266451 16.13513595 19.60780130
563 82 1 8.13413279093e-08 2.94177634 18.68278899 19.60780130
564 82 1 3.30891824599e-07 4.41266451 0.84921768 19.60780130
