ITEM: TIMESTEP
0
ITEM: NUMBER OF ATOMS
240
ITEM: BOX BOUNDS pp pp ff
0.0000000000000000e+00 1.7650658050000001e+01
0.0000000000000000e+00 2.0381224350000000e+01
0.0000000000000000e+00 6.0000000000000000e+01
ITEM: ATOMS id type q
1 1 -0.0243548431315
2 1 -0.0243548333137
3 1 -0.0243548244848
4 1 -0.024354832613
5 1 -0.0243548431518
6 1 -0.0243548333213
7 1 -0.0243548244755
8 1 -0.0243548325921
9 1 -0.0243548431364
10 1 -0.0243548333212
11 1 -0.0243548244896
12 1 -0.0243548326205
13 1 -0.0243548431566
14 1 -0.0243548333288
15 1 -0.0243548244804
16 1 -0.0243548325996
17 1 -0.0243548431449
18 1 -0.0243548333281
19 1 -0.0243548244982
20 1 -0.0243548326274
21 1 -0.0243548431652
22 1 -0.0243548333357
23 1 -0.0243548244889
24 1 -0.0243548326065
25 1 -0.0243548431475
26 1 -0.0243548333254
27 1 -0.0243548245008
28 1 -0.0243548326247
29 1 -0.0243548431678
30 1 -0.024354833333
31 1 -0.0243548244915
32 1 -0.0243548326038
33 1 -0.0243548431407
34 1 -0.0243548333169
35 1 -0.0243548244939
36 1 -0.0243548326162
37 1 -0.0243548431609
38 1 -0.0243548333245
39 1 -0.0243548244847
40 1 -0.0243548325953
41 1 -0.0243548431331
42 1 -0.024354833312
43 1 -0.0243548244864
44 1 -0.0243548326114
45 1 -0.0243548431534
46 1 -0.0243548333196
47 1 -0.0243548244771
48 1 -0.0243548325904
49 1 -0.0012834719944
50 1 -0.00128345689633
51 1 -0.00128345623878
52 1 -0.00128347092079
53 1 -0.00128347200643
54 1 -0.00128345689677
55 1 -0.0012834562274
56 1 -0.00128347090413
57 1 -0.00128347199917
58 1 -0.00128345690192
59 1 -0.00128345624355
60 1 -0.00128347092638
61 1 -0.0012834720112
62 1 -0.00128345690236
63 1 -0.00128345623217
64 1 -0.00128347090972
65 1 -0.00128347200377
66 1 -0.00128345690372
67 1 -0.00128345624815
68 1 -0.00128347092817
69 1 -0.00128347201581
70 1 -0.00128345690416
71 1 -0.00128345623678
72 1 -0.00128347091151
73 1 -0.00128347200197
74 1 -0.00128345689912
75 1 -0.00128345624636
76 1 -0.00128347092357
77 1 -0.00128347201401
78 1 -0.00128345689956
79 1 -0.00128345623498
80 1 -0.00128347090691
81 1 -0.00128347199639
82 1 -0.00128345689434
83 1 -0.00128345624077
84 1 -0.0012834709188
85 1 -0.00128347200842
86 1 -0.00128345689478
87 1 -0.00128345622939
88 1 -0.00128347090214
89 1 -0.0012834719935
90 1 -0.00128345689345
91 1 -0.00128345623789
92 1 -0.00128347091791
93 1 -0.00128347200554
94 1 -0.00128345689389
95 1 -0.00128345622651
96 1 -0.00128347090125
97 1 -1.52991306112e-06
98 1 -1.526087676e-06
99 1 -1.5299345662e-06
100 1 -1.53376220135e-06
101 1 -1.5299150699e-06
102 1 -1.52608312621e-06
103 1 -1.52992619574e-06
104 1 -1.53375510494e-06
105 1 -1.52991305283e-06
106 1 -1.52608766898e-06
107 1 -1.5299345579e-06
108 1 -1.53376219429e-06
109 1 -1.52991506162e-06
110 1 -1.5260831192e-06
111 1 -1.52992618745e-06
112 1 -1.53375509791e-06
113 1 -1.52991304989e-06
114 1 -1.5260876719e-06
115 1 -1.52993455497e-06
116 1 -1.53376219725e-06
117 1 -1.52991505868e-06
118 1 -1.52608312212e-06
119 1 -1.5299261845e-06
120 1 -1.53375510084e-06
121 1 -1.52991305693e-06
122 1 -1.52608768019e-06
123 1 -1.52993456199e-06
124 1 -1.53376220553e-06
125 1 -1.5299150657e-06
126 1 -1.5260831304e-06
127 1 -1.52992619154e-06
128 1 -1.53375510914e-06
129 1 -1.52991306454e-06
130 1 -1.52608768545e-06
131 1 -1.52993456959e-06
132 1 -1.53376221082e-06
133 1 -1.5299150733e-06
134 1 -1.52608313568e-06
135 1 -1.52992619914e-06
136 1 -1.53375511441e-06
137 1 -1.52991306641e-06
138 1 -1.52608768357e-06
139 1 -1.52993457146e-06
140 1 -1.53376220894e-06
141 1 -1.52991507518e-06
142 1 -1.5260831338e-06
143 1 -1.52992620103e-06
144 1 -1.53375511254e-06
145 1 0.00132735317595
146 1 0.00132735207122
147 1 0.0013273374833
148 1 0.00132733817374
149 1 0.00132735318108
150 1 0.00132735207768
151 1 0.0013273374866
152 1 0.00132733817219
153 1 0.00132735318051
154 1 0.001327352073
155 1 0.00132733748786
156 1 0.00132733817551
157 1 0.00132735318564
158 1 0.00132735207946
159 1 0.00132733749116
160 1 0.00132733817397
161 1 0.00132735317873
162 1 0.00132735206843
163 1 0.00132733748608
164 1 0.00132733817095
165 1 0.00132735318387
166 1 0.00132735207489
167 1 0.00132733748938
168 1 0.0013273381694
169 1 0.00132735317317
170 1 0.00132735206367
171 1 0.00132733748052
172 1 0.00132733816619
173 1 0.0013273531783
174 1 0.00132735207013
175 1 0.00132733748382
176 1 0.00132733816464
177 1 0.00132735317029
178 1 0.00132735206278
179 1 0.00132733747764
180 1 0.00132733816529
181 1 0.00132735317542
182 1 0.00132735206923
183 1 0.00132733748094
184 1 0.00132733816375
185 1 0.00132735317118
186 1 0.00132735206566
187 1 0.00132733747853
188 1 0.00132733816817
189 1 0.00132735317632
190 1 0.00132735207212
191 1 0.00132733748183
192 1 0.00132733816663
193 1 0.024312491856
194 1 0.0243124813156
195 1 0.0243124732143
196 1 0.0243124820497
197 1 0.0243124918644
198 1 0.0243124813209
199 1 0.0243124732129
200 1 0.024312482043
201 1 0.0243124918587
202 1 0.0243124813129
203 1 0.024312473217
204 1 0.0243124820471
205 1 0.0243124918671
206 1 0.0243124813182
207 1 0.0243124732156
208 1 0.0243124820403
209 1 0.0243124918517
210 1 0.0243124813043
211 1 0.02431247321
212 1 0.0243124820385
213 1 0.0243124918601
214 1 0.0243124813096
215 1 0.0243124732086
216 1 0.0243124820317
217 1 0.0243124918442
218 1 0.0243124812995
219 1 0.0243124732025
220 1 0.0243124820336
221 1 0.0243124918526
222 1 0.0243124813048
223 1 0.0243124732011
224 1 0.0243124820269
225 1 0.0243124918426
226 1 0.0243124813011
227 1 0.0243124732009
228 1 0.0243124820352
229 1 0.0243124918509
230 1 0.0243124813064
231 1 0.0243124731995
232 1 0.0243124820285
233 1 0.0243124918474
234 1 0.0243124813086
235 1 0.0243124732057
236 1 0.0243124820428
237 1 0.0243124918558
238 1 0.0243124813139
239 1 0.0243124732043
240 1 0.024312482036
