ITEM: TIMESTEP
500
ITEM: NUMBER OF ATOMS
1600
ITEM: BOX BOUNDS pp pp pp
0.0000000000000000e+00 3.6149999999999999e+01
0.0000000000000000e+00 3.6149999999999999e+01
0.0000000000000000e+00 1.5834399999999999e+02
ITEM: ATOMS id mol z q
1 90001 25.9995 -0.000829886
2 90001 25.9995 -0.000852802
3 90001 27.8065 -0.000180393
4 90001 27.8065 0.000131475
5 90001 29.6145 -0.00233193
6 90001 29.6145 -0.000224055
7 90001 31.4215 0.0022629
8 90001 31.4215 -0.0111867
9 90001 25.9995 -0.000900736
10 90001 25.9995 -0.000872069
11 90001 27.8065 -0.000113827
12 90001 27.8065 -0.000195323
13 90001 29.6145 0.00133593
14 90001 29.6145 -1.83804e-05
15 90001 31.4215 0.00941414
16 90001 31.4215 0.000795764
17 90001 25.9995 -0.000955615
18 90001 25.9995 -0.000844641
19 90001 27.8065 -0.000213878
20 90001 27.8065 -4.25591e-05
21 90001 29.6145 -0.000742271
22 90001 29.6145 -0.000773559
23 90001 31.4215 0.0074679
24 90001 31.4215 -0.00502926
25 90001 25.9995 -0.000792121
26 90001 25.9995 -0.000797421
27 90001 27.8065 9.17227e-06
28 90001 27.8065 -0.00016546
29 90001 29.6145 0.000628736
30 90001 29.6145 -0.0007523
31 90001 31.4215 -0.00131984
32 90001 31.4215 0.00970431
33 90001 25.9995 -0.000780657
34 90001 25.9995 -0.000765034
35 90001 27.8065 -6.45336e-05
36 90001 27.8065 7.18713e-05
37 90001 29.6145 -0.000254721
38 90001 29.6145 -0.00042016
39 90001 31.4215 -0.0100015
40 90001 31.4215 -0.0151239
41 90001 25.9995 -0.000797289
42 90001 25.9995 -0.000763797
43 90001 27.8065 3.78613e-05
44 90001 27.8065 0.000102686
45 90001 29.6145 -1.29695e-05
46 90001 29.6145 -3.86119e-05
47 90001 31.4215 -0.00492777
48 90001 31.4215 -0.0154435
49 90001 25.9995 -0.000788391
50 90001 25.9995 -0.000789402
51 90001 27.8065 1.8227e-05
52 90001 27.8065 0.000121753
53 90001 29.6145 -1.87642e-05
54 90001 29.6145 -0.000457895
55 90001 31.4215 -0.000430198
56 90001 31.4215 -0.00604319
57 90001 25.9995 -0.000860093
58 90001 25.9995 -0.000761404
59 90001 27.8065 -0.000140516
60 90001 27.8065 7.3972e-05
61 90001 29.6145 4.53006e-05
62 90001 29.6145 -0.000156147
63 90001 31.4215 -0.00253665
64 90001 31.4215 0.00175732
65 90001 25.9995 -0.000714619
66 90001 25.9995 -0.000711559
67 90001 27.8065 -7.99331e-05
68 90001 27.8065 -0.000149198
69 90001 29.6145 -0.00615792
70 90001 29.6145 -0.00211201
71 90001 31.4215 0.0106927
72 90001 31.4215 0.0218073
73 90001 25.9995 -0.000844558
74 90001 25.9995 -0.000769829
75 90001 27.8065 -0.000119385
76 90001 27.8065 -8.25828e-05
77 90001 29.6145 0.00266464
78 90001 29.6145 -0.00158653
79 90001 31.4215 0.00816835
80 90001 31.4215 -0.0147202
81 90001 25.9995 -0.000832579
82 90001 25.9995 -0.000743358
83 90001 27.8065 -0.000146303
84 90001 27.8065 0.000111929
85 90001 29.6145 0.000414713
86 90001 29.6145 0.00410787
87 90001 31.4215 0.0121048
88 90001 31.4215 0.0245661
89 90001 25.9995 -0.00080774
90 90001 25.9995 -0.000788801
91 90001 27.8065 -0.000186804
92 90001 27.8065 -0.000121844
93 90001 29.6145 0.000694237
94 90001 29.6145 -0.000872905
95 90001 31.4215 0.00262178
96 90001 31.4215 0.0113005
97 90001 25.9995 -0.00080778
98 90001 25.9995 -0.000606156
99 90001 27.8065 -0.000188607
100 90001 27.8065 -0.000135426
101 90001 29.6145 -0.000406925
102 90001 29.6145 -0.000214197
103 90001 31.4215 0.0378218
104 90001 31.4215 0.00735927
105 90001 25.9995 -0.000788444
106 90001 25.9995 -0.000817714
107 90001 27.8065 -5.84702e-05
108 90001 27.8065 -0.000145437
109 90001 29.6145 0.00350821
110 90001 29.6145 0.00127762
111 90001 31.4215 0.00483947
112 90001 31.4215 0.0157528
113 90001 25.9995 -0.000794769
114 90001 25.9995 -0.00080006
115 90001 27.8065 0.00017005
116 90001 27.8065 0.000199476
117 90001 29.6145 -0.00174419
118 90001 29.6145 -0.000436093
119 90001 31.4215 -0.0214164
120 90001 31.4215 -0.0129844
121 90001 25.9995 -0.000787188
122 90001 25.9995 -0.000765576
123 90001 27.8065 -1.30029e-05
124 90001 27.8065 -2.52972e-05
125 90001 29.6145 -0.000775908
126 90001 29.6145 -0.00155576
127 90001 31.4215 -0.0190539
128 90001 31.4215 0.00565303
129 90001 25.9995 -0.000799281
130 90001 25.9995 -0.000735763
131 90001 27.8065 -5.11336e-05
132 90001 27.8065 -8.60824e-05
133 90001 29.6145 -0.000662987
134 90001 29.6145 0.00164965
135 90001 31.4215 0.0167696
136 90001 31.4215 0.0181643
137 90001 25.9995 -0.000818113
138 90001 25.9995 -0.000864835
139 90001 27.8065 -0.000201405
140 90001 27.8065 -8.68223e-05
141 90001 29.6145 -0.000241226
142 90001 29.6145 0.000145985
143 90001 31.4215 0.00632081
144 90001 31.4215 0.00937416
145 90001 25.9995 -0.000747028
146 90001 25.9995 -0.000781565
147 90001 27.8065 -1.15446e-05
148 90001 27.8065 -0.000305965
149 90001 29.6145 0.000525273
150 90001 29.6145 0.000208878
151 90001 31.4215 0.0290395
152 90001 31.4215 0.00561859
153 90001 25.9995 -0.000722964
154 90001 25.9995 -0.000761127
155 90001 27.8065 1.54616e-05
156 90001 27.8065 0.000237925
157 90001 29.6145 -0.00577597
158 90001 29.6145 -0.00319089
159 90001 31.4215 -0.0234165
160 90001 31.4215 -0.0234548
161 90001 25.9995 -0.000743024
162 90001 25.9995 -0.000839946
163 90001 27.8065 -5.1703e-05
164 90001 27.8065 4.5852e-05
165 90001 29.6145 0.000500796
166 90001 29.6145 -0.000691814
167 90001 31.4215 0.0017203
168 90001 31.4215 0.0135297
169 90001 25.9995 -0.000783559
170 90001 25.9995 -0.000813891
171 90001 27.8065 -6.78271e-05
172 90001 27.8065 5.52505e-05
173 90001 29.6145 -0.00321264
174 90001 29.6145 0.00122193
175 90001 31.4215 0.00547167
176 90001 31.4215 -0.00201749
177 90001 25.9995 -0.000725023
178 90001 25.9995 -0.000725086
179 90001 27.8065 0.000163663
180 90001 27.8065 -0.00015886
181 90001 29.6145 0.000379862
182 90001 29.6145 -0.000314217
183 90001 31.4215 -0.00767186
184 90001 31.4215 0.00275906
185 90001 25.9995 -0.000738573
186 90001 25.9995 -0.000775827
187 90001 27.8065 0.000171032
188 90001 27.8065 0.000155421
189 90001 29.6145 -0.00220418
190 90001 29.6145 -0.00175618
191 90001 31.4215 -0.0165621
192 90001 31.4215 -0.0232483
193 90001 25.9995 -0.000740521
194 90001 25.9995 -0.000808574
195 90001 27.8065 0.000116973
196 90001 27.8065 0.000156878
197 90001 29.6145 -7.68998e-05
198 90001 29.6145 0.000423372
199 90001 31.4215 -0.00398295
200 90001 31.4215 -0.0114408
201 90001 25.9995 -0.000749983
202 90001 25.9995 -0.000724288
203 90001 27.8065 -9.02007e-06
204 90001 27.8065 9.64761e-05
205 90001 29.6145 0.000579019
206 90001 29.6145 0.000476848
207 90001 31.4215 0.00712233
208 90001 31.4215 0.00121009
209 90001 25.9995 -0.000707719
210 90001 25.9995 -0.00069356
211 90001 27.8065 -0.000232095
212 90001 27.8065 1.09867e-05
213 90001 29.6145 0.000501752
214 90001 29.6145 7.9236e-06
215 90001 31.4215 0.0161886
216 90001 31.4215 0.0119975
217 90001 25.9995 -0.000801568
218 90001 25.9995 -0.000769799
219 90001 27.8065 -4.21685e-05
220 90001 27.8065 -0.000183668
221 90001 29.6145 -1.77577e-05
222 90001 29.6145 -0.000472098
223 90001 31.4215 0.00704349
224 90001 31.4215 0.00493544
225 90001 25.9995 -0.000793589
226 90001 25.9995 -0.000851452
227 90001 27.8065 -4.80918e-05
228 90001 27.8065 -5.81622e-05
229 90001 29.6145 0.00185994
230 90001 29.6145 0.00150306
231 90001 31.4215 -0.00887857
232 90001 31.4215 0.0214424
233 90001 25.9995 -0.000802174
234 90001 25.9995 -0.000718456
235 90001 27.8065 8.52973e-05
236 90001 27.8065 0.000231364
237 90001 29.6145 -0.000491719
238 90001 29.6145 0.000301917
239 90001 31.4215 -0.00511212
240 90001 31.4215 -0.0122638
241 90001 25.9995 -0.000741859
242 90001 25.9995 -0.00075372
243 90001 27.8065 5.27714e-05
244 90001 27.8065 0.000226734
245 90001 29.6145 0.000404382
246 90001 29.6145 -0.000375894
247 90001 31.4215 -0.00643516
248 90001 31.4215 -0.00860352
249 90001 25.9995 -0.00081512
250 90001 25.9995 -0.000803303
251 90001 27.8065 -9.76422e-05
252 90001 27.8065 0.000123854
253 90001 29.6145 -0.000222372
254 90001 29.6145 0.000725298
255 90001 31.4215 0.00545949
256 90001 31.4215 -0.00606188
257 90001 25.9995 -0.000773279
258 90001 25.9995 -0.000815945
259 90001 27.8065 0.00038577
260 90001 27.8065 0.000280828
261 90001 29.6145 0.000466459
262 90001 29.6145 -0.00129293
263 90001 31.4215 -0.0127666
264 90001 31.4215 -0.0180585
265 90001 25.9995 -0.000792833
266 90001 25.9995 -0.000895944
267 90001 27.8065 0.000119052
268 90001 27.8065 0.000307777
269 90001 29.6145 0.000123619
270 90001 29.6145 0.00063591
271 90001 31.4215 9.90887e-05
272 90001 31.4215 -0.0239784
273 90001 25.9995 -0.00081907
274 90001 25.9995 -0.000775387
275 90001 27.8065 -1.23288e-05
276 90001 27.8065 0.00013687
277 90001 29.6145 -0.000324653
278 90001 29.6145 0.000247363
279 90001 31.4215 -0.0157572
280 90001 31.4215 -0.00365183
281 90001 25.9995 -0.000644565
282 90001 25.9995 -0.000727428
283 90001 27.8065 6.84935e-06
284 90001 27.8065 -3.98846e-05
285 90001 29.6145 -0.000867897
286 90001 29.6145 0.000496422
287 90001 31.4215 -0.00841201
288 90001 31.4215 -0.000119676
289 90001 25.9995 -0.000658755
290 90001 25.9995 -0.000650158
291 90001 27.8065 -7.48684e-06
292 90001 27.8065 0.000129307
293 90001 29.6145 -0.000107861
294 90001 29.6145 -0.000864631
295 90001 31.4215 -0.00512805
296 90001 31.4215 -0.00922879
297 90001 25.9995 -0.000704685
298 90001 25.9995 -0.000851759
299 90001 27.8065 6.94593e-05
300 90001 27.8065 5.56474e-05
301 90001 29.6145 0.000219513
302 90001 29.6145 4.50986e-05
303 90001 31.4215 -0.0108353
304 90001 31.4215 0.000578409
305 90001 25.9995 -0.000679643
306 90001 25.9995 -0.00081104
307 90001 27.8065 0.000229058
308 90001 27.8065 0.000233363
309 90001 29.6145 -0.00442582
310 90001 29.6145 -0.00382243
311 90001 31.4215 -0.0380109
312 90001 31.4215 -0.0285363
313 90001 25.9995 -0.000733487
314 90001 25.9995 -0.000682078
315 90001 27.8065 0.000208137
316 90001 27.8065 0.000267775
317 90001 29.6145 -0.0011005
318 90001 29.6145 -0.000156273
319 90001 31.4215 -0.013732
320 90001 31.4215 -0.0215616
321 90001 25.9995 -0.00075624
322 90001 25.9995 -0.000757663
323 90001 27.8065 8.04115e-05
324 90001 27.8065 0.00020285
325 90001 29.6145 -0.00085626
326 90001 29.6145 -2.49597e-05
327 90001 31.4215 -0.000302416
328 90001 31.4215 -0.021388
329 90001 25.9995 -0.000787334
330 90001 25.9995 -0.000706345
331 90001 27.8065 0.000220514
332 90001 27.8065 0.000253561
333 90001 29.6145 -0.000293506
334 90001 29.6145 -0.00288847
335 90001 31.4215 -0.0217241
336 90001 31.4215 -0.0337211
337 90001 25.9995 -0.000757615
338 90001 25.9995 -0.00064305
339 90001 27.8065 0.000698983
340 90001 27.8065 0.000349323
341 90001 29.6145 -0.000304655
342 90001 29.6145 -0.00219299
343 90001 31.4215 -0.0604154
344 90001 31.4215 -0.0138454
345 90001 25.9995 -0.000745241
346 90001 25.9995 -0.000633675
347 90001 27.8065 0.000500685
348 90001 27.8065 0.000400922
349 90001 29.6145 -0.00251669
350 90001 29.6145 -0.00399235
351 90001 31.4215 -0.0420209
352 90001 31.4215 -0.0604296
353 90001 25.9995 -0.000910007
354 90001 25.9995 -0.000738347
355 90001 27.8065 -0.000240126
356 90001 27.8065 0.000435886
357 90001 29.6145 -0.000831512
358 90001 29.6145 0.00131457
359 90001 31.4215 0.0225174
360 90001 31.4215 -0.0247276
361 90001 25.9995 -0.000802085
362 90001 25.9995 -0.000730192
363 90001 27.8065 0.000145646
364 90001 27.8065 -4.90625e-05
365 90001 29.6145 0.00799384
366 90001 29.6145 -0.00123997
367 90001 31.4215 0.000991107
368 90001 31.4215 0.0122105
369 90001 25.9995 -0.000684433
370 90001 25.9995 -0.000722092
371 90001 27.8065 9.08408e-05
372 90001 27.8065 0.000230978
373 90001 29.6145 -0.00119035
374 90001 29.6145 0.00039759
375 90001 31.4215 -0.00315107
376 90001 31.4215 -0.0108131
377 90001 25.9995 -0.000736882
378 90001 25.9995 -0.000810579
379 90001 27.8065 4.98635e-05
380 90001 27.8065 -1.42982e-05
381 90001 29.6145 0.000463154
382 90001 29.6145 0.00012444
383 90001 31.4215 0.005372
384 90001 31.4215 0.00984361
385 90001 25.9995 -0.000805917
386 90001 25.9995 -0.000787066
387 90001 27.8065 0.000263122
388 90001 27.8065 -0.000115273
389 90001 29.6145 -6.99789e-05
390 90001 29.6145 0.000693745
391 90001 31.4215 -0.00737748
392 90001 31.4215 0.00744803
393 90001 25.9995 -0.000666071
394 90001 25.9995 -0.000705165
395 90001 27.8065 0.000328348
396 90001 27.8065 -9.82832e-05
397 90001 29.6145 1.69002e-05
398 90001 29.6145 -0.000235045
399 90001 31.4215 -0.0129691
400 90001 31.4215 0.000254613
401 90001 25.9995 -0.000707861
402 90001 25.9995 -0.000727536
403 90001 27.8065 9.93626e-05
404 90001 27.8065 -0.000138388
405 90001 29.6145 -0.000260857
406 90001 29.6145 -8.18601e-05
407 90001 31.4215 -0.0128469
408 90001 31.4215 0.00147243
409 90001 25.9995 -0.000783678
410 90001 25.9995 -0.000862661
411 90001 27.8065 0.000162274
412 90001 27.8065 5.32887e-05
413 90001 29.6145 -0.00123477
414 90001 29.6145 0.00024865
415 90001 31.4215 0.000920935
416 90001 31.4215 -0.00269733
417 90001 25.9995 -0.000819835
418 90001 25.9995 -0.000842256
419 90001 27.8065 0.000213129
420 90001 27.8065 0.000151861
421 90001 29.6145 0.000900767
422 90001 29.6145 -0.00109092
423 90001 31.4215 -0.0398172
424 90001 31.4215 0.00858625
425 90001 25.9995 -0.000677001
426 90001 25.9995 -0.000794779
427 90001 27.8065 0.00032726
428 90001 27.8065 0.000258991
429 90001 29.6145 -0.00573231
430 90001 29.6145 -0.00267345
431 90001 31.4215 -0.0347924
432 90001 31.4215 -0.0236955
433 90001 25.9995 -0.000719479
434 90001 25.9995 -0.000756845
435 90001 27.8065 3.51216e-05
436 90001 27.8065 0.000162935
437 90001 29.6145 -0.000369458
438 90001 29.6145 0.000316729
439 90001 31.4215 -0.00604309
440 90001 31.4215 -0.0100448
441 90001 25.9995 -0.000744113
442 90001 25.9995 -0.000808529
443 90001 27.8065 4.10252e-06
444 90001 27.8065 8.92388e-05
445 90001 29.6145 -0.000167829
446 90001 29.6145 -0.000175855
447 90001 31.4215 -0.000238642
448 90001 31.4215 0.00185274
449 90001 25.9995 -0.000721141
450 90001 25.9995 -0.000797649
451 90001 27.8065 -0.000238965
452 90001 27.8065 4.6156e-05
453 90001 29.6145 -0.000375482
454 90001 29.6145 -0.000503021
455 90001 31.4215 -0.00304919
456 90001 31.4215 -0.0111118
457 90001 25.9995 -0.000803153
458 90001 25.9995 -0.000850856
459 90001 27.8065 -0.000178649
460 90001 27.8065 -0.000169502
461 90001 29.6145 -0.000150054
462 90001 29.6145 0.00137602
463 90001 31.4215 0.0104762
464 90001 31.4215 0.00765039
465 90001 25.9995 -0.000859508
466 90001 25.9995 -0.000788111
467 90001 27.8065 -1.76597e-05
468 90001 27.8065 -0.000322528
469 90001 29.6145 -7.15045e-05
470 90001 29.6145 0.000236663
471 90001 31.4215 0.00944927
472 90001 31.4215 0.0196832
473 90001 25.9995 -0.000789843
474 90001 25.9995 -0.000820162
475 90001 27.8065 6.98819e-05
476 90001 27.8065 -0.00015535
477 90001 29.6145 0.000170551
478 90001 29.6145 -1.24354e-05
479 90001 31.4215 -0.00723199
480 90001 31.4215 -0.00346214
481 90001 25.9995 -0.00080528
482 90001 25.9995 -0.000758535
483 90001 27.8065 5.66944e-06
484 90001 27.8065 -9.77659e-05
485 90001 29.6145 0.00105727
486 90001 29.6145 -0.00116302
487 90001 31.4215 -0.00536254
488 90001 31.4215 0.02468
489 90001 25.9995 -0.000819408
490 90001 25.9995 -0.00082482
491 90001 27.8065 -3.53902e-05
492 90001 27.8065 0.000255133
493 90001 29.6145 -0.00147735
494 90001 29.6145 -0.00159464
495 90001 31.4215 -0.0142298
496 90001 31.4215 -0.0279001
497 90001 25.9995 -0.000819766
498 90001 25.9995 -0.00081939
499 90001 27.8065 4.55174e-05
500 90001 27.8065 8.23375e-06
501 90001 29.6145 -0.000162203
502 90001 29.6145 -0.000146102
503 90001 31.4215 -0.00866827
504 90001 31.4215 -0.00491567
505 90001 25.9995 -0.000788304
506 90001 25.9995 -0.000805175
507 90001 27.8065 6.1274e-05
508 90001 27.8065 -3.37163e-05
509 90001 29.6145 -0.000859009
510 90001 29.6145 0.000224436
511 90001 31.4215 -0.00987502
512 90001 31.4215 0.00107937
513 90001 25.9995 -0.000788319
514 90001 25.9995 -0.000827906
515 90001 27.8065 -0.000186584
516 90001 27.8065 -0.000172297
517 90001 29.6145 0.000520536
518 90001 29.6145 -0.000118081
519 90001 31.4215 0.00193083
520 90001 31.4215 0.0169392
521 90001 25.9995 -0.000850712
522 90001 25.9995 -0.000887513
523 90001 27.8065 1.25774e-05
524 90001 27.8065 -0.000212215
525 90001 29.6145 -0.00040302
526 90001 29.6145 0.00332413
527 90001 31.4215 -0.00537537
528 90001 31.4215 0.0038212
529 90001 25.9995 -0.0008154
530 90001 25.9995 -0.000854164
531 90001 27.8065 -5.52333e-05
532 90001 27.8065 -0.000190768
533 90001 29.6145 -0.000477931
534 90001 29.6145 0.000340564
535 90001 31.4215 0.00214785
536 90001 31.4215 0.0304873
537 90001 25.9995 -0.000826983
538 90001 25.9995 -0.000775401
539 90001 27.8065 -0.000330933
540 90001 27.8065 -0.000234833
541 90001 29.6145 -0.00023854
542 90001 29.6145 -0.00126468
543 90001 31.4215 0.0287676
544 90001 31.4215 0.0291746
545 90001 25.9995 -0.00088221
546 90001 25.9995 -0.000795783
547 90001 27.8065 -9.52554e-05
548 90001 27.8065 3.99343e-05
549 90001 29.6145 0.000350572
550 90001 29.6145 -0.000612535
551 90001 31.4215 0.0224523
552 90001 31.4215 -0.0194326
553 90001 25.9995 -0.000773497
554 90001 25.9995 -0.000767794
555 90001 27.8065 -0.000293588
556 90001 27.8065 1.9703e-05
557 90001 29.6145 -0.00105823
558 90001 29.6145 0.0024523
559 90001 31.4215 -0.0096962
560 90001 31.4215 -0.0201759
561 90001 25.9995 -0.000745781
562 90001 25.9995 -0.000699046
563 90001 27.8065 -0.000143168
564 90001 27.8065 5.74113e-05
565 90001 29.6145 0.00190209
566 90001 29.6145 -4.15522e-05
567 90001 31.4215 -0.011031
568 90001 31.4215 -0.00548089
569 90001 25.9995 -0.000683278
570 90001 25.9995 -0.000760144
571 90001 27.8065 0.000187585
572 90001 27.8065 0.000223736
573 90001 29.6145 -0.00045261
574 90001 29.6145 -0.000176544
575 90001 31.4215 -0.0173908
576 90001 31.4215 -0.0196267
577 90001 25.9995 -0.000801274
578 90001 25.9995 -0.000827781
579 90001 27.8065 -0.000293284
580 90001 27.8065 1.49272e-05
581 90001 29.6145 0.000105368
582 90001 29.6145 -0.000210853
583 90001 31.4215 -0.00381687
584 90001 31.4215 -0.00947021
585 90001 25.9995 -0.000860084
586 90001 25.9995 -0.000850403
587 90001 27.8065 -0.000160288
588 90001 27.8065 -0.000183162
589 90001 29.6145 -1.47964e-05
590 90001 29.6145 -0.000247464
591 90001 31.4215 0.0080805
592 90001 31.4215 0.00807163
593 90001 25.9995 -0.000836593
594 90001 25.9995 -0.000806201
595 90001 27.8065 -0.000189929
596 90001 27.8065 -0.00047046
597 90001 29.6145 -0.000915481
598 90001 29.6145 0.000944413
599 90001 31.4215 0.0140111
600 90001 31.4215 0.0484321
601 90001 25.9995 -0.000768257
602 90001 25.9995 -0.000842801
603 90001 27.8065 -0.000420961
604 90001 27.8065 -0.000477842
605 90001 29.6145 3.23651e-05
606 90001 29.6145 0.00490542
607 90001 31.4215 0.0437161
608 90001 31.4215 0.0292918
609 90001 25.9995 -0.000872136
610 90001 25.9995 -0.000853599
611 90001 27.8065 -0.000227199
612 90001 27.8065 -0.000218246
613 90001 29.6145 0.00426332
614 90001 29.6145 -0.000567682
615 90001 31.4215 0.0158968
616 90001 31.4215 0.0303155
617 90001 25.9995 -0.000866659
618 90001 25.9995 -0.000765544
619 90001 27.8065 -0.000249134
620 90001 27.8065 -0.000168724
621 90001 29.6145 0.00264542
622 90001 29.6145 0.000295334
623 90001 31.4215 0.00463114
624 90001 31.4215 0.00991975
625 90001 25.9995 -0.000815277
626 90001 25.9995 -0.000876788
627 90001 27.8065 -5.1782e-05
628 90001 27.8065 6.24642e-05
629 90001 29.6145 -0.00265545
630 90001 29.6145 0.000634948
631 90001 31.4215 -0.0179505
632 90001 31.4215 0.0368186
633 90001 25.9995 -0.000872109
634 90001 25.9995 -0.000737703
635 90001 27.8065 -0.000199775
636 90001 27.8065 -0.000147217
637 90001 29.6145 0.000154201
638 90001 29.6145 -0.000705037
639 90001 31.4215 0.0374486
640 90001 31.4215 -0.00858051
641 90001 25.9995 -0.000768391
642 90001 25.9995 -0.000765014
643 90001 27.8065 0.000242738
644 90001 27.8065 -0.000205833
645 90001 29.6145 -0.000611754
646 90001 29.6145 0.000588595
647 90001 31.4215 -0.00802217
648 90001 31.4215 0.0207115
649 90001 25.9995 -0.000743567
650 90001 25.9995 -0.000789889
651 90001 27.8065 0.000278344
652 90001 27.8065 0.000243103
653 90001 29.6145 -0.000769803
654 90001 29.6145 -0.00148405
655 90001 31.4215 -0.0253903
656 90001 31.4215 -0.00750585
657 90001 25.9995 -0.000797269
658 90001 25.9995 -0.000801161
659 90001 27.8065 -0.00025132
660 90001 27.8065 0.00021393
661 90001 29.6145 -0.000718838
662 90001 29.6145 0.000990587
663 90001 31.4215 0.014669
664 90001 31.4215 -0.00329631
665 90001 25.9995 -0.00079964
666 90001 25.9995 -0.000776179
667 90001 27.8065 -0.000434071
668 90001 27.8065 -0.000373441
669 90001 29.6145 0.000233115
670 90001 29.6145 0.0002721
671 90001 31.4215 0.0447365
672 90001 31.4215 0.0412936
673 90001 25.9995 -0.000733421
674 90001 25.9995 -0.000704606
675 90001 27.8065 -0.000557626
676 90001 27.8065 -0.000656488
677 90001 29.6145 0.00602799
678 90001 29.6145 0.000631105
679 90001 31.4215 0.0894659
680 90001 31.4215 0.0528487
681 90001 25.9995 -0.000834204
682 90001 25.9995 -0.000734703
683 90001 27.8065 -0.000304021
684 90001 27.8065 -0.000155998
685 90001 29.6145 -0.000214155
686 90001 29.6145 -0.000679934
687 90001 31.4215 0.0632265
688 90001 31.4215 0.0019403
689 90001 25.9995 -0.000851533
690 90001 25.9995 -0.000814277
691 90001 27.8065 -0.000167593
692 90001 27.8065 -8.99968e-05
693 90001 29.6145 0.00267346
694 90001 29.6145 0.000678871
695 90001 31.4215 0.0113457
696 90001 31.4215 0.0010609
697 90001 25.9995 -0.00082656
698 90001 25.9995 -0.000880804
699 90001 27.8065 8.55074e-05
700 90001 27.8065 1.3164e-05
701 90001 29.6145 -0.000955103
702 90001 29.6145 -0.00382142
703 90001 31.4215 -0.0298275
704 90001 31.4215 0.000933839
705 90001 25.9995 -0.00093276
706 90001 25.9995 -0.000896766
707 90001 27.8065 7.99657e-05
708 90001 27.8065 -4.54459e-05
709 90001 29.6145 -0.00239419
710 90001 29.6145 0.000321397
711 90001 31.4215 -4.20909e-05
712 90001 31.4215 -0.0249048
713 90001 25.9995 -0.000895958
714 90001 25.9995 -0.000856877
715 90001 27.8065 -7.12346e-05
716 90001 27.8065 -0.000127855
717 90001 29.6145 -0.000219593
718 90001 29.6145 0.00029838
719 90001 31.4215 -0.00597016
720 90001 31.4215 0.00461885
721 90001 25.9995 -0.000764655
722 90001 25.9995 -0.000887604
723 90001 27.8065 -4.25626e-06
724 90001 27.8065 -0.000164237
725 90001 29.6145 0.00407362
726 90001 29.6145 0.000115573
727 90001 31.4215 0.013289
728 90001 31.4215 0.0251645
729 90001 25.9995 -0.00086268
730 90001 25.9995 -0.00089964
731 90001 27.8065 0.000203585
732 90001 27.8065 5.25605e-06
733 90001 29.6145 -0.00154231
734 90001 29.6145 -0.000447353
735 90001 31.4215 -0.0118129
736 90001 31.4215 -0.00356821
737 90001 25.9995 -0.000836734
738 90001 25.9995 -0.000801603
739 90001 27.8065 -0.000233582
740 90001 27.8065 -2.30253e-06
741 90001 29.6145 0.000310458
742 90001 29.6145 0.00172174
743 90001 31.4215 0.0243291
744 90001 31.4215 0.00210181
745 90001 25.9995 -0.000822215
746 90001 25.9995 -0.000757174
747 90001 27.8065 -7.32207e-05
748 90001 27.8065 -0.000312243
749 90001 29.6145 0.000361184
750 90001 29.6145 -0.00142739
751 90001 31.4215 0.0104092
752 90001 31.4215 0.0442442
753 90001 25.9995 -0.000738782
754 90001 25.9995 -0.000785309
755 90001 27.8065 -0.00010849
756 90001 27.8065 8.44833e-05
757 90001 29.6145 -0.000983185
758 90001 29.6145 -9.36988e-06
759 90001 31.4215 0.00576526
760 90001 31.4215 -0.00453778
761 90001 25.9995 -0.000788068
762 90001 25.9995 -0.000782247
763 90001 27.8065 -3.1195e-05
764 90001 27.8065 0.00019859
765 90001 29.6145 -0.000369291
766 90001 29.6145 -0.000119397
767 90001 31.4215 -0.00930448
768 90001 31.4215 -0.00766352
769 90001 25.9995 -0.000834013
770 90001 25.9995 -0.00080465
771 90001 27.8065 -2.88106e-05
772 90001 27.8065 0.000231733
773 90001 29.6145 -0.00108104
774 90001 29.6145 0.000474265
775 90001 31.4215 0.0106432
776 90001 31.4215 -0.00828456
777 90001 25.9995 -0.000826484
778 90001 25.9995 -0.000863303
779 90001 27.8065 -1.39668e-05
780 90001 27.8065 -0.000175218
781 90001 29.6145 0.000949188
782 90001 29.6145 -0.000699323
783 90001 31.4215 -0.00139299
784 90001 31.4215 0.0250712
785 90001 25.9995 -0.000860675
786 90001 25.9995 -0.000851897
787 90001 27.8065 9.33671e-06
788 90001 27.8065 -2.67083e-05
789 90001 29.6145 -3.40146e-05
790 90001 29.6145 -0.000167218
791 90001 31.4215 0.0170731
792 90001 31.4215 -0.00463284
793 90001 25.9995 -0.000869167
794 90001 25.9995 -0.000779075
795 90001 27.8065 -0.000235325
796 90001 27.8065 -0.000228003
797 90001 29.6145 -0.000485094
798 90001 29.6145 0.00100019
799 90001 31.4215 0.0396533
800 90001 31.4215 0.0326862
801 90002 132.343 0.000826769
802 90002 132.343 0.000775544
803 90002 130.536 -5.87791e-05
804 90002 130.536 0.000145445
805 90002 128.728 0.000110522
806 90002 128.728 2.0924e-05
807 90002 126.921 0.0127187
808 90002 126.921 -0.000851116
809 90002 132.343 0.000791584
810 90002 132.343 0.000713993
811 90002 130.536 0.00010787
812 90002 130.536 -0.000169866
813 90002 128.728 0.000528094
814 90002 128.728 -0.000124317
815 90002 126.921 -0.00157899
816 90002 126.921 0.00976435
817 90002 132.343 0.000728401
818 90002 132.343 0.000821363
819 90002 130.536 0.000416787
820 90002 130.536 0.000308196
821 90002 128.728 -0.00161266
822 90002 128.728 -0.00676831
823 90002 126.921 -0.0353352
824 90002 126.921 -0.029777
825 90002 132.343 0.00074614
826 90002 132.343 0.000763417
827 90002 130.536 0.000283115
828 90002 130.536 0.000361913
829 90002 128.728 -0.00418815
830 90002 128.728 0.000485997
831 90002 126.921 -0.0277861
832 90002 126.921 -0.0363266
833 90002 132.343 0.000833854
834 90002 132.343 0.000840371
835 90002 130.536 0.000171502
836 90002 130.536 9.14304e-05
837 90002 128.728 0.000265164
838 90002 128.728 0.000392133
839 90002 126.921 -0.013651
840 90002 126.921 -0.00858842
841 90002 132.343 0.000860258
842 90002 132.343 0.000826047
843 90002 130.536 0.000162554
844 90002 130.536 0.000199803
845 90002 128.728 -0.00250133
846 90002 128.728 -0.00229462
847 90002 126.921 -0.034764
848 90002 126.921 -0.0198182
849 90002 132.343 0.000790082
850 90002 132.343 0.000811636
851 90002 130.536 4.20689e-05
852 90002 130.536 7.59121e-05
853 90002 128.728 -0.000114423
854 90002 128.728 0.00116859
855 90002 126.921 -0.00109778
856 90002 126.921 -0.000357229
857 90002 132.343 0.000819218
858 90002 132.343 0.000781112
859 90002 130.536 7.86827e-05
860 90002 130.536 -0.000100981
861 90002 128.728 -2.02923e-05
862 90002 128.728 -0.000472197
863 90002 126.921 -0.00881964
864 90002 126.921 0.00881339
865 90002 132.343 0.000873657
866 90002 132.343 0.000937612
867 90002 130.536 0.000222586
868 90002 130.536 0.000246424
869 90002 128.728 -0.000353298
870 90002 128.728 -0.00142029
871 90002 126.921 -0.0192291
872 90002 126.921 -0.0201823
873 90002 132.343 0.00102594
874 90002 132.343 0.000945941
875 90002 130.536 0.00025365
876 90002 130.536 8.93027e-05
877 90002 128.728 -0.0069167
878 90002 128.728 -0.000667643
879 90002 126.921 -0.0111407
880 90002 126.921 -0.00513021
881 90002 132.343 0.000806565
882 90002 132.343 0.000719278
883 90002 130.536 6.00521e-05
884 90002 130.536 -9.74222e-06
885 90002 128.728 -0.000478488
886 90002 128.728 -0.000309684
887 90002 126.921 -0.0094577
888 90002 126.921 0.00177214
889 90002 132.343 0.000734991
890 90002 132.343 0.000696077
891 90002 130.536 2.83049e-05
892 90002 130.536 -0.000351934
893 90002 128.728 -0.000244875
894 90002 128.728 -0.000305283
895 90002 126.921 -0.00234193
896 90002 126.921 0.0096444
897 90002 132.343 0.000651514
898 90002 132.343 0.000753542
899 90002 130.536 0.000147694
900 90002 130.536 -0.00015585
901 90002 128.728 -0.000949399
902 90002 128.728 0.000579168
903 90002 126.921 -0.0164117
904 90002 126.921 0.00841038
905 90002 132.343 0.000723665
906 90002 132.343 0.000798923
907 90002 130.536 0.000141379
908 90002 130.536 -6.92429e-05
909 90002 128.728 -0.000765318
910 90002 128.728 0.00108027
911 90002 126.921 -0.010353
912 90002 126.921 0.00898224
913 90002 132.343 0.000818322
914 90002 132.343 0.000772714
915 90002 130.536 0.000138703
916 90002 130.536 0.000248006
917 90002 128.728 -0.000859094
918 90002 128.728 -0.000904603
919 90002 126.921 -0.0112782
920 90002 126.921 -0.0110256
921 90002 132.343 0.000802287
922 90002 132.343 0.000830186
923 90002 130.536 1.36927e-05
924 90002 130.536 1.1694e-05
925 90002 128.728 0.00077525
926 90002 128.728 0.000544413
927 90002 126.921 0.000246447
928 90002 126.921 -0.0119689
929 90002 132.343 0.000790399
930 90002 132.343 0.000784306
931 90002 130.536 1.83113e-05
932 90002 130.536 0.000237508
933 90002 128.728 0.000309485
934 90002 128.728 -0.00312573
935 90002 126.921 -0.00184142
936 90002 126.921 -0.0115595
937 90002 132.343 0.000812095
938 90002 132.343 0.000770185
939 90002 130.536 0.000157438
940 90002 130.536 0.000324734
941 90002 128.728 -0.00391102
942 90002 128.728 -0.00102811
943 90002 126.921 -0.0201651
944 90002 126.921 -0.0431141
945 90002 132.343 0.000881341
946 90002 132.343 0.000841416
947 90002 130.536 0.00016622
948 90002 130.536 0.000190402
949 90002 128.728 7.07378e-05
950 90002 128.728 -0.000344454
951 90002 126.921 -0.00498618
952 90002 126.921 0.00297775
953 90002 132.343 0.000815237
954 90002 132.343 0.000907495
955 90002 130.536 7.93212e-05
956 90002 130.536 0.00014431
957 90002 128.728 -0.000783675
958 90002 128.728 0.000439602
959 90002 126.921 -0.00167742
960 90002 126.921 0.00356412
961 90002 132.343 0.00073742
962 90002 132.343 0.000793958
963 90002 130.536 -0.000120436
964 90002 130.536 -0.000111988
965 90002 128.728 -0.000585611
966 90002 128.728 -0.000872103
967 90002 126.921 0.0176229
968 90002 126.921 -0.00267271
969 90002 132.343 0.000741704
970 90002 132.343 0.000785172
971 90002 130.536 -0.000447183
972 90002 130.536 -0.000409831
973 90002 128.728 0.00229755
974 90002 128.728 0.000662288
975 90002 126.921 0.0270081
976 90002 126.921 0.0436411
977 90002 132.343 0.000788306
978 90002 132.343 0.000800567
979 90002 130.536 -0.000311091
980 90002 130.536 -0.00017347
981 90002 128.728 0.00126243
982 90002 128.728 -0.000362122
983 90002 126.921 0.0327963
984 90002 126.921 0.0152825
985 90002 132.343 0.000830494
986 90002 132.343 0.000844968
987 90002 130.536 0.000162362
988 90002 130.536 7.59456e-05
989 90002 128.728 -0.00134634
990 90002 128.728 -0.00121906
991 90002 126.921 0.00292508
992 90002 126.921 -0.00932184
993 90002 132.343 0.000824894
994 90002 132.343 0.000904267
995 90002 130.536 0.000268735
996 90002 130.536 0.000179492
997 90002 128.728 -0.000222464
998 90002 128.728 -0.0012432
999 90002 126.921 -0.01865
1000 90002 126.921 -0.0022821
1001 90002 132.343 0.000846668
1002 90002 132.343 0.000852148
1003 90002 130.536 0.000406522
1004 90002 130.536 0.000302527
1005 90002 128.728 -0.00295974
1006 90002 128.728 -0.00104669
1007 90002 126.921 -0.0237435
1008 90002 126.921 -0.0321786
1009 90002 132.343 0.000898907
1010 90002 132.343 0.000979296
1011 90002 130.536 0.000513001
1012 90002 130.536 0.000602446
1013 90002 128.728 -0.00297772
1014 90002 128.728 -0.00328617
1015 90002 126.921 -0.0713074
1016 90002 126.921 -0.0510143
1017 90002 132.343 0.000781906
1018 90002 132.343 0.000854315
1019 90002 130.536 0.000368478
1020 90002 130.536 0.000612294
1021 90002 128.728 -0.000815844
1022 90002 128.728 -0.000947139
1023 90002 126.921 -0.0169308
1024 90002 126.921 -0.0611348
1025 90002 132.343 0.000896752
1026 90002 132.343 0.000898351
1027 90002 130.536 0.000101723
1028 90002 130.536 0.000111407
1029 90002 128.728 -0.000316124
1030 90002 128.728 -0.00355556
1031 90002 126.921 -0.0085778
1032 90002 126.921 -0.0162814
1033 90002 132.343 0.000825604
1034 90002 132.343 0.000939029
1035 90002 130.536 -0.000155278
1036 90002 130.536 0.000163911
1037 90002 128.728 0.00166453
1038 90002 128.728 0.000150383
1039 90002 126.921 0.0271836
1040 90002 126.921 -0.00766699
1041 90002 132.343 0.000853073
1042 90002 132.343 0.0008488
1043 90002 130.536 -5.05206e-05
1044 90002 130.536 0.000176469
1045 90002 128.728 -0.000393424
1046 90002 128.728 0.00133379
1047 90002 126.921 0.00642494
1048 90002 126.921 -0.0193236
1049 90002 132.343 0.000812769
1050 90002 132.343 0.000790861
1051 90002 130.536 -0.000118649
1052 90002 130.536 -4.00602e-05
1053 90002 128.728 0.000367456
1054 90002 128.728 -0.000800507
1055 90002 126.921 0.00478525
1056 90002 126.921 0.0256291
1057 90002 132.343 0.000736099
1058 90002 132.343 0.000814002
1059 90002 130.536 -0.000271464
1060 90002 130.536 -0.000159968
1061 90002 128.728 -0.00120324
1062 90002 128.728 0.000771973
1063 90002 126.921 0.0209326
1064 90002 126.921 0.00956018
1065 90002 132.343 0.000860443
1066 90002 132.343 0.000866865
1067 90002 130.536 3.80477e-05
1068 90002 130.536 -0.000196752
1069 90002 128.728 0.000640834
1070 90002 128.728 -0.000908416
1071 90002 126.921 -0.00692121
1072 90002 126.921 0.0126674
1073 90002 132.343 0.000972935
1074 90002 132.343 0.000869416
1075 90002 130.536 0.000120889
1076 90002 130.536 0.00010186
1077 90002 128.728 0.000260146
1078 90002 128.728 -0.00137118
1079 90002 126.921 0.0142906
1080 90002 126.921 -0.0029463
1081 90002 132.343 0.000829384
1082 90002 132.343 0.00077548
1083 90002 130.536 0.000381323
1084 90002 130.536 0.000250362
1085 90002 128.728 0.00017341
1086 90002 128.728 0.000407742
1087 90002 126.921 -0.018084
1088 90002 126.921 -0.0178369
1089 90002 132.343 0.000842298
1090 90002 132.343 0.00100894
1091 90002 130.536 0.000847997
1092 90002 130.536 0.000353018
1093 90002 128.728 0.000487686
1094 90002 128.728 -0.00213418
1095 90002 126.921 -0.0720488
1096 90002 126.921 -0.0308949
1097 90002 132.343 0.000984299
1098 90002 132.343 0.00100151
1099 90002 130.536 0.000417024
1100 90002 130.536 0.000540017
1101 90002 128.728 -0.00173008
1102 90002 128.728 -0.00198224
1103 90002 126.921 -0.00626711
1104 90002 126.921 -0.0507512
1105 90002 132.343 0.00102479
1106 90002 132.343 0.000929696
1107 90002 130.536 2.87826e-05
1108 90002 130.536 0.000254907
1109 90002 128.728 -0.0110047
1110 90002 128.728 -0.00162599
1111 90002 126.921 -0.0380357
1112 90002 126.921 -0.0185807
1113 90002 132.343 0.00084855
1114 90002 132.343 0.000834634
1115 90002 130.536 0.000284131
1116 90002 130.536 0.000240432
1117 90002 128.728 -0.000275538
1118 90002 128.728 -7.26432e-05
1119 90002 126.921 -0.00925749
1120 90002 126.921 -0.00438681
1121 90002 132.343 0.000734541
1122 90002 132.343 0.000777362
1123 90002 130.536 0.000133562
1124 90002 130.536 0.000265989
1125 90002 128.728 -0.00241204
1126 90002 128.728 7.67659e-05
1127 90002 126.921 -0.00377361
1128 90002 126.921 -0.0145245
1129 90002 132.343 0.000785528
1130 90002 132.343 0.000748628
1131 90002 130.536 -0.000305278
1132 90002 130.536 -0.000125837
1133 90002 128.728 -7.89463e-05
1134 90002 128.728 -0.00054554
1135 90002 126.921 0.0112304
1136 90002 126.921 0.00505334
1137 90002 132.343 0.000750615
1138 90002 132.343 0.000658388
1139 90002 130.536 -0.000301919
1140 90002 130.536 -0.000439057
1141 90002 128.728 0.000386626
1142 90002 128.728 0.000417644
1143 90002 126.921 0.0271507
1144 90002 126.921 0.0350498
1145 90002 132.343 0.000736265
1146 90002 132.343 0.000753024
1147 90002 130.536 -0.00012765
1148 90002 130.536 -0.000203104
1149 90002 128.728 -0.000141549
1150 90002 128.728 0.000217536
1151 90002 126.921 0.00546023
1152 90002 126.921 0.0161491
1153 90002 132.343 0.000844243
1154 90002 132.343 0.000675493
1155 90002 130.536 0.00021182
1156 90002 130.536 4.12378e-05
1157 90002 128.728 0.00110319
1158 90002 128.728 -4.08053e-05
1159 90002 126.921 -0.0140203
1160 90002 126.921 0.00705912
1161 90002 132.343 0.000721879
1162 90002 132.343 0.000886249
1163 90002 130.536 0.000190707
1164 90002 130.536 0.000162491
1165 90002 128.728 -0.00292364
1166 90002 128.728 -0.00600066
1167 90002 126.921 -0.0319994
1168 90002 126.921 -0.0289227
1169 90002 132.343 0.000766441
1170 90002 132.343 0.000714547
1171 90002 130.536 0.00025298
1172 90002 130.536 -0.00015523
1173 90002 128.728 -0.000140835
1174 90002 128.728 2.08861e-05
1175 90002 126.921 0.0139742
1176 90002 126.921 -0.00216667
1177 90002 132.343 0.000940722
1178 90002 132.343 0.000855088
1179 90002 130.536 0.000428124
1180 90002 130.536 0.000115173
1181 90002 128.728 -0.0016532
1182 90002 128.728 0.000105366
1183 90002 126.921 -0.0243359
1184 90002 126.921 -0.00244823
1185 90002 132.343 0.000948876
1186 90002 132.343 0.00089552
1187 90002 130.536 0.000267086
1188 90002 130.536 0.000178942
1189 90002 128.728 -0.00105084
1190 90002 128.728 -0.004976
1191 90002 126.921 -0.0122641
1192 90002 126.921 -0.0348651
1193 90002 132.343 0.000802922
1194 90002 132.343 0.000842581
1195 90002 130.536 0.000415666
1196 90002 130.536 0.000202383
1197 90002 128.728 8.3332e-05
1198 90002 128.728 -0.00144344
1199 90002 126.921 -0.0135097
1200 90002 126.921 0.00169174
1201 90002 132.343 0.000691342
1202 90002 132.343 0.0007942
1203 90002 130.536 -0.000114136
1204 90002 130.536 0.000153368
1205 90002 128.728 -0.000195989
1206 90002 128.728 0.00174809
1207 90002 126.921 0.00795875
1208 90002 126.921 -0.00867294
1209 90002 132.343 0.000748348
1210 90002 132.343 0.000630525
1211 90002 130.536 -0.000185966
1212 90002 130.536 -0.000232484
1213 90002 128.728 -0.000713889
1214 90002 128.728 -0.000750721
1215 90002 126.921 -0.00659658
1216 90002 126.921 0.0435104
1217 90002 132.343 0.000699476
1218 90002 132.343 0.000661507
1219 90002 130.536 -0.000367965
1220 90002 130.536 -0.000284585
1221 90002 128.728 0.000214307
1222 90002 128.728 0.000820793
1223 90002 126.921 0.027699
1224 90002 126.921 0.0144993
1225 90002 132.343 0.000750464
1226 90002 132.343 0.000772437
1227 90002 130.536 -0.000164458
1228 90002 130.536 -0.000383955
1229 90002 128.728 -0.0012029
1230 90002 128.728 0.000514224
1231 90002 126.921 0.035736
1232 90002 126.921 0.0323886
1233 90002 132.343 0.000840581
1234 90002 132.343 0.000834622
1235 90002 130.536 7.34129e-05
1236 90002 130.536 -0.00010145
1237 90002 128.728 -0.00385787
1238 90002 128.728 -0.00322497
1239 90002 126.921 -0.0257709
1240 90002 126.921 0.00759277
1241 90002 132.343 0.000875735
1242 90002 132.343 0.000768512
1243 90002 130.536 -0.000130788
1244 90002 130.536 1.77357e-05
1245 90002 128.728 -0.000656042
1246 90002 128.728 -0.000443398
1247 90002 126.921 0.0231198
1248 90002 126.921 -0.00253163
1249 90002 132.343 0.000750489
1250 90002 132.343 0.000769096
1251 90002 130.536 -2.47765e-05
1252 90002 130.536 -0.000304532
1253 90002 128.728 -1.9859e-05
1254 90002 128.728 -0.000554056
1255 90002 126.921 0.00768877
1256 90002 126.921 0.0191709
1257 90002 132.343 0.000751112
1258 90002 132.343 0.000718178
1259 90002 130.536 4.92077e-06
1260 90002 130.536 -0.00023725
1261 90002 128.728 -6.62466e-05
1262 90002 128.728 -0.000242856
1263 90002 126.921 -3.68203e-06
1264 90002 126.921 0.00396995
1265 90002 132.343 0.000758926
1266 90002 132.343 0.000755136
1267 90002 130.536 0.000359254
1268 90002 130.536 5.78081e-05
1269 90002 128.728 -0.00149164
1270 90002 128.728 0.000306951
1271 90002 126.921 -0.0279861
1272 90002 126.921 0.00390127
1273 90002 132.343 0.000706261
1274 90002 132.343 0.000678634
1275 90002 130.536 0.000205745
1276 90002 130.536 0.000151262
1277 90002 128.728 -0.000680825
1278 90002 128.728 -0.0017461
1279 90002 126.921 -0.0253024
1280 90002 126.921 -0.021839
1281 90002 132.343 0.000643672
1282 90002 132.343 0.000707239
1283 90002 130.536 -0.00019477
1284 90002 130.536 6.84618e-05
1285 90002 128.728 -0.00202319
1286 90002 128.728 0.000737757
1287 90002 126.921 0.0238767
1288 90002 126.921 -0.0240799
1289 90002 132.343 0.000638258
1290 90002 132.343 0.000604713
1291 90002 130.536 -0.000296413
1292 90002 130.536 -9.24166e-05
1293 90002 128.728 0.00203918
1294 90002 128.728 -0.00215574
1295 90002 126.921 0.00746632
1296 90002 126.921 0.00258022
1297 90002 132.343 0.000647042
1298 90002 132.343 0.000701194
1299 90002 130.536 -0.000189667
1300 90002 130.536 -0.00011031
1301 90002 128.728 0.000231075
1302 90002 128.728 -0.00154833
1303 90002 126.921 0.011474
1304 90002 126.921 -0.00159812
1305 90002 132.343 0.000782565
1306 90002 132.343 0.000827501
1307 90002 130.536 -0.00023497
1308 90002 130.536 -0.000410458
1309 90002 128.728 -0.000223196
1310 90002 128.728 0.00118117
1311 90002 126.921 0.0386023
1312 90002 126.921 0.0210415
1313 90002 132.343 0.000839311
1314 90002 132.343 0.000800777
1315 90002 130.536 -0.000148721
1316 90002 130.536 -0.000345804
1317 90002 128.728 0.000943157
1318 90002 128.728 -0.000110146
1319 90002 126.921 0.00675707
1320 90002 126.921 0.0235048
1321 90002 132.343 0.000867301
1322 90002 132.343 0.000639861
1323 90002 130.536 -0.000247505
1324 90002 130.536 -0.00037706
1325 90002 128.728 -0.000575838
1326 90002 128.728 0.000345288
1327 90002 126.921 0.0215652
1328 90002 126.921 0.0184638
1329 90002 132.343 0.000661045
1330 90002 132.343 0.000670048
1331 90002 130.536 -0.000313084
1332 90002 130.536 -0.000336532
1333 90002 128.728 0.00118573
1334 90002 128.728 0.000294789
1335 90002 126.921 0.0470999
1336 90002 126.921 0.016906
1337 90002 132.343 0.000623565
1338 90002 132.343 0.000706487
1339 90002 130.536 -5.67826e-05
1340 90002 130.536 -0.000339841
1341 90002 128.728 -0.000407944
1342 90002 128.728 -0.000959629
1343 90002 126.921 0.0106592
1344 90002 126.921 0.0161344
1345 90002 132.343 0.000716795
1346 90002 132.343 0.000760225
1347 90002 130.536 5.79397e-05
1348 90002 130.536 -0.000233382
1349 90002 128.728 0.000605547
1350 90002 128.728 0.000341551
1351 90002 126.921 0.0121563
1352 90002 126.921 0.0114978
1353 90002 132.343 0.000726495
1354 90002 132.343 0.000789677
1355 90002 130.536 0.000233862
1356 90002 130.536 1.93622e-05
1357 90002 128.728 -0.00110153
1358 90002 128.728 -0.00456436
1359 90002 126.921 -0.0416967
1360 90002 126.921 -0.000157492
1361 90002 132.343 0.000733829
1362 90002 132.343 0.00085806
1363 90002 130.536 6.037e-05
1364 90002 130.536 -7.60755e-05
1365 90002 128.728 -0.00106566
1366 90002 128.728 0.000138442
1367 90002 126.921 0.0130128
1368 90002 126.921 0.00674351
1369 90002 132.343 0.000688674
1370 90002 132.343 0.00075765
1371 90002 130.536 -0.000128945
1372 90002 130.536 -1.19463e-06
1373 90002 128.728 -0.000939842
1374 90002 128.728 -0.00253563
1375 90002 126.921 -0.0293019
1376 90002 126.921 0.00727307
1377 90002 132.343 0.000712797
1378 90002 132.343 0.000746725
1379 90002 130.536 -0.000204735
1380 90002 130.536 -0.000392199
1381 90002 128.728 -0.00230899
1382 90002 128.728 0.0027544
1383 90002 126.921 0.0182627
1384 90002 126.921 0.0227997
1385 90002 132.343 0.000724035
1386 90002 132.343 0.000739159
1387 90002 130.536 -0.000338595
1388 90002 130.536 -0.000462839
1389 90002 128.728 0.000977264
1390 90002 128.728 -0.000245002
1391 90002 126.921 0.0311294
1392 90002 126.921 0.0275027
1393 90002 132.343 0.000677258
1394 90002 132.343 0.000688871
1395 90002 130.536 -0.000504033
1396 90002 130.536 -0.000161532
1397 90002 128.728 -0.00102158
1398 90002 128.728 0.00390108
1399 90002 126.921 0.0164163
1400 90002 126.921 0.0460066
1401 90002 132.343 0.000745422
1402 90002 132.343 0.000653287
1403 90002 130.536 -0.000283067
1404 90002 130.536 -0.000273147
1405 90002 128.728 0.00065091
1406 90002 128.728 -0.000512228
1407 90002 126.921 0.0230911
1408 90002 126.921 0.0332349
1409 90002 132.343 0.000643177
1410 90002 132.343 0.000764477
1411 90002 130.536 -0.000368848
1412 90002 130.536 -0.0001467
1413 90002 128.728 0.000194004
1414 90002 128.728 0.000661267
1415 90002 126.921 0.0224177
1416 90002 126.921 0.0180492
1417 90002 132.343 0.000605788
1418 90002 132.343 0.000650862
1419 90002 130.536 -0.000216234
1420 90002 130.536 -0.000449077
1421 90002 128.728 0.00320486
1422 90002 128.728 0.0067345
1423 90002 126.921 0.0599721
1424 90002 126.921 0.0615742
1425 90002 132.343 0.00070939
1426 90002 132.343 0.000718137
1427 90002 130.536 -0.00015436
1428 90002 130.536 -0.000252058
1429 90002 128.728 0.000551032
1430 90002 128.728 0.000449057
1431 90002 126.921 0.0135959
1432 90002 126.921 0.0201537
1433 90002 132.343 0.0007408
1434 90002 132.343 0.00078496
1435 90002 130.536 0.000108723
1436 90002 130.536 -0.000127044
1437 90002 128.728 0.000340347
1438 90002 128.728 -0.000884999
1439 90002 126.921 -0.0131559
1440 90002 126.921 0.00890419
1441 90002 132.343 0.000809654
1442 90002 132.343 0.00077442
1443 90002 130.536 1.82559e-05
1444 90002 130.536 -1.77215e-05
1445 90002 128.728 0.000958964
1446 90002 128.728 -0.00107162
1447 90002 126.921 0.00849495
1448 90002 126.921 0.00999571
1449 90002 132.343 0.000698201
1450 90002 132.343 0.000781341
1451 90002 130.536 -9.55632e-05
1452 90002 130.536 -7.46314e-05
1453 90002 128.728 -0.00256694
1454 90002 128.728 -0.00113998
1455 90002 126.921 0.00833542
1456 90002 126.921 -0.00149993
1457 90002 132.343 0.000781426
1458 90002 132.343 0.000922005
1459 90002 130.536 -0.000222629
1460 90002 130.536 -0.000121781
1461 90002 128.728 0.000437667
1462 90002 128.728 -0.000555283
1463 90002 126.921 0.0213101
1464 90002 126.921 0.0032649
1465 90002 132.343 0.000807411
1466 90002 132.343 0.000874826
1467 90002 130.536 -6.54729e-06
1468 90002 130.536 -6.16282e-05
1469 90002 128.728 -7.79027e-05
1470 90002 128.728 -0.000291213
1471 90002 126.921 0.00983819
1472 90002 126.921 -0.000669623
1473 90002 132.343 0.000736984
1474 90002 132.343 0.000809353
1475 90002 130.536 -0.00016125
1476 90002 130.536 6.31866e-06
1477 90002 128.728 0.00448102
1478 90002 128.728 -0.000140128
1479 90002 126.921 0.023981
1480 90002 126.921 -0.00108993
1481 90002 132.343 0.000735347
1482 90002 132.343 0.000756806
1483 90002 130.536 0.000150339
1484 90002 130.536 -2.43617e-05
1485 90002 128.728 -0.00137429
1486 90002 128.728 -0.000674258
1487 90002 126.921 -0.0261865
1488 90002 126.921 -0.00105363
1489 90002 132.343 0.000665027
1490 90002 132.343 0.000782636
1491 90002 130.536 -1.36416e-05
1492 90002 130.536 0.000467133
1493 90002 128.728 -0.00203936
1494 90002 128.728 -0.000945518
1495 90002 126.921 0.00513304
1496 90002 126.921 -0.0281201
1497 90002 132.343 0.00078901
1498 90002 132.343 0.000683488
1499 90002 130.536 -0.000193519
1500 90002 130.536 0.000171867
1501 90002 128.728 -0.000100224
1502 90002 128.728 0.000484086
1503 90002 126.921 0.0282038
1504 90002 126.921 -0.0195307
1505 90002 132.343 0.000684558
1506 90002 132.343 0.000740452
1507 90002 130.536 -0.000262709
1508 90002 130.536 7.36902e-05
1509 90002 128.728 -5.33727e-05
1510 90002 128.728 -0.000546659
1511 90002 126.921 0.023543
1512 90002 126.921 0.00774915
1513 90002 132.343 0.000761727
1514 90002 132.343 0.000780496
1515 90002 130.536 -8.18007e-05
1516 90002 130.536 -5.65872e-05
1517 90002 128.728 0.000639859
1518 90002 128.728 0.000310799
1519 90002 126.921 0.00730888
1520 90002 126.921 0.0092093
1521 90002 132.343 0.000843203
1522 90002 132.343 0.000795569
1523 90002 130.536 -7.1044e-05
1524 90002 130.536 -1.74308e-05
1525 90002 128.728 0.000352698
1526 90002 128.728 -2.83197e-05
1527 90002 126.921 -0.00576589
1528 90002 126.921 0.00973948
1529 90002 132.343 0.000773589
1530 90002 132.343 0.00079045
1531 90002 130.536 -8.48114e-05
1532 90002 130.536 -5.89216e-06
1533 90002 128.728 -0.00100608
1534 90002 128.728 0.000655415
1535 90002 126.921 0.00830306
1536 90002 126.921 0.00111802
1537 90002 132.343 0.000944457
1538 90002 132.343 0.000815521
1539 90002 130.536 0.00013692
1540 90002 130.536 4.54215e-05
1541 90002 128.728 0.00099696
1542 90002 128.728 -0.000440325
1543 90002 126.921 -0.00391382
1544 90002 126.921 0.00932272
1545 90002 132.343 0.000950269
1546 90002 132.343 0.000891446
1547 90002 130.536 3.54145e-05
1548 90002 130.536 0.000277318
1549 90002 128.728 -7.10644e-05
1550 90002 128.728 -0.00274513
1551 90002 126.921 0.00586227
1552 90002 126.921 -0.0337994
1553 90002 132.343 0.000932797
1554 90002 132.343 0.000902152
1555 90002 130.536 2.59251e-05
1556 90002 130.536 9.44302e-05
1557 90002 128.728 -0.000598668
1558 90002 128.728 8.82288e-05
1559 90002 126.921 0.00496605
1560 90002 126.921 0.00095628
1561 90002 132.343 0.000886234
1562 90002 132.343 0.000827626
1563 90002 130.536 0.000208058
1564 90002 130.536 0.000365941
1565 90002 128.728 0.000728997
1566 90002 128.728 -0.000612226
1567 90002 126.921 -0.00161691
1568 90002 126.921 -0.0139472
1569 90002 132.343 0.000827747
1570 90002 132.343 0.000842793
1571 90002 130.536 0.000243844
1572 90002 130.536 0.000417004
1573 90002 128.728 -0.00232712
1574 90002 128.728 -0.000549328
1575 90002 126.921 -0.0325289
1576 90002 126.921 0.00469737
1577 90002 132.343 0.000758569
1578 90002 132.343 0.000787608
1579 90002 130.536 0.000231208
1580 90002 130.536 0.000223923
1581 90002 128.728 -0.000998951
1582 90002 128.728 -0.00125543
1583 90002 126.921 -0.0328091
1584 90002 126.921 -0.00883452
1585 90002 132.343 0.00072922
1586 90002 132.343 0.000821679
1587 90002 130.536 0.000182419
1588 90002 130.536 0.000291831
1589 90002 128.728 -0.000193958
1590 90002 128.728 3.7941e-05
1591 90002 126.921 0.00270032
1592 90002 126.921 -0.00816153
1593 90002 132.343 0.00077858
1594 90002 132.343 0.000828633
1595 90002 130.536 0.000143226
1596 90002 130.536 0.000226316
1597 90002 128.728 0.000175277
1598 90002 128.728 -0.00099783
1599 90002 126.921 0.00659237
1600 90002 126.921 -0.0131771
