ITEM: TIMESTEP
3500
ITEM: NUMBER OF ATOMS
528
ITEM: BOX BOUNDS pp pp pp
0.0000000000000000e+00 1.7650658050000001e+01
0.0000000000000000e+00 2.0381224350000000e+01
0.0000000000000000e+00 1.4970000000000001e+01
ITEM: ATOMS id mol type q x y z
1 1 2 -0.56031 2.76257 13.083 5.09921
2 1 3 0.272824 2.8166 14.0612 4.89868
3 1 3 0.287486 3.00303 12.5612 4.28075
4 2 2 -0.617554 12.2821 11.8923 12.4326
5 2 3 0.294002 11.8568 10.9939 12.5426
6 2 3 0.323553 12.0149 12.2819 11.5512
7 3 2 -1.02133 3.88587 13.6395 1.49886
8 3 3 0.40096 2.98917 14.0333 1.29685
9 3 3 0.620369 4.23954 14.0335 2.34721
10 4 2 -0.698024 1.30754 3.16027 5.58129
11 4 3 0.401204 1.95681 2.81481 4.90371
12 4 3 0.296821 1.41081 2.64755 6.43361
13 5 2 -0.650505 14.5963 3.54465 10.9968
14 5 3 0.282849 15.4726 3.93614 11.2776
15 5 3 0.367656 13.9723 4.27984 10.7319
16 6 2 -0.695004 14.6127 1.0661 5.42257
17 6 3 0.358486 15.0302 1.90084 5.06362
18 6 3 0.336518 13.8302 1.30541 5.99749
19 7 2 -0.620392 7.38361 5.19054 8.44647
20 7 3 0.331567 8.17721 4.94766 7.8886
21 7 3 0.288826 6.73872 4.42637 8.45931
22 8 2 -0.599387 1.04059 7.77728 1.77429
23 8 3 0.297194 0.538312 8.35884 1.13436
24 8 3 0.302193 0.429772 7.07156 2.13327
25 9 2 -0.776721 9.37747 16.2332 10.1594
26 9 3 0.402579 8.69047 16.9598 10.1576
27 9 3 0.374142 10.1798 16.5343 10.6748
28 10 2 -0.784636 15.7484 3.56712 5.05581
29 10 3 0.371642 16.71 3.40394 4.8351
30 10 3 0.412994 15.6627 3.79193 6.02644
31 11 2 -0.633333 9.68528 3.48854 7.77335
32 11 3 0.293434 10.1308 2.59405 7.73628
33 11 3 0.339899 9.9361 4.01968 6.96403
34 12 2 -0.666784 4.53132 4.7161 5.64806
35 12 3 0.360346 5.52672 4.623 5.62525
36 12 3 0.306438 4.11452 3.96596 5.13466
37 13 2 -0.580694 4.65177 10.1476 12.8322
38 13 3 0.286929 4.44835 10.4625 13.7593
39 13 3 0.293765 5.33909 10.7458 12.4202
40 14 2 -0.622276 17.4114 13.1274 4.29108
41 14 3 0.317002 0.601353 12.8871 3.80563
42 14 3 0.305274 16.677 13.2809 3.63
43 15 2 -0.867323 5.4033 2.05561 4.58103
44 15 3 0.49736 5.37063 1.39026 5.32686
45 15 3 0.369963 6.25572 1.94252 4.07055
46 16 2 -0.777993 4.77609 2.41353 13.5724
47 16 3 0.445225 5.32423 2.82297 14.3017
48 16 3 0.332768 5.0156 1.44726 13.4778
49 17 2 -0.737464 16.6924 6.77336 7.48605
50 17 3 0.432328 15.8517 6.5314 7.00156
51 17 3 0.305137 16.9852 7.68849 7.20895
52 18 2 -1.03488 5.83083 16.873 8.31295
53 18 3 0.408103 6.36126 17.093 7.49426
54 18 3 0.626777 4.85477 16.9279 8.10247
55 19 2 -0.885101 5.54981 11.6865 2.09221
56 19 3 0.460802 4.94977 12.3096 1.59058
57 19 3 0.424299 5.39533 10.7498 1.77791
58 20 2 -0.972915 6.96512 14.9867 9.67212
59 20 3 0.557971 6.5769 15.5799 8.96685
60 20 3 0.414944 7.91254 15.254 9.84805
61 21 2 -0.677689 1.39838 9.95908 8.38769
62 21 3 0.373228 1.65203 8.99981 8.26329
63 21 3 0.304461 2.21417 10.5323 8.31064
64 22 2 -0.658758 2.70297 4.50255 7.69436
65 22 3 0.362709 2.75816 4.48149 6.6961
66 22 3 0.296049 1.95549 5.10499 7.97425
67 23 2 -0.691335 9.76997 8.58249 2.00752
68 23 3 0.336241 9.68303 7.58696 1.97038
69 23 3 0.355094 9.41377 8.97999 1.16188
70 24 2 -0.64398 2.2639 7.41661 8.83256
71 24 3 0.344069 3.0484 6.96096 9.25321
72 24 3 0.299911 1.42995 6.90631 9.04263
73 25 2 -0.74553 4.52669 18.6264 10.4702
74 25 3 0.395715 4.25393 18.1012 11.2763
75 25 3 0.349815 5.18878 18.0994 9.93734
76 26 2 -0.599358 7.83575 3.67915 5.6527
77 26 3 0.296446 8.68039 4.02863 5.24719
78 26 3 0.302912 7.29166 3.22311 4.94843
79 27 2 -0.912587 7.39711 1.99811 2.77224
80 27 3 0.451236 7.47808 1.21832 2.15145
81 27 3 0.461351 8.27458 2.47485 2.82483
82 28 2 -0.782066 6.30524 4.32501 3.30322
83 28 3 0.398515 6.382 3.32798 3.30947
84 28 3 0.383551 5.35533 4.58727 3.47324
85 29 2 -0.790728 3.5366 12.6972 14.3451
86 29 3 0.534935 3.69864 13.0894 0.280564
87 29 3 0.255792 4.41235 12.5363 13.8899
88 30 2 -0.797927 0.218695 12.4147 10.7456
89 30 3 0.406017 0.498937 13.3206 11.0631
90 30 3 0.39191 0.259202 12.3843 9.74685
91 31 2 -0.687813 3.54322 0.796131 10.5807
92 31 3 0.436781 4.06087 20.3324 10.4464
93 31 3 0.251033 3.44096 1.26724 9.70458
94 32 2 -0.62377 10.0911 7.80342 6.52864
95 32 3 0.286261 10.6451 7.26638 5.8925
96 32 3 0.337509 9.61798 8.52859 6.02838
97 33 2 -0.718648 4.97243 14.5841 6.76518
98 33 3 0.437457 4.38232 15.343 6.48997
99 33 3 0.281191 4.99229 14.5221 7.76307
100 34 2 -0.761307 6.16803 3.64311 0.408714
101 34 3 0.374755 6.34332 4.60656 0.206128
102 34 3 0.386552 6.70896 3.36565 1.2027
103 35 2 -0.656005 2.40069 2.48947 0.181932
104 35 3 0.364448 3.07732 2.07965 14.5402
105 35 3 0.291557 1.85876 1.76706 0.611396
106 36 2 -0.759852 6.94975 5.33378 12.7559
107 36 3 0.451712 5.96863 5.20078 12.8962
108 36 3 0.30814 7.28454 4.66732 12.0897
109 37 2 -0.861635 7.27254 17.757 10.2929
110 37 3 0.400661 6.86243 17.3628 9.47039
111 37 3 0.460974 7.0312 17.1982 11.0863
112 38 2 -0.621265 17.1052 14.8282 1.05002
113 38 3 0.266222 0.160729 14.4259 1.63262
114 38 3 0.355043 17.5352 15.402 0.352988
115 39 2 -1.13183 3.73466 15.9527 5.14998
116 39 3 0.490918 2.81272 16.2322 5.4181
117 39 3 0.640907 4.15268 16.6716 4.59461
118 40 2 -0.593538 2.11796 0.27096 13.325
119 40 3 0.343746 2.80799 0.865645 12.9124
120 40 3 0.249792 2.44622 20.3257 14.2113
121 41 2 -0.904108 6.47892 14.6171 0.673138
122 41 3 0.455019 7.05923 14.9889 14.9185
123 41 3 0.449089 7.05011 14.3211 1.4387
124 42 2 -0.705364 5.28889 7.0548 2.66393
125 42 3 0.338357 5.92452 6.31694 2.43692
126 42 3 0.367008 5.36867 7.27629 3.63582
127 43 2 -0.769321 2.52309 1.79683 3.69216
128 43 3 0.385285 3.40879 1.82626 3.22883
129 43 3 0.384036 2.17002 0.861345 3.67725
130 44 2 -0.732679 1.85332 14.5705 2.86625
131 44 3 0.379767 2.26203 15.3786 2.44218
132 44 3 0.352912 1.00073 14.8278 3.32107
133 45 2 -0.817425 8.37977 12.8769 9.57388
134 45 3 0.359492 7.79485 13.491 10.1038
135 45 3 0.457932 9.25134 12.7546 10.0486
136 46 2 -0.759426 11.8507 15.0333 11.1981
137 46 3 0.430144 12.2553 15.9296 11.3793
138 46 3 0.329282 11.3574 14.7201 12.0096
139 47 2 -0.601799 4.9656 3.93649 10.2287
140 47 3 0.296431 4.34064 4.21026 9.49759
141 47 3 0.305368 5.09554 2.94532 10.2024
142 48 2 -0.746115 6.12828 8.10651 5.52006
143 48 3 0.394187 6.61643 8.81396 6.03117
144 48 3 0.351928 5.57482 7.56193 6.15024
145 49 2 -0.615011 8.42296 10.4453 14.7936
146 49 3 0.339471 8.47035 11.4153 14.5552
147 49 3 0.27554 7.57644 10.2662 0.324902
148 50 2 -0.759313 2.10916 17.6641 4.56841
149 50 3 0.360844 2.71278 18.4492 4.70715
150 50 3 0.398469 1.55475 17.8106 3.74914
151 51 2 -0.692045 3.12527 12.2789 11.7366
152 51 3 0.364184 2.6271 11.4417 11.5108
153 51 3 0.327861 3.26918 12.3248 12.7251
154 52 2 -0.947584 3.4068 16.5114 1.9621
155 52 3 0.356722 3.80053 15.6153 1.75737
156 52 3 0.590861 3.93281 16.9477 2.69214
157 53 2 -0.724994 8.70028 15.7033 1.58273
158 53 3 0.288668 8.46462 14.9072 1.02542
159 53 3 0.436326 8.14323 15.7056 2.41321
160 54 2 -0.747137 8.23265 0.750814 6.86441
161 54 3 0.414748 8.46152 0.746538 5.89096
162 54 3 0.332389 7.39682 0.222209 7.01265
163 55 2 -0.812013 12.9852 15.5612 5.04731
164 55 3 0.454608 13.9131 15.2236 5.20591
165 55 3 0.357405 12.3584 15.1311 5.69702
166 56 2 -0.736087 1.21159 15.5299 6.47635
167 56 3 0.392788 0.775022 16.2901 5.99517
168 56 3 0.343299 0.724949 14.6811 6.26966
169 57 2 -0.748001 1.7358 15.3239 14.7294
170 57 3 0.388418 2.62297 15.7475 14.9125
171 57 3 0.359583 1.87506 14.409 14.3505
172 58 2 -0.748677 14.612 17.3175 8.86722
173 58 3 0.323411 15.2872 17.969 8.5213
174 58 3 0.425265 14.9035 16.9788 9.76185
175 59 2 -0.917464 6.60801 18.0506 1.64266
176 59 3 0.400408 6.60809 17.2709 1.01645
177 59 3 0.517056 6.61488 17.7201 2.58645
178 60 2 -1.37537 4.91721 14.5157 3.70427
179 60 3 0.609028 5.46902 13.7917 4.11809
180 60 3 0.76634 4.23828 14.8362 4.36483
181 61 2 -0.61864 1.98454 3.54222 12.5783
182 61 3 0.308671 2.5717 2.75769 12.3789
183 61 3 0.309969 1.83129 3.60171 13.5647
184 62 2 -0.711102 3.48425 17.6559 12.7962
185 62 3 0.397762 3.81276 18.2069 13.5634
186 62 3 0.313341 2.50711 17.476 12.9093
187 63 2 -0.723022 12.3938 9.68996 6.80632
188 63 3 0.389246 13.0512 10.4409 6.86922
189 63 3 0.333776 12.867 8.85543 6.52415
190 64 2 -0.855021 10.9325 17.3004 0.56535
191 64 3 0.423408 11.7866 16.8283 0.78342
192 64 3 0.431613 10.1763 16.6463 0.582414
193 65 2 -0.801962 16.2049 13.7688 12.4353
194 65 3 0.426091 16.7457 13.0188 12.0544
195 65 3 0.375871 15.5294 13.4015 13.0747
196 66 2 -0.761592 0.0946011 0.409234 6.22746
197 66 3 0.365065 16.8476 0.849926 6.21783
198 66 3 0.396527 0.0703749 19.9722 5.65318
199 67 2 -0.727165 7.88107 12.612 2.56237
200 67 3 0.408527 7.12933 11.985 2.35798
201 67 3 0.318638 8.27264 12.3836 3.45373
202 68 2 -0.874471 5.37856 0.490934 6.54235
203 68 3 0.441595 5.70642 19.9762 6.84182
204 68 3 0.432876 5.17834 1.05698 7.34204
205 69 2 -0.746963 6.3068 17.5455 13.9028
206 69 3 0.333102 6.67355 18.3754 13.4824
207 69 3 0.413861 5.9923 16.9208 13.188
208 70 2 -1.10405 6.15956 16.0942 11.6487
209 70 3 0.536573 5.19231 15.9004 11.8126
210 70 3 0.567473 6.50139 15.4955 10.9243
211 71 2 -1.47591 5.03721 17.3837 3.86472
212 71 3 0.415258 4.78539 17.8373 4.71966
213 71 3 1.06065 6.03355 17.3498 3.78629
214 72 2 -1.05336 3.44325 16.8153 7.89407
215 72 3 0.422685 2.69329 16.8169 7.23258
216 72 3 0.630679 3.07764 16.662 8.81213
217 73 2 -0.931638 4.42688 15.6506 14.7091
218 73 3 0.397891 4.59523 16.5975 0.0129445
219 73 3 0.533747 5.11901 15.0568 0.149532
220 74 2 -0.910804 6.03432 12.5352 4.62949
221 74 3 0.406273 6.01143 12.0106 3.77847
222 74 3 0.504531 6.60739 12.0612 5.298
223 75 2 -0.83645 6.56737 20.1719 8.68048
224 75 3 0.45005 6.77027 19.2942 9.11457
225 75 3 0.3864 7.08856 0.514563 9.13259
226 76 2 -0.577762 13.7774 13.1546 3.86923
227 76 3 0.273962 14.6635 12.8581 4.22561
228 76 3 0.303801 13.1235 12.4008 3.93264
229 77 2 -0.713132 9.29004 17.7547 13.1523
230 77 3 0.348846 9.03006 18.3257 12.3737
231 77 3 0.364286 10.2293 17.9666 13.4222
232 78 2 -0.695068 17.2846 17.5003 7.13869
233 78 3 0.288105 16.5666 17.8417 6.53206
234 78 3 0.406963 16.9708 16.6647 7.58947
235 79 2 -0.566109 0.0419935 11.7725 14.5352
236 79 3 0.283947 0.973175 11.6534 14.1906
237 79 3 0.282162 17.4329 10.9731 0.106887
238 80 2 -0.64906 15.7127 18.2662 1.2641
239 80 3 0.374737 14.9832 18.7233 1.77292
240 80 3 0.274323 16.2302 18.944 0.741868
241 81 2 -0.72692 5.10936 20.2276 14.5262
242 81 3 0.374124 4.76889 0.552627 0.176897
243 81 3 0.352796 5.64391 19.559 0.0730814
244 82 2 -0.676892 17.2217 15.1735 9.52336
245 82 3 0.292416 17.1831 14.8056 10.4524
246 82 3 0.384476 17.3936 14.4299 8.8772
247 83 2 -0.782657 1.72327 19.8044 2.39151
248 83 3 0.279586 1.52329 18.9486 1.91435
249 83 3 0.50307 2.6641 19.7854 2.72988
250 84 2 -0.903714 8.554 9.07706 4.48402
251 84 3 0.446983 7.70297 8.55588 4.54823
252 84 3 0.456731 9.19678 8.59383 3.8896
253 85 2 -0.853468 8.89891 0.263481 4.15242
254 85 3 0.350398 9.5049 0.709802 3.49395
255 85 3 0.50307 9.06417 19.6585 4.14227
256 86 2 -0.988808 4.01952 14.9541 12.1063
257 86 3 0.49402 4.18167 15.1238 13.0783
258 86 3 0.494788 4.04119 13.9698 11.9315
259 87 2 -0.939232 4.01937 19.4178 3.01237
260 87 3 0.596709 4.64545 18.7134 3.34666
261 87 3 0.342523 4.29647 20.3084 3.37302
262 88 2 -0.634759 2.16966 1.75857 7.94006
263 88 3 0.294372 2.25149 2.62962 7.45572
264 88 3 0.340387 1.90469 1.92855 8.88922
265 89 2 -0.821582 10.1606 11.8997 7.25763
266 89 3 0.398591 10.4041 10.9835 7.57575
267 89 3 0.422992 9.4684 11.8302 6.5393
268 90 2 -0.633016 11.6815 1.63104 7.08581
269 90 3 0.270207 11.2 2.32064 7.62672
270 90 3 0.362809 12.1042 0.962712 7.6979
271 91 2 -0.576915 8.93567 19.8892 11.1726
272 91 3 0.342738 9.8667 19.9857 10.8206
273 91 3 0.234177 8.93761 20.0281 12.1629
274 92 2 -0.806752 14.0166 20.072 3.02383
275 92 3 0.430969 14.17 0.666351 2.86637
276 92 3 0.375783 14.2078 19.8548 3.98103
277 93 2 -0.734758 4.58668 1.81324 1.78204
278 93 3 0.419783 4.53108 2.81157 1.76586
279 93 3 0.314976 4.85092 1.50889 2.69721
280 94 2 -0.891582 8.66467 4.08456 14.3283
281 94 3 0.502349 8.02434 4.59303 13.7526
282 94 3 0.389233 8.55117 3.1041 14.1676
283 95 2 -0.703612 7.57219 2.23786 9.01076
284 95 3 0.341345 7.56292 1.5227 8.31185
285 95 3 0.362267 7.79023 3.11643 8.58581
286 96 2 -0.700937 12.5065 4.0657 3.32905
287 96 3 0.326768 11.7423 3.82536 2.7306
288 96 3 0.374168 13.3029 3.50908 3.09254
289 97 2 -0.715732 4.20729 5.54778 13.3249
290 97 3 0.358862 3.32689 5.94017 13.5913
291 97 3 0.35687 4.06498 4.62911 12.9564
292 98 2 -0.644934 16.5197 2.60688 7.74033
293 98 3 0.337509 17.1453 1.83616 7.61971
294 98 3 0.307425 16.3893 2.78076 8.71643
295 99 2 -0.649383 12.6496 5.84005 11.2364
296 99 3 0.369861 11.7729 5.6387 10.7995
297 99 3 0.279522 12.5384 5.82389 12.23
298 100 2 -0.643831 7.83454 1.88073 12.7408
299 100 3 0.364382 8.03263 1.34909 11.9173
300 100 3 0.279449 8.61918 1.84172 13.3595
301 101 2 -0.714115 14.4325 11.9378 7.76053
302 101 3 0.300037 14.2353 12.8758 8.04562
303 101 3 0.414078 15.1568 11.5594 8.33704
304 102 2 -0.655919 16.7917 19.6954 3.7347
305 102 3 0.312231 15.946 20.1925 3.54076
306 102 3 0.343688 17.4834 19.9361 3.05382
307 103 2 -0.758733 14.1153 6.13077 6.10696
308 103 3 0.401555 13.6965 6.29624 5.2141
309 103 3 0.357178 13.4851 5.60524 6.67853
310 104 2 -0.710283 15.7378 10.784 9.83854
311 104 3 0.338981 16.0609 9.83807 9.8672
312 104 3 0.371302 16.4028 11.3773 10.2921
313 105 2 -0.784349 12.3918 17.6059 10.9259
314 105 3 0.400272 12.0549 18.1721 10.1736
315 105 3 0.384077 13.1023 18.1025 11.4246
316 106 2 -0.638225 10.5927 5.24871 4.93234
317 106 3 0.335782 11.3543 5.73025 4.49863
318 106 3 0.302442 10.3575 4.44124 4.39135
319 107 2 -0.87258 12.1166 1.60466 1.20818
320 107 3 0.464942 12.9541 1.28275 0.766708
321 107 3 0.407639 12.0646 1.23346 2.13528
322 108 2 -0.73273 3.64572 4.39564 2.61679
323 108 3 0.377906 3.627 5.38667 2.74912
324 108 3 0.354825 3.08517 4.15449 1.82455
325 109 2 -0.72347 12.0026 1.29485 12.6267
326 109 3 0.399558 11.9898 0.568117 13.3135
327 109 3 0.323913 12.0023 2.18471 13.0829
328 110 2 -0.690746 16.9031 1.26095 14.6325
329 110 3 0.323586 17.5854 1.85717 0.085503
330 110 3 0.36716 17.3414 0.41441 14.3305
331 111 2 -0.692469 0.312445 3.16217 2.73207
332 111 3 0.375109 1.22052 2.76722 2.8714
333 111 3 0.31736 0.339427 4.14055 2.93716
334 112 2 -0.724519 12.2317 15.9636 8.50351
335 112 3 0.408749 13.054 16.2658 8.98564
336 112 3 0.31577 11.4276 16.3943 8.9134
337 113 2 -0.922248 7.26827 0.114265 0.828027
338 113 3 0.396521 6.60966 0.365454 0.118697
339 113 3 0.525727 6.98538 19.6375 1.25679
340 114 2 -0.810736 9.86226 2.58541 2.95764
341 114 3 0.436006 10.3157 3.06277 2.20494
342 114 3 0.37473 10.403 1.7859 3.21917
343 115 2 -0.757634 10.8953 12.7058 9.98245
344 115 3 0.382709 10.9009 12.1945 9.12304
345 115 3 0.374925 11.6832 13.3211 10.0094
346 116 2 -0.59374 1.97188 7.70267 13.0922
347 116 3 0.2813 2.17607 8.46759 13.7031
348 116 3 0.31244 2.1844 7.9625 12.1502
349 117 2 -0.709491 11.6356 19.3878 14.1248
350 117 3 0.236864 11.5624 20.2245 14.6675
351 117 3 0.472626 11.3246 18.6089 14.6694
352 118 2 -0.673772 8.50502 6.02005 2.12577
353 118 3 0.345874 7.87185 5.43022 2.62695
354 118 3 0.327898 9.08337 5.46018 1.53242
355 119 2 -0.7419 9.49732 1.48334 14.9007
356 119 3 0.394024 8.6132 1.03467 0.0612529
357 119 3 0.347877 10.1124 1.23157 0.677921
358 120 2 -0.753617 10.8394 1.55642 10.2012
359 120 3 0.415457 11.413 1.4916 11.0177
360 120 3 0.338159 10.4108 2.45923 10.1657
361 121 2 -0.613777 0.310736 5.9076 4.95053
362 121 3 0.333084 17.5973 6.14079 5.85224
363 121 3 0.280693 1.19842 5.45921 5.05524
364 122 2 -0.675913 13.8266 16.238 13.5416
365 122 3 0.328395 13.2018 15.7329 14.137
366 122 3 0.347518 14.3615 16.8816 14.089
367 123 2 -0.755439 14.7818 2.27695 2.69815
368 123 3 0.305291 14.7398 2.84292 1.87479
369 123 3 0.450148 15.4176 2.68665 3.35224
370 124 2 -0.727356 17.1563 19.5441 9.37155
371 124 3 0.366788 16.5246 20.2586 9.67231
372 124 3 0.360569 17.3173 19.6336 8.38865
373 125 2 -0.645447 10.1144 19.6502 1.65087
374 125 3 0.338713 9.44999 19.9286 0.95728
375 125 3 0.306733 11.0405 19.7991 1.30416
376 126 2 -0.786248 0.0444257 18.6356 14.1673
377 126 3 0.361429 0.998566 18.6091 14.4655
378 126 3 0.424818 17.3372 17.7035 14.1119
379 127 2 -0.730469 8.52592 15.1371 7.5419
380 127 3 0.416401 8.65144 14.5133 8.31335
381 127 3 0.314068 9.38138 15.6234 7.36385
382 128 2 -0.669676 9.63532 5.669 10.7114
383 128 3 0.376758 8.89118 5.70015 10.0441
384 128 3 0.292918 9.26744 5.42991 11.61
385 129 2 -0.616709 13.7036 4.22786 8.05212
386 129 3 0.319974 14.3422 3.84911 8.72193
387 129 3 0.296735 13.1694 3.48703 7.6449
388 130 2 -0.74428 10.6635 9.35262 8.81673
389 130 3 0.341617 10.6194 8.41536 9.16254
390 130 3 0.402662 11.2435 9.38057 8.00259
391 131 2 -0.720151 6.56016 19.7193 4.13252
392 131 3 0.282006 6.64241 18.7456 3.92008
393 131 3 0.438144 7.4428 20.1672 3.99013
394 132 2 -0.855562 0.441836 17.8053 11.3932
395 132 3 0.36032 1.02919 18.3703 11.9727
396 132 3 0.495242 17.5815 18.3913 10.7644
397 133 2 -0.822334 7.06067 12.5242 7.10338
398 133 3 0.420093 6.61059 13.4063 6.96469
399 133 3 0.402241 7.49834 12.5109 8.00243
400 134 2 -1.0441 9.11198 11.5388 4.76112
401 134 3 0.409405 9.61039 11.774 3.92668
402 134 3 0.634694 8.97594 10.5489 4.80036
403 135 2 -0.671275 12.3717 14.0744 0.854921
404 135 3 0.358662 12.2401 14.1607 1.84247
405 135 3 0.312613 12.0644 13.1711 0.555349
406 136 2 -0.779296 10.222 16.5352 5.63175
407 136 3 0.374717 9.6303 16.9426 6.32737
408 136 3 0.404579 11.146 16.4309 5.9996
409 137 2 -0.610135 15.4796 7.82791 0.407433
410 137 3 0.299298 14.8713 8.28876 14.7312
411 137 3 0.310837 15.2232 6.86386 0.477138
412 138 2 -0.641916 15.8907 16.0802 3.95166
413 138 3 0.336272 16.5972 16.006 3.24783
414 138 3 0.305644 15.3201 16.8806 3.76796
415 139 2 -0.70048 9.48649 13.666 14.5695
416 139 3 0.285968 9.92211 14.1582 0.353159
417 139 3 0.414511 9.08438 14.3222 13.931
418 140 2 -0.79366 11.6698 0.797602 3.79407
419 140 3 0.457504 12.2842 0.0433036 4.02548
420 140 3 0.336156 10.8604 0.760021 4.38011
421 141 2 -0.859457 10.6327 4.1101 0.862896
422 141 3 0.529116 9.82648 4.15483 0.272938
423 141 3 0.330341 11.1052 3.24103 0.716356
424 142 2 -0.613532 13.7026 20.2668 10.1445
425 142 3 0.296441 13.6521 19.3208 9.82431
426 142 3 0.317091 13.3468 20.3224 11.0774
427 143 2 -0.584348 14.7909 17.9688 5.83804
428 143 3 0.300748 14.0127 17.5269 5.39182
429 143 3 0.2836 15.6254 17.4553 5.63817
430 144 2 -0.80144 15.3748 16.7363 11.2782
431 144 3 0.442063 15.1164 15.9571 11.8492
432 144 3 0.359377 16.3708 16.7748 11.1978
433 145 2 -0.910389 7.9463 15.3265 13.407
434 145 3 0.454662 8.28472 16.2459 13.6073
435 145 3 0.455727 7.24084 15.3776 12.7001
436 146 2 -0.762336 14.2561 0.365462 0.0119145
437 146 3 0.38552 14.2304 0.0439901 14.0353
438 146 3 0.376816 15.2051 0.406571 0.32436
439 147 2 -0.751857 0.284562 13.0619 7.92406
440 147 3 0.378517 0.36896 12.0988 7.66828
441 147 3 0.373341 1.01866 13.5867 7.49325
442 148 2 -0.79349 10.7252 19.2136 9.28256
443 148 3 0.321937 10.7013 20.1036 9.738
444 148 3 0.471554 9.84748 19.0449 8.83417
445 149 2 -0.704949 10.8749 14.5871 3.2592
446 149 3 0.366534 11.364 15.0607 3.9916
447 149 3 0.338415 9.93498 14.4062 3.54877
448 150 2 -0.760563 11.1293 14.244 6.63232
449 150 3 0.454439 10.6694 13.5131 7.13666
450 150 3 0.306124 12.0837 14.3017 6.92525
451 151 2 -0.782425 2.43917 18.1827 0.291514
452 151 3 0.320654 2.37637 18.9927 0.874604
453 151 3 0.46177 2.58951 17.3737 0.8598
454 152 2 -2.05751 7.20183 15.1624 3.47912
455 152 3 0.957484 6.26935 14.8342 3.32823
456 152 3 1.10002 7.59443 14.6978 4.2728
457 153 2 -0.659217 11.9489 18.4758 5.21059
458 153 3 0.332181 11.3113 18.6746 5.95478
459 153 3 0.327036 12.0799 17.487 5.13909
460 154 2 -0.834018 8.6938 18.6641 7.78379
461 154 3 0.386269 8.62149 19.6238 7.51219
462 154 3 0.447749 8.11057 18.1058 7.19373
463 155 2 -0.637447 13.0868 17.1034 2.36303
464 155 3 0.354144 13.0397 16.5258 3.17796
465 155 3 0.283303 12.8554 18.0449 2.608
466 156 2 -0.735277 13.1247 6.68562 3.7162
467 156 3 0.363795 13.8084 6.91995 3.02512
468 156 3 0.371482 12.8114 5.74722 3.5704
469 157 2 -1.2467 8.46874 13.9711 5.06584
470 157 3 0.586626 8.77629 14.4322 5.89819
471 157 3 0.660078 8.77804 13.0203 5.07784
472 158 2 -0.726803 8.13182 10.0254 7.32555
473 158 3 0.359745 7.85866 10.9472 7.60082
474 158 3 0.367057 8.87625 9.70884 7.91342
475 159 2 -0.599668 2.71635 13.7873 8.92957
476 159 3 0.31096 2.62119 14.3516 9.74962
477 159 3 0.288708 2.90966 14.373 8.14245
478 160 2 -0.658552 15.2948 15.0355 7.00691
479 160 3 0.297152 15.6283 14.1457 6.69519
480 160 3 0.3614 14.6652 14.9058 7.77287
481 161 2 -0.959778 7.26589 17.2639 5.98896
482 161 3 0.358749 6.30021 17.3362 6.23846
483 161 3 0.601028 7.36054 17.3425 4.99656
484 162 2 -0.96049 2.80286 16.3496 10.2771
485 162 3 0.418341 2.06413 16.9443 10.5942
486 162 3 0.542149 3.16034 15.8222 11.0478
487 163 2 -0.770129 2.73573 20.2546 5.93491
488 163 3 0.324474 3.41254 0.598486 6.06212
489 163 3 0.445655 1.81693 0.251267 6.04905
490 164 2 -0.631692 16.6867 1.01614 11.5351
491 164 3 0.320923 15.877 1.60169 11.5752
492 164 3 0.310769 17.1518 1.02954 12.4202
493 165 2 -0.67556 14.9037 19.1652 12.4848
494 165 3 0.41054 15.3922 18.397 12.0709
495 165 3 0.265021 15.4346 19.5228 13.2531
496 166 2 -1.0077 9.46334 18.2099 3.81119
497 166 3 0.49488 9.56773 17.4259 4.42309
498 166 3 0.512822 10.293 18.3181 3.26355
499 167 2 -0.647678 0.317708 17.1031 2.23297
500 167 3 0.428782 17.3301 16.8305 1.51308
501 167 3 0.218896 1.19922 17.3402 1.82463
502 168 2 -0.706212 1.1961 14.8869 11.6386
503 168 3 0.341206 1.36141 15.2896 12.5389
504 168 3 0.365005 1.40363 15.5602 10.929
505 169 2 -0.639701 10.7107 11.6104 2.30525
506 169 3 0.337234 9.86808 11.6009 1.7668
507 169 3 0.302467 11.0409 12.5505 2.39097
508 170 2 -0.694062 14.2419 14.1496 9.92536
509 170 3 0.362753 13.3553 14.5545 10.1489
510 170 3 0.331308 14.572 13.6183 10.7056
511 171 2 -0.579038 17.01 7.30911 10.5343
512 171 3 0.257098 0.00983002 6.55052 10.571
513 171 3 0.321939 16.4744 7.24846 9.69195
514 172 2 -2.16233 7.11514 17.112 3.67628
515 172 3 0.733005 7.99232 17.5348 3.44876
516 172 3 1.42933 7.18376 16.1207 3.56364
517 173 2 -0.734244 4.86229 9.14397 0.76662
518 173 3 0.374692 4.63153 8.74558 1.65433
519 173 3 0.359553 4.67902 8.4772 0.0442381
520 174 2 -0.593267 14.936 4.89841 1.36434
521 174 3 0.306438 15.6852 4.29466 1.092
522 174 3 0.286829 14.062 4.46662 1.14126
523 175 2 -0.799082 16.7842 16.2233 13.4111
524 175 3 0.468014 16.5335 15.293 13.1433
525 175 3 0.331069 17.3022 16.6547 12.6725
526 176 2 -0.891831 4.78709 18.3715 6.34917
527 176 3 0.417042 4.70031 19.3576 6.20733
528 176 3 0.474789 3.92963 18.0108 6.71613
