LAMMPS (2 Sep 2026)
OMP_NUM_THREADS environment is not set. Defaulting to 1 thread.
  using 1 OpenMP thread(s) per MPI task
# Au(111) + SPC-FQ film dynamics, arm nometal (run_dyn_spc.py)
units           metal
atom_style      full
boundary        p p p
fix             pb all property/atom i_body ghost yes
read_data       data fix pb NULL RigidBodies
Reading data file ...
  orthogonal box = (0 0 0) to (17.650658 20.381224 14.97)
  1 by 1 by 1 MPI processor grid
  reading atoms ...
  528 atoms
Finding 1-2 1-3 1-4 neighbors ...
  special bond factors lj:    0        0        0       
  special bond factors coul:  0        0        0       
     0 = max # of 1-2 neighbors
     0 = max # of 1-3 neighbors
     0 = max # of 1-4 neighbors
     1 = max # of special neighbors
  special bonds CPU = 0.000 seconds
  read_data CPU = 0.002 seconds
group           water type 2 3
528 atoms in group water
group           fq    type 2 3
528 atoms in group fq
pair_style      hybrid/overlay lj/cut 12.0 coul/long 12.0 coul/shield/intra 12.0 all cbrt
pair_coeff      * * lj/cut 0.0 1.0
pair_coeff      2 2 lj/cut 0.01275 3.144
pair_coeff      * * coul/long
pair_coeff      1 1 coul/shield/intra 0.2372
pair_coeff      2 2 coul/shield/intra 1.11
pair_coeff      3 3 coul/shield/intra 1.11
kspace_style    pppm/samqeq 1.0e-6
kspace_modify   gewald 0.35 mesh 24 28 20   # pinned: all-zero start charges make the automatic mesh far too coarse
Updated KSpace settings:
  KSpace computation is turned:    ON
  Use MPI collective operations:   OFF
  Use MPI non-blocking operations: OFF
  Gewald manually set to:          0.35
neighbor        2.0 bin
neigh_modify    every 1 delay 0 check yes

# per-molecule constraints
fix             chg fq qeq/sam 1 0.0 12.0 1.0e-7 param
fix_modify      chg shield cbrt
samqeq: lr-solve shielding = cbrt J_shield (param 4th col = gamma); routed through compute_H + add_fixed_charge_field + the legacy gas path (calc_Hval)
fix_modify      chg energy yes

velocity        water create 298.0 4928459 mom yes rot yes dist gaussian
fix             rig water rigid/nvt/small custom i_body temp 298.0 298.0 0.02
Fix rigid/nvt/small setup ...
  create bodies CPU = 0.000 seconds
  176 rigid bodies with 528 atoms
  1.0000026 = max distance from body owner to body atom
compute         kew water ke
variable        Tw equal c_kew*2.0/((6*176-3)*8.617333e-5)
variable        aq atom abs(q)
compute         qmax fq reduce max v_aq
thermo_style    custom step v_Tw pe c_qmax
thermo          100
timestep        0.00025
run             2000            # gentle start from the grid (tight coupling, 0.25 fs)

CITE-CITE-CITE-CITE-CITE-CITE-CITE-CITE-CITE-CITE-CITE-CITE-CITE

Your simulation uses code contributions which should be cited:

- fix acks2/reaxff command: https://doi.org/10.1137/18M1224684

@Article{O'Hearn2020,
 author = {K. A. {O'Hearn} and A. Alperen and H. M. Aktulga},
 title = {Fast Solvers for Charge Distribution Models on Shared Memory Platforms},
 journal = {SIAM J.\ Sci.\ Comput.},
 year =    2020,
 volume =  42,
 number =  1,
 pages =   {1--22}
}

CITE-CITE-CITE-CITE-CITE-CITE-CITE-CITE-CITE-CITE-CITE-CITE-CITE

PPPM initialization ...
WARNING: Using kspace solver on system with no charge (src/kspace.cpp:317)
  using 12-bit tables for long-range coulomb
  G vector (1/distance) = 0.35
  grid = 24 30 20
  stencil order = 5
  estimated absolute RMS force accuracy = 0
  estimated relative force accuracy = 0
  using double precision FFTW3
  3d grid and FFT values/proc = 30969 14400
Generated 0 of 3 mixed pair_coeff terms from geometric mixing rule
samqeq: E_self = sum(chi q + 1/2 eta qs^2) INCLUDED in pe/etotal (fix_modify chg energy yes; eselfref qs = q - q0) -- pe + E_self is the energy the forces integrate
Neighbor list info ...
  update: every = 1 steps, delay = 0 steps, check = yes
  max neighbors/atom: 2000, page size: 100000
  master list distance cutoff = 14
  ghost atom cutoff = 14
  binsize = 7, bins = 3 3 3
  5 neighbor lists, perpetual/occasional/extra = 5 0 0
  (1) pair lj/cut, perpetual, half/full from (5)
      attributes: half, newton on
      pair build: halffull/newton
      stencil: none
      bin: none
  (2) pair coul/long, perpetual, copy from (1)
      attributes: half, newton on
      pair build: copy
      stencil: none
      bin: none
  (3) pair coul/shield/intra, perpetual, skip from (1)
      attributes: half, newton on
      pair build: skip
      stencil: none
      bin: none
  (4) fix qeq/sam, perpetual, half/full from (5)
      attributes: half, newton off
      pair build: halffull/newtoff
      stencil: none
      bin: none
  (5) fix qeq/sam, perpetual
      attributes: full, newton on
      pair build: full/bin
      stencil: full/bin/3d
      bin: standard
samqeq: recip_self ACTIVE at run start (step 0): not yet calibrated -- measured at the first solve by the K=16 deterministic-probe route
samqeq: calibrated grid reciprocal self-term recip_self=0.39457 +/- 0.00016 (raw, K=16 deterministic probes) = 5.6816 eV/e (subtracted so the QEq diagonal stays = eta)
samqeq SOLVER-DIAG step 0: CG 20 iters (=20 matvecs), resid/b=4.39e-08
Per MPI rank memory allocation (min/avg/max) = 44.71 | 44.71 | 44.71 Mbytes
   Step          v_Tw          PotEng         c_qmax    
         0   292.12146     -881.885        1.4612247    
       100   362.81755     -934.66785      1.6352964    
samqeq SOLVER-DIAG step 200: CG 24 iters (=24 matvecs), resid/b=7.67e-08
       200   516.07753     -1138.6619      2.5900893    
WARNING: samqeq: near-critical config at step 231 bounded with adaptive ridge=0.5 eV (max|q|=1.968) [1 engaged solves so far] (src/SAMQEQ/fix_qeq_sam_lr.cpp:2197)
WARNING: samqeq: near-critical config at step 232 bounded with adaptive ridge=0.5 eV (max|q|=2.004) [2 engaged solves so far] (src/SAMQEQ/fix_qeq_sam_lr.cpp:2197)
WARNING: samqeq: near-critical config at step 233 bounded with adaptive ridge=0.5 eV (max|q|=2.035) [3 engaged solves so far] (src/SAMQEQ/fix_qeq_sam_lr.cpp:2197)
WARNING: samqeq: near-critical config at step 234 bounded with adaptive ridge=0.5 eV (max|q|=2.062) [4 engaged solves so far] (src/SAMQEQ/fix_qeq_sam_lr.cpp:2197)
WARNING: samqeq: near-critical config at step 235 bounded with adaptive ridge=0.5 eV (max|q|=2.084) [5 engaged solves so far] (src/SAMQEQ/fix_qeq_sam_lr.cpp:2197)
       300   546.3625      -1341.6225      3.9862007    
WARNING: samqeq: near-critical config at step 367 bounded with adaptive ridge=0.5 eV (max|q|=1.986) [100 engaged solves so far] (src/SAMQEQ/fix_qeq_sam_lr.cpp:2197)
samqeq SOLVER-DIAG step 400: CG 26 iters (=26 matvecs), resid/b=6.98e-08, ridge=0 (engaged 118 solves)
samqeq SOLVER-DIAG step 400: CG 21 iters (=21 matvecs), resid/b=7.50e-08, ridge=0.5 (engaged 118 solves)
       400   459.22565     -629.96515      1.9801566    
       500   421.65441     -616.4078       1.9896527    
WARNING: samqeq: near-critical config at step 530 bounded with adaptive ridge=0.5 eV (max|q|=1.957) [200 engaged solves so far] (src/SAMQEQ/fix_qeq_sam_lr.cpp:2197)
samqeq SOLVER-DIAG step 600: CG 25 iters (=25 matvecs), resid/b=8.32e-08, ridge=0 (engaged 237 solves)
samqeq SOLVER-DIAG step 600: CG 21 iters (=21 matvecs), resid/b=6.45e-08, ridge=0.5 (engaged 237 solves)
       600   382.18022     -623.26828      2.0354485    
WARNING: samqeq: near-critical config at step 688 bounded with adaptive ridge=0.5 eV (max|q|=1.960) [300 engaged solves so far] (src/SAMQEQ/fix_qeq_sam_lr.cpp:2197)
       700   364.15898     -1201.6679      3.9525813    
samqeq SOLVER-DIAG step 800: CG 25 iters (=25 matvecs), resid/b=6.63e-08, ridge=0 (engaged 371 solves)
samqeq SOLVER-DIAG step 800: CG 21 iters (=21 matvecs), resid/b=5.21e-08, ridge=0.5 (engaged 371 solves)
       800   385.28571     -616.04047      2.0564052    
WARNING: samqeq: near-critical config at step 853 bounded with adaptive ridge=0.5 eV (max|q|=2.059) [400 engaged solves so far] (src/SAMQEQ/fix_qeq_sam_lr.cpp:2197)
       900   366.03204     -618.81196      2.019227     
samqeq SOLVER-DIAG step 1000: CG 26 iters (=26 matvecs), resid/b=8.87e-08, ridge=0 (engaged 469 solves)
samqeq SOLVER-DIAG step 1000: CG 22 iters (=22 matvecs), resid/b=3.75e-08, ridge=0.5 (engaged 469 solves)
      1000   385.20007     -643.52012      2.0418736    
WARNING: samqeq: near-critical config at step 1059 bounded with adaptive ridge=0.5 eV (max|q|=2.063) [500 engaged solves so far] (src/SAMQEQ/fix_qeq_sam_lr.cpp:2197)
      1100   430.06892     -678.10104      2.0951168    
WARNING: samqeq: near-critical config at step 1196 bounded with adaptive ridge=0.5 eV (max|q|=2.004) [600 engaged solves so far] (src/SAMQEQ/fix_qeq_sam_lr.cpp:2197)
samqeq SOLVER-DIAG step 1200: CG 26 iters (=26 matvecs), resid/b=6.26e-08, ridge=0 (engaged 603 solves)
samqeq SOLVER-DIAG step 1200: CG 21 iters (=21 matvecs), resid/b=7.79e-08, ridge=0.5 (engaged 603 solves)
      1200   439.66002     -642.79525      1.9747423    
      1300   388.22587     -633.4297       2.0171345    
WARNING: samqeq: near-critical config at step 1330 bounded with adaptive ridge=0.5 eV (max|q|=1.992) [700 engaged solves so far] (src/SAMQEQ/fix_qeq_sam_lr.cpp:2197)
samqeq SOLVER-DIAG step 1400: CG 26 iters (=26 matvecs), resid/b=4.15e-08, ridge=0 (engaged 751 solves)
samqeq SOLVER-DIAG step 1400: CG 21 iters (=21 matvecs), resid/b=5.21e-08, ridge=0.5 (engaged 751 solves)
      1400   330.22728     -616.60673      1.9614014    
WARNING: samqeq: near-critical config at step 1467 bounded with adaptive ridge=0.5 eV (max|q|=1.962) [800 engaged solves so far] (src/SAMQEQ/fix_qeq_sam_lr.cpp:2197)
      1500   311.65267     -608.24502      1.9855561    
samqeq SOLVER-DIAG step 1600: CG 25 iters (=25 matvecs), resid/b=6.30e-08, ridge=0 (engaged 893 solves)
samqeq SOLVER-DIAG step 1600: CG 20 iters (=20 matvecs), resid/b=9.44e-08, ridge=0.5 (engaged 893 solves)
      1600   306.51832     -614.36816      2.0055745    
WARNING: samqeq: near-critical config at step 1610 bounded with adaptive ridge=0.5 eV (max|q|=1.983) [900 engaged solves so far] (src/SAMQEQ/fix_qeq_sam_lr.cpp:2197)
      1700   331.22705     -624.53959      1.9591655    
WARNING: samqeq: near-critical config at step 1753 bounded with adaptive ridge=0.5 eV (max|q|=1.929) [1000 engaged solves so far] (src/SAMQEQ/fix_qeq_sam_lr.cpp:2197)
samqeq SOLVER-DIAG step 1800: CG 26 iters (=26 matvecs), resid/b=5.66e-08, ridge=0 (engaged 1035 solves)
samqeq SOLVER-DIAG step 1800: CG 21 iters (=21 matvecs), resid/b=7.04e-08, ridge=0.5 (engaged 1035 solves)
      1800   327.90867     -624.02131      1.9591653    
WARNING: samqeq: near-critical config at step 1891 bounded with adaptive ridge=0.5 eV (max|q|=1.971) [1100 engaged solves so far] (src/SAMQEQ/fix_qeq_sam_lr.cpp:2197)
      1900   317.62483     -628.86447      1.8992566    
samqeq SOLVER-DIAG step 2000: CG 27 iters (=27 matvecs), resid/b=9.81e-08, ridge=0 (engaged 1176 solves)
      2000   277.59702     -1238.6026      3.8683169    
Loop time of 84.5707 on 1 procs for 2000 steps with 528 atoms

Performance: 0.511 ns/day, 46.984 hours/ns, 23.649 timesteps/s, 12.487 katom-step/s
100.0% CPU use with 1 MPI tasks x 1 OpenMP threads

MPI task timing breakdown:
Section |  min time  |  avg time  |  max time  |%varavg| %total
---------------------------------------------------------------
Pair    | 11.81      | 11.81      | 11.81      |   0.0 | 13.97
Bond    | 0.00050358 | 0.00050358 | 0.00050358 |   0.0 |  0.00
Kspace  | 1.2711     | 1.2711     | 1.2711     |   0.0 |  1.50
Neigh   | 0.20901    | 0.20901    | 0.20901    |   0.0 |  0.25
Comm    | 0.071558   | 0.071558   | 0.071558   |   0.0 |  0.08
Output  | 0.00090277 | 0.00090277 | 0.00090277 |   0.0 |  0.00
Modify  | 71.19      | 71.19      | 71.19      |   0.0 | 84.18
Other   |            | 0.01696    |            |       |  0.02

Nlocal:            528 ave         528 max         528 min
Histogram: 1 0 0 0 0 0 0 0 0 0
Nghost:           8426 ave        8426 max        8426 min
Histogram: 1 0 0 0 0 0 0 0 0 0
Neighs:         296683 ave      296683 max      296683 min
Histogram: 1 0 0 0 0 0 0 0 0 0
FullNghs:       593366 ave      593366 max      593366 min
Histogram: 1 0 0 0 0 0 0 0 0 0

Total # of neighbors = 593366
Ave neighs/atom = 1123.7992
Ave special neighs/atom = 0
Neighbor list builds = 20
Dangerous builds = 0
unfix           rig
fix             rig water rigid/nvt/small custom i_body temp 298.0 298.0 0.1
Fix rigid/nvt/small setup ...
  create bodies CPU = 0.000 seconds
  176 rigid bodies with 528 atoms
  1.0000026 = max distance from body owner to body atom
timestep        0.001
run             1500
PPPM initialization ...
  using 12-bit tables for long-range coulomb
WARNING: For better accuracy use 'pair_modify table 0' (src/kspace.cpp:368)
  G vector (1/distance) = 0.35
  grid = 24 30 20
  stencil order = 5
  estimated absolute RMS force accuracy = 4.1771258e-05
  estimated relative force accuracy = 2.9008533e-06
  using double precision FFTW3
  3d grid and FFT values/proc = 30969 14400
Generated 0 of 3 mixed pair_coeff terms from geometric mixing rule
samqeq: E_self = sum(chi q + 1/2 eta qs^2) INCLUDED in pe/etotal (fix_modify chg energy yes; eselfref qs = q - q0) -- pe + E_self is the energy the forces integrate
samqeq: recip_self ACTIVE at run start (step 2000): 0.39457 raw = 5.6816 eV/e, K=16 deterministic-probe route, calibration #1 at step 0 on the 24x30x20 mesh; first at this mesh 0.39457 (step 0), drift +0.000%
samqeq: setup solve SKIPPED at run-boundary step 2000 (2nd+ run / restart): the setup forces use the STORED atom->q (the first in-loop step re-solves) -- use `reset_timestep 0` before the run to force a solve
Per MPI rank memory allocation (min/avg/max) = 44.95 | 44.95 | 44.95 Mbytes
   Step          v_Tw          PotEng         c_qmax    
      2000   277.59702     -1238.6026      3.8683169    
WARNING: samqeq: near-critical config at step 2001 bounded with adaptive ridge=0.5 eV (max|q|=1.906) [1 engaged solves so far] (src/SAMQEQ/fix_qeq_sam_lr.cpp:2197)
WARNING: samqeq: near-critical config at step 2003 bounded with adaptive ridge=0.5 eV (max|q|=1.970) [2 engaged solves so far] (src/SAMQEQ/fix_qeq_sam_lr.cpp:2197)
WARNING: samqeq: near-critical config at step 2004 bounded with adaptive ridge=0.5 eV (max|q|=1.935) [3 engaged solves so far] (src/SAMQEQ/fix_qeq_sam_lr.cpp:2197)
WARNING: samqeq: near-critical config at step 2006 bounded with adaptive ridge=0.5 eV (max|q|=1.960) [4 engaged solves so far] (src/SAMQEQ/fix_qeq_sam_lr.cpp:2197)
WARNING: samqeq: near-critical config at step 2007 bounded with adaptive ridge=0.5 eV (max|q|=1.982) [5 engaged solves so far] (src/SAMQEQ/fix_qeq_sam_lr.cpp:2197)
      2100   1168.6401     -1123.9954      3.7808464    
samqeq SOLVER-DIAG step 2200: CG 29 iters (=29 matvecs), resid/b=6.15e-08, ridge=0 (engaged 99 solves)
      2200   1304.239      -1062.0066      3.9540545    
WARNING: samqeq: near-critical config at step 2203 bounded with adaptive ridge=0.5 eV (max|q|=2.100) [100 engaged solves so far] (src/SAMQEQ/fix_qeq_sam_lr.cpp:2197)
      2300   1271.4564     -797.55347      3.3658543    
samqeq SOLVER-DIAG step 2400: CG 28 iters (=28 matvecs), resid/b=7.69e-08, ridge=0 (engaged 141 solves)
      2400   1138.9409     -1012.6773      3.9650093    
      2500   1290.8135     -803.64084      3.7904468    
samqeq SOLVER-DIAG step 2600: CG 27 iters (=27 matvecs), resid/b=8.96e-08, ridge=0 (engaged 186 solves)
samqeq SOLVER-DIAG step 2600: CG 23 iters (=23 matvecs), resid/b=3.98e-08, ridge=0.5 (engaged 186 solves)
      2600   1152.1485     -505.40001      1.922708     
WARNING: samqeq: near-critical config at step 2630 bounded with adaptive ridge=0.5 eV (max|q|=1.992) [200 engaged solves so far] (src/SAMQEQ/fix_qeq_sam_lr.cpp:2197)
      2700   1046.9654     -476.09845      2.1076992    
samqeq SOLVER-DIAG step 2800: CG 29 iters (=29 matvecs), resid/b=9.55e-08, ridge=0 (engaged 233 solves)
      2800   1279.9021     -1009.739       3.7093808    
      2900   1001.8192     -738.50009      1.5791476    
samqeq SOLVER-DIAG step 3000: CG 27 iters (=27 matvecs), resid/b=4.41e-08, ridge=0 (engaged 246 solves)
      3000   1039.7388     -906.34507      2.6460757    
      3100   1398.3332     -811.4097       2.1679156    
samqeq SOLVER-DIAG step 3200: CG 27 iters (=27 matvecs), resid/b=7.38e-08, ridge=0 (engaged 285 solves)
      3200   1141.6516     -931.40547      3.1081352    
WARNING: samqeq: near-critical config at step 3223 bounded with adaptive ridge=0.5 eV (max|q|=1.986) [300 engaged solves so far] (src/SAMQEQ/fix_qeq_sam_lr.cpp:2197)
      3300   1096.7727     -694.08049      1.5364693    
samqeq SOLVER-DIAG step 3400: CG 25 iters (=25 matvecs), resid/b=9.87e-08, ridge=0 (engaged 326 solves)
      3400   1034.5179     -783.63908      2.4894356    
      3500   1039.7821     -506.94803      2.1623342    
Loop time of 56.557 on 1 procs for 1500 steps with 528 atoms

Performance: 2.291 ns/day, 10.474 hours/ns, 26.522 timesteps/s, 14.004 katom-step/s
100.0% CPU use with 1 MPI tasks x 1 OpenMP threads

MPI task timing breakdown:
Section |  min time  |  avg time  |  max time  |%varavg| %total
---------------------------------------------------------------
Pair    | 8.9587     | 8.9587     | 8.9587     |   0.0 | 15.84
Bond    | 0.00035211 | 0.00035211 | 0.00035211 |   0.0 |  0.00
Kspace  | 0.97321    | 0.97321    | 0.97321    |   0.0 |  1.72
Neigh   | 1.5084     | 1.5084     | 1.5084     |   0.0 |  2.67
Comm    | 0.060731   | 0.060731   | 0.060731   |   0.0 |  0.11
Output  | 0.00072696 | 0.00072696 | 0.00072696 |   0.0 |  0.00
Modify  | 45.042     | 45.042     | 45.042     |   0.0 | 79.64
Other   |            | 0.01325    |            |       |  0.02

Nlocal:            528 ave         528 max         528 min
Histogram: 1 0 0 0 0 0 0 0 0 0
Nghost:           8366 ave        8366 max        8366 min
Histogram: 1 0 0 0 0 0 0 0 0 0
Neighs:         297609 ave      297609 max      297609 min
Histogram: 1 0 0 0 0 0 0 0 0 0
FullNghs:       595218 ave      595218 max      595218 min
Histogram: 1 0 0 0 0 0 0 0 0 0

Total # of neighbors = 595218
Ave neighs/atom = 1127.3068
Ave special neighs/atom = 0
Neighbor list builds = 140
Dangerous builds = 0
dump            dq all custom 500 charges.lammpstrj id mol type q x y z
dump_modify     dq sort id
run             100
PPPM initialization ...
  using 12-bit tables for long-range coulomb
WARNING: For better accuracy use 'pair_modify table 0' (src/kspace.cpp:368)
  G vector (1/distance) = 0.35
  grid = 24 30 20
  stencil order = 5
  estimated absolute RMS force accuracy = 1.5070762e-05
  estimated relative force accuracy = 1.0466065e-06
  using double precision FFTW3
  3d grid and FFT values/proc = 30969 14400
Generated 0 of 3 mixed pair_coeff terms from geometric mixing rule
samqeq: E_self = sum(chi q + 1/2 eta qs^2) INCLUDED in pe/etotal (fix_modify chg energy yes; eselfref qs = q - q0) -- pe + E_self is the energy the forces integrate
samqeq: recip_self ACTIVE at run start (step 3500): 0.39457 raw = 5.6816 eV/e, K=16 deterministic-probe route, calibration #1 at step 0 on the 24x30x20 mesh; first at this mesh 0.39457 (step 0), drift +0.000%
Per MPI rank memory allocation (min/avg/max) = 44.97 | 44.97 | 44.97 Mbytes
   Step          v_Tw          PotEng         c_qmax    
      3500   1039.7821     -506.94803      2.1623342    
WARNING: samqeq: near-critical config at step 3501 bounded with adaptive ridge=0.5 eV (max|q|=2.041) [1 engaged solves so far] (src/SAMQEQ/fix_qeq_sam_lr.cpp:2197)
WARNING: samqeq: near-critical config at step 3509 bounded with adaptive ridge=0.5 eV (max|q|=2.087) [2 engaged solves so far] (src/SAMQEQ/fix_qeq_sam_lr.cpp:2197)
WARNING: samqeq: near-critical config at step 3510 bounded with adaptive ridge=0.5 eV (max|q|=2.177) [3 engaged solves so far] (src/SAMQEQ/fix_qeq_sam_lr.cpp:2197)
WARNING: samqeq: near-critical config at step 3511 bounded with adaptive ridge=0.5 eV (max|q|=2.100) [4 engaged solves so far] (src/SAMQEQ/fix_qeq_sam_lr.cpp:2197)
WARNING: samqeq: near-critical config at step 3513 bounded with adaptive ridge=0.5 eV (max|q|=2.040) [5 engaged solves so far] (src/SAMQEQ/fix_qeq_sam_lr.cpp:2197)
samqeq SOLVER-DIAG step 3600: CG 23 iters (=23 matvecs), resid/b=9.23e-08, ridge=0 (engaged 27 solves)
      3600   1226.0253     -722.16225      1.6120592    
Loop time of 3.66165 on 1 procs for 100 steps with 528 atoms

Performance: 2.360 ns/day, 10.171 hours/ns, 27.310 timesteps/s, 14.420 katom-step/s
100.0% CPU use with 1 MPI tasks x 1 OpenMP threads

MPI task timing breakdown:
Section |  min time  |  avg time  |  max time  |%varavg| %total
---------------------------------------------------------------
Pair    | 0.58814    | 0.58814    | 0.58814    |   0.0 | 16.06
Bond    | 2.2554e-05 | 2.2554e-05 | 2.2554e-05 |   0.0 |  0.00
Kspace  | 0.061539   | 0.061539   | 0.061539   |   0.0 |  1.68
Neigh   | 0.078976   | 0.078976   | 0.078976   |   0.0 |  2.16
Comm    | 0.0036605  | 0.0036605  | 0.0036605  |   0.0 |  0.10
Output  | 4.1923e-05 | 4.1923e-05 | 4.1923e-05 |   0.0 |  0.00
Modify  | 2.9285     | 2.9285     | 2.9285     |   0.0 | 79.98
Other   |            | 0.000774   |            |       |  0.02

Nlocal:            528 ave         528 max         528 min
Histogram: 1 0 0 0 0 0 0 0 0 0
Nghost:           8432 ave        8432 max        8432 min
Histogram: 1 0 0 0 0 0 0 0 0 0
Neighs:         297321 ave      297321 max      297321 min
Histogram: 1 0 0 0 0 0 0 0 0 0
FullNghs:       594642 ave      594642 max      594642 min
Histogram: 1 0 0 0 0 0 0 0 0 0

Total # of neighbors = 594642
Ave neighs/atom = 1126.2159
Ave special neighs/atom = 0
Neighbor list builds = 8
Dangerous builds = 0
print           "DYN_DONE" file done.txt screen no
Total wall time: 0:02:24
