ITEM: TIMESTEP
500
ITEM: NUMBER OF ATOMS
1600
ITEM: BOX BOUNDS pp pp pp
0.0000000000000000e+00 3.6149999999999999e+01
0.0000000000000000e+00 3.6149999999999999e+01
0.0000000000000000e+00 1.5834399999999999e+02
ITEM: ATOMS id mol z q
1 90001 25.928 -0.000752223
2 90001 26.1038 0.000105871
3 90001 27.7616 -0.00121001
4 90001 27.7217 0.000190883
5 90001 29.6871 -0.00130371
6 90001 29.6198 0.00078614
7 90001 31.5068 -0.0233598
8 90001 31.422 -0.00588269
9 90001 26.0483 7.30802e-05
10 90001 26.208 -0.000285525
11 90001 27.8199 0.00128874
12 90001 27.8657 -0.000244464
13 90001 29.8084 -0.00118643
14 90001 29.6302 -0.0001458
15 90001 31.5983 -0.0104786
16 90001 31.4274 -0.00684938
17 90001 25.9358 -0.000521848
18 90001 26.1561 -3.25798e-05
19 90001 27.9615 -0.000777968
20 90001 27.8655 -0.000163304
21 90001 29.7223 -0.00127927
22 90001 29.7 -0.000717388
23 90001 31.3957 0.0262256
24 90001 31.3282 -0.00775841
25 90001 26.0226 -0.000302608
26 90001 26.0517 -0.0005662
27 90001 27.7705 -0.000365584
28 90001 27.8647 0.000108503
29 90001 29.6916 0.000864452
30 90001 29.5021 0.000542596
31 90001 31.4626 0.00122737
32 90001 31.3782 0.0194667
33 90001 25.8205 -1.0846e-05
34 90001 25.936 -0.00178105
35 90001 27.84 0.000183934
36 90001 27.815 -0.000252628
37 90001 29.6105 -0.000223109
38 90001 29.766 0.000454516
39 90001 31.5712 -5.04469e-05
40 90001 31.5031 -0.00246982
41 90001 25.9361 -0.000501496
42 90001 26.0884 -0.00159666
43 90001 27.9251 -0.000480674
44 90001 27.8785 0.000953726
45 90001 29.7971 0.000335019
46 90001 29.5876 0.000552197
47 90001 31.3514 0.00089766
48 90001 31.3814 -0.00182683
49 90001 26.0707 -0.000165454
50 90001 25.9193 -0.000373041
51 90001 27.8649 0.000600401
52 90001 27.8234 0.000380308
53 90001 29.5925 -3.0956e-05
54 90001 29.63 0.00015402
55 90001 31.2948 0.00170488
56 90001 31.3583 -0.0065709
57 90001 25.8814 -0.000515443
58 90001 25.9914 -0.000155446
59 90001 27.802 -0.000176195
60 90001 27.7495 -0.000496558
61 90001 29.7202 0.000223226
62 90001 29.6583 0.00587198
63 90001 31.4162 0.0219384
64 90001 31.4388 0.00123168
65 90001 26.075 0.000661022
66 90001 26.0237 -0.000135253
67 90001 27.6613 -0.000589448
68 90001 27.82 -0.000419963
69 90001 29.5906 0.00838106
70 90001 29.6264 0.00114132
71 90001 31.2735 0.0210606
72 90001 31.3875 0.0503374
73 90001 25.8988 -0.00107873
74 90001 26.0061 -0.000254256
75 90001 27.7161 0.000116513
76 90001 27.786 0.000502962
77 90001 29.64 0.000895724
78 90001 29.7258 -0.00185
79 90001 31.529 -0.0167203
80 90001 31.4446 0.00787377
81 90001 26.1455 -0.000523288
82 90001 26.0274 -0.00239144
83 90001 27.8438 -0.000121826
84 90001 27.7802 0.00017089
85 90001 29.633 0.00068318
86 90001 29.5431 0.00113256
87 90001 31.3391 0.00212972
88 90001 31.3732 0.00229879
89 90001 26.2344 -0.000910861
90 90001 26.1594 0.0005846
91 90001 27.8993 0.000174573
92 90001 27.8397 0.000123361
93 90001 29.6947 -0.000634674
94 90001 29.7122 -0.000339348
95 90001 31.4164 -0.0138948
96 90001 31.5896 0.0142667
97 90001 26.2274 -0.000747358
98 90001 26.0509 -0.000299804
99 90001 27.8918 0.0001427
100 90001 27.9989 -0.000718792
101 90001 29.6856 -0.00105335
102 90001 29.461 -8.27104e-05
103 90001 31.4314 0.00799243
104 90001 31.42 -0.0130388
105 90001 25.95 3.8901e-05
106 90001 26.0174 0.00011135
107 90001 27.8321 -0.000418782
108 90001 27.7177 -0.000304245
109 90001 29.6877 0.00250832
110 90001 29.5413 -0.00101163
111 90001 31.4709 -0.00930833
112 90001 31.4345 0.00941549
113 90001 26.0651 -0.0010712
114 90001 26.1288 -0.000338333
115 90001 27.9145 -0.000614741
116 90001 27.6866 -0.000642949
117 90001 29.7203 -0.000188462
118 90001 29.5189 -0.00024357
119 90001 31.554 0.000380898
120 90001 31.4515 0.00198274
121 90001 26.0311 -0.000609545
122 90001 25.9766 5.40207e-05
123 90001 27.6395 2.73347e-05
124 90001 27.7914 -0.000235224
125 90001 29.682 0.000321527
126 90001 29.487 0.000380422
127 90001 31.4015 -0.00899043
128 90001 31.4347 0.0186825
129 90001 25.8672 -0.000972515
130 90001 25.9588 -0.000217901
131 90001 27.6806 0.000674262
132 90001 27.6417 0.000322455
133 90001 29.5478 -0.00177827
134 90001 29.5985 -0.000868971
135 90001 31.4681 -0.00374352
136 90001 31.2686 -0.0200395
137 90001 25.904 -0.0004554
138 90001 26.082 -0.00080253
139 90001 27.8245 -0.000634534
140 90001 27.7367 0.000552144
141 90001 29.4877 0.000441372
142 90001 29.5203 -0.000185693
143 90001 31.4098 -0.0106832
144 90001 31.3433 0.00312715
145 90001 26.0756 -0.00075685
146 90001 25.9762 -0.000147446
147 90001 27.8208 0.000218815
148 90001 27.7889 -0.000155035
149 90001 29.5492 -0.0014536
150 90001 29.6313 -0.000962929
151 90001 31.4273 0.0301201
152 90001 31.3043 0.00498399
153 90001 25.8769 -0.000543271
154 90001 25.9343 -0.000533964
155 90001 27.724 0.000750129
156 90001 27.7332 -1.8078e-05
157 90001 29.8063 0.00373973
158 90001 29.5717 0.00510256
159 90001 31.3745 0.0441484
160 90001 31.4686 0.0239755
161 90001 25.9251 -5.8834e-05
162 90001 25.9217 -0.000337561
163 90001 27.6713 0.000405126
164 90001 27.7998 -0.000334089
165 90001 29.522 -0.000690367
166 90001 29.5885 -2.26071e-05
167 90001 31.4871 0.00420688
168 90001 31.163 -0.0157993
169 90001 26.0053 -0.000672167
170 90001 26.0573 -0.000532057
171 90001 27.8547 -0.000174353
172 90001 27.6611 -0.000433867
173 90001 29.6189 -0.000328411
174 90001 29.4363 0.000242645
175 90001 31.3551 -0.00312482
176 90001 31.3994 -0.00131725
177 90001 26.0138 0.000219043
178 90001 26.0197 -0.000228692
179 90001 27.7498 0.0010393
180 90001 27.7836 -0.000248649
181 90001 29.5344 0.000108298
182 90001 29.526 -0.00121556
183 90001 31.2826 0.000660691
184 90001 31.3901 -0.0194744
185 90001 25.9621 -0.000659128
186 90001 25.8624 -0.000449184
187 90001 27.7924 -0.000374309
188 90001 27.7388 0.000560946
189 90001 29.5386 -0.000107524
190 90001 29.6285 0.000459575
191 90001 31.5026 0.0243739
192 90001 31.4143 0.0131644
193 90001 25.9437 -9.36981e-05
194 90001 25.9151 -0.000684098
195 90001 27.6546 -0.000784377
196 90001 27.7452 -0.000359918
197 90001 29.6518 -0.000482053
198 90001 29.6305 0.000905448
199 90001 31.4526 0.0180921
200 90001 31.4748 0.022425
201 90001 26.0641 -0.000576736
202 90001 25.9977 -0.000396307
203 90001 27.8076 0.000404374
204 90001 27.9394 -0.000247377
205 90001 29.5845 0.00114045
206 90001 29.653 0.000704374
207 90001 31.2212 -0.000596852
208 90001 31.3515 0.00979756
209 90001 26.0234 -0.000532922
210 90001 25.9878 8.17498e-06
211 90001 27.7031 0.00108882
212 90001 27.8219 -0.000825872
213 90001 29.4851 9.5127e-05
214 90001 29.5414 -0.000882602
215 90001 31.4673 -0.00265996
216 90001 31.4218 0.00534228
217 90001 25.9842 -0.00135765
218 90001 26.0273 -0.000389386
219 90001 27.6501 0.000302558
220 90001 27.7962 0.000298857
221 90001 29.6079 -0.000808938
222 90001 29.6226 -3.05127e-06
223 90001 31.3106 0.00448852
224 90001 31.357 -0.00423703
225 90001 25.9199 -0.00051037
226 90001 26.0035 -1.0444e-07
227 90001 27.752 -0.000454755
228 90001 27.8118 -0.000162884
229 90001 29.6036 0.00107259
230 90001 29.7411 -0.00302688
231 90001 31.4661 0.00546467
232 90001 31.3918 0.0220398
233 90001 25.7651 -0.000431262
234 90001 25.8309 -0.000725291
235 90001 27.6847 0.000913483
236 90001 27.7889 -0.000173145
237 90001 29.6241 -0.00191692
238 90001 29.4895 -4.31366e-05
239 90001 31.3584 -0.0183432
240 90001 31.4807 -0.0276126
241 90001 26.0429 -0.000879943
242 90001 25.9516 -0.000152046
243 90001 27.6851 -0.000293131
244 90001 27.928 -0.00034517
245 90001 29.4713 0.000657299
246 90001 29.6134 -0.00123968
247 90001 31.4216 -0.0167302
248 90001 31.4373 -0.0355843
249 90001 26.0417 0.000182676
250 90001 25.994 0.000258488
251 90001 27.7017 -0.000402572
252 90001 27.7092 -0.000262941
253 90001 29.5332 -0.000425101
254 90001 29.6706 -0.00171884
255 90001 31.3501 -0.00940879
256 90001 31.4723 -0.0102391
257 90001 25.9874 -0.000972463
258 90001 25.9991 -0.000982603
259 90001 27.8211 -0.000271382
260 90001 27.8326 0.000581791
261 90001 29.5001 -0.000930237
262 90001 29.535 -0.000823996
263 90001 31.4907 -0.0359689
264 90001 31.3696 -0.0212013
265 90001 25.9687 -0.000467497
266 90001 26.0818 -0.000686287
267 90001 27.7357 -0.000313373
268 90001 27.8047 0.00116236
269 90001 29.5972 0.000237492
270 90001 29.6353 0.000331071
271 90001 31.3565 0.0106108
272 90001 31.3825 -0.0109083
273 90001 25.9792 -0.000428338
274 90001 26.168 -0.000280104
275 90001 27.8361 3.76705e-05
276 90001 27.8374 -0.000167508
277 90001 29.6206 0.00154811
278 90001 29.5587 -0.000982138
279 90001 31.6 0.0029552
280 90001 31.3247 0.00231323
281 90001 25.9909 -0.000963513
282 90001 25.9951 -0.0003859
283 90001 27.7384 0.000115439
284 90001 27.7584 -0.00010082
285 90001 29.7208 -0.000363732
286 90001 29.5814 0.00105887
287 90001 31.4122 -0.000730055
288 90001 31.3776 -0.0199068
289 90001 25.8266 -0.00043111
290 90001 25.9838 0.000288656
291 90001 27.8074 -0.00060962
292 90001 27.7921 -2.0128e-06
293 90001 29.7433 -0.00040186
294 90001 29.5349 0.000807364
295 90001 31.3947 -0.00450215
296 90001 31.4027 0.00798439
297 90001 26.0005 0.00143003
298 90001 26.0235 -0.000884504
299 90001 27.881 0.000141055
300 90001 27.6069 -0.00022937
301 90001 29.6517 -0.000897088
302 90001 29.6943 -0.00266842
303 90001 31.4313 -0.0219019
304 90001 31.4251 0.0036842
305 90001 25.9953 -0.000677113
306 90001 25.9367 -0.00102166
307 90001 27.8261 6.73712e-05
308 90001 27.7962 0.000485958
309 90001 29.7069 -0.00161039
310 90001 29.6835 -0.00261494
311 90001 31.4857 -0.0249157
312 90001 31.4506 -0.0422846
313 90001 26.0063 -9.7829e-05
314 90001 26.0451 -0.000201039
315 90001 27.8053 -0.000682708
316 90001 27.8953 -0.000565268
317 90001 29.6527 -0.000515754
318 90001 29.7804 0.000602164
319 90001 31.5156 -0.0169794
320 90001 31.5121 -0.0177243
321 90001 26.06 -0.000780252
322 90001 25.9881 -0.00146697
323 90001 27.8223 -0.000112781
324 90001 27.9844 0.000146302
325 90001 29.5988 -0.00546419
326 90001 29.5627 -0.00195573
327 90001 31.4376 -0.0329902
328 90001 31.4469 -0.0200045
329 90001 26.0364 -0.000486079
330 90001 25.9925 -0.00133901
331 90001 27.8177 0.000925152
332 90001 27.833 4.01445e-06
333 90001 29.7595 -0.000308887
334 90001 29.5742 0.00417084
335 90001 31.5999 0.0136209
336 90001 31.5198 -0.0090187
337 90001 25.9065 -0.000719823
338 90001 25.9365 -0.00123377
339 90001 27.7157 0.000478384
340 90001 27.7381 3.88678e-05
341 90001 29.8041 -6.79958e-05
342 90001 29.666 -0.00202856
343 90001 31.4879 -0.0261502
344 90001 31.5636 -0.013352
345 90001 25.9906 -0.000261591
346 90001 25.9377 -0.000981114
347 90001 27.7843 0.000602537
348 90001 27.7361 0.000846464
349 90001 29.5456 -0.00174257
350 90001 29.5785 -0.00193871
351 90001 31.3544 -0.0284983
352 90001 31.3192 -0.0519917
353 90001 26.007 -0.000242414
354 90001 25.9936 -0.00153976
355 90001 27.7945 0.000564637
356 90001 27.7112 0.000113219
357 90001 29.4762 -0.000333336
358 90001 29.655 4.03917e-05
359 90001 31.4172 -0.0198071
360 90001 31.2981 -0.0159183
361 90001 25.995 -0.00081112
362 90001 25.9988 -0.000736939
363 90001 27.7439 0.000241683
364 90001 27.7935 -0.000270347
365 90001 29.6798 -0.00168941
366 90001 29.6072 -0.0013528
367 90001 31.4463 -0.00414714
368 90001 31.4099 -0.0169346
369 90001 26.1287 -0.00055467
370 90001 25.9174 -0.000134877
371 90001 27.8598 -0.000845126
372 90001 27.7912 -0.000641503
373 90001 29.5295 0.00111537
374 90001 29.5608 0.000419326
375 90001 31.3846 0.0610156
376 90001 31.307 0.0145277
377 90001 26.0139 -0.000264319
378 90001 26.1074 -0.0011069
379 90001 27.8006 0.000374227
380 90001 27.7835 -0.00068067
381 90001 29.5879 0.000400284
382 90001 29.6114 0.00139989
383 90001 31.3634 0.00710051
384 90001 31.3724 0.0288831
385 90001 25.9988 -0.000698954
386 90001 25.9841 -0.000808089
387 90001 27.7863 0.00106227
388 90001 27.7568 0.000329783
389 90001 29.6801 -0.000650236
390 90001 29.6229 5.54645e-06
391 90001 31.4722 -0.0211151
392 90001 31.5449 0.0101177
393 90001 26.0591 -0.000273005
394 90001 25.9655 -0.000209552
395 90001 27.7797 -0.000590433
396 90001 27.8025 -0.000303991
397 90001 29.6045 0.000339109
398 90001 29.6251 2.87406e-05
399 90001 31.4652 -0.0306115
400 90001 31.2601 -0.0072587
401 90001 26.0016 -0.000214915
402 90001 26.0071 0.000433746
403 90001 27.7594 0.000432217
404 90001 27.7044 3.4002e-05
405 90001 29.6473 -0.00098531
406 90001 29.6839 0.000591264
407 90001 31.7094 -0.00152144
408 90001 31.4561 0.0113725
409 90001 26.0499 -0.000715266
410 90001 25.9348 8.13834e-05
411 90001 27.8043 0.000372138
412 90001 27.8894 -0.000383903
413 90001 29.6478 -0.00147138
414 90001 29.6532 -0.0029954
415 90001 31.3935 -0.00962228
416 90001 31.593 -0.00639058
417 90001 26.1128 -0.000330697
418 90001 26.0408 -0.000141179
419 90001 27.8493 0.000372355
420 90001 27.6991 0.000107902
421 90001 29.5893 0.000312326
422 90001 29.6495 0.00045449
423 90001 31.4252 -0.0350117
424 90001 31.4266 -0.0113028
425 90001 25.9903 -0.0010853
426 90001 25.9234 -0.00150427
427 90001 27.7566 0.000873856
428 90001 27.8231 0.000782601
429 90001 29.6157 -0.00279337
430 90001 29.554 -0.00182015
431 90001 31.4947 -0.0303738
432 90001 31.3506 -0.0121881
433 90001 25.901 -0.0012534
434 90001 26.0121 7.58406e-05
435 90001 27.8601 0.000471938
436 90001 27.7817 0.000945773
437 90001 29.5605 -0.000541975
438 90001 29.6449 0.000543519
439 90001 31.4071 0.00819995
440 90001 31.4458 -0.00396428
441 90001 26.0841 -0.000553492
442 90001 26.2313 -0.00129418
443 90001 27.7946 0.000722522
444 90001 27.9235 8.48284e-05
445 90001 29.5802 -0.00055483
446 90001 29.7247 0.000666653
447 90001 31.3996 0.00363136
448 90001 31.4881 0.00244068
449 90001 26.0147 -0.000845589
450 90001 25.9359 -0.00158201
451 90001 27.7344 0.000311501
452 90001 27.8352 0.000304426
453 90001 29.5133 0.000196076
454 90001 29.6848 -4.34155e-05
455 90001 31.3393 0.0117075
456 90001 31.6015 0.00759849
457 90001 25.9876 -0.00183921
458 90001 25.9934 -0.00117696
459 90001 27.847 -0.000350933
460 90001 27.8019 0.00021058
461 90001 29.557 -0.000632946
462 90001 29.6224 -0.00175111
463 90001 31.3217 0.00326508
464 90001 31.4598 -0.00813375
465 90001 25.8173 -0.000958112
466 90001 25.9318 0.000136576
467 90001 27.7256 7.92544e-05
468 90001 27.742 0.000264457
469 90001 29.6199 0.000958235
470 90001 29.6228 0.000237883
471 90001 31.3252 0.00407226
472 90001 31.4283 0.010361
473 90001 25.9178 -0.000291631
474 90001 25.9395 -0.000467903
475 90001 27.7108 -0.000161155
476 90001 27.6612 -9.77018e-05
477 90001 29.4808 0.000334683
478 90001 29.5019 0.000273348
479 90001 31.5015 -0.000875046
480 90001 31.5089 -0.00265207
481 90001 26.1043 -0.000111953
482 90001 26.0351 0.00027333
483 90001 27.8663 -0.000786089
484 90001 27.7779 -0.000834691
485 90001 29.5106 0.000733289
486 90001 29.6262 0.000902109
487 90001 31.4404 0.0136089
488 90001 31.365 0.0254591
489 90001 26.1113 -0.00023895
490 90001 25.984 -0.000652648
491 90001 27.9212 -9.09106e-05
492 90001 27.8478 -0.000436305
493 90001 29.6537 -0.000266335
494 90001 29.5932 -0.00109743
495 90001 31.4184 -0.0410955
496 90001 31.504 -0.0104581
497 90001 26.0138 -0.000705851
498 90001 26.0764 -0.000764302
499 90001 27.9438 0.000101948
500 90001 27.8298 2.03837e-05
501 90001 29.5988 -0.000592161
502 90001 29.5435 0.000202436
503 90001 31.3884 -0.00816469
504 90001 31.2102 -0.0155896
505 90001 26.1892 -6.12171e-05
506 90001 26.1501 -0.000765495
507 90001 27.7776 -0.000155738
508 90001 27.7443 -0.000577144
509 90001 29.616 -0.0019948
510 90001 29.5344 0.000464309
511 90001 31.3955 -0.0245512
512 90001 31.2932 -0.0189057
513 90001 25.9742 -0.000377494
514 90001 26.1194 -0.000210059
515 90001 27.8691 0.000380855
516 90001 27.8833 -0.00031193
517 90001 29.4871 -6.72717e-05
518 90001 29.5674 -0.000916486
519 90001 31.3928 0.000683083
520 90001 31.3156 0.00909657
521 90001 26.2243 -0.00012965
522 90001 26.1031 -0.000462259
523 90001 27.9057 0.000558627
524 90001 27.8257 -0.000125967
525 90001 29.5989 -0.00178121
526 90001 29.5961 -0.000371929
527 90001 31.3796 -0.00290355
528 90001 31.4727 -0.00343441
529 90001 26.0104 -0.0010038
530 90001 25.9168 -0.00103534
531 90001 27.8383 0.00101476
532 90001 27.8132 0.000175697
533 90001 29.7307 -2.1296e-06
534 90001 29.6309 0.000696587
535 90001 31.3652 0.0136365
536 90001 31.4515 0.070481
537 90001 26.2139 -0.000493361
538 90001 26.0767 -0.000385587
539 90001 27.8703 -0.000456673
540 90001 27.8003 -0.000419072
541 90001 29.4895 -0.000538444
542 90001 29.5731 -0.00154112
543 90001 31.4507 0.00204744
544 90001 31.2976 -0.0173036
545 90001 25.9062 0.000115149
546 90001 25.9486 -0.00031891
547 90001 27.7014 2.07832e-05
548 90001 27.7071 0.000164328
549 90001 29.6016 -2.37742e-05
550 90001 29.5655 0.000594908
551 90001 31.4975 0.034063
552 90001 31.3867 -0.0202324
553 90001 25.9475 -0.000265291
554 90001 25.8676 -0.00158486
555 90001 27.8014 1.13342e-05
556 90001 27.7948 -0.000340703
557 90001 29.6252 0.000103971
558 90001 29.6359 -0.000903625
559 90001 31.311 -0.00482114
560 90001 31.4244 0.00486298
561 90001 25.9636 -0.000133357
562 90001 25.9948 -0.000808533
563 90001 27.9737 -0.000814159
564 90001 27.8034 0.00037178
565 90001 29.5824 0.0020419
566 90001 29.5555 -0.000282164
567 90001 31.3403 0.00293639
568 90001 31.3189 0.00305831
569 90001 26.0612 -0.000509267
570 90001 26.1271 0.000510801
571 90001 27.7377 -0.000141001
572 90001 27.7353 -0.000507786
573 90001 29.7417 0.000259636
574 90001 29.5477 0.00151881
575 90001 31.3735 -0.0140079
576 90001 31.4243 -0.0105123
577 90001 26.0106 -0.00080524
578 90001 26.0449 -0.000506371
579 90001 27.8347 0.000269097
580 90001 27.7013 -0.000582984
581 90001 29.5901 0.00119492
582 90001 29.7501 -0.000602813
583 90001 31.392 -0.0110212
584 90001 31.5339 0.0133511
585 90001 26.1474 -0.000740892
586 90001 26.1764 -0.000595775
587 90001 27.8866 -6.00223e-05
588 90001 27.9327 -0.000448623
589 90001 29.5838 -0.000571874
590 90001 29.6042 -0.000120923
591 90001 31.3388 -0.00360871
592 90001 31.5152 0.0051698
593 90001 26.2165 -0.000144997
594 90001 25.9638 -0.000117859
595 90001 27.7875 -0.000610135
596 90001 27.7487 -4.66701e-05
597 90001 29.6032 -0.000779424
598 90001 29.7024 -0.00104818
599 90001 31.426 0.0020299
600 90001 31.5051 0.0346937
601 90001 26.1201 -0.000353091
602 90001 26.0603 -6.53094e-05
603 90001 27.7545 -0.000549123
604 90001 27.8638 -0.000979314
605 90001 29.5411 0.000671122
606 90001 29.7067 0.00797868
607 90001 31.5162 0.0410275
608 90001 31.4481 0.0126493
609 90001 26.0305 -0.00034378
610 90001 25.9726 -0.000741212
611 90001 27.7858 0.00151146
612 90001 27.9417 -0.00014697
613 90001 29.6227 0.00288442
614 90001 29.5691 -0.00105324
615 90001 31.3509 0.00686816
616 90001 31.4578 0.037896
617 90001 26.0739 -0.00101504
618 90001 25.9978 -0.000606484
619 90001 27.8045 0.000106275
620 90001 27.8493 0.000579791
621 90001 29.5287 -0.0012394
622 90001 29.6229 6.10508e-05
623 90001 31.3544 -0.0306156
624 90001 31.4622 0.00227646
625 90001 26.0265 -0.000576565
626 90001 26.1105 -0.000755068
627 90001 27.8661 0.001645
628 90001 27.852 0.00038297
629 90001 29.5253 -0.00332372
630 90001 29.731 -0.00213099
631 90001 31.5105 -0.0320527
632 90001 31.4829 0.0183511
633 90001 25.9924 -0.00183953
634 90001 26.0539 -0.000704153
635 90001 27.9058 0.000363549
636 90001 27.8795 0.000381245
637 90001 29.6414 -0.00161507
638 90001 29.7629 -1.76872e-05
639 90001 31.5103 0.0319219
640 90001 31.3909 -0.00885706
641 90001 26.0161 -0.000742125
642 90001 25.9521 -0.000123492
643 90001 27.6312 0.000430476
644 90001 27.8243 0.000259331
645 90001 29.6208 -0.0020372
646 90001 29.6608 -0.00117933
647 90001 31.4313 -0.0151535
648 90001 31.3622 -0.00258683
649 90001 25.9317 -0.000367063
650 90001 26.0539 -0.000699156
651 90001 27.7142 -0.00037167
652 90001 27.8249 0.000425661
653 90001 29.6443 -0.000156584
654 90001 29.5881 -0.000679374
655 90001 31.5119 0.0449169
656 90001 31.411 -0.00949137
657 90001 25.9066 0.000392485
658 90001 26.0339 -0.000551969
659 90001 27.8796 0.000323194
660 90001 27.7279 0.00016582
661 90001 29.6865 0.00197727
662 90001 29.7279 0.00026759
663 90001 31.5252 0.0265665
664 90001 31.5144 0.0169797
665 90001 26.3218 -0.00171219
666 90001 26.1689 -0.0011259
667 90001 27.9988 0.000207412
668 90001 27.9551 0.000778134
669 90001 29.7884 0.000816801
670 90001 29.7337 0.000368951
671 90001 31.3734 0.0297531
672 90001 31.5173 0.0338717
673 90001 26.0268 -0.000569599
674 90001 26.0645 1.84354e-05
675 90001 27.7958 -0.00103481
676 90001 27.8886 -0.000405787
677 90001 29.6733 0.00460808
678 90001 29.6971 0.00149732
679 90001 31.534 0.0588206
680 90001 31.4721 0.0611233
681 90001 26.0012 -9.59713e-05
682 90001 26.0435 -0.000229198
683 90001 27.8243 -0.000353631
684 90001 27.7566 0.000125
685 90001 29.6434 -0.00120455
686 90001 29.67 -6.5916e-05
687 90001 31.3096 0.0726145
688 90001 31.4446 0.0186908
689 90001 26.1831 -0.000633143
690 90001 26.2324 -0.000188135
691 90001 27.8933 -0.000536398
692 90001 27.8359 -0.000115537
693 90001 29.6355 0.00362863
694 90001 29.4768 0.000407372
695 90001 31.4058 0.0139257
696 90001 31.3037 0.023742
697 90001 25.962 -0.000534193
698 90001 26.1438 9.18124e-05
699 90001 27.7164 -0.000217724
700 90001 27.7201 0.000371832
701 90001 29.7126 0.000207541
702 90001 29.5472 -0.00361613
703 90001 31.3371 -0.00123666
704 90001 31.3802 -0.0074877
705 90001 25.9774 -0.000128198
706 90001 25.9816 -5.76702e-05
707 90001 27.9124 -0.000117545
708 90001 27.9213 -0.000223831
709 90001 29.6886 -0.00353083
710 90001 29.5896 0.000951841
711 90001 31.5199 -0.00852012
712 90001 31.3986 -0.0280175
713 90001 26.0825 -0.000359786
714 90001 26.1205 -0.000710614
715 90001 27.8508 0.000286551
716 90001 27.9563 -0.000203079
717 90001 29.7391 0.000453124
718 90001 29.556 0.00120644
719 90001 31.4018 -0.00386633
720 90001 31.2314 0.00486005
721 90001 25.9988 -0.000988554
722 90001 25.9364 -0.000486985
723 90001 27.8682 0.00017905
724 90001 27.7222 -0.000543361
725 90001 29.6982 0.000320612
726 90001 29.6462 -9.0581e-05
727 90001 31.4695 -0.00902355
728 90001 31.3323 -0.0290427
729 90001 25.9987 -0.000455363
730 90001 26.1164 -0.00101845
731 90001 27.826 0.000664842
732 90001 27.8031 0.00048573
733 90001 29.5913 -0.00143931
734 90001 29.6235 -0.000540763
735 90001 31.5422 -0.0201618
736 90001 31.4965 -0.0255748
737 90001 26.2322 -0.000915211
738 90001 26.2039 0.000322577
739 90001 27.8109 0.000293023
740 90001 27.9445 0.000535341
741 90001 29.6325 -0.000566427
742 90001 29.6275 0.000404722
743 90001 31.3917 0.0113957
744 90001 31.3543 -0.00193777
745 90001 25.9124 -0.000733864
746 90001 26.0222 -0.000744032
747 90001 27.734 0.000208137
748 90001 27.8207 -0.000500839
749 90001 29.7124 -0.00108768
750 90001 29.6015 -0.000896649
751 90001 31.5224 -0.00879587
752 90001 31.3525 0.0110315
753 90001 26.015 0.000262897
754 90001 26.0063 5.22295e-05
755 90001 27.857 -0.00101648
756 90001 27.7707 -0.000765608
757 90001 29.6326 -0.000194497
758 90001 29.7076 0.00073851
759 90001 31.4636 0.0532516
760 90001 31.4512 0.000626114
761 90001 26.0366 -0.000169548
762 90001 25.9636 -0.000659504
763 90001 27.8971 0.00034003
764 90001 27.8943 -0.000444435
765 90001 29.7233 -0.000226262
766 90001 29.6263 -0.000213758
767 90001 31.249 0.00453537
768 90001 31.3372 0.00740271
769 90001 25.9527 -0.000667494
770 90001 25.9413 -0.00114236
771 90001 27.852 -8.12241e-05
772 90001 27.8538 -0.000270114
773 90001 29.5093 -0.00014252
774 90001 29.444 -0.0011624
775 90001 31.1304 0.00359314
776 90001 31.3081 0.00874526
777 90001 26.0995 -0.000855737
778 90001 25.9718 -0.000414992
779 90001 27.8127 -0.000710984
780 90001 27.6727 -0.000166393
781 90001 29.4581 -0.00207217
782 90001 29.6233 -0.00178705
783 90001 31.3186 -0.0153595
784 90001 31.318 -0.00513131
785 90001 26.0029 -0.000182644
786 90001 25.968 0.000211827
787 90001 27.8104 -0.000241736
788 90001 27.8015 -0.00140117
789 90001 29.5184 -0.000467173
790 90001 29.4919 0.000163712
791 90001 31.3038 0.000930665
792 90001 31.3449 -0.022376
793 90001 26.0489 0.000117488
794 90001 25.9085 -0.00115581
795 90001 27.785 0.000615425
796 90001 27.7078 3.88843e-06
797 90001 29.4768 -7.11444e-05
798 90001 29.5789 -0.00110761
799 90001 31.3378 0.00865704
800 90001 31.489 0.00600043
801 90002 132.266 0.00033236
802 90002 132.179 0.000547711
803 90002 130.554 0.000162631
804 90002 130.519 -1.54795e-07
805 90002 128.791 0.00115646
806 90002 128.628 0.000530709
807 90002 127.012 0.022672
808 90002 126.836 0.00887183
809 90002 132.296 0.000576735
810 90002 132.432 0.000320069
811 90002 130.547 0.000524854
812 90002 130.614 -0.000186983
813 90002 128.809 -9.0822e-05
814 90002 128.822 -0.000300896
815 90002 127.008 -0.00220002
816 90002 126.861 0.00863775
817 90002 132.353 0.000180778
818 90002 132.438 0.000578359
819 90002 130.676 -0.000636834
820 90002 130.721 0.000268286
821 90002 128.812 -0.000720949
822 90002 128.753 -0.00400109
823 90002 126.775 -0.0222214
824 90002 126.923 -0.0239987
825 90002 132.26 0.000181581
826 90002 132.244 -3.56773e-05
827 90002 130.329 0.000910365
828 90002 130.605 -0.000140724
829 90002 128.615 -0.00582338
830 90002 128.696 -0.00031978
831 90002 126.903 -0.036431
832 90002 126.855 -0.047427
833 90002 132.293 -0.00050376
834 90002 132.213 -6.82708e-05
835 90002 130.509 -0.000117699
836 90002 130.509 0.000812736
837 90002 128.718 0.000634204
838 90002 128.795 -0.00115302
839 90002 126.88 -0.00132045
840 90002 127.007 -0.00243173
841 90002 132.177 -0.000160776
842 90002 132.356 0.000707267
843 90002 130.518 -0.000158049
844 90002 130.609 0.00020248
845 90002 128.809 -0.00201348
846 90002 128.721 -0.000227612
847 90002 126.965 0.0159521
848 90002 127.004 -0.0256954
849 90002 132.277 -0.000431253
850 90002 132.289 0.000617205
851 90002 130.543 -0.000298815
852 90002 130.65 0.00043015
853 90002 128.746 0.00195164
854 90002 128.663 -0.0032102
855 90002 126.979 -0.0114184
856 90002 126.938 0.00193031
857 90002 132.525 0.000705064
858 90002 132.233 0.000642456
859 90002 130.554 -0.00019074
860 90002 130.575 -0.000175182
861 90002 128.745 -0.00122591
862 90002 128.716 -0.000201932
863 90002 126.878 -0.0356801
864 90002 126.877 -0.017321
865 90002 132.478 0.000541147
866 90002 132.176 -0.00015448
867 90002 130.548 0.000776314
868 90002 130.561 0.000169156
869 90002 128.711 6.68438e-05
870 90002 128.667 -0.00042318
871 90002 126.925 -0.025516
872 90002 126.86 -0.037384
873 90002 132.551 0.000219064
874 90002 132.429 0.00103601
875 90002 130.563 0.000476904
876 90002 130.674 0.000145589
877 90002 128.72 -0.00615152
878 90002 128.647 -0.000745969
879 90002 127.017 -0.0122706
880 90002 126.885 0.0103985
881 90002 132.409 0.00139036
882 90002 132.327 0.000241792
883 90002 130.569 -0.000224604
884 90002 130.557 0.000230572
885 90002 128.781 -0.000877848
886 90002 128.763 -0.000118473
887 90002 126.899 -0.00140056
888 90002 126.976 -0.00802837
889 90002 132.376 0.00102507
890 90002 132.544 0.000810241
891 90002 130.578 -0.00065303
892 90002 130.564 -0.000240376
893 90002 128.798 0.000159087
894 90002 128.702 0.00194858
895 90002 126.876 0.00955452
896 90002 126.969 0.00631496
897 90002 132.497 0.000126556
898 90002 132.262 0.000379038
899 90002 130.569 0.000325854
900 90002 130.543 -0.000410594
901 90002 128.741 0.00096765
902 90002 128.746 -7.38796e-05
903 90002 126.974 -0.0103039
904 90002 126.915 0.0149569
905 90002 132.427 0.000742839
906 90002 132.249 0.000724467
907 90002 130.53 -5.73162e-05
908 90002 130.65 0.000560606
909 90002 128.737 -0.000903408
910 90002 128.851 0.00210418
911 90002 127.11 0.00207747
912 90002 126.885 0.0170435
913 90002 132.294 0.00122733
914 90002 132.503 5.83095e-05
915 90002 130.615 0.00100129
916 90002 130.626 -0.000427894
917 90002 128.838 -0.000160652
918 90002 128.81 -0.00134953
919 90002 126.962 -0.0333087
920 90002 126.989 -0.00788123
921 90002 132.224 0.000223711
922 90002 132.304 0.000379201
923 90002 130.665 -0.000156844
924 90002 130.552 0.000260994
925 90002 128.834 -0.00375128
926 90002 128.862 7.67299e-05
927 90002 126.904 -0.00734936
928 90002 127.146 -0.0305089
929 90002 132.604 0.00139956
930 90002 132.42 0.000994615
931 90002 130.443 -0.000135853
932 90002 130.614 0.000134409
933 90002 128.796 -0.000352366
934 90002 128.727 0.00107156
935 90002 127.009 0.017259
936 90002 126.939 -0.00613291
937 90002 132.213 0.000867438
938 90002 132.167 -0.000630063
939 90002 130.522 0.000160654
940 90002 130.564 0.000982805
941 90002 128.672 0.00105566
942 90002 128.731 -0.000234476
943 90002 126.972 -0.0127672
944 90002 126.892 0.00883681
945 90002 132.211 0.00040174
946 90002 132.302 8.72361e-05
947 90002 130.49 0.000457644
948 90002 130.476 0.000204267
949 90002 128.631 -0.00227519
950 90002 128.704 -0.00218761
951 90002 126.804 -0.0162281
952 90002 126.93 -0.00881137
953 90002 132.421 -0.000112814
954 90002 132.261 0.000412067
955 90002 130.542 -0.000203195
956 90002 130.515 0.000384962
957 90002 128.66 -0.000959839
958 90002 128.876 -0.00036677
959 90002 126.865 -0.000702986
960 90002 127.012 -0.000685025
961 90002 132.3 0.000490913
962 90002 132.423 0.000759393
963 90002 130.674 0.000282925
964 90002 130.523 7.08243e-06
965 90002 128.741 -0.00136982
966 90002 128.667 -0.00321999
967 90002 126.869 -0.00626653
968 90002 126.854 -0.0059722
969 90002 132.278 0.000586768
970 90002 132.316 0.00118442
971 90002 130.603 -0.000146887
972 90002 130.423 -0.000781392
973 90002 128.631 0.000478892
974 90002 128.802 -0.00129358
975 90002 126.824 0.0137589
976 90002 126.993 0.0124602
977 90002 132.314 -7.65413e-05
978 90002 132.403 -0.000866653
979 90002 130.633 -5.9081e-06
980 90002 130.579 -0.000419111
981 90002 128.723 0.000608824
982 90002 128.679 5.75118e-05
983 90002 126.956 0.0364284
984 90002 126.953 0.0233651
985 90002 132.478 0.000904451
986 90002 132.179 0.000996211
987 90002 130.476 0.000510265
988 90002 130.559 0.000454823
989 90002 128.665 -0.00227606
990 90002 128.822 -0.0018077
991 90002 127.037 0.0165757
992 90002 126.93 0.00478025
993 90002 132.287 -0.000191437
994 90002 132.232 0.000165369
995 90002 130.587 -0.000342066
996 90002 130.338 -0.000406894
997 90002 128.782 9.62885e-05
998 90002 128.727 -0.000979631
999 90002 127.073 -0.0297931
1000 90002 127.044 -0.013034
1001 90002 132.374 -0.000283629
1002 90002 132.533 6.00462e-05
1003 90002 130.557 0.000437769
1004 90002 130.526 -0.000453709
1005 90002 128.768 0.00213845
1006 90002 128.751 0.000217827
1007 90002 127.032 -0.016369
1008 90002 127.006 -0.0102696
1009 90002 132.272 0.000333065
1010 90002 132.356 0.000528209
1011 90002 130.504 4.40345e-05
1012 90002 130.557 -5.25766e-05
1013 90002 128.679 -0.00269069
1014 90002 128.582 -0.00257682
1015 90002 126.842 -0.0527963
1016 90002 126.812 -0.0308055
1017 90002 132.218 -0.000225932
1018 90002 132.256 0.000352605
1019 90002 130.534 0.000719094
1020 90002 130.464 -0.000338177
1021 90002 128.643 -0.000498152
1022 90002 128.799 0.00138535
1023 90002 126.93 -0.00772488
1024 90002 126.911 -0.0395905
1025 90002 132.108 -0.000526294
1026 90002 132.172 -0.000755867
1027 90002 130.362 -8.12443e-05
1028 90002 130.434 0.000134146
1029 90002 128.738 0.000773486
1030 90002 128.651 -0.000217165
1031 90002 126.988 -0.00550853
1032 90002 126.934 0.00446783
1033 90002 132.274 0.000845032
1034 90002 132.392 0.000373108
1035 90002 130.59 0.000525489
1036 90002 130.496 -0.00105469
1037 90002 128.673 -0.000498486
1038 90002 128.651 -0.000959588
1039 90002 127.058 -0.0026782
1040 90002 126.829 -0.0163031
1041 90002 132.373 0.000709105
1042 90002 132.371 0.000929638
1043 90002 130.51 -4.20026e-05
1044 90002 130.598 -0.000269985
1045 90002 128.709 -0.000826488
1046 90002 128.716 0.00201438
1047 90002 126.945 0.000582996
1048 90002 126.684 -0.00974074
1049 90002 132.093 -0.000229189
1050 90002 132.304 0.000432812
1051 90002 130.573 0.000331163
1052 90002 130.539 -0.000651333
1053 90002 128.792 0.000253603
1054 90002 128.736 -0.000251252
1055 90002 126.911 -0.00666128
1056 90002 126.979 0.0097017
1057 90002 132.332 0.000504572
1058 90002 132.307 -0.000955107
1059 90002 130.492 0.000478174
1060 90002 130.512 0.000925968
1061 90002 128.734 -0.00015906
1062 90002 128.68 -0.000705606
1063 90002 126.96 0.0164846
1064 90002 126.856 -0.00898753
1065 90002 132.241 -7.64824e-05
1066 90002 132.13 0.00151253
1067 90002 130.494 0.00014028
1068 90002 130.438 0.000591418
1069 90002 128.745 0.00063664
1070 90002 128.669 -0.000829526
1071 90002 126.833 0.0130797
1072 90002 126.98 0.0270297
1073 90002 132.279 0.00108991
1074 90002 132.284 -8.93575e-05
1075 90002 130.526 -8.32983e-05
1076 90002 130.445 4.74763e-05
1077 90002 128.705 -0.000969657
1078 90002 128.668 -0.00245601
1079 90002 126.935 -0.0221497
1080 90002 126.993 0.00286571
1081 90002 132.349 0.00140992
1082 90002 132.421 0.000994423
1083 90002 130.507 -0.000529745
1084 90002 130.504 -0.00031947
1085 90002 128.764 -0.000985506
1086 90002 128.693 -0.00118449
1087 90002 126.749 -0.0246661
1088 90002 126.661 0.0146938
1089 90002 132.346 0.000426548
1090 90002 132.312 -9.32639e-05
1091 90002 130.503 0.00134398
1092 90002 130.547 0.000935526
1093 90002 128.524 -0.00498299
1094 90002 128.76 -0.00452594
1095 90002 126.85 -0.0484915
1096 90002 126.937 -0.0422218
1097 90002 132.19 -0.000133785
1098 90002 132.287 0.000137661
1099 90002 130.408 0.00165717
1100 90002 130.497 0.000363499
1101 90002 128.762 -0.00561615
1102 90002 128.575 -0.00464006
1103 90002 126.884 -0.024846
1104 90002 126.963 -0.0666108
1105 90002 132.352 0.000408641
1106 90002 132.331 0.000528179
1107 90002 130.421 -0.00105461
1108 90002 130.424 9.56932e-05
1109 90002 128.595 -0.0040295
1110 90002 128.685 -0.000857887
1111 90002 126.786 -0.0270449
1112 90002 126.752 -0.0526016
1113 90002 132.365 0.00101399
1114 90002 132.441 0.00127627
1115 90002 130.537 -0.000357414
1116 90002 130.456 0.000308804
1117 90002 128.599 0.00221674
1118 90002 128.69 -0.00040007
1119 90002 126.908 -0.00550499
1120 90002 126.966 -0.00326627
1121 90002 132.285 0.00109847
1122 90002 132.197 0.000386324
1123 90002 130.474 -0.000839985
1124 90002 130.407 -0.000375048
1125 90002 128.629 -0.00267624
1126 90002 128.68 -0.00038361
1127 90002 126.829 -0.00967985
1128 90002 126.936 -0.00316227
1129 90002 132.275 0.000161641
1130 90002 132.23 9.13073e-05
1131 90002 130.592 0.00150566
1132 90002 130.473 -0.000206522
1133 90002 128.757 -0.000676329
1134 90002 128.697 -0.000769812
1135 90002 126.812 -0.00123003
1136 90002 127 -0.0138736
1137 90002 132.458 0.000406161
1138 90002 132.369 0.000840254
1139 90002 130.571 0.000514176
1140 90002 130.594 -0.000167986
1141 90002 128.641 -0.00186037
1142 90002 128.687 0.00135243
1143 90002 126.927 0.0166349
1144 90002 126.838 0.0242395
1145 90002 132.303 0.000307531
1146 90002 132.367 0.000307147
1147 90002 130.478 -0.000604065
1148 90002 130.549 0.000656425
1149 90002 128.754 -0.000784499
1150 90002 128.624 0.00107308
1151 90002 126.994 0.0182324
1152 90002 126.919 0.0396824
1153 90002 132.146 0.000746785
1154 90002 132.365 0.000238365
1155 90002 130.571 0.000269592
1156 90002 130.561 -9.18876e-05
1157 90002 128.726 -0.000509192
1158 90002 128.715 -0.000723317
1159 90002 126.752 -0.00839949
1160 90002 127.037 0.00364827
1161 90002 132.142 0.000908527
1162 90002 132.348 0.000498792
1163 90002 130.561 -0.000825052
1164 90002 130.324 0.000194971
1165 90002 128.663 -0.000195336
1166 90002 128.574 0.00112891
1167 90002 126.853 -0.0158322
1168 90002 126.798 -0.0218232
1169 90002 132.365 0.000798412
1170 90002 132.331 0.000848779
1171 90002 130.54 -0.000578651
1172 90002 130.563 0.000649536
1173 90002 128.576 -0.00154346
1174 90002 128.785 -0.000749416
1175 90002 126.915 0.00140176
1176 90002 126.953 0.0204736
1177 90002 132.408 0.000787674
1178 90002 132.406 0.00055748
1179 90002 130.736 0.000624166
1180 90002 130.606 -0.000113316
1181 90002 128.843 -0.00171153
1182 90002 128.644 -0.00100579
1183 90002 126.731 -0.0168212
1184 90002 127.074 0.00793282
1185 90002 132.343 0.00090852
1186 90002 132.201 0.000604463
1187 90002 130.577 -0.000486269
1188 90002 130.453 -0.000214866
1189 90002 128.559 -0.00164766
1190 90002 128.727 -0.00078354
1191 90002 126.777 -0.0101915
1192 90002 126.843 0.0127243
1193 90002 132.325 0.000968879
1194 90002 132.32 -0.000787126
1195 90002 130.476 0.000278999
1196 90002 130.547 0.00115267
1197 90002 128.803 -0.00019049
1198 90002 128.566 -0.000623082
1199 90002 126.778 -0.00388144
1200 90002 126.885 0.00724899
1201 90002 132.239 7.34849e-05
1202 90002 132.284 0.00113361
1203 90002 130.513 -0.00105618
1204 90002 130.463 -0.00103109
1205 90002 128.783 2.70046e-05
1206 90002 128.727 0.00109769
1207 90002 126.88 0.0103698
1208 90002 127.152 0.00503981
1209 90002 132.263 0.000453426
1210 90002 132.421 0.00147925
1211 90002 130.529 -0.000270726
1212 90002 130.478 0.000184538
1213 90002 128.611 0.000290822
1214 90002 128.734 -0.000610935
1215 90002 126.814 -0.00307007
1216 90002 126.825 0.00520363
1217 90002 132.375 0.00148049
1218 90002 132.482 0.001158
1219 90002 130.644 -0.000659768
1220 90002 130.603 -0.000310308
1221 90002 128.79 1.34557e-05
1222 90002 128.882 -0.000190694
1223 90002 126.924 0.0202871
1224 90002 127.262 -0.00181553
1225 90002 132.369 0.000288882
1226 90002 132.405 -8.45378e-05
1227 90002 130.468 -0.000385517
1228 90002 130.739 -0.00111692
1229 90002 128.744 0.00147744
1230 90002 128.762 -0.00153469
1231 90002 126.623 0.0483204
1232 90002 127.04 0.0163022
1233 90002 132.215 -0.00089053
1234 90002 132.255 -0.000170841
1235 90002 130.465 0.000833811
1236 90002 130.57 0.000518119
1237 90002 128.618 -0.00411784
1238 90002 128.664 -0.00168874
1239 90002 126.89 -0.00975515
1240 90002 126.903 -0.0258442
1241 90002 132.292 5.25146e-05
1242 90002 132.279 4.46993e-06
1243 90002 130.48 0.000650868
1244 90002 130.544 0.000380961
1245 90002 128.706 -9.21728e-05
1246 90002 128.744 -0.00014946
1247 90002 126.859 0.0178792
1248 90002 126.903 0.00186606
1249 90002 132.223 -6.68682e-05
1250 90002 132.331 -5.47758e-05
1251 90002 130.502 0.000171482
1252 90002 130.567 0.000598227
1253 90002 128.719 0.000584056
1254 90002 128.667 -0.000257508
1255 90002 126.86 0.0169811
1256 90002 126.841 0.00124105
1257 90002 132.421 -7.11094e-05
1258 90002 132.327 0.00134151
1259 90002 130.494 0.00092447
1260 90002 130.594 -0.000288519
1261 90002 128.599 -0.000180752
1262 90002 128.735 0.000274251
1263 90002 126.798 0.0144855
1264 90002 126.866 0.0166872
1265 90002 132.167 -0.000649139
1266 90002 132.384 0.000668286
1267 90002 130.506 0.000493476
1268 90002 130.53 -0.000495652
1269 90002 128.72 0.00150438
1270 90002 128.783 -0.00118813
1271 90002 126.893 0.00877428
1272 90002 126.977 -0.00682625
1273 90002 132.444 0.000279071
1274 90002 132.266 0.00057303
1275 90002 130.479 0.000678159
1276 90002 130.599 2.31261e-06
1277 90002 128.662 -0.000452844
1278 90002 128.83 0.000708225
1279 90002 127.163 -0.00578795
1280 90002 127.039 0.00327105
1281 90002 132.303 0.000639529
1282 90002 132.313 0.000199671
1283 90002 130.438 -0.000276411
1284 90002 130.501 -0.000174595
1285 90002 128.734 -0.00137391
1286 90002 128.723 0.00122211
1287 90002 126.822 0.00303438
1288 90002 126.884 -0.00266805
1289 90002 132.434 0.00127245
1290 90002 132.39 0.000901203
1291 90002 130.552 -0.000297926
1292 90002 130.69 0.000137394
1293 90002 128.768 -0.000593702
1294 90002 128.836 -0.00109742
1295 90002 127.04 -0.00126638
1296 90002 126.899 0.0134978
1297 90002 132.301 0.00012316
1298 90002 132.35 0.0001695
1299 90002 130.65 -0.000261217
1300 90002 130.68 0.000676125
1301 90002 128.852 -0.000459754
1302 90002 128.875 -7.19131e-05
1303 90002 127.083 0.00718342
1304 90002 127.04 0.00538047
1305 90002 132.258 0.00014695
1306 90002 132.478 0.000941116
1307 90002 130.482 -0.000328899
1308 90002 130.539 -0.000689116
1309 90002 128.846 0.0011397
1310 90002 128.663 0.00307047
1311 90002 126.932 0.0130503
1312 90002 127.083 0.054912
1313 90002 132.317 0.000965508
1314 90002 132.441 0.00146126
1315 90002 130.533 3.56104e-05
1316 90002 130.616 0.000363198
1317 90002 128.72 -0.00118422
1318 90002 128.768 -0.000447808
1319 90002 126.844 -0.00237115
1320 90002 126.778 0.0241343
1321 90002 132.29 0.000573635
1322 90002 132.361 0.00026427
1323 90002 130.464 4.76957e-05
1324 90002 130.574 -0.000139987
1325 90002 128.744 -0.000751886
1326 90002 128.704 -0.000624085
1327 90002 127.16 0.00827005
1328 90002 127.004 0.010082
1329 90002 132.175 0.000916466
1330 90002 132.432 -0.000700208
1331 90002 130.51 0.000157656
1332 90002 130.405 -0.000207089
1333 90002 128.691 0.000246715
1334 90002 128.771 0.000391804
1335 90002 127.056 0.0241206
1336 90002 127.116 -0.00144916
1337 90002 132.294 0.000653861
1338 90002 132.241 0.0011092
1339 90002 130.577 -0.000817275
1340 90002 130.578 -0.000229899
1341 90002 128.781 -0.00120163
1342 90002 128.722 -0.000824205
1343 90002 127.085 0.0089421
1344 90002 126.958 0.00801992
1345 90002 132.351 0.00166124
1346 90002 132.219 -3.38541e-05
1347 90002 130.636 -0.000344141
1348 90002 130.589 -9.51711e-05
1349 90002 128.768 -0.000998753
1350 90002 128.869 0.000858683
1351 90002 126.966 -0.00547397
1352 90002 126.849 -0.000346846
1353 90002 132.243 0.000867114
1354 90002 132.28 0.00161564
1355 90002 130.531 0.000327176
1356 90002 130.538 0.000721533
1357 90002 128.79 -0.000127141
1358 90002 128.919 -0.00121328
1359 90002 126.976 -0.00393346
1360 90002 127.079 -0.00261264
1361 90002 132.274 0.000448488
1362 90002 132.292 0.000138601
1363 90002 130.606 0.000234081
1364 90002 130.484 -0.000540877
1365 90002 128.732 0.000463338
1366 90002 128.797 -0.000527336
1367 90002 126.911 0.014275
1368 90002 126.875 0.0159251
1369 90002 132.283 0.00106001
1370 90002 132.433 0.000755237
1371 90002 130.767 0.000599215
1372 90002 130.67 1.4143e-06
1373 90002 128.88 -0.00046108
1374 90002 128.84 0.00123205
1375 90002 127.049 0.00858237
1376 90002 127.018 0.0121237
1377 90002 132.411 9.29984e-05
1378 90002 132.453 0.000365728
1379 90002 130.663 -3.92999e-05
1380 90002 130.671 -0.000454839
1381 90002 128.757 -0.00140234
1382 90002 128.794 0.00163031
1383 90002 127.051 0.0251399
1384 90002 126.834 0.0414552
1385 90002 132.304 0.000809013
1386 90002 132.342 0.000219867
1387 90002 130.568 -0.000492009
1388 90002 130.531 -0.00014544
1389 90002 128.775 0.00124591
1390 90002 128.74 0.000141864
1391 90002 126.884 0.039831
1392 90002 126.922 0.0225088
1393 90002 132.405 0.000821568
1394 90002 132.289 0.00159446
1395 90002 130.608 -0.0010078
1396 90002 130.609 -1.89146e-05
1397 90002 128.69 0.000146966
1398 90002 128.826 0.00175247
1399 90002 126.907 0.0115947
1400 90002 126.841 0.0400958
1401 90002 132.245 0.000637621
1402 90002 132.159 0.0010806
1403 90002 130.361 -0.000411132
1404 90002 130.497 -0.00114926
1405 90002 128.869 -6.07791e-05
1406 90002 128.739 -0.00226783
1407 90002 127.08 -0.022339
1408 90002 127.197 0.000217997
1409 90002 132.349 0.00029361
1410 90002 132.398 0.00103536
1411 90002 130.424 -0.000754988
1412 90002 130.58 -9.90196e-05
1413 90002 128.592 -0.00617713
1414 90002 128.728 -0.00238283
1415 90002 126.753 -0.0013275
1416 90002 126.671 -0.0439577
1417 90002 132.214 0.000635552
1418 90002 132.305 0.000525321
1419 90002 130.48 -0.000357332
1420 90002 130.501 -0.000534567
1421 90002 128.598 0.00200372
1422 90002 128.68 0.00310669
1423 90002 126.742 0.042419
1424 90002 126.819 0.0444793
1425 90002 132.28 0.00108514
1426 90002 132.212 0.000663842
1427 90002 130.562 -0.000144876
1428 90002 130.418 -0.000838156
1429 90002 128.629 0.000350911
1430 90002 128.631 0.000683521
1431 90002 126.948 0.00750254
1432 90002 126.919 0.0237004
1433 90002 132.201 0.000526311
1434 90002 132.289 0.0010112
1435 90002 130.606 -0.000479777
1436 90002 130.414 -0.000937882
1437 90002 128.76 0.000566605
1438 90002 128.701 9.50387e-05
1439 90002 126.921 0.00634394
1440 90002 126.898 0.00776082
1441 90002 132.29 0.000535816
1442 90002 132.248 -0.000212057
1443 90002 130.494 0.000623773
1444 90002 130.403 -0.000670975
1445 90002 128.658 0.000515867
1446 90002 128.719 -0.00067868
1447 90002 126.942 -0.00510391
1448 90002 127.056 0.000483034
1449 90002 132.299 0.00169729
1450 90002 132.223 -0.000512673
1451 90002 130.626 -0.000310105
1452 90002 130.511 0.00071675
1453 90002 128.922 -0.00197645
1454 90002 128.831 2.46357e-05
1455 90002 127.081 0.0168523
1456 90002 126.971 -0.0071266
1457 90002 132.268 0.000418593
1458 90002 132.296 0.00119375
1459 90002 130.538 -0.00011377
1460 90002 130.507 0.000735529
1461 90002 128.81 -1.41079e-05
1462 90002 128.709 -0.000476043
1463 90002 126.82 0.0291407
1464 90002 127.023 0.0128138
1465 90002 132.363 0.000649336
1466 90002 132.319 0.00160925
1467 90002 130.477 0.000107384
1468 90002 130.446 -0.000151182
1469 90002 128.708 -6.28903e-05
1470 90002 128.746 0.00104463
1471 90002 126.91 0.0109217
1472 90002 127.075 0.00401797
1473 90002 132.411 0.000818492
1474 90002 132.327 -0.000343205
1475 90002 130.516 -0.00101417
1476 90002 130.572 -0.00035279
1477 90002 128.75 0.00594462
1478 90002 128.71 0.000600038
1479 90002 127.174 0.0395151
1480 90002 126.969 0.0199625
1481 90002 132.407 0.000930975
1482 90002 132.502 -0.000588489
1483 90002 130.622 -3.07857e-05
1484 90002 130.58 6.9318e-05
1485 90002 128.853 -0.000561086
1486 90002 128.724 -0.000967124
1487 90002 126.881 -0.0228655
1488 90002 126.918 0.00336614
1489 90002 132.438 0.000485928
1490 90002 132.339 2.94805e-05
1491 90002 130.628 0.00025294
1492 90002 130.699 0.000459438
1493 90002 128.714 -0.00563439
1494 90002 128.833 0.00101284
1495 90002 126.847 -0.0240039
1496 90002 127 -0.0273221
1497 90002 132.324 0.000299465
1498 90002 132.353 -0.00016039
1499 90002 130.398 0.000743813
1500 90002 130.635 0.000271675
1501 90002 128.663 0.000561131
1502 90002 128.594 0.000657252
1503 90002 126.91 0.0154183
1504 90002 127.011 0.00754067
1505 90002 132.389 0.000506298
1506 90002 132.357 0.000998448
1507 90002 130.388 -0.000742593
1508 90002 130.578 -4.6495e-05
1509 90002 128.604 0.000484337
1510 90002 128.634 -0.000193626
1511 90002 126.735 0.0162775
1512 90002 126.888 -0.00617492
1513 90002 132.157 0.000569969
1514 90002 132.359 0.000886045
1515 90002 130.463 -0.000542424
1516 90002 130.497 -0.000110273
1517 90002 128.724 0.00142191
1518 90002 128.645 -0.000162262
1519 90002 126.953 0.00290338
1520 90002 126.869 -0.00572143
1521 90002 132.325 0.00038497
1522 90002 132.345 0.000832885
1523 90002 130.553 -3.95937e-05
1524 90002 130.517 0.000603833
1525 90002 128.836 0.00022254
1526 90002 128.642 0.000439721
1527 90002 126.966 0.00626235
1528 90002 127.062 0.00343842
1529 90002 132.275 -0.000151586
1530 90002 132.304 -6.89166e-05
1531 90002 130.526 0.000661935
1532 90002 130.619 0.000939228
1533 90002 128.731 -0.000377485
1534 90002 128.781 -0.000632441
1535 90002 126.948 0.0223164
1536 90002 126.911 0.00928831
1537 90002 132.267 6.56805e-06
1538 90002 132.377 0.000368524
1539 90002 130.491 0.000632331
1540 90002 130.497 -9.52014e-05
1541 90002 128.852 0.00158806
1542 90002 128.624 0.000486154
1543 90002 126.973 0.00748724
1544 90002 127.096 0.00959804
1545 90002 132.388 0.000991144
1546 90002 132.243 0.00069995
1547 90002 130.54 -0.000146901
1548 90002 130.514 -0.000412244
1549 90002 128.77 -9.93833e-05
1550 90002 128.698 -0.00228479
1551 90002 126.921 0.0232665
1552 90002 126.911 -0.0440578
1553 90002 132.301 0.00150964
1554 90002 132.327 0.000188224
1555 90002 130.606 -0.000196738
1556 90002 130.482 0.000183346
1557 90002 128.76 -0.000204775
1558 90002 128.701 0.00116832
1559 90002 126.886 0.0107007
1560 90002 126.948 0.0261467
1561 90002 132.452 0.000628091
1562 90002 132.306 0.000651545
1563 90002 130.668 0.000687047
1564 90002 130.648 0.000253939
1565 90002 128.77 -0.000430603
1566 90002 128.756 -0.000138116
1567 90002 126.923 -0.00910687
1568 90002 126.978 -0.00598609
1569 90002 132.491 -0.000285644
1570 90002 132.25 -0.000291793
1571 90002 130.581 0.000199866
1572 90002 130.534 0.00032696
1573 90002 128.878 0.000681166
1574 90002 128.789 0.00116236
1575 90002 127.207 0.0102136
1576 90002 126.998 0.0432327
1577 90002 132.493 0.00146553
1578 90002 132.453 0.00169911
1579 90002 130.645 0.00029967
1580 90002 130.688 -7.47369e-05
1581 90002 128.833 -0.000178512
1582 90002 128.713 -0.00201662
1583 90002 126.912 -0.0297999
1584 90002 126.927 -0.0226714
1585 90002 132.321 0.00145503
1586 90002 132.423 0.000764327
1587 90002 130.531 -0.000351101
1588 90002 130.694 -9.3598e-05
1589 90002 128.77 -0.000734971
1590 90002 128.687 -0.000754906
1591 90002 126.873 -0.0184737
1592 90002 126.875 -0.043385
1593 90002 132.56 0.000564595
1594 90002 132.429 0.000685362
1595 90002 130.601 0.00051491
1596 90002 130.565 0.000816726
1597 90002 128.65 -0.00121796
1598 90002 128.7 -0.000796565
1599 90002 126.964 -0.0133989
1600 90002 126.982 -0.0285965
