LAMMPS (2 Sep 2026)
OMP_NUM_THREADS environment is not set. Defaulting to 1 thread.
  using 1 OpenMP thread(s) per MPI task
units metal
atom_style full
boundary p p p
lattice sc 3.1
Lattice spacing in x,y,z = 3.1 3.1 3.1
region box block 0 8 0 8 0 8
create_box 2 box
Created orthogonal box = (0 0 0) to (24.8 24.8 24.8)
  1 by 1 by 3 MPI processor grid
mass 1 15.9994
mass 2 1.008
molecule h2o spcfq.mol
Read molecule template h2o:
# SPC-FQ 3-site water: O(type1) + 2H(type2), all charged via samqeq. SPC geom rOH=1.0 theta=109.47.
  1 molecules
  0 fragments
  0 bodies
  3 atoms with max type 2
  0 bonds with max type 0
  0 angles with max type 0
  0 dihedrals with max type 0
  0 impropers with max type 0
create_atoms 0 box mol h2o 12345
Created 1536 atoms
  using lattice units in orthogonal box = (0 0 0) to (24.8 24.8 24.8)
  create_atoms CPU = 0.032 seconds
group fq type 1 2
1536 atoms in group fq
set type 1 charge -0.85
Setting atom values ...
  512 settings made for charge
set type 2 charge 0.425
Setting atom values ...
  1024 settings made for charge
pair_style hybrid/overlay lj/cut 10.0 coul/long 10.0 coul/shield/intra 5.0 all
pair_coeff 1 1 lj/cut 0.01275 3.144
pair_coeff 1 2 lj/cut 0.0 1.0
pair_coeff 2 2 lj/cut 0.0 1.0
pair_coeff * * coul/long
pair_coeff * * coul/shield/intra 1.11
kspace_style pppm/samqeq 1.0e-6
neighbor 2.0 bin
velocity all create 298 4928459 mom yes rot yes
timestep 0.001
fix chg fq qeq/sam 1 0.0 10.0 1.0e-5 spcfq_expt.param
fix integ all rigid/nvt/small molecule temp 298 298 0.1
Fix rigid/nvt/small setup ...
  create bodies CPU = 0.001 seconds
  512 rigid bodies with 1536 atoms
  1.0000026 = max distance from body owner to body atom
variable aq atom abs(q)
compute qmax fq reduce max v_aq
thermo_style custom step temp pe c_qmax
thermo 200
run 3000

CITE-CITE-CITE-CITE-CITE-CITE-CITE-CITE-CITE-CITE-CITE-CITE-CITE

Your simulation uses code contributions which should be cited:

- fix acks2/reaxff command: https://doi.org/10.1137/18M1224684

@Article{O'Hearn2020,
 author = {K. A. {O'Hearn} and A. Alperen and H. M. Aktulga},
 title = {Fast Solvers for Charge Distribution Models on Shared Memory Platforms},
 journal = {SIAM J.\ Sci.\ Comput.},
 year =    2020,
 volume =  42,
 number =  1,
 pages =   {1--22}
}

CITE-CITE-CITE-CITE-CITE-CITE-CITE-CITE-CITE-CITE-CITE-CITE-CITE

PPPM initialization ...
  using 12-bit tables for long-range coulomb
  G vector (1/distance) = 0.33957131
  grid = 36 36 36
  stencil order = 5
  estimated absolute RMS force accuracy = 1.4063135e-05
  estimated relative force accuracy = 9.7663066e-07
  using double precision FFTW3
  3d grid and FFT values/proc = 35131 15552
Generated 0 of 1 mixed pair_coeff terms from geometric mixing rule
samqeq: E_self = sum(chi q + 1/2 eta qs^2) INCLUDED in pe/etotal (fix_modify chg energy yes; eselfref qs = q - q0) -- pe + E_self is the energy the forces integrate
Neighbor list info ...
  update: every = 1 steps, delay = 0 steps, check = yes
  max neighbors/atom: 2000, page size: 100000
  master list distance cutoff = 12
  ghost atom cutoff = 12
  binsize = 6, bins = 5 5 5
  5 neighbor lists, perpetual/occasional/extra = 5 0 0
  (1) pair lj/cut, perpetual, half/full from (5)
      attributes: half, newton on
      pair build: halffull/newton
      stencil: none
      bin: none
  (2) pair coul/long, perpetual, copy from (1)
      attributes: half, newton on
      pair build: copy
      stencil: none
      bin: none
  (3) pair coul/shield/intra, perpetual, trim from (2)
      attributes: half, newton on, cut 7
      pair build: trim
      stencil: none
      bin: none
  (4) fix qeq/sam, perpetual, half/full from (5)
      attributes: half, newton off
      pair build: halffull/newtoff
      stencil: none
      bin: none
  (5) fix qeq/sam, perpetual
      attributes: full, newton on
      pair build: full/bin
      stencil: full/bin/3d
      bin: standard
samqeq: recip_self ACTIVE at run start (step 0): not yet calibrated -- measured at the first solve by the K=16 deterministic-probe route
samqeq: calibrated grid reciprocal self-term recip_self=0.38303 +/- 0.00000 (raw, K=16 deterministic probes) = 5.5155 eV/e (subtracted so the QEq diagonal stays = eta)
samqeq SOLVER-DIAG step 0: CG 12 iters (=12 matvecs), resid/b=9.96e-06
Per MPI rank memory allocation (min/avg/max) = 34.34 | 35.22 | 36.89 Mbytes
   Step          Temp          PotEng         c_qmax    
         0   299.10164     -367.73575      0.95211029   
samqeq SOLVER-DIAG step 200: CG 13 iters (=13 matvecs), resid/b=9.95e-06
       200   711.39084     -516.19003      1.2514192    
samqeq SOLVER-DIAG step 400: CG 13 iters (=13 matvecs), resid/b=8.26e-06
       400   504.32214     -538.50081      1.2127696    
samqeq SOLVER-DIAG step 600: CG 13 iters (=13 matvecs), resid/b=7.25e-06
       600   432.11544     -558.13949      1.2460444    
samqeq SOLVER-DIAG step 800: CG 14 iters (=14 matvecs), resid/b=4.89e-06
       800   367.95116     -568.7437       1.4320648    
samqeq SOLVER-DIAG step 1000: CG 14 iters (=14 matvecs), resid/b=6.06e-06
      1000   337.86396     -578.31124      1.3987535    
samqeq SOLVER-DIAG step 1200: CG 14 iters (=14 matvecs), resid/b=7.52e-06
      1200   335.88977     -588.23327      1.4743278    
samqeq SOLVER-DIAG step 1400: CG 14 iters (=14 matvecs), resid/b=7.78e-06
      1400   320.05931     -594.74005      1.4970555    
samqeq SOLVER-DIAG step 1600: CG 14 iters (=14 matvecs), resid/b=7.76e-06
      1600   304.52004     -598.42061      1.4636184    
samqeq SOLVER-DIAG step 1800: CG 14 iters (=14 matvecs), resid/b=7.78e-06
      1800   299.67397     -600.00253      1.4224988    
samqeq SOLVER-DIAG step 2000: CG 14 iters (=14 matvecs), resid/b=7.57e-06
      2000   296.79208     -600.22142      1.4204572    
samqeq SOLVER-DIAG step 2200: CG 14 iters (=14 matvecs), resid/b=9.84e-06
      2200   298.89645     -601.56984      1.5808508    
samqeq SOLVER-DIAG step 2400: CG 14 iters (=14 matvecs), resid/b=7.54e-06
      2400   296.77268     -602.14372      1.4691803    
samqeq SOLVER-DIAG step 2600: CG 14 iters (=14 matvecs), resid/b=7.29e-06
      2600   301.80655     -608.13496      1.5391191    
samqeq SOLVER-DIAG step 2800: CG 14 iters (=14 matvecs), resid/b=7.81e-06
      2800   305.44908     -606.22657      1.4135295    
samqeq SOLVER-DIAG step 3000: CG 14 iters (=14 matvecs), resid/b=9.54e-06
      3000   295.01863     -602.3724       1.4470575    
Loop time of 378.817 on 3 procs for 3000 steps with 1536 atoms

Performance: 0.684 ns/day, 35.076 hours/ns, 7.919 timesteps/s, 12.164 katom-step/s
83.7% CPU use with 3 MPI tasks x 1 OpenMP threads

MPI task timing breakdown:
Section |  min time  |  avg time  |  max time  |%varavg| %total
---------------------------------------------------------------
Pair    | 22.284     | 22.698     | 23.436     |  11.0 |  5.99
Bond    | 0.0018555  | 0.0019012  | 0.0019627  |   0.1 |  0.00
Kspace  | 31.073     | 31.806     | 32.174     |   9.2 |  8.40
Neigh   | 2.3793     | 2.4334     | 2.4634     |   2.5 |  0.64
Comm    | 3.0837     | 3.1699     | 3.2277     |   3.5 |  0.84
Output  | 0.01868    | 0.019549   | 0.020932   |   0.7 |  0.01
Modify  | 318.2      | 318.3      | 318.4      |   0.5 | 84.02
Other   |            | 0.3882     |            |       |  0.10

Nlocal:            512 ave         528 max         496 min
Histogram: 1 0 0 0 0 1 0 0 0 1
Nghost:        7268.33 ave        7289 max        7257 min
Histogram: 2 0 0 0 0 0 0 0 0 1
Neighs:         186360 ave      190820 max      180576 min
Histogram: 1 0 0 0 0 0 1 0 0 1
FullNghs:       372720 ave      384392 max      359898 min
Histogram: 1 0 0 0 0 1 0 0 0 1

Total # of neighbors = 1118160
Ave neighs/atom = 727.96875
Ave special neighs/atom = 0
Neighbor list builds = 151
Dangerous builds = 0
Total wall time: 0:06:19
