ITEM: TIMESTEP
0
ITEM: NUMBER OF ATOMS
564
ITEM: BOX BOUNDS pp pp ff
0.0000000000000000e+00 1.7650658050000001e+01
0.0000000000000000e+00 2.0381224350000000e+01
0.0000000000000000e+00 6.0000000000000000e+01
ITEM: ATOMS id mol type q x y z
1 1 2 0 8.24512 15.5811 22.6078
2 1 3 0.586882 8.99931 15.9949 23.0275
3 1 3 0.478771 7.50381 16.1396 22.8419
4 1 4 -1.06565 8.24677 15.7056 22.6915
5 2 2 0 15.9474 18.3987 22.6904
6 2 3 0.556428 16.7177 18.4609 22.1255
7 2 3 0.480604 15.5517 17.5568 22.4646
8 2 4 -1.03703 15.9953 18.2989 22.5891
9 3 2 0 17.4336 10.1601 22.7313
10 3 3 0.46358 17.0473 9.37133 22.3508
11 3 3 0.529499 0.666335 9.89505 22.9876
12 3 4 -0.993079 17.4973 10.0252 22.7154
13 4 2 0 1.34938 4.55603 22.8066
14 4 3 0.449251 2.25303 4.29537 22.6286
15 4 3 0.513848 1.36125 4.85803 23.7149
16 4 4 -0.9631 1.46658 4.56132 22.9001
17 5 2 0 13.7945 8.69815 22.9189
18 5 3 0.545651 13.7682 9.65499 22.9198
19 5 3 0.541135 14.3148 8.47168 23.6898
20 5 4 -1.08679 13.8578 8.79165 23.0177
21 6 2 0 2.45384 11.1318 23.0093
22 6 3 0.481891 3.34523 10.8882 23.2589
23 6 3 0.492844 2.56798 11.7872 22.3211
24 6 4 -0.974735 2.58256 11.1845 22.9532
25 7 2 0 5.78675 16.9269 23.0964
26 7 3 0.49255 5.28323 16.4758 23.774
27 7 3 0.453358 5.17678 17.0172 22.3643
28 7 4 -0.945907 5.64421 16.8807 23.0894
29 8 2 0 9.01 19.5718 23.1809
30 8 3 0.572642 8.78239 19.2523 24.054
31 8 3 0.446547 8.18499 19.553 22.6959
32 8 4 -1.01919 8.87525 19.5285 23.2306
33 9 2 0 8.83043 2.85816 23.1944
34 9 3 0.545906 9.21769 2.02206 23.4536
35 9 3 0.550136 9.56649 3.46996 23.1819
36 9 4 -1.09604 8.97423 2.82945 23.2259
37 10 2 0 6.02784 0.121735 23.207
38 10 3 0.474969 5.47822 0.331622 22.452
39 10 3 0.589767 5.79198 19.6032 23.4328
40 10 4 -1.06474 5.92729 0.03342 23.1393
41 11 2 0 4.18398 8.35953 23.2649
42 11 3 0.595824 5.05229 7.96143 23.3264
43 11 3 0.5107 3.81528 8.0072 22.4549
44 11 4 -1.10652 4.24793 8.26346 23.1691
45 12 2 0 0.455538 19.5148 23.3731
46 12 3 0.491401 0.121261 20.358 23.6789
47 12 3 0.537948 0.154066 18.8853 24.0281
48 12 4 -1.02935 0.374155 19.5422 23.4961
49 13 2 0 15.0973 11.5452 23.4974
50 13 3 0.586174 15.2885 12.4294 23.8101
51 13 3 0.586402 15.9118 11.2543 23.0872
52 13 4 -1.17258 15.2261 11.6211 23.4849
53 14 2 0 10.7461 16.7668 23.5645
54 14 3 0.558927 10.7994 17.511 24.1641
55 14 3 0.533154 11.0965 16.0299 24.0649
56 14 4 -1.09208 10.7978 16.7678 23.7053
57 15 2 0 10.921 4.4994 23.5767
58 15 3 0.633858 10.7333 5.43784 23.5955
59 15 3 0.533853 11.4399 4.37429 22.7822
60 15 4 -1.16771 10.9634 4.60351 23.4774
61 16 2 0 11.2076 7.43499 23.639
62 16 3 0.592076 12.0804 7.79234 23.4753
63 16 3 0.578126 10.72 8.16114 24.0278
64 16 4 -1.1702 11.2569 7.57369 23.6678
65 17 2 0 2.77487 2.13963 23.8056
66 17 3 0.500533 1.87563 2.20241 24.1275
67 17 3 0.535337 3.06143 1.26345 24.0633
68 17 4 -1.03587 2.69644 2.0355 23.8798
69 18 2 0 6.66557 7.03158 23.8598
70 18 3 0.643945 7.1212 7.12855 24.696
71 18 3 0.529007 7.35394 7.11666 23.2001
72 18 4 -1.17295 6.81202 7.05488 23.8824
73 19 2 0 13.6469 1.83258 24.1953
74 19 3 0.538227 12.8577 1.41329 24.5381
75 19 3 0.510006 13.9692 2.36706 24.921
76 19 4 -1.04823 13.5871 1.84732 24.3321
77 20 2 0 5.00715 4.70371 24.2236
78 20 3 0.601161 5.69863 5.36155 24.1506
79 20 3 0.50905 4.7139 4.56278 23.3234
80 20 4 -1.11021 5.05813 4.76988 24.099
81 21 2 0 15.0774 5.32895 24.2771
82 21 3 0.533794 15.7355 6.01264 24.4026
83 21 3 0.51394 14.9344 5.30425 23.331
84 21 4 -1.04773 15.1433 5.41331 24.172
85 22 2 0 1.93369 15.4749 24.3177
86 22 3 0.55901 2.65042 14.8675 24.5009
87 22 3 0.483562 2.23596 15.9827 23.5647
88 22 4 -1.04257 2.06413 15.4622 24.2447
89 23 2 0 9.6367 9.69834 24.3185
90 23 3 0.553998 8.68004 9.72352 24.2988
91 23 3 0.537734 9.90755 10.4084 23.7365
92 23 4 -1.09173 9.54891 9.79246 24.2415
93 24 2 0 4.31715 14.0659 24.39
94 24 3 0.547368 4.78989 13.851 23.5859
95 24 3 0.591169 4.04767 13.2182 24.7438
96 24 4 -1.13854 4.34317 13.9299 24.3324
97 25 2 0 8.26061 12.8318 24.4457
98 25 3 0.641771 9.17833 13.1021 24.4768
99 25 3 0.614597 7.78735 13.5382 24.8853
100 25 4 -1.25637 8.31751 12.9568 24.5059
101 26 2 0 3.49509 18.9521 24.4756
102 26 3 0.452257 2.58902 18.6657 24.3604
103 26 3 0.606208 3.69139 18.7642 25.3934
104 26 4 -1.05846 3.40423 18.8914 24.5783
105 27 2 0 6.70189 10.4889 24.5724
106 27 3 0.496549 6.4601 10.3188 23.662
107 27 3 0.688729 7.31297 11.2241 24.525
108 27 4 -1.18528 6.74916 10.5612 24.4498
109 28 2 0 15.2988 14.0888 24.76
110 28 3 0.683441 14.6094 14.7458 24.8572
111 28 3 0.463029 16.086 14.5151 25.0989
112 28 4 -1.14647 15.3113 14.2275 24.8158
113 29 2 0 10.7718 14.1551 24.806
114 29 3 0.565708 10.5783 14.6285 25.6151
115 29 3 0.583619 11.4787 13.5546 25.0425
116 29 4 -1.14933 10.8376 14.1388 24.9398
117 30 2 0 16.9127 2.62313 24.9699
118 30 3 0.527744 16.9991 3.50638 25.3285
119 30 3 0.469873 16.3092 2.72118 24.2334
120 30 4 -0.997617 16.8465 2.74875 24.9215
121 31 2 0 6.30171 2.2317 24.986
122 31 3 0.570061 5.83234 3.00106 24.6635
123 31 3 0.655413 6.3327 1.63768 24.2361
124 31 4 -1.22547 6.24559 2.25415 24.8487
125 32 2 0 11.0113 1.83247 25.2033
126 32 3 0.590337 10.72 2.0168 26.0962
127 32 3 0.518067 11.1065 2.6949 24.799
128 32 4 -1.1084 10.9862 1.96647 25.2658
129 33 2 0 13.3281 15.9054 25.2163
130 33 3 0.581154 13.8555 16.6134 25.5864
131 33 3 0.56073 12.9724 15.4477 25.978
132 33 4 -1.14188 13.3501 15.9375 25.3612
133 34 2 0 12.5202 12.012 25.2517
134 34 3 0.582793 13.1685 11.765 24.5922
135 34 3 0.567105 12.465 11.2516 25.8305
136 34 4 -1.1499 12.5961 11.8831 25.2414
137 35 2 0 16.4084 19.4574 25.2643
138 35 3 0.554318 16.4595 0.0160557 25.0903
139 35 3 0.6082 16.0168 19.0878 24.4729
140 35 4 -1.16252 16.3648 19.5304 25.1407
141 36 2 0 8.47518 18.0613 25.4228
142 36 3 0.535393 9.37482 18.03 25.7482
143 36 3 0.616702 8.14607 17.1703 25.5409
144 36 4 -1.15209 8.54821 17.9432 25.4795
145 37 2 0 15.1933 8.74581 25.5353
146 37 3 0.597917 15.441 8.06498 26.1609
147 37 3 0.54103 15.7833 9.47464 25.7277
148 37 4 -1.13895 15.3006 8.75196 25.64
149 38 2 0 0.849383 5.70515 25.5358
150 38 3 0.525003 1.03248 6.5923 25.8451
151 38 3 0.572887 1.58163 5.1816 25.8613
152 38 4 -1.09789 0.966558 5.7517 25.6171
153 39 2 0 11.2248 18.6822 25.5988
154 39 3 0.553248 11.2233 19.6021 25.3342
155 39 3 0.573165 12.0392 18.5752 26.0902
156 39 4 -1.12641 11.3289 18.7863 25.6279
157 40 2 0 0.411834 11.5579 25.6059
158 40 3 0.544889 0.646138 10.6415 25.7526
159 40 3 0.498635 1.16805 11.9291 25.1514
160 40 4 -1.04352 0.538633 11.4881 25.5665
161 41 2 0 8.12633 4.17882 25.8171
162 41 3 0.493608 8.77925 3.69358 26.3215
163 41 3 0.682591 7.91021 3.60076 25.0854
164 41 4 -1.1762 8.18225 4.0427 25.788
165 42 2 0 7.56909 15.3645 25.8381
166 42 3 0.597926 8.22538 15.1392 26.4975
167 42 3 0.559468 6.7305 15.2491 26.285
168 42 4 -1.15739 7.54575 15.3209 25.9797
169 43 2 0 0.993709 8.71986 25.8512
170 43 3 0.442909 0.751348 8.66391 24.9269
171 43 3 0.692938 1.94997 8.7619 25.8464
172 43 4 -1.13585 1.0851 8.71808 25.7322
173 44 2 0 12.8093 5.16015 25.9068
174 44 3 0.538005 12.1585 4.87924 25.2635
175 44 3 0.631459 13.6088 5.29227 25.3974
176 44 4 -1.16946 12.8283 5.14111 25.7593
177 45 2 0 8.66085 7.03337 26.0497
178 45 3 0.623858 8.59535 6.07872 26.0738
179 45 3 0.650185 9.58679 7.21455 26.2111
180 45 4 -1.27404 8.771 6.93436 26.0734
181 46 2 0 3.89554 11.6023 26.0632
182 46 3 0.494099 4.36256 11.8708 26.8544
183 46 3 0.619498 4.10647 10.674 25.9633
184 46 4 -1.1136 3.98232 11.5179 26.1517
185 47 2 0 3.62979 8.71462 26.079
186 47 3 0.690015 4.19972 8.1061 26.5492
187 47 3 0.579136 3.81499 8.551 25.1542
188 47 4 -1.26915 3.72645 8.61578 26.0208
189 48 2 0 3.21465 4.26028 26.4933
190 48 3 0.506953 3.37191 4.89379 27.1934
191 48 3 0.5746 3.82221 4.51448 25.7987
192 48 4 -1.08155 3.31256 4.37391 26.494
193 49 2 0 14.1833 18.3928 26.573
194 49 3 0.540179 14.0528 18.7079 27.4674
195 49 3 0.641832 14.9661 18.852 26.2687
196 49 4 -1.18201 14.2668 18.4919 26.6486
197 50 2 0 6.69367 8.81958 26.694
198 50 3 0.610339 6.66206 9.56284 26.0916
199 50 3 0.594986 7.4921 8.34957 26.4535
200 50 4 -1.20532 6.79183 8.85456 26.5861
201 51 2 0 9.63566 11.0181 26.7854
202 51 3 0.548075 9.80181 10.8072 25.8667
203 51 3 0.513625 8.84713 11.5605 26.7683
204 51 4 -1.0617 9.55599 11.0606 26.6656
205 52 2 0 2.56207 1.3178 26.8614
206 52 3 0.547347 2.86473 2.03251 26.3012
207 52 3 0.641066 3.10343 1.38371 27.648
208 52 4 -1.18841 2.67012 1.41773 26.8904
209 53 2 0 1.35573 16.7658 26.9744
210 53 3 0.440029 0.761873 16.1909 27.4572
211 53 3 0.530185 1.52887 16.2996 26.1565
212 53 4 -0.970213 1.30187 16.6325 26.9315
213 54 2 0 15.2029 12.0084 26.9958
214 54 3 0.503083 16.0244 11.6363 26.6749
215 54 3 0.56183 15.0191 12.7342 26.3993
216 54 4 -1.06491 15.2846 12.0537 26.8783
217 55 2 0 14.2005 2.9421 26.9987
218 55 3 0.554489 13.9477 3.86531 27.0028
219 55 3 0.480724 14.8959 2.88072 27.6536
220 55 4 -1.03521 14.2572 3.05242 27.083
221 56 2 0 11.2498 7.42906 27.0286
222 56 3 0.582495 11.6552 6.82977 26.4019
223 56 3 0.600716 10.9878 6.87013 27.7602
224 56 4 -1.18321 11.2681 7.2808 27.0421
225 57 2 0 4.12557 17.8566 27.0474
226 57 3 0.580401 4.62033 17.0373 27.0354
227 57 3 0.510686 3.20873 17.5839 27.0121
228 57 4 -1.09109 4.07154 17.7168 27.0414
229 58 2 0 13.0276 9.70643 27.0728
230 58 3 0.613775 12.4523 8.95603 26.9238
231 58 3 0.566718 13.8432 9.47563 26.6282
232 58 4 -1.18049 13.0583 9.58083 26.9968
233 59 2 0 5.09464 15.28 27.1594
234 59 3 0.518436 4.68903 14.9903 26.3422
235 59 3 0.614808 5.01627 14.5278 27.7461
236 59 4 -1.13324 5.03268 15.1466 27.1299
237 60 2 0 6.66158 0.627939 27.1878
238 60 3 0.643714 6.64215 1.2715 26.4795
239 60 3 0.573665 6.86267 20.1802 26.7534
240 60 4 -1.21738 6.68483 0.60421 27.0415
241 61 2 0 9.88209 14.9365 27.2976
242 61 3 0.492039 9.67707 14.1418 27.7902
243 61 3 0.668925 10.3756 15.4793 27.9124
244 61 4 -1.16096 9.91902 14.9042 27.4393
245 62 2 0 7.39682 12.8253 27.5178
246 62 3 0.575489 6.44357 12.8815 27.584
247 62 3 0.448617 7.67312 12.4423 28.3504
248 62 4 -1.02411 7.31016 12.7834 27.6328
249 63 2 0 10.3271 2.90882 27.5535
250 63 3 0.68301 9.59638 2.71213 28.1396
251 63 3 0.598412 10.4709 3.84955 27.6564
252 63 4 -1.28142 10.252 3.00407 27.6417
253 64 2 0 13.0864 14.7025 27.7565
254 64 3 0.48222 13.8495 14.8337 28.3192
255 64 3 0.797107 12.8916 13.7682 27.8303
256 64 4 -1.27933 13.1591 14.5997 27.838
257 65 2 0 15.8689 6.9906 27.7592
258 65 3 0.489308 15.2977 7.08061 28.5219
259 65 3 0.512979 16.6647 7.46601 27.9978
260 65 4 -1.00229 15.8977 7.06298 27.8874
261 66 2 0 5.11344 6.80446 27.879
262 66 3 0.520731 5.75586 7.32599 27.3978
263 66 3 0.622943 5.57738 5.9971 28.1007
264 66 4 -1.14367 5.25507 6.76787 27.8458
265 67 2 0 0.211954 1.70798 27.8963
266 67 3 0.669775 1.01377 1.56701 27.3929
267 67 3 0.376244 17.3435 0.917692 27.7472
268 67 4 -1.04602 0.248149 1.58877 27.8128
269 68 2 0 12.4 12.2025 28.078
270 68 3 0.693067 13.0635 11.5883 27.7639
271 68 3 0.554847 11.6385 12.0385 27.5217
272 68 4 -1.24791 12.3874 12.1029 27.9666
273 69 2 0 12.13 1.09928 28.3372
274 69 3 0.493816 12.9972 1.38319 28.0481
275 69 3 0.572801 11.5346 1.77162 28.006
276 69 4 -1.06662 12.1648 1.22169 28.2578
277 70 2 0 4.82941 12.9409 28.4631
278 70 3 0.534544 5.04059 12.1379 28.9394
279 70 3 0.6927 3.90801 13.1041 28.6646
280 70 4 -1.22724 4.73849 12.859 28.5498
281 71 2 0 6.39772 4.46443 28.6396
282 71 3 0.619097 7.00223 3.77492 28.9142
283 71 3 0.459725 6.37639 4.39875 27.6849
284 71 4 -1.07882 6.47237 4.36776 28.5526
285 72 2 0 1.91487 13.2385 28.6604
286 72 3 0.533359 1.83367 12.4644 28.1032
287 72 3 0.5273 1.06628 13.6755 28.5891
288 72 4 -1.06066 1.79584 13.1953 28.58
289 73 2 0 9.81652 18.7515 28.7025
290 73 3 0.547655 10.301 17.9839 29.0061
291 73 3 0.536619 10.4067 19.1774 28.0808
292 73 4 -1.08427 9.9541 18.7078 28.6618
293 74 2 0 11.3866 16.466 28.8776
294 74 3 0.712357 12.1494 16.0075 28.5251
295 74 3 0.482504 11.2219 16.0444 29.721
296 74 4 -1.19486 11.4632 16.3533 28.9405
297 75 2 0 4.50753 1.14806 28.9451
298 75 3 0.578695 5.27862 1.26248 28.3896
299 75 3 0.498777 4.52804 0.224816 29.1969
300 75 4 -1.07747 4.60886 1.04452 28.9062
301 76 2 0 10.1626 5.47986 28.9569
302 76 3 0.572198 9.46083 5.86992 29.4781
303 76 3 0.501281 10.7844 5.14589 29.6034
304 76 4 -1.07348 10.1524 5.48704 29.1064
305 77 2 0 8.19493 2.24313 29.0867
306 77 3 0.671927 7.9238 1.55035 28.4844
307 77 3 0.550032 8.54769 1.77743 29.8449
308 77 4 -1.22196 8.20538 2.09483 29.1067
309 78 2 0 15.0516 19.3119 29.1214
310 78 3 0.464226 14.4723 19.2936 29.8832
311 78 3 0.495554 15.3583 20.2174 29.0749
312 78 4 -0.95978 15.0167 19.4255 29.213
313 79 2 0 2.52582 9.94933 29.3324
314 79 3 0.434593 2.51448 10.6325 30.0028
315 79 3 0.466927 3.45518 9.79256 29.1653
316 79 4 -0.90152 2.64334 10.0167 29.3968
317 80 2 0 7.65495 9.21183 29.3654
318 80 3 0.407004 8.27486 9.81541 29.7748
319 80 3 0.544912 7.81335 9.30574 28.426
320 80 4 -0.951916 7.75458 9.30112 29.2975
321 81 2 0 7.30022 17.6751 29.5017
322 81 3 0.570002 8.09222 18.0895 29.1592
323 81 3 0.380734 7.51513 16.7433 29.542
324 81 4 -0.950736 7.42912 17.6089 29.463
325 82 1 0.000141459 0 0 10
326 82 1 0.000228778 1.47089 2.54765 10
327 82 1 0.000258386 0 5.09531 10
328 82 1 0.000422729 1.47089 7.64296 10
329 82 1 0.000383019 0 10.1906 10
330 82 1 0.000430129 1.47089 12.7383 10
331 82 1 0.000256213 0 15.2859 10
332 82 1 0.000235345 1.47089 17.8336 10
333 82 1 0.000186396 2.94178 0 10
334 82 1 0.000222727 4.41266 2.54765 10
335 82 1 0.00036595 2.94178 5.09531 10
336 82 1 0.000505221 4.41266 7.64296 10
337 82 1 0.000523078 2.94178 10.1906 10
338 82 1 0.000415616 4.41266 12.7383 10
339 82 1 0.000330773 2.94178 15.2859 10
340 82 1 0.000146779 4.41266 17.8336 10
341 82 1 4.12689e-05 5.88355 0 10
342 82 1 0.000121029 7.35444 2.54765 10
343 82 1 0.000362127 5.88355 5.09531 10
344 82 1 0.00043411 7.35444 7.64296 10
345 82 1 0.000466593 5.88355 10.1906 10
346 82 1 0.000207793 7.35444 12.7383 10
347 82 1 0.00014886 5.88355 15.2859 10
348 82 1 -0.000101217 7.35444 17.8336 10
349 82 1 -0.000138453 8.82533 0 10
350 82 1 6.75452e-06 10.2962 2.54765 10
351 82 1 0.000269223 8.82533 5.09531 10
352 82 1 0.000292348 10.2962 7.64296 10
353 82 1 0.000283037 8.82533 10.1906 10
354 82 1 -4.00267e-06 10.2962 12.7383 10
355 82 1 -0.000109734 8.82533 15.2859 10
356 82 1 -0.000270958 10.2962 17.8336 10
357 82 1 -0.000194349 11.7671 0 10
358 82 1 -1.04911e-05 13.238 2.54765 10
359 82 1 0.000158101 11.7671 5.09531 10
360 82 1 0.000208585 13.238 7.64296 10
361 82 1 0.000148667 11.7671 10.1906 10
362 82 1 -5.95374e-07 13.238 12.7383 10
363 82 1 -0.000204278 11.7671 15.2859 10
364 82 1 -0.000197626 13.238 17.8336 10
365 82 1 -5.48999e-05 14.7089 0 10
366 82 1 0.000100405 16.1798 2.54765 10
367 82 1 0.000145177 14.7089 5.09531 10
368 82 1 0.000267553 16.1798 7.64296 10
369 82 1 0.000197482 14.7089 10.1906 10
370 82 1 0.000223446 16.1798 12.7383 10
371 82 1 -1.69745e-05 14.7089 15.2859 10
372 82 1 6.22957e-05 16.1798 17.8336 10
373 82 1 -6.26353e-05 1.47089 0.849218 12.402
374 82 1 0.000308997 2.94178 3.39687 12.402
375 82 1 0.000594867 1.47089 5.94452 12.402
376 82 1 0.000844798 2.94178 8.49218 12.402
377 82 1 0.000732844 1.47089 11.0398 12.402
378 82 1 0.000486389 2.94178 13.5875 12.402
379 82 1 4.09802e-05 1.47089 16.1351 12.402
380 82 1 -0.000197015 2.94178 18.6828 12.402
381 82 1 -0.00014891 4.41266 0.849218 12.402
382 82 1 0.000201455 5.88355 3.39687 12.402
383 82 1 0.000679316 4.41266 5.94452 12.402
384 82 1 0.000807591 5.88355 8.49218 12.402
385 82 1 0.000771024 4.41266 11.0398 12.402
386 82 1 0.000274168 5.88355 13.5875 12.402
387 82 1 -4.8147e-05 4.41266 16.1351 12.402
388 82 1 -0.000471563 5.88355 18.6828 12.402
389 82 1 -0.000440955 7.35444 0.849218 12.402
390 82 1 -6.41123e-05 8.82533 3.39687 12.402
391 82 1 0.000532408 7.35444 5.94452 12.402
392 82 1 0.000542523 8.82533 8.49218 12.402
393 82 1 0.000515637 7.35444 11.0398 12.402
394 82 1 -0.000128654 8.82533 13.5875 12.402
395 82 1 -0.000405628 7.35444 16.1351 12.402
396 82 1 -0.000787116 8.82533 18.6828 12.402
397 82 1 -0.000657749 10.2962 0.849218 12.402
398 82 1 -0.000252038 11.7671 3.39687 12.402
399 82 1 0.000249067 10.2962 5.94452 12.402
400 82 1 0.000280105 11.7671 8.49218 12.402
401 82 1 0.000163852 10.2962 11.0398 12.402
402 82 1 -0.000349786 11.7671 13.5875 12.402
403 82 1 -0.000717804 10.2962 16.1351 12.402
404 82 1 -0.000900071 11.7671 18.6828 12.402
405 82 1 -0.00063056 13.238 0.849218 12.402
406 82 1 -0.000138203 14.7089 3.39687 12.402
407 82 1 0.000126428 13.238 5.94452 12.402
408 82 1 0.000344939 14.7089 8.49218 12.402
409 82 1 9.78181e-05 13.238 11.0398 12.402
410 82 1 -0.000140704 14.7089 13.5875 12.402
411 82 1 -0.000697316 13.238 16.1351 12.402
412 82 1 -0.000680297 14.7089 18.6828 12.402
413 82 1 -0.000316361 16.1798 0.849218 12.402
414 82 1 0.000168664 0 3.39687 12.402
415 82 1 0.000328146 16.1798 5.94452 12.402
416 82 1 0.000647958 0 8.49218 12.402
417 82 1 0.000408009 16.1798 11.0398 12.402
418 82 1 0.00030766 0 13.5875 12.402
419 82 1 -0.000306078 16.1798 16.1351 12.402
420 82 1 -0.000293887 0 18.6828 12.402
421 82 1 -0.000699551 2.94178 1.69844 14.8039
422 82 1 -0.000737082 4.41266 4.24609 14.8039
423 82 1 -0.000497 2.94178 6.79374 14.8039
424 82 1 -0.000883194 4.41266 9.34139 14.8039
425 82 1 -0.000926968 2.94178 11.889 14.8039
426 82 1 -0.00124934 4.41266 14.4367 14.8039
427 82 1 -0.00181273 2.94178 16.9844 14.8039
428 82 1 -0.00150654 4.41266 19.532 14.8039
429 82 1 -0.00109765 5.88355 1.69844 14.8039
430 82 1 -0.000930363 7.35444 4.24609 14.8039
431 82 1 -0.000978352 5.88355 6.79374 14.8039
432 82 1 -0.000830779 7.35444 9.34139 14.8039
433 82 1 -0.000765554 5.88355 11.889 14.8039
434 82 1 -7.25418e-05 7.35444 14.4367 14.8039
435 82 1 -0.00103985 5.88355 16.9844 14.8039
436 82 1 -0.000906236 7.35444 19.532 14.8039
437 82 1 -0.000848944 8.82533 1.69844 14.8039
438 82 1 -0.000943297 10.2962 4.24609 14.8039
439 82 1 -0.000819245 8.82533 6.79374 14.8039
440 82 1 -0.000399458 10.2962 9.34139 14.8039
441 82 1 -0.00017123 8.82533 11.889 14.8039
442 82 1 0.000230714 10.2962 14.4367 14.8039
443 82 1 5.31967e-05 8.82533 16.9844 14.8039
444 82 1 -0.000498426 10.2962 19.532 14.8039
445 82 1 -0.000981514 11.7671 1.69844 14.8039
446 82 1 -0.000916413 13.238 4.24609 14.8039
447 82 1 -0.000551269 11.7671 6.79374 14.8039
448 82 1 -4.24878e-05 13.238 9.34139 14.8039
449 82 1 -0.000154489 11.7671 11.889 14.8039
450 82 1 -0.000549651 13.238 14.4367 14.8039
451 82 1 -0.000347887 11.7671 16.9844 14.8039
452 82 1 -0.000993793 13.238 19.532 14.8039
453 82 1 -0.000882759 14.7089 1.69844 14.8039
454 82 1 -0.000293405 16.1798 4.24609 14.8039
455 82 1 -0.000266482 14.7089 6.79374 14.8039
456 82 1 4.1044e-05 16.1798 9.34139 14.8039
457 82 1 -0.000191947 14.7089 11.889 14.8039
458 82 1 -0.00107262 16.1798 14.4367 14.8039
459 82 1 -0.00133105 14.7089 16.9844 14.8039
460 82 1 -0.00126564 16.1798 19.532 14.8039
461 82 1 -0.000431047 0 1.69844 14.8039
462 82 1 -3.0493e-05 1.47089 4.24609 14.8039
463 82 1 -3.78886e-05 0 6.79374 14.8039
464 82 1 -0.000338532 1.47089 9.34139 14.8039
465 82 1 -0.000419038 0 11.889 14.8039
466 82 1 -0.00143058 1.47089 14.4367 14.8039
467 82 1 -0.00174659 0 16.9844 14.8039
468 82 1 -0.00132391 1.47089 19.532 14.8039
469 82 1 -0.00232448 4.41266 2.54765 17.2059
470 82 1 -0.00572115 5.88355 5.09531 17.2059
471 82 1 -0.00827618 4.41266 7.64296 17.2059
472 82 1 -0.0080784 5.88355 10.1906 17.2059
473 82 1 -0.00708262 4.41266 12.7383 17.2059
474 82 1 -0.00107796 5.88355 15.2859 17.2059
475 82 1 -0.00376405 4.41266 17.8336 17.2059
476 82 1 -0.000731763 5.88355 0 17.2059
477 82 1 -0.00103541 7.35444 2.54765 17.2059
478 82 1 -0.00411926 8.82533 5.09531 17.2059
479 82 1 -0.00766787 7.35444 7.64296 17.2059
480 82 1 -0.00434637 8.82533 10.1906 17.2059
481 82 1 -0.00123073 7.35444 12.7383 17.2059
482 82 1 0.00710851 8.82533 15.2859 17.2059
483 82 1 0.00410377 7.35444 17.8336 17.2059
484 82 1 0.00421983 8.82533 0 17.2059
485 82 1 0.000350551 10.2962 2.54765 17.2059
486 82 1 -0.00311558 11.7671 5.09531 17.2059
487 82 1 -0.00432738 10.2962 7.64296 17.2059
488 82 1 -0.00106896 11.7671 10.1906 17.2059
489 82 1 0.00252756 10.2962 12.7383 17.2059
490 82 1 0.00594059 11.7671 15.2859 17.2059
491 82 1 0.00829248 10.2962 17.8336 17.2059
492 82 1 0.00422921 11.7671 0 17.2059
493 82 1 -0.000327578 13.238 2.54765 17.2059
494 82 1 -0.00201292 14.7089 5.09531 17.2059
495 82 1 -0.00198691 13.238 7.64296 17.2059
496 82 1 -0.000381142 14.7089 10.1906 17.2059
497 82 1 0.00137483 13.238 12.7383 17.2059
498 82 1 -0.000262565 14.7089 15.2859 17.2059
499 82 1 0.00359 13.238 17.8336 17.2059
500 82 1 0.00116549 14.7089 0 17.2059
501 82 1 0.000411464 16.1798 2.54765 17.2059
502 82 1 -0.00098004 0 5.09531 17.2059
503 82 1 -0.00208565 16.1798 7.64296 17.2059
504 82 1 -0.00321782 0 10.1906 17.2059
505 82 1 -0.00172561 16.1798 12.7383 17.2059
506 82 1 -0.00532184 0 15.2859 17.2059
507 82 1 -0.00230592 16.1798 17.8336 17.2059
508 82 1 -0.000743232 0 0 17.2059
509 82 1 0.000151872 1.47089 2.54765 17.2059
510 82 1 -0.00366335 2.94178 5.09531 17.2059
511 82 1 -0.00477515 1.47089 7.64296 17.2059
512 82 1 -0.00763302 2.94178 10.1906 17.2059
513 82 1 -0.00617283 1.47089 12.7383 17.2059
514 82 1 -0.00715657 2.94178 15.2859 17.2059
515 82 1 -0.00522823 1.47089 17.8336 17.2059
516 82 1 -0.00231816 2.94178 0 17.2059
517 82 1 -0.00173112 5.88355 3.39687 19.6078
518 82 1 -0.0136196 7.35444 5.94452 19.6078
519 82 1 -0.0223947 5.88355 8.49218 19.6078
520 82 1 -0.0119261 7.35444 11.0398 19.6078
521 82 1 -0.00420939 5.88355 13.5875 19.6078
522 82 1 0.0226491 7.35444 16.1351 19.6078
523 82 1 0.010628 5.88355 18.6828 19.6078
524 82 1 0.01422 7.35444 0.849218 19.6078
525 82 1 0.00403681 8.82533 3.39687 19.6078
526 82 1 -0.00670403 10.2962 5.94452 19.6078
527 82 1 -0.0144908 8.82533 8.49218 19.6078
528 82 1 -0.00034904 10.2962 11.0398 19.6078
529 82 1 0.0168536 8.82533 13.5875 19.6078
530 82 1 0.0347371 10.2962 16.1351 19.6078
531 82 1 0.0308013 8.82533 18.6828 19.6078
532 82 1 0.0205909 10.2962 0.849218 19.6078
533 82 1 0.00366389 11.7671 3.39687 19.6078
534 82 1 -0.00329766 13.238 5.94452 19.6078
535 82 1 -0.00318958 11.7671 8.49218 19.6078
536 82 1 0.00505099 13.238 11.0398 19.6078
537 82 1 0.0168727 11.7671 13.5875 19.6078
538 82 1 0.0186391 13.238 16.1351 19.6078
539 82 1 0.0285204 11.7671 18.6828 19.6078
540 82 1 0.0149071 13.238 0.849218 19.6078
541 82 1 0.0038976 14.7089 3.39687 19.6078
542 82 1 -0.00163234 16.1798 5.94452 19.6078
543 82 1 3.12609e-05 14.7089 8.49218 19.6078
544 82 1 0.00154123 16.1798 11.0398 19.6078
545 82 1 0.00658721 14.7089 13.5875 19.6078
546 82 1 -0.000211312 16.1798 16.1351 19.6078
547 82 1 0.012677 14.7089 18.6828 19.6078
548 82 1 0.0106628 16.1798 0.849218 19.6078
549 82 1 0.00758158 0 3.39687 19.6078
550 82 1 -0.00470458 1.47089 5.94452 19.6078
551 82 1 -0.00636428 0 8.49218 19.6078
552 82 1 -0.0116994 1.47089 11.0398 19.6078
553 82 1 -0.00653275 0 13.5875 19.6078
554 82 1 -0.0110279 1.47089 16.1351 19.6078
555 82 1 0.00193598 0 18.6828 19.6078
556 82 1 0.00819657 1.47089 0.849218 19.6078
557 82 1 0.0022945 2.94178 3.39687 19.6078
558 82 1 -0.0143449 4.41266 5.94452 19.6078
559 82 1 -0.0175332 2.94178 8.49218 19.6078
560 82 1 -0.0203569 4.41266 11.0398 19.6078
561 82 1 -0.0166078 2.94178 13.5875 19.6078
562 82 1 -0.00518014 4.41266 16.1351 19.6078
563 82 1 -0.00137417 2.94178 18.6828 19.6078
564 82 1 0.00508055 4.41266 0.849218 19.6078
ITEM: TIMESTEP
2500
ITEM: NUMBER OF ATOMS
564
ITEM: BOX BOUNDS pp pp ff
0.0000000000000000e+00 1.7650658050000001e+01
0.0000000000000000e+00 2.0381224350000000e+01
0.0000000000000000e+00 6.0000000000000000e+01
ITEM: ATOMS id mol type q x y z
1 1 2 0 8.659 16.4363 22.5343
2 1 3 0.533589 8.76586 15.8538 23.2863
3 1 3 0.611375 9.55128 16.6003 22.2291
4 1 4 -1.14496 8.7869 16.3828 22.5915
5 2 2 0 13.9638 17.5772 22.3024
6 2 3 0.596216 14.2756 18.0521 23.0728
7 2 3 0.506727 13.4735 16.8366 22.6592
8 2 4 -1.10294 13.941 17.5432 22.4467
9 3 2 0 17.617 9.94166 22.3752
10 3 3 0.451901 17.2977 9.23982 21.808
11 3 3 0.687124 0.904401 9.99083 22.1914
12 3 4 -1.13903 0.0455268 9.85811 22.2791
13 4 2 0 2.14699 3.68254 22.3602
14 4 3 0.484954 2.48841 3.97069 21.5136
15 4 3 0.577289 2.47279 4.3315 22.9838
16 4 4 -1.06224 2.2324 3.8025 22.3316
17 5 2 0 13.8846 8.56274 22.6957
18 5 3 0.528882 14.2659 9.218 22.1114
19 5 3 0.610869 14.1192 8.85966 23.5749
20 5 4 -1.13975 13.9634 8.68463 22.7334
21 6 2 0 2.73542 9.88703 22.1635
22 6 3 0.553847 3.46169 9.29791 21.9592
23 6 3 0.624821 3.15503 10.721 22.3747
24 6 4 -1.17867 2.88211 9.91837 22.1644
25 7 2 0 5.84542 16.2594 22.3578
26 7 3 0.616435 5.59913 17.1763 22.4799
27 7 3 0.601996 6.79366 16.2807 22.2289
28 7 4 -1.21843 5.93527 16.3795 22.3569
29 8 2 0 8.27909 20.0818 22.2712
30 8 3 0.47875 8.86337 20.2606 23.008
31 8 3 0.598359 7.59845 19.5165 22.6363
32 8 4 -1.07711 8.26676 20.0323 22.4122
33 9 2 0 8.3581 2.56563 22.7916
34 9 3 0.591616 8.40644 1.69282 22.4016
35 9 3 0.62924 9.23529 2.72091 23.1419
36 9 4 -1.22086 8.47658 2.47377 22.7866
37 10 2 0 5.74753 19.0734 22.9973
38 10 3 0.576607 5.35189 19.9446 22.9708
39 10 3 0.5834 5.95748 18.9332 23.9206
40 10 4 -1.16001 5.72376 19.167 23.1121
41 11 2 0 4.81247 7.80305 22.3994
42 11 3 0.737469 5.75663 7.78013 22.2436
43 11 3 0.471167 4.48627 6.98855 22.0167
44 11 4 -1.20864 4.89158 7.69585 22.3304
45 12 2 0 1.73658 19.3605 22.4473
46 12 3 0.538822 1.54967 18.5471 21.9785
47 12 3 0.563053 2.01897 19.0769 23.3168
48 12 4 -1.10187 1.7488 19.22 22.4986
49 13 2 0 14.9747 11.5119 22.4873
50 13 3 0.496423 15.2437 12.3032 22.0208
51 13 3 0.579077 15.7729 10.9873 22.5501
52 13 4 -1.0755 15.1113 11.546 22.4356
53 14 2 0 11.4071 17.1753 22.307
54 14 3 0.489583 11.0116 17.7117 22.9941
55 14 3 0.652783 12.2688 17.5663 22.1634
56 14 4 -1.14237 11.4667 17.294 22.3766
57 15 2 0 12.4992 4.81639 22.3772
58 15 3 0.697765 12.0964 5.67332 22.2369
59 15 3 0.512708 13.3802 4.9028 22.0131
60 15 4 -1.21047 12.5604 4.93715 22.3127
61 16 2 0 11.4109 7.3492 22.5297
62 16 3 0.628956 12.1943 7.88354 22.6604
63 16 3 0.542684 10.6822 7.95763 22.6522
64 16 4 -1.17164 11.4179 7.49549 22.5621
65 17 2 0 4.05663 1.09524 22.6913
66 17 3 0.569924 3.41067 1.80118 22.6667
67 17 3 0.55097 3.59382 0.334117 22.341
68 17 4 -1.12089 3.9147 1.08818 22.6433
69 18 2 0 7.65479 7.43696 22.3587
70 18 3 0.575543 7.729 7.35369 23.3094
71 18 3 0.601331 8.32767 8.07468 22.1204
72 18 4 -1.17687 7.75043 7.50794 22.4499
73 19 2 0 14.6003 1.93233 22.7487
74 19 3 0.563031 14.6383 2.88391 22.6523
75 19 3 0.466465 15.2146 1.60011 22.0941
76 19 4 -1.0295 14.6838 2.01161 22.6526
77 20 2 0 6.06144 4.44462 22.7442
78 20 3 0.491922 6.43148 5.32332 22.6594
79 20 3 0.64246 6.77954 3.85788 22.5069
80 20 4 -1.13438 6.20073 4.482 22.703
81 21 2 0 15.7037 4.7445 22.5681
82 21 3 0.521807 16.592 5.08557 22.464
83 21 3 0.494567 15.2169 5.46243 22.9728
84 21 4 -1.01637 15.7551 4.88006 22.6066
85 22 2 0 2.42809 15.3779 22.6991
86 22 3 0.586214 2.90451 14.5527 22.79
87 22 3 0.432926 1.53602 15.1162 22.4712
88 22 4 -1.01914 2.37488 15.2388 22.6816
89 23 2 0 9.42564 9.78655 22.3187
90 23 3 0.617636 8.70896 10.4073 22.4503
91 23 3 0.466594 9.65747 9.87991 21.3947
92 23 4 -1.08423 9.36357 9.87796 22.2173
93 24 2 0 3.70991 12.6618 22.6553
94 24 3 0.564149 4.5644 12.7051 22.2261
95 24 3 0.624738 3.90982 12.4503 23.5672
96 24 4 -1.18889 3.84488 12.6403 22.7171
97 25 2 0 6.39506 13.5453 22.5698
98 25 3 0.626402 5.96906 14.3837 22.7483
99 25 3 0.504698 7.17304 13.7748 22.0616
100 25 4 -1.1311 6.44012 13.682 22.5276
101 26 2 0 3.17444 19.364 25.2101
102 26 3 0.468634 4.07155 19.4097 25.5407
103 26 3 0.600051 2.7609 20.1672 25.5264
104 26 4 -1.06869 3.23634 19.4726 25.2929
105 27 2 0 6.63559 10.689 22.8196
106 27 3 0.561665 6.54147 10.2466 23.6632
107 27 3 0.559883 6.58079 11.6212 23.03
108 27 4 -1.12155 6.61653 10.7517 22.9545
109 28 2 0 16.2608 14.4247 22.2477
110 28 3 0.525279 15.3237 14.2355 22.1985
111 28 3 0.495679 16.3304 15.3525 22.023
112 28 4 -1.02096 16.1497 14.5192 22.2126
113 29 2 0 10.4456 14.2327 23.9353
114 29 3 0.496068 10.2336 14.1179 24.8616
115 29 3 0.563152 10.9776 13.4683 23.7143
116 29 4 -1.05922 10.4866 14.1202 24.0255
117 30 2 0 17.757 1.19338 22.4572
118 30 3 0.505167 0.47998 2.05604 22.277
119 30 3 0.567161 0.865535 0.618419 22.5536
120 30 4 -1.07233 0.251367 1.23021 22.4465
121 31 2 0 6.10469 1.93637 24.5607
122 31 3 0.539883 5.3985 1.46521 24.1185
123 31 3 0.595338 6.68965 2.21018 23.8543
124 31 4 -1.13522 6.08917 1.91111 24.4137
125 32 2 0 11.0635 2.51293 23.3589
126 32 3 0.503075 11.2762 2.49616 24.292
127 32 3 0.695533 11.5585 3.25567 23.0132
128 32 4 -1.19861 11.1541 2.60586 23.4341
129 33 2 0 13.2768 14.6099 22.4238
130 33 3 0.466504 13.4025 14.234 23.2951
131 33 3 0.580147 12.4513 15.0903 22.4865
132 33 4 -1.04665 13.1872 14.6233 22.5434
133 34 2 0 11.8977 11.7065 23.6355
134 34 3 0.57718 12.6958 11.6548 23.1096
135 34 3 0.547153 12.0126 11.0395 24.3124
136 34 4 -1.12433 12.0146 11.6145 23.6549
137 35 2 0 15.5545 19.7982 23.8697
138 35 3 0.438852 16.4561 19.6751 24.1667
139 35 3 0.594934 15.6075 0.126563 23.2295
140 35 4 -1.03379 15.6767 19.8732 23.8258
141 36 2 0 6.62642 18.5499 25.6502
142 36 3 0.550279 7.23106 18.9549 26.2719
143 36 3 0.554764 7.00709 17.6903 25.4705
144 36 4 -1.10504 6.75255 18.4917 25.7068
145 37 2 0 14.833 9.86142 24.9879
146 37 3 0.597918 15.1588 9.29198 25.6849
147 37 3 0.636663 15.2899 10.6916 25.123
148 37 4 -1.23458 14.9332 9.89481 25.0944
149 38 2 0 2.53772 6.36289 23.2321
150 38 3 0.507626 3.32668 6.82067 22.942
151 38 3 0.525528 2.74364 6.06864 24.1194
152 38 4 -1.03315 2.66508 6.38382 23.3086
153 39 2 0 10.3014 20.1594 24.4008
154 39 3 0.581556 10.6851 0.46131 23.851
155 39 3 0.616127 10.9765 19.4825 24.4486
156 39 4 -1.19768 10.4369 20.1602 24.3365
157 40 2 0 1.39648 10.9468 26.9894
158 40 3 0.61118 0.783808 10.3722 26.5303
159 40 3 0.591063 2.01512 11.2262 26.3145
160 40 4 -1.20224 1.39724 10.909 26.8442
161 41 2 0 6.89266 4.47299 26.5677
162 41 3 0.524268 6.10422 4.48381 27.1103
163 41 3 0.516204 7.36014 3.68311 26.8393
164 41 4 -1.04047 6.85157 4.37326 26.6719
165 42 2 0 8.38697 15.7778 25.8216
166 42 3 0.546608 9.07166 15.2358 26.2136
167 42 3 0.497762 7.57003 15.3331 26.0477
168 42 4 -1.04437 8.37004 15.6515 25.9007
169 43 2 0 0.557073 9.02011 25.0635
170 43 3 0.56499 0.0175611 9.39128 24.3653
171 43 3 0.607809 1.37438 8.77419 24.6301
172 43 4 -1.1728 0.592635 9.03614 24.9186
173 44 2 0 13.3561 5.5976 25.0633
174 44 3 0.532356 12.9921 5.26774 24.2418
175 44 3 0.636558 13.9031 4.88226 25.3878
176 44 4 -1.16891 13.3795 5.4638 24.9997
177 45 2 0 8.13994 7.08825 25.2553
178 45 3 0.635438 7.80484 6.50342 25.9349
179 45 3 0.620453 9.09193 7.01937 25.3274
180 45 4 -1.25589 8.21891 7.00456 25.3515
181 46 2 0 3.43329 11.5388 25.1501
182 46 3 0.587415 3.84226 11.6373 26.0099
183 46 3 0.647745 3.57954 10.6216 24.9185
184 46 4 -1.23516 3.50436 11.434 25.2305
185 47 2 0 3.44967 8.76909 24.7457
186 47 3 0.531775 3.89758 8.1878 25.3603
187 47 3 0.605562 3.74602 8.4801 23.8827
188 47 4 -1.13734 3.54495 8.65768 24.7139
189 48 2 0 4.29199 4.64229 24.8747
190 48 3 0.530751 4.65541 4.16697 25.6219
191 48 3 0.685292 4.96579 4.57702 24.198
192 48 4 -1.21604 4.42476 4.57309 24.8837
193 49 2 0 12.3067 18.1443 25.1167
194 49 3 0.53229 12.0664 17.2526 25.3684
195 49 3 0.648565 12.9927 18.392 25.7366
196 49 4 -1.18085 12.3637 18.0618 25.2283
197 50 2 0 6.66227 9.46404 25.4501
198 50 3 0.475526 7.17108 10.2423 25.6775
199 50 3 0.64716 7.29259 8.74484 25.4909
200 50 4 -1.12269 6.80809 9.4716 25.4844
201 51 2 0 9.61457 10.5278 25.1012
202 51 3 0.511919 10.1291 9.72102 25.0767
203 51 3 0.546655 10.0792 11.1266 24.5166
204 51 4 -1.05857 9.73993 10.5012 25.0232
205 52 2 0 1.97397 1.44669 26.0093
206 52 3 0.527822 2.27465 2.24258 25.5707
207 52 3 0.541571 2.03038 1.65114 26.9427
208 52 4 -1.06939 2.01968 1.57475 26.0726
209 53 2 0 2.27744 16.2062 26.594
210 53 3 0.548113 1.98954 15.3627 26.9428
211 53 3 0.467649 1.67624 16.3847 25.8708
212 53 4 -1.01576 2.16363 16.1211 26.5461
213 54 2 0 16.5799 12.5525 25.3483
214 54 3 0.49778 17.4929 12.5705 25.6353
215 54 3 0.524486 16.538 13.1957 24.6408
216 54 4 -1.02227 16.6914 12.6371 25.2945
217 55 2 0 14.8522 3.38227 25.7113
218 55 3 0.540581 14.0597 2.85579 25.8157
219 55 3 0.554479 15.5027 2.77086 25.366
220 55 4 -1.09506 14.834 3.23661 25.6805
221 56 2 0 10.9281 7.02201 26.1259
222 56 3 0.603152 11.7287 6.72833 25.6913
223 56 3 0.504854 10.9391 6.57876 26.9743
224 56 4 -1.10801 11.032 6.92768 26.1789
225 57 2 0 4.04124 18.1853 27.8107
226 57 3 0.520662 4.02343 18.3295 26.8646
227 57 3 0.523351 3.77342 17.2728 27.9194
228 57 4 -1.04401 4.00468 18.0869 27.7035
229 58 2 0 12.1792 9.81184 26.0149
230 58 3 0.563793 12.0424 8.9048 26.2884
231 58 3 0.603173 13.1029 9.85108 25.767
232 58 4 -1.16697 12.28 9.70075 26.0181
233 59 2 0 4.81287 15.1394 24.9669
234 59 3 0.502295 5.14811 15.4014 24.1095
235 59 3 0.526619 3.99786 15.6314 25.0665
236 59 4 -1.02891 4.75145 15.236 24.8699
237 60 2 0 7.12996 1.36307 27.258
238 60 3 0.598722 6.76441 1.65973 26.4245
239 60 3 0.538666 7.76319 0.687494 27.0154
240 60 4 -1.13739 7.16423 1.31457 27.1202
241 61 2 0 9.62456 13.2925 26.93
242 61 3 0.567295 8.98898 12.6007 27.1133
243 61 3 0.510139 10.2811 13.2045 27.6209
244 61 4 -1.07743 9.62725 13.1927 27.0419
245 62 2 0 7.83068 11.1635 28.0922
246 62 3 0.663932 6.94799 11.508 27.9563
247 62 3 0.478332 8.07801 10.7957 27.2438
248 62 4 -1.14226 7.74935 11.1605 27.9662
249 63 2 0 10.6755 1.69165 26.9677
250 63 3 0.589945 10.1038 0.99287 27.2856
251 63 3 0.495345 10.6269 2.3677 27.6436
252 63 4 -1.08529 10.5961 1.68874 27.0949
253 64 2 0 13.6258 13.3051 28.5415
254 64 3 0.459706 14.3726 12.707 28.5112
255 64 3 0.569831 12.8741 12.7414 28.7244
256 64 4 -1.02954 13.6252 13.1564 28.5611
257 65 2 0 16.0237 8.47424 27.2827
258 65 3 0.484024 15.9556 7.90723 28.0509
259 65 3 0.552811 16.8919 8.28949 26.9243
260 65 4 -1.03684 16.1261 8.37801 27.3352
261 66 2 0 5.27707 6.93287 26.4352
262 66 3 0.51161 5.59414 7.51833 25.7475
263 66 3 0.585189 4.99709 6.14494 25.9694
264 66 4 -1.0968 5.28182 6.90695 26.2876
265 67 2 0 16.5428 0.982162 26.6067
266 67 3 0.510316 17.2993 0.735733 26.0746
267 67 3 0.469597 15.7862 0.778721 26.0569
268 67 4 -0.979913 16.5428 0.924574 26.4682
269 68 2 0 11.6217 11.1913 28.5209
270 68 3 0.621658 11.7901 10.8611 27.6384
271 68 3 0.48828 11.6725 10.4165 29.0808
272 68 4 -1.10994 11.6497 11.0498 28.4796
273 69 2 0 12.8356 1.18463 25.2365
274 69 3 0.554549 12.5813 1.09203 24.3184
275 69 3 0.600439 12.0342 1.00185 25.7271
276 69 4 -1.15499 12.7005 1.14938 25.1818
277 70 2 0 5.07106 11.7235 27.6575
278 70 3 0.652338 4.78537 10.9777 28.1851
279 70 3 0.511941 4.58026 12.4671 28.0074
280 70 4 -1.16428 4.97166 11.7232 27.7698
281 71 2 0 4.33133 3.91057 28.3486
282 71 3 0.459595 3.80416 4.57548 28.7916
283 71 3 0.565093 3.88491 3.08521 28.5376
284 71 4 -1.02469 4.2067 3.89003 28.4295
285 72 2 0 1.79572 13.3996 28.1151
286 72 3 0.625286 1.69814 12.5084 27.7797
287 72 3 0.456888 1.25386 13.4198 28.9039
288 72 4 -1.08217 1.71386 13.2881 28.1732
289 73 2 0 9.20548 19.6696 26.8925
290 73 3 0.537243 9.09704 18.7226 26.9799
291 73 3 0.645847 9.56701 19.7897 26.0143
292 73 4 -1.18309 9.23788 19.5638 26.7913
293 74 2 0 13.7919 15.9221 26.8022
294 74 3 0.551173 13.7943 15.118 27.3216
295 74 3 0.458855 14.4045 16.5019 27.2548
296 74 4 -1.01003 13.8706 15.8934 26.9266
297 75 2 0 3.7381 1.0009 28.6237
298 75 3 0.532301 4.65902 0.810451 28.4452
299 75 3 0.54083 3.32215 0.140796 28.6823
300 75 4 -1.07313 3.80275 0.866416 28.6083
301 76 2 0 8.51835 8.26923 28.2031
302 76 3 0.506691 8.06925 9.11381 28.168
303 76 3 0.473944 8.928 8.251 29.068
304 76 4 -0.980635 8.5133 8.37501 28.3093
305 77 2 0 8.15189 2.04341 30.2267
306 77 3 0.50891 7.5952 1.96751 29.4518
307 77 3 0.43861 8.53387 1.17232 30.3341
308 77 4 -0.94752 8.12953 1.92219 30.1413
309 78 2 0 14.0346 19.4307 26.8784
310 78 3 0.561123 13.6807 20.0747 26.265
311 78 3 0.529791 14.8972 19.7723 27.114
312 78 4 -1.09091 14.0997 19.5568 26.83
313 79 2 0 4.11374 9.17953 28.2391
314 79 3 0.473001 3.3214 8.89916 28.6972
315 79 3 0.588064 4.45453 8.38014 27.8378
316 79 4 -1.06106 4.05594 9.04131 28.2464
317 80 2 0 9.35067 10.3386 30.5212
318 80 3 0.439012 9.85661 11.0272 30.9526
319 80 3 0.548624 9.20642 10.667 29.6337
320 80 4 -0.987636 9.39697 10.4688 30.4628
321 81 2 0 7.0337 18.1388 29.3789
322 81 3 0.467123 6.45544 17.3952 29.2088
323 81 3 0.45934 6.44113 18.8602 29.5902
324 81 4 -0.926463 6.88382 18.1359 29.3842
325 82 1 0.00026394 0 0 10
326 82 1 0.000406683 1.47089 2.54765 10
327 82 1 0.000520577 0 5.09531 10
328 82 1 0.000523364 1.47089 7.64296 10
329 82 1 0.000436628 0 10.1906 10
330 82 1 0.000267345 1.47089 12.7383 10
331 82 1 0.000175971 0 15.2859 10
332 82 1 0.000142109 1.47089 17.8336 10
333 82 1 0.000201263 2.94178 0 10
334 82 1 0.00030192 4.41266 2.54765 10
335 82 1 0.000491063 2.94178 5.09531 10
336 82 1 0.000481949 4.41266 7.64296 10
337 82 1 0.000403172 2.94178 10.1906 10
338 82 1 0.00021894 4.41266 12.7383 10
339 82 1 0.00011815 2.94178 15.2859 10
340 82 1 5.11163e-05 4.41266 17.8336 10
341 82 1 7.86669e-05 5.88355 0 10
342 82 1 0.000189156 7.35444 2.54765 10
343 82 1 0.000397089 5.88355 5.09531 10
344 82 1 0.00043723 7.35444 7.64296 10
345 82 1 0.000376034 5.88355 10.1906 10
346 82 1 0.000206607 7.35444 12.7383 10
347 82 1 5.24901e-05 5.88355 15.2859 10
348 82 1 -2.94652e-05 7.35444 17.8336 10
349 82 1 6.22311e-06 8.82533 0 10
350 82 1 0.000163787 10.2962 2.54765 10
351 82 1 0.000336333 8.82533 5.09531 10
352 82 1 0.000438876 10.2962 7.64296 10
353 82 1 0.000380112 8.82533 10.1906 10
354 82 1 0.000248789 10.2962 12.7383 10
355 82 1 5.21708e-05 8.82533 15.2859 10
356 82 1 -2.00003e-05 10.2962 17.8336 10
357 82 1 4.91783e-05 11.7671 0 10
358 82 1 0.000252458 13.238 2.54765 10
359 82 1 0.000360776 11.7671 5.09531 10
360 82 1 0.00048068 13.238 7.64296 10
361 82 1 0.000419927 11.7671 10.1906 10
362 82 1 0.000301868 13.238 12.7383 10
363 82 1 0.000119474 11.7671 15.2859 10
364 82 1 7.38291e-05 13.238 17.8336 10
365 82 1 0.000182301 14.7089 0 10
366 82 1 0.000384472 16.1798 2.54765 10
367 82 1 0.00045053 14.7089 5.09531 10
368 82 1 0.000521547 16.1798 7.64296 10
369 82 1 0.000446412 14.7089 10.1906 10
370 82 1 0.000306836 16.1798 12.7383 10
371 82 1 0.000180099 14.7089 15.2859 10
372 82 1 0.000153961 16.1798 17.8336 10
373 82 1 -7.5706e-05 1.47089 0.849218 12.402
374 82 1 8.43522e-05 2.94178 3.39687 12.402
375 82 1 0.000316537 1.47089 5.94452 12.402
376 82 1 0.000292088 2.94178 8.49218 12.402
377 82 1 0.000189091 1.47089 11.0398 12.402
378 82 1 -0.000136356 2.94178 13.5875 12.402
379 82 1 -0.00030212 1.47089 16.1351 12.402
380 82 1 -0.000342141 2.94178 18.6828 12.402
381 82 1 -0.000188505 4.41266 0.849218 12.402
382 82 1 1.88747e-05 5.88355 3.39687 12.402
383 82 1 0.000201374 4.41266 5.94452 12.402
384 82 1 0.000155214 5.88355 8.49218 12.402
385 82 1 5.05156e-05 4.41266 11.0398 12.402
386 82 1 -0.000304476 5.88355 13.5875 12.402
387 82 1 -0.000409658 4.41266 16.1351 12.402
388 82 1 -0.000425608 5.88355 18.6828 12.402
389 82 1 -0.000246218 7.35444 0.849218 12.402
390 82 1 1.2691e-05 8.82533 3.39687 12.402
391 82 1 0.000166343 7.35444 5.94452 12.402
392 82 1 8.07737e-05 8.82533 8.49218 12.402
393 82 1 -0.000135166 7.35444 11.0398 12.402
394 82 1 -0.000371459 8.82533 13.5875 12.402
395 82 1 -0.000487492 7.35444 16.1351 12.402
396 82 1 -0.000429807 8.82533 18.6828 12.402
397 82 1 -0.000230431 10.2962 0.849218 12.402
398 82 1 7.7919e-05 11.7671 3.39687 12.402
399 82 1 0.000208868 10.2962 5.94452 12.402
400 82 1 0.000187593 11.7671 8.49218 12.402
401 82 1 -0.000108175 10.2962 11.0398 12.402
402 82 1 -0.000192031 11.7671 13.5875 12.402
403 82 1 -0.000409842 10.2962 16.1351 12.402
404 82 1 -0.000314523 11.7671 18.6828 12.402
405 82 1 -0.00011126 13.238 0.849218 12.402
406 82 1 0.000200733 14.7089 3.39687 12.402
407 82 1 0.000325652 13.238 5.94452 12.402
408 82 1 0.000328919 14.7089 8.49218 12.402
409 82 1 9.55819e-05 13.238 11.0398 12.402
410 82 1 -3.74368e-05 14.7089 13.5875 12.402
411 82 1 -0.000227752 13.238 16.1351 12.402
412 82 1 -0.000196071 14.7089 18.6828 12.402
413 82 1 -2.11826e-05 16.1798 0.849218 12.402
414 82 1 0.000210852 0 3.39687 12.402
415 82 1 0.000392489 16.1798 5.94452 12.402
416 82 1 0.000368068 0 8.49218 12.402
417 82 1 0.000193078 16.1798 11.0398 12.402
418 82 1 -5.10971e-05 0 13.5875 12.402
419 82 1 -0.000198433 16.1798 16.1351 12.402
420 82 1 -0.000227983 0 18.6828 12.402
421 82 1 -0.00169684 2.94178 1.69844 14.8039
422 82 1 -0.00191114 4.41266 4.24609 14.8039
423 82 1 -0.00193398 2.94178 6.79374 14.8039
424 82 1 -0.00138031 4.41266 9.34139 14.8039
425 82 1 -0.000711383 2.94178 11.889 14.8039
426 82 1 -0.000794942 4.41266 14.4367 14.8039
427 82 1 -0.00101902 2.94178 16.9844 14.8039
428 82 1 -0.00101537 4.41266 19.532 14.8039
429 82 1 -0.000999294 5.88355 1.69844 14.8039
430 82 1 -0.00104058 7.35444 4.24609 14.8039
431 82 1 -0.0017027 5.88355 6.79374 14.8039
432 82 1 -0.00193605 7.35444 9.34139 14.8039
433 82 1 -0.00145968 5.88355 11.889 14.8039
434 82 1 -0.0014056 7.35444 14.4367 14.8039
435 82 1 -0.000632968 5.88355 16.9844 14.8039
436 82 1 -0.000276726 7.35444 19.532 14.8039
437 82 1 -0.000339346 8.82533 1.69844 14.8039
438 82 1 -0.000639574 10.2962 4.24609 14.8039
439 82 1 -0.00135828 8.82533 6.79374 14.8039
440 82 1 -0.0020769 10.2962 9.34139 14.8039
441 82 1 -0.00229816 8.82533 11.889 14.8039
442 82 1 -0.00148831 10.2962 14.4367 14.8039
443 82 1 -0.000614288 8.82533 16.9844 14.8039
444 82 1 -0.000281677 10.2962 19.532 14.8039
445 82 1 -0.00056354 11.7671 1.69844 14.8039
446 82 1 -0.000930881 13.238 4.24609 14.8039
447 82 1 -0.00121376 11.7671 6.79374 14.8039
448 82 1 -0.00170111 13.238 9.34139 14.8039
449 82 1 -0.0019347 11.7671 11.889 14.8039
450 82 1 -0.00101442 13.238 14.4367 14.8039
451 82 1 -0.000578005 11.7671 16.9844 14.8039
452 82 1 -0.00064701 13.238 19.532 14.8039
453 82 1 -0.000972665 14.7089 1.69844 14.8039
454 82 1 -0.0014058 16.1798 4.24609 14.8039
455 82 1 -0.00144739 14.7089 6.79374 14.8039
456 82 1 -0.00148877 16.1798 9.34139 14.8039
457 82 1 -0.0013344 14.7089 11.889 14.8039
458 82 1 -0.000948202 16.1798 14.4367 14.8039
459 82 1 -0.000777224 14.7089 16.9844 14.8039
460 82 1 -0.00108418 16.1798 19.532 14.8039
461 82 1 -0.00139522 0 1.69844 14.8039
462 82 1 -0.00197906 1.47089 4.24609 14.8039
463 82 1 -0.00176509 0 6.79374 14.8039
464 82 1 -0.0012355 1.47089 9.34139 14.8039
465 82 1 -0.000899309 0 11.889 14.8039
466 82 1 -0.000810681 1.47089 14.4367 14.8039
467 82 1 -0.00123676 0 16.9844 14.8039
468 82 1 -0.00143365 1.47089 19.532 14.8039
469 82 1 -0.00400698 4.41266 2.54765 17.2059
470 82 1 -0.00494471 5.88355 5.09531 17.2059
471 82 1 -0.00592118 4.41266 7.64296 17.2059
472 82 1 -0.00369781 5.88355 10.1906 17.2059
473 82 1 0.000294779 4.41266 12.7383 17.2059
474 82 1 0.00187224 5.88355 15.2859 17.2059
475 82 1 0.00150931 4.41266 17.8336 17.2059
476 82 1 0.00158556 5.88355 0 17.2059
477 82 1 5.87634e-05 7.35444 2.54765 17.2059
478 82 1 -0.00190262 8.82533 5.09531 17.2059
479 82 1 -0.00491787 7.35444 7.64296 17.2059
480 82 1 -0.00620708 8.82533 10.1906 17.2059
481 82 1 -0.00310525 7.35444 12.7383 17.2059
482 82 1 0.000364416 8.82533 15.2859 17.2059
483 82 1 0.00406721 7.35444 17.8336 17.2059
484 82 1 0.00367767 8.82533 0 17.2059
485 82 1 0.000684622 10.2962 2.54765 17.2059
486 82 1 -0.00217918 11.7671 5.09531 17.2059
487 82 1 -0.00450305 10.2962 7.64296 17.2059
488 82 1 -0.00598279 11.7671 10.1906 17.2059
489 82 1 -0.00456609 10.2962 12.7383 17.2059
490 82 1 0.000311506 11.7671 15.2859 17.2059
491 82 1 0.00334569 10.2962 17.8336 17.2059
492 82 1 0.00144773 11.7671 0 17.2059
493 82 1 -0.00159438 13.238 2.54765 17.2059
494 82 1 -0.0047001 14.7089 5.09531 17.2059
495 82 1 -0.00514422 13.238 7.64296 17.2059
496 82 1 -0.00512938 14.7089 10.1906 17.2059
497 82 1 -0.00303351 13.238 12.7383 17.2059
498 82 1 -0.000285913 14.7089 15.2859 17.2059
499 82 1 0.00148644 13.238 17.8336 17.2059
500 82 1 -0.0010165 14.7089 0 17.2059
501 82 1 -0.00379962 16.1798 2.54765 17.2059
502 82 1 -0.00707929 0 5.09531 17.2059
503 82 1 -0.00663163 16.1798 7.64296 17.2059
504 82 1 -0.00368315 0 10.1906 17.2059
505 82 1 -0.00204506 16.1798 12.7383 17.2059
506 82 1 -0.00127965 0 15.2859 17.2059
507 82 1 -0.00134963 16.1798 17.8336 17.2059
508 82 1 -0.00286765 0 0 17.2059
509 82 1 -0.00543447 1.47089 2.54765 17.2059
510 82 1 -0.00779197 2.94178 5.09531 17.2059
511 82 1 -0.00657834 1.47089 7.64296 17.2059
512 82 1 -0.00213076 2.94178 10.1906 17.2059
513 82 1 -9.71463e-05 1.47089 12.7383 17.2059
514 82 1 0.000976777 2.94178 15.2859 17.2059
515 82 1 -0.0019694 1.47089 17.8336 17.2059
516 82 1 -0.00237219 2.94178 0 17.2059
517 82 1 0.00130177 5.88355 3.39687 19.6078
518 82 1 -0.000455787 7.35444 5.94452 19.6078
519 82 1 -0.00170069 5.88355 8.49218 19.6078
520 82 1 0.000188176 7.35444 11.0398 19.6078
521 82 1 0.0104868 5.88355 13.5875 19.6078
522 82 1 0.0158618 7.35444 16.1351 19.6078
523 82 1 0.0160186 5.88355 18.6828 19.6078
524 82 1 0.0134977 7.35444 0.849218 19.6078
525 82 1 0.00722989 8.82533 3.39687 19.6078
526 82 1 0.00231027 10.2962 5.94452 19.6078
527 82 1 -0.00185887 8.82533 8.49218 19.6078
528 82 1 -0.00371588 10.2962 11.0398 19.6078
529 82 1 0.00336561 8.82533 13.5875 19.6078
530 82 1 0.0123858 10.2962 16.1351 19.6078
531 82 1 0.0180517 8.82533 18.6828 19.6078
532 82 1 0.0112556 10.2962 0.849218 19.6078
533 82 1 0.0045892 11.7671 3.39687 19.6078
534 82 1 -0.00167169 13.238 5.94452 19.6078
535 82 1 -0.00257737 11.7671 8.49218 19.6078
536 82 1 -0.00224436 13.238 11.0398 19.6078
537 82 1 0.00317435 11.7671 13.5875 19.6078
538 82 1 0.00942204 13.238 16.1351 19.6078
539 82 1 0.0117741 11.7671 18.6828 19.6078
540 82 1 0.00517403 13.238 0.849218 19.6078
541 82 1 -0.00049128 14.7089 3.39687 19.6078
542 82 1 -0.00841758 16.1798 5.94452 19.6078
543 82 1 -0.00587148 14.7089 8.49218 19.6078
544 82 1 -0.000309803 16.1798 11.0398 19.6078
545 82 1 0.00355047 14.7089 13.5875 19.6078
546 82 1 0.00312151 16.1798 16.1351 19.6078
547 82 1 0.00596045 14.7089 18.6828 19.6078
548 82 1 0.00200057 16.1798 0.849218 19.6078
549 82 1 -0.00499819 0 3.39687 19.6078
550 82 1 -0.0106236 1.47089 5.94452 19.6078
551 82 1 -0.00601006 0 8.49218 19.6078
552 82 1 0.00551977 1.47089 11.0398 19.6078
553 82 1 0.00491094 0 13.5875 19.6078
554 82 1 0.00489685 1.47089 16.1351 19.6078
555 82 1 0.000743358 0 18.6828 19.6078
556 82 1 -0.000118056 1.47089 0.849218 19.6078
557 82 1 -0.00617531 2.94178 3.39687 19.6078
558 82 1 -0.00779013 4.41266 5.94452 19.6078
559 82 1 -0.00262081 2.94178 8.49218 19.6078
560 82 1 0.0069546 4.41266 11.0398 19.6078
561 82 1 0.0117799 2.94178 13.5875 19.6078
562 82 1 0.0147404 4.41266 16.1351 19.6078
563 82 1 0.00567959 2.94178 18.6828 19.6078
564 82 1 0.00480207 4.41266 0.849218 19.6078
ITEM: TIMESTEP
5000
ITEM: NUMBER OF ATOMS
564
ITEM: BOX BOUNDS pp pp ff
0.0000000000000000e+00 1.7650658050000001e+01
0.0000000000000000e+00 2.0381224350000000e+01
0.0000000000000000e+00 6.0000000000000000e+01
ITEM: ATOMS id mol type q x y z
1 1 2 0 9.01878 17.0481 22.7315
2 1 3 0.587152 9.69795 17.7207 22.7833
3 1 3 0.501473 8.80121 16.998 21.8007
4 1 4 -1.08862 9.07787 17.1278 22.619
5 2 2 0 14.846 17.1411 22.758
6 2 3 0.54206 14.008 16.6939 22.8757
7 2 3 0.561586 15.4066 16.4925 22.3323
8 2 4 -1.10365 14.8105 17.0008 22.7186
9 3 2 0 17.5563 9.48515 22.4641
10 3 3 0.576326 17.0505 10.2802 22.2958
11 3 3 0.599497 0.810525 9.78785 22.5399
12 3 4 -1.17582 17.6074 9.62567 22.4523
13 4 2 0 2.16501 4.3695 22.3491
14 4 3 0.493706 1.44152 3.83344 22.0243
15 4 3 0.636897 1.78929 5.2441 22.4498
16 4 4 -1.1306 2.02429 4.41283 22.3204
17 5 2 0 14.1505 8.11593 22.7533
18 5 3 0.502828 14.3929 8.86147 23.3026
19 5 3 0.487287 14.9498 7.9027 22.2718
20 5 4 -0.990115 14.2839 8.18407 22.762
21 6 2 0 2.60559 10.2048 22.3438
22 6 3 0.543565 3.2229 9.48047 22.2414
23 6 3 0.602832 3.01 10.7741 22.9984
24 6 4 -1.1464 2.73638 10.185 22.4145
25 7 2 0 5.97015 16.9189 22.8746
26 7 3 0.58253 5.53099 17.6927 22.5217
27 7 3 0.523592 6.88936 17.1762 22.9459
28 7 4 -1.10612 6.0316 17.0509 22.8386
29 8 2 0 7.44346 19.5458 22.2539
30 8 3 0.546887 8.39355 19.4488 22.3183
31 8 3 0.525848 7.15149 19.6551 23.159
32 8 4 -1.07273 7.5277 19.5473 22.378
33 9 2 0 7.27485 2.76227 22.378
34 9 3 0.570251 7.43157 1.88022 22.0409
35 9 3 0.555983 8.13557 3.06503 22.6674
36 9 4 -1.12623 7.4051 2.68811 22.3719
37 10 2 0 4.03501 19.0327 22.3699
38 10 3 0.61087 3.19349 18.6982 22.0597
39 10 3 0.54393 3.90905 19.9796 22.4314
40 10 4 -1.1548 3.91116 19.1111 22.3381
41 11 2 0 4.27788 7.621 22.4435
42 11 3 0.671855 4.74934 6.85582 22.1141
43 11 3 0.575544 4.92241 8.3283 22.4203
44 11 4 -1.2474 4.42074 7.61359 22.3983
45 12 2 0 1.38374 19.2823 22.5433
46 12 3 0.543404 1.18571 18.8482 23.3731
47 12 3 0.511661 0.568359 19.2302 22.0446
48 12 4 -1.05507 1.25401 19.2201 22.5857
49 13 2 0 14.9354 11.1023 22.3591
50 13 3 0.586207 14.0303 10.7953 22.3066
51 13 3 0.498664 14.9334 11.7333 23.0789
52 13 4 -1.08487 14.8193 11.1437 22.4445
53 14 2 0 11.9106 16.7859 22.4109
54 14 3 0.521818 12.0015 17.7266 22.5628
55 14 3 0.511981 12.0625 16.6785 21.472
56 14 4 -1.0338 11.9417 16.8926 22.3102
57 15 2 0 12.5703 4.59462 22.4711
58 15 3 0.546693 12.1276 5.34537 22.0754
59 15 3 0.565388 13.4923 4.84987 22.5045
60 15 4 -1.11208 12.6317 4.7234 22.4247
61 16 2 0 11.0077 7.41983 22.6762
62 16 3 0.560002 11.8034 7.95182 22.6638
63 16 3 0.530381 10.3177 8.02639 22.9447
64 16 4 -1.09038 11.0213 7.56558 22.709
65 17 2 0 2.93575 1.661 22.5006
66 17 3 0.553256 2.78183 2.52295 22.1138
67 17 3 0.568146 2.42123 1.06056 21.9612
68 17 4 -1.1214 2.85018 1.69448 22.382
69 18 2 0 7.94246 7.36862 22.6648
70 18 3 0.4904 8.56997 6.98902 22.0496
71 18 3 0.562356 8.00551 8.31269 22.5199
72 18 4 -1.05276 8.03086 7.44088 22.5675
73 19 2 0 13.563 1.76159 22.4431
74 19 3 0.608141 12.7275 1.85168 21.9849
75 19 3 0.514716 13.9418 2.64052 22.4267
76 19 4 -1.12286 13.5046 1.88564 22.3824
77 20 2 0 5.93637 5.24625 22.5424
78 20 3 0.560303 6.66099 5.80509 22.8233
79 20 3 0.628048 6.34047 4.39452 22.3767
80 20 4 -1.18835 6.08086 5.20876 22.5572
81 21 2 0 15.6352 4.7584 22.3727
82 21 3 0.439226 15.936 5.66691 22.3928
83 21 3 0.658516 16.0173 4.36175 23.1556
84 21 4 -1.09774 15.7226 4.82393 22.4755
85 22 2 0 3.16648 15.7334 22.4967
86 22 3 0.465615 3.40048 15.1729 21.7569
87 22 3 0.54728 4.00433 16.0597 22.825
88 22 4 -1.01289 3.30369 15.7035 22.444
89 23 2 0 9.04347 10.1822 22.3218
90 23 3 0.586426 8.48472 10.9536 22.2272
91 23 3 0.590614 9.88923 10.4532 21.9648
92 23 4 -1.17704 9.08021 10.3156 22.264
93 24 2 0 4.01407 12.5818 22.4854
94 24 3 0.50476 4.93491 12.3211 22.4678
95 24 3 0.529195 3.62509 12.1402 21.7306
96 24 4 -1.03395 4.08215 12.4919 22.3866
97 25 2 0 7.48318 12.4997 22.494
98 25 3 0.604758 6.92967 12.8487 23.1927
99 25 3 0.516739 7.64485 13.248 21.9195
100 25 4 -1.1215 7.43302 12.6402 22.5099
101 26 2 0 2.4728 19.5469 25.4024
102 26 3 0.525411 3.1617 19.4711 24.7422
103 26 3 0.555805 2.80548 20.1953 26.023
104 26 4 -1.08122 2.60358 19.6202 25.3973
105 27 2 0 5.76014 10.0037 22.3139
106 27 3 0.623171 6.01377 10.2162 23.2121
107 27 3 0.497753 6.57638 9.73748 21.8906
108 27 4 -1.12092 5.8971 9.9968 22.3747
109 28 2 0 16.0425 14.5226 22.3822
110 28 3 0.570772 15.1984 14.1097 22.5646
111 28 3 0.471776 16.6155 13.7974 22.1328
112 28 4 -1.04255 16.0078 14.3769 22.3736
113 29 2 0 10.269 14.2401 22.44
114 29 3 0.488664 9.49009 13.8321 22.8182
115 29 3 0.609667 10.276 15.1259 22.8025
116 29 4 -1.09833 10.1702 14.3012 22.5348
117 30 2 0 0.0955521 1.88097 22.283
118 30 3 0.52621 0.613547 1.92872 23.0865
119 30 3 0.520274 16.893 1.5526 22.5666
120 30 4 -1.04648 0.0526417 1.84505 22.4222
121 31 2 0 4.92903 2.69471 24.5857
122 31 3 0.57219 4.31807 2.76601 23.8523
123 31 3 0.573273 5.75378 2.4198 24.1851
124 31 4 -1.14546 4.9564 2.66864 24.4405
125 32 2 0 10.7941 2.07066 22.3043
126 32 3 0.52045 10.9148 1.79491 23.213
127 32 3 0.655873 10.8968 3.02208 22.3266
128 32 4 -1.17632 10.8227 2.15716 22.4235
129 33 2 0 13.0741 13.9126 22.3432
130 33 3 0.612868 12.1343 14.087 22.2931
131 33 3 0.480945 13.2105 13.5855 23.2324
132 33 4 -1.09381 12.9713 13.8931 22.4506
133 34 2 0 11.7864 10.9577 22.5434
134 34 3 0.568787 11.7284 11.8804 22.7913
135 34 3 0.574251 11.5568 10.4802 23.3405
136 34 4 -1.14304 11.7496 11.0147 22.6771
137 35 2 0 15.5154 20.0751 23.1442
138 35 3 0.614156 15.1853 19.1818 23.0473
139 35 3 0.573322 14.8676 0.238846 22.6974
140 35 4 -1.18748 15.3902 20.0305 23.0746
141 36 2 0 5.84381 19.3637 24.7511
142 36 3 0.626647 5.68469 18.7308 25.4513
143 36 3 0.542681 5.45387 18.9643 23.9734
144 36 4 -1.16933 5.77353 19.2315 24.7411
145 37 2 0 14.2564 10.1925 24.9837
146 37 3 0.627499 14.7259 9.99186 25.7933
147 37 3 0.558423 14.942 10.2607 24.3192
148 37 4 -1.18592 14.4042 10.1755 25.0023
149 38 2 0 1.14597 7.01571 22.3312
150 38 3 0.495775 2.08862 7.17112 22.3903
151 38 3 0.624673 0.772896 7.8751 22.135
152 38 4 -1.12045 1.21888 7.14561 22.3136
153 39 2 0 10.3309 19.706 22.5487
154 39 3 0.622151 10.3184 0.269169 22.3931
155 39 3 0.597335 11.111 19.5614 23.0843
156 39 4 -1.21949 10.4292 19.8084 22.5973
157 40 2 0 0.616962 11.8926 26.8181
158 40 3 0.612029 17.6492 11.1715 26.9357
159 40 3 0.614342 1.35912 11.4997 26.3587
160 40 4 -1.22637 0.632804 11.75 26.7744
161 41 2 0 8.07221 3.87303 25.9708
162 41 3 0.53286 7.35106 4.16344 26.5292
163 41 3 0.554534 7.88804 2.94898 25.8021
164 41 4 -1.08739 7.95632 3.79192 26.0207
165 42 2 0 7.58216 17.0888 25.8622
166 42 3 0.572708 8.11833 16.3212 26.0611
167 42 3 0.44792 7.79021 17.2973 24.9515
168 42 4 -1.02063 7.67743 17.0172 25.7711
169 43 2 0 0.225105 8.24724 25.1403
170 43 3 0.548242 17.4486 8.03666 24.31
171 43 3 0.642232 1.15195 8.06407 24.9866
172 43 4 -1.19047 0.289066 8.19683 25.0144
173 44 2 0 13.3088 5.52469 25.0408
174 44 3 0.536525 13.1721 5.41617 24.0996
175 44 3 0.574864 13.4866 4.64034 25.361
176 44 4 -1.11139 13.3141 5.39759 24.9613
177 45 2 0 9.63395 4.49311 23.3713
178 45 3 0.571552 9.04676 4.43068 24.1246
179 45 3 0.600699 9.82797 5.42733 23.295
180 45 4 -1.17225 9.58362 4.60471 23.4579
181 46 2 0 2.95295 11.2474 25.4239
182 46 3 0.545363 3.90732 11.317 25.4003
183 46 3 0.568195 2.78015 10.3064 25.393
184 46 4 -1.11356 3.053 11.1358 25.4169
185 47 2 0 2.96809 8.39196 24.8124
186 47 3 0.562033 3.63894 7.95366 25.3359
187 47 3 0.630924 3.25174 8.26828 23.9066
188 47 4 -1.19296 3.09028 8.32002 24.7635
189 48 2 0 4.60613 5.53461 25.0077
190 48 3 0.531385 4.84234 4.94613 25.7248
191 48 3 0.63817 4.81459 5.0417 24.2141
192 48 4 -1.16955 4.66305 5.39618 24.9979
193 49 2 0 12.3443 19.0841 24.2803
194 49 3 0.543678 12.2412 18.1501 24.4625
195 49 3 0.758934 12.9368 19.398 24.9635
196 49 4 -1.30261 12.407 19.0048 24.3911
197 50 2 0 6.32394 10.5719 25.0279
198 50 3 0.521343 6.76693 11.098 25.6936
199 50 3 0.641133 6.00619 9.8033 25.5017
200 50 4 -1.16248 6.33998 10.5409 25.1737
201 51 2 0 9.18994 11.6126 25.3506
202 51 3 0.532245 8.46621 11.6602 24.726
203 51 3 0.624909 9.78267 10.9577 24.9817
204 51 4 -1.15715 9.17317 11.5348 25.2234
205 52 2 0 1.5232 2.24879 24.9529
206 52 3 0.528453 2.02159 2.67631 24.2565
207 52 3 0.568735 2.16646 2.0851 25.6426
208 52 4 -1.09719 1.66934 2.28256 24.952
209 53 2 0 4.00346 14.711 25.3517
210 53 3 0.525604 3.65425 14.1294 26.0269
211 53 3 0.626294 3.5687 14.4316 24.546
212 53 4 -1.1519 3.9031 14.6008 25.335
213 54 2 0 16.2616 12.519 24.486
214 54 3 0.583572 16.8557 12.4426 25.2326
215 54 3 0.524221 16.5566 13.3035 24.0238
216 54 4 -1.10779 16.3754 12.6096 24.5224
217 55 2 0 16.4908 3.62533 24.7306
218 55 3 0.560412 15.8347 3.24833 25.3168
219 55 3 0.594939 17.3185 3.23902 25.0167
220 55 4 -1.15535 16.5128 3.52762 24.8423
221 56 2 0 10.7245 6.37686 25.8491
222 56 3 0.593522 11.5301 6.03908 25.4576
223 56 3 0.441132 10.7364 6.04491 26.7468
224 56 4 -1.03465 10.8292 6.29113 25.9139
225 57 2 0 4.24966 17.3307 26.2696
226 57 3 0.538674 3.33876 17.6132 26.1879
227 57 3 0.631733 4.21193 16.3766 26.2027
228 57 4 -1.17041 4.12822 17.2447 26.2505
229 58 2 0 11.4104 9.586 24.8939
230 58 3 0.623024 11.4379 8.69696 25.2475
231 58 3 0.575746 12.3195 9.88404 24.9229
232 58 4 -1.19877 11.5303 9.51035 24.9429
233 59 2 0 6.77631 14.366 24.64
234 59 3 0.520775 7.08766 15.2154 24.3273
235 59 3 0.6171 6.0071 14.5729 25.1708
236 59 4 -1.13787 6.7177 14.5012 24.6679
237 60 2 0 7.88939 1.03234 25.2758
238 60 3 0.575626 7.10271 0.549747 25.5297
239 60 3 0.670567 8.59056 0.381442 25.3063
240 60 4 -1.24619 7.87844 0.887239 25.3122
241 61 2 0 9.57622 14.7228 26.012
242 61 3 0.489545 9.07051 14.0803 25.5143
243 61 3 0.586382 10.0555 14.2031 26.6573
244 61 4 -1.07593 9.57284 14.574 26.0309
245 62 2 0 8.08379 11.4859 28.1375
246 62 3 0.640259 7.29775 12.0295 28.0845
247 62 3 0.545863 8.46084 11.5228 27.2585
248 62 4 -1.18612 8.03144 11.5602 28.0182
249 63 2 0 10.9343 2.74799 25.3594
250 63 3 0.595907 10.2566 2.57153 26.0119
251 63 3 0.571167 10.5137 3.33212 24.7284
252 63 4 -1.16707 10.7937 2.80018 25.3621
253 64 2 0 12.6828 12.757 24.823
254 64 3 0.560978 13.4643 12.2084 24.8909
255 64 3 0.554411 12.2364 12.6437 25.6621
256 64 4 -1.11539 12.7257 12.6723 24.9391
257 65 2 0 16.4672 9.61456 27.0201
258 65 3 0.501933 16.1173 8.92996 27.5903
259 65 3 0.680081 17.02 9.14642 26.3944
260 65 4 -1.18201 16.4932 9.467 27.013
261 66 2 0 5.67696 7.9439 25.8996
262 66 3 0.594865 6.56227 7.58007 25.9092
263 66 3 0.655628 5.14378 7.26697 25.4829
264 66 4 -1.25049 5.72204 7.81067 25.8475
265 67 2 0 16.9051 0.133601 25.5544
266 67 3 0.569884 0.169072 0.153136 25.2728
267 67 3 0.559058 16.4053 20.4404 24.7415
268 67 4 -1.12894 16.9582 0.126571 25.4143
269 68 2 0 11.0149 12.7762 27.5842
270 68 3 0.482081 10.6556 12.1732 26.9334
271 68 3 0.601525 11.0199 12.2745 28.3994
272 68 4 -1.08361 10.9695 12.6348 27.6053
273 69 2 0 13.7392 2.6221 25.4197
274 69 3 0.546951 13.8866 2.1707 24.5886
275 69 3 0.622404 12.7869 2.64982 25.5121
276 69 4 -1.16935 13.6362 2.56787 25.3251
277 70 2 0 5.33823 12.5385 28.0323
278 70 3 0.527095 5.29369 11.6206 28.3002
279 70 3 0.586175 4.43156 12.8432 28.0682
280 70 4 -1.11327 5.21646 12.46 28.0712
281 71 2 0 5.43985 4.2131 27.6191
282 71 3 0.491325 5.37757 4.2044 28.5742
283 71 3 0.546798 4.92619 3.45581 27.3382
284 71 4 -1.03812 5.36612 4.11505 27.7054
285 72 2 0 2.3401 13.4805 28.168
286 72 3 0.654223 1.61136 12.9847 27.7948
287 72 3 0.454303 1.94773 14.3057 28.4533
288 72 4 -1.10853 2.19658 13.5227 28.1567
289 73 2 0 9.94006 19.5167 25.6615
290 73 3 0.601624 10.8098 19.4021 25.2785
291 73 3 0.512104 9.57892 18.6314 25.706
292 73 4 -1.11373 10.0052 19.3887 25.6182
293 74 2 0 12.7932 15.7936 25.5595
294 74 3 0.515679 12.4596 14.9393 25.2855
295 74 3 0.451187 13.6727 15.6126 25.8913
296 74 4 -0.966866 12.8631 15.661 25.5669
297 75 2 0 3.84789 1.34703 26.8517
298 75 3 0.586383 4.41047 1.58659 26.1153
299 75 3 0.582472 4.40741 0.815799 27.4183
300 75 4 -1.16885 3.99154 1.30969 26.83
301 76 2 0 8.42758 8.87869 27.0376
302 76 3 0.552659 8.34475 9.61633 27.6419
303 76 3 0.436117 8.60358 8.12528 27.6012
304 76 4 -0.988776 8.43951 8.87667 27.1871
305 77 2 0 8.91504 1.45682 27.724
306 77 3 0.554862 8.38953 1.11878 26.9989
307 77 3 0.423004 8.28968 1.92865 28.2741
308 77 4 -0.977866 8.76771 1.47395 27.7016
309 78 2 0 14.1365 20.0289 26.2003
310 78 3 0.646582 15.0623 20.2334 26.0688
311 78 3 0.508181 13.8188 0.337277 26.7832
312 78 4 -1.15476 14.2144 20.1434 26.2581
313 79 2 0 5.29944 9.40513 28.3389
314 79 3 0.452265 5.19423 8.93311 29.1649
315 79 3 0.58051 5.47437 8.72131 27.6923
316 79 4 -1.03278 5.30836 9.25717 28.3618
317 80 2 0 10.1865 11.4154 30.1387
318 80 3 0.486669 9.56854 11.4117 30.8697
319 80 3 0.537746 9.63438 11.3838 29.3575
320 80 4 -1.02442 10.0367 11.4109 30.1323
321 81 2 0 5.53864 19.4203 27.7388
322 81 3 0.486129 6.14266 19.086 28.4019
323 81 3 0.61297 5.08321 18.643 27.4154
324 81 4 -1.0991 5.55766 19.278 27.7823
325 82 1 0.000216445 0 0 10
326 82 1 0.00016144 1.47089 2.54765 10
327 82 1 0.000154077 0 5.09531 10
328 82 1 0.000237371 1.47089 7.64296 10
329 82 1 0.000274207 0 10.1906 10
330 82 1 0.000377049 1.47089 12.7383 10
331 82 1 0.000339853 0 15.2859 10
332 82 1 0.000306461 1.47089 17.8336 10
333 82 1 0.00024003 2.94178 0 10
334 82 1 0.00023613 4.41266 2.54765 10
335 82 1 0.000216011 2.94178 5.09531 10
336 82 1 0.00036085 4.41266 7.64296 10
337 82 1 0.000384804 2.94178 10.1906 10
338 82 1 0.00048734 4.41266 12.7383 10
339 82 1 0.00041951 2.94178 15.2859 10
340 82 1 0.000377851 4.41266 17.8336 10
341 82 1 0.000325764 5.88355 0 10
342 82 1 0.000335921 7.35444 2.54765 10
343 82 1 0.000331595 5.88355 5.09531 10
344 82 1 0.000439044 7.35444 7.64296 10
345 82 1 0.00048878 5.88355 10.1906 10
346 82 1 0.000520426 7.35444 12.7383 10
347 82 1 0.000487257 5.88355 15.2859 10
348 82 1 0.000436114 7.35444 17.8336 10
349 82 1 0.000382563 8.82533 0 10
350 82 1 0.000353629 10.2962 2.54765 10
351 82 1 0.000379333 8.82533 5.09531 10
352 82 1 0.000391733 10.2962 7.64296 10
353 82 1 0.00048077 8.82533 10.1906 10
354 82 1 0.00045452 10.2962 12.7383 10
355 82 1 0.000479284 8.82533 15.2859 10
356 82 1 0.000414731 10.2962 17.8336 10
357 82 1 0.00034957 11.7671 0 10
358 82 1 0.000276448 13.238 2.54765 10
359 82 1 0.000312089 11.7671 5.09531 10
360 82 1 0.000268752 13.238 7.64296 10
361 82 1 0.000370663 11.7671 10.1906 10
362 82 1 0.000347988 13.238 12.7383 10
363 82 1 0.000403036 11.7671 15.2859 10
364 82 1 0.000345024 13.238 17.8336 10
365 82 1 0.000273092 14.7089 0 10
366 82 1 0.000183034 16.1798 2.54765 10
367 82 1 0.000199918 14.7089 5.09531 10
368 82 1 0.000193674 16.1798 7.64296 10
369 82 1 0.000266959 14.7089 10.1906 10
370 82 1 0.000305274 16.1798 12.7383 10
371 82 1 0.00033373 14.7089 15.2859 10
372 82 1 0.000295768 16.1798 17.8336 10
373 82 1 -0.000346398 1.47089 0.849218 12.402
374 82 1 -0.000260726 2.94178 3.39687 12.402
375 82 1 -0.000158939 1.47089 5.94452 12.402
376 82 1 3.26143e-05 2.94178 8.49218 12.402
377 82 1 5.88802e-05 1.47089 11.0398 12.402
378 82 1 6.96727e-05 2.94178 13.5875 12.402
379 82 1 -7.09089e-05 1.47089 16.1351 12.402
380 82 1 -0.000176322 2.94178 18.6828 12.402
381 82 1 -0.000179236 4.41266 0.849218 12.402
382 82 1 -8.71466e-05 5.88355 3.39687 12.402
383 82 1 -6.70299e-05 4.41266 5.94452 12.402
384 82 1 0.000109834 5.88355 8.49218 12.402
385 82 1 0.000148831 4.41266 11.0398 12.402
386 82 1 0.000168015 5.88355 13.5875 12.402
387 82 1 4.11959e-05 4.41266 16.1351 12.402
388 82 1 1.55547e-05 5.88355 18.6828 12.402
389 82 1 1.95291e-05 7.35444 0.849218 12.402
390 82 1 -1.44175e-05 8.82533 3.39687 12.402
391 82 1 5.30074e-07 7.35444 5.94452 12.402
392 82 1 0.000122437 8.82533 8.49218 12.402
393 82 1 0.000228486 7.35444 11.0398 12.402
394 82 1 0.000180908 8.82533 13.5875 12.402
395 82 1 7.49269e-05 7.35444 16.1351 12.402
396 82 1 -1.58379e-05 8.82533 18.6828 12.402
397 82 1 -4.5597e-05 10.2962 0.849218 12.402
398 82 1 -8.62734e-05 11.7671 3.39687 12.402
399 82 1 -2.4001e-05 10.2962 5.94452 12.402
400 82 1 8.0146e-05 11.7671 8.49218 12.402
401 82 1 0.000244601 10.2962 11.0398 12.402
402 82 1 0.000171154 11.7671 13.5875 12.402
403 82 1 -3.99597e-05 10.2962 16.1351 12.402
404 82 1 -0.000169959 11.7671 18.6828 12.402
405 82 1 -0.000174974 13.238 0.849218 12.402
406 82 1 -0.000168763 14.7089 3.39687 12.402
407 82 1 -9.77174e-05 13.238 5.94452 12.402
408 82 1 -1.69076e-05 14.7089 8.49218 12.402
409 82 1 0.000210347 13.238 11.0398 12.402
410 82 1 0.00014714 14.7089 13.5875 12.402
411 82 1 -7.95867e-05 13.238 16.1351 12.402
412 82 1 -0.000234657 14.7089 18.6828 12.402
413 82 1 -0.00028085 16.1798 0.849218 12.402
414 82 1 -0.000263718 0 3.39687 12.402
415 82 1 -0.000156601 16.1798 5.94452 12.402
416 82 1 -5.53921e-05 0 8.49218 12.402
417 82 1 9.11082e-05 16.1798 11.0398 12.402
418 82 1 6.02628e-05 0 13.5875 12.402
419 82 1 -7.28307e-05 16.1798 16.1351 12.402
420 82 1 -0.000263385 0 18.6828 12.402
421 82 1 -0.00152475 2.94178 1.69844 14.8039
422 82 1 -0.00137336 4.41266 4.24609 14.8039
423 82 1 -0.00124233 2.94178 6.79374 14.8039
424 82 1 -0.00174344 4.41266 9.34139 14.8039
425 82 1 -0.00186224 2.94178 11.889 14.8039
426 82 1 -0.00212993 4.41266 14.4367 14.8039
427 82 1 -0.00173455 2.94178 16.9844 14.8039
428 82 1 -0.00137117 4.41266 19.532 14.8039
429 82 1 -0.00123677 5.88355 1.69844 14.8039
430 82 1 -0.00159029 7.35444 4.24609 14.8039
431 82 1 -0.00174409 5.88355 6.79374 14.8039
432 82 1 -0.00207172 7.35444 9.34139 14.8039
433 82 1 -0.00221555 5.88355 11.889 14.8039
434 82 1 -0.0023416 7.35444 14.4367 14.8039
435 82 1 -0.00170918 5.88355 16.9844 14.8039
436 82 1 -0.00126774 7.35444 19.532 14.8039
437 82 1 -0.00136348 8.82533 1.69844 14.8039
438 82 1 -0.00183869 10.2962 4.24609 14.8039
439 82 1 -0.00208854 8.82533 6.79374 14.8039
440 82 1 -0.0015891 10.2962 9.34139 14.8039
441 82 1 -0.00187262 8.82533 11.889 14.8039
442 82 1 -0.00191783 10.2962 14.4367 14.8039
443 82 1 -0.00222175 8.82533 16.9844 14.8039
444 82 1 -0.00197016 10.2962 19.532 14.8039
445 82 1 -0.00167406 11.7671 1.69844 14.8039
446 82 1 -0.00151523 13.238 4.24609 14.8039
447 82 1 -0.00178336 11.7671 6.79374 14.8039
448 82 1 -0.000900678 13.238 9.34139 14.8039
449 82 1 -0.000771333 11.7671 11.889 14.8039
450 82 1 -0.00105019 13.238 14.4367 14.8039
451 82 1 -0.00236766 11.7671 16.9844 14.8039
452 82 1 -0.00211484 13.238 19.532 14.8039
453 82 1 -0.00137419 14.7089 1.69844 14.8039
454 82 1 -0.000970755 16.1798 4.24609 14.8039
455 82 1 -0.00125791 14.7089 6.79374 14.8039
456 82 1 -0.000887432 16.1798 9.34139 14.8039
457 82 1 -0.000384775 14.7089 11.889 14.8039
458 82 1 -0.00101355 16.1798 14.4367 14.8039
459 82 1 -0.0018038 14.7089 16.9844 14.8039
460 82 1 -0.00178573 16.1798 19.532 14.8039
461 82 1 -0.00133306 0 1.69844 14.8039
462 82 1 -0.0010897 1.47089 4.24609 14.8039
463 82 1 -0.00101013 0 6.79374 14.8039
464 82 1 -0.00127028 1.47089 9.34139 14.8039
465 82 1 -0.00112986 0 11.889 14.8039
466 82 1 -0.00169181 1.47089 14.4367 14.8039
467 82 1 -0.0016956 0 16.9844 14.8039
468 82 1 -0.00179355 1.47089 19.532 14.8039
469 82 1 -0.000983002 4.41266 2.54765 17.2059
470 82 1 -0.00282174 5.88355 5.09531 17.2059
471 82 1 -0.00311438 4.41266 7.64296 17.2059
472 82 1 -0.00596655 5.88355 10.1906 17.2059
473 82 1 -0.00634534 4.41266 12.7383 17.2059
474 82 1 -0.00591341 5.88355 15.2859 17.2059
475 82 1 -0.00210667 4.41266 17.8336 17.2059
476 82 1 -0.000463793 5.88355 0 17.2059
477 82 1 -0.00173929 7.35444 2.54765 17.2059
478 82 1 -0.00491572 8.82533 5.09531 17.2059
479 82 1 -0.00588834 7.35444 7.64296 17.2059
480 82 1 -0.0054799 8.82533 10.1906 17.2059
481 82 1 -0.0069667 7.35444 12.7383 17.2059
482 82 1 -0.00669187 8.82533 15.2859 17.2059
483 82 1 -0.00343488 7.35444 17.8336 17.2059
484 82 1 -0.00214426 8.82533 0 17.2059
485 82 1 -0.00299206 10.2962 2.54765 17.2059
486 82 1 -0.00399031 11.7671 5.09531 17.2059
487 82 1 -0.00530737 10.2962 7.64296 17.2059
488 82 1 -0.0015106 11.7671 10.1906 17.2059
489 82 1 -0.00347855 10.2962 12.7383 17.2059
490 82 1 -0.00403105 11.7671 15.2859 17.2059
491 82 1 -0.00592773 10.2962 17.8336 17.2059
492 82 1 -0.00384569 11.7671 0 17.2059
493 82 1 -0.00163199 13.238 2.54765 17.2059
494 82 1 -0.000652138 14.7089 5.09531 17.2059
495 82 1 -0.00255468 13.238 7.64296 17.2059
496 82 1 0.000110789 14.7089 10.1906 17.2059
497 82 1 0.000824706 13.238 12.7383 17.2059
498 82 1 -0.00141219 14.7089 15.2859 17.2059
499 82 1 -0.00490786 13.238 17.8336 17.2059
500 82 1 -0.00238565 14.7089 0 17.2059
501 82 1 0.000930979 16.1798 2.54765 17.2059
502 82 1 0.00113836 0 5.09531 17.2059
503 82 1 -0.000820899 16.1798 7.64296 17.2059
504 82 1 -0.00165829 0 10.1906 17.2059
505 82 1 -0.00048322 16.1798 12.7383 17.2059
506 82 1 -0.00286121 0 15.2859 17.2059
507 82 1 -0.00307649 16.1798 17.8336 17.2059
508 82 1 -0.00147114 0 0 17.2059
509 82 1 0.000243647 1.47089 2.54765 17.2059
510 82 1 -0.000298617 2.94178 5.09531 17.2059
511 82 1 -0.000795505 1.47089 7.64296 17.2059
512 82 1 -0.00379275 2.94178 10.1906 17.2059
513 82 1 -0.0042466 1.47089 12.7383 17.2059
514 82 1 -0.00456605 2.94178 15.2859 17.2059
515 82 1 -0.0029202 1.47089 17.8336 17.2059
516 82 1 -0.00142153 2.94178 0 17.2059
517 82 1 0.00656452 5.88355 3.39687 19.6078
518 82 1 -0.000858461 7.35444 5.94452 19.6078
519 82 1 -0.00185188 5.88355 8.49218 19.6078
520 82 1 -0.00497312 7.35444 11.0398 19.6078
521 82 1 -0.00544615 5.88355 13.5875 19.6078
522 82 1 -0.00149348 7.35444 16.1351 19.6078
523 82 1 0.00961726 5.88355 18.6828 19.6078
524 82 1 0.00862356 7.35444 0.849218 19.6078
525 82 1 0.0026744 8.82533 3.39687 19.6078
526 82 1 -0.0022378 10.2962 5.94452 19.6078
527 82 1 -0.00380141 8.82533 8.49218 19.6078
528 82 1 0.00182766 10.2962 11.0398 19.6078
529 82 1 -0.00395439 8.82533 13.5875 19.6078
530 82 1 -0.00210618 10.2962 16.1351 19.6078
531 82 1 0.00338762 8.82533 18.6828 19.6078
532 82 1 0.00472339 10.2962 0.849218 19.6078
533 82 1 0.00391996 11.7671 3.39687 19.6078
534 82 1 0.00306206 13.238 5.94452 19.6078
535 82 1 0.00148488 11.7671 8.49218 19.6078
536 82 1 0.00904989 13.238 11.0398 19.6078
537 82 1 0.00650476 11.7671 13.5875 19.6078
538 82 1 0.00413117 13.238 16.1351 19.6078
539 82 1 0.000192737 11.7671 18.6828 19.6078
540 82 1 0.00615637 13.238 0.849218 19.6078
541 82 1 0.0109553 14.7089 3.39687 19.6078
542 82 1 0.00906066 16.1798 5.94452 19.6078
543 82 1 0.00454284 14.7089 8.49218 19.6078
544 82 1 0.00558615 16.1798 11.0398 19.6078
545 82 1 0.00948687 14.7089 13.5875 19.6078
546 82 1 0.00499474 16.1798 16.1351 19.6078
547 82 1 0.00434528 14.7089 18.6828 19.6078
548 82 1 0.0112027 16.1798 0.849218 19.6078
549 82 1 0.0148127 0 3.39687 19.6078
550 82 1 0.0106856 1.47089 5.94452 19.6078
551 82 1 0.00557656 0 8.49218 19.6078
552 82 1 0.000250743 1.47089 11.0398 19.6078
553 82 1 0.00132899 0 13.5875 19.6078
554 82 1 0.00259444 1.47089 16.1351 19.6078
555 82 1 0.00608468 0 18.6828 19.6078
556 82 1 0.0110443 1.47089 0.849218 19.6078
557 82 1 0.0108621 2.94178 3.39687 19.6078
558 82 1 0.00604097 4.41266 5.94452 19.6078
559 82 1 0.00396436 2.94178 8.49218 19.6078
560 82 1 -0.00284415 4.41266 11.0398 19.6078
561 82 1 -0.00262262 2.94178 13.5875 19.6078
562 82 1 0.00292339 4.41266 16.1351 19.6078
563 82 1 0.00843465 2.94178 18.6828 19.6078
564 82 1 0.0100655 4.41266 0.849218 19.6078
ITEM: TIMESTEP
7500
ITEM: NUMBER OF ATOMS
564
ITEM: BOX BOUNDS pp pp ff
0.0000000000000000e+00 1.7650658050000001e+01
0.0000000000000000e+00 2.0381224350000000e+01
0.0000000000000000e+00 6.0000000000000000e+01
ITEM: ATOMS id mol type q x y z
1 1 2 0 9.19309 17.2905 22.3797
2 1 3 0.484208 8.53261 17.2877 23.0725
3 1 3 0.604819 9.74674 18.0455 22.579
4 1 4 -1.08903 9.17942 17.3868 22.4939
5 2 2 0 16.8406 16.8011 22.8165
6 2 3 0.637414 16.8951 15.8466 22.7688
7 2 3 0.500171 17.7342 17.083 23.012
8 2 4 -1.13759 16.962 16.715 22.8354
9 3 2 0 15.8804 8.68559 22.3624
10 3 3 0.610165 15.2785 9.29645 21.9372
11 3 3 0.650139 16.6914 9.18281 22.4691
12 3 4 -1.2603 15.9072 8.82743 22.3216
13 4 2 0 1.4871 4.21278 22.2384
14 4 3 0.577291 0.958501 3.41511 22.2154
15 4 3 0.556166 0.890334 4.90446 21.9526
16 4 4 -1.13346 1.34304 4.19921 22.1989
17 5 2 0 13.3337 7.37022 22.5544
18 5 3 0.575603 13.3936 6.98431 23.4283
19 5 3 0.555204 14.2023 7.73938 22.395
20 5 4 -1.13081 13.4526 7.36808 22.6458
21 6 2 0 0.753953 9.86751 22.6734
22 6 3 0.564222 1.63307 10.0673 22.3518
23 6 3 0.536396 0.734246 10.2302 23.559
24 6 4 -1.10062 0.863968 9.93951 22.7456
25 7 2 0 5.76325 17.1871 22.3008
26 7 3 0.619376 5.32968 18.0394 22.3435
27 7 3 0.532315 6.30562 17.2329 21.5135
28 7 4 -1.15169 5.77718 17.302 22.2055
29 8 2 0 7.82493 0.179702 22.509
30 8 3 0.562435 8.60692 20.206 22.0862
31 8 3 0.514023 8.16147 0.812005 23.1439
32 8 4 -1.07646 7.96812 0.215204 22.5361
33 9 2 0 6.92207 4.12896 22.31
34 9 3 0.520399 7.13223 3.24894 21.9976
35 9 3 0.610163 7.76661 4.57778 22.3492
36 9 4 -1.13056 7.05708 4.07376 22.2751
37 10 2 0 4.7484 20.0223 22.5173
38 10 3 0.610216 4.39126 0.42303 22.0963
39 10 3 0.561721 5.69669 -0.271757 22.4204
40 10 4 -1.17194 4.82407 20.1336 22.451
41 11 2 0 2.30033 7.03223 22.3103
42 11 3 0.684945 3.0099 6.40089 22.4293
43 11 3 0.57267 2.74406 7.85986 22.125
44 11 4 -1.25762 2.44797 7.05736 22.3018
45 12 2 0 1.74304 18.0133 22.635
46 12 3 0.522158 1.31754 17.9961 21.7777
47 12 3 0.574703 1.97975 17.1013 22.8038
48 12 4 -1.09686 1.71888 17.8943 22.5469
49 13 2 0 14.5236 11.3945 22.4472
50 13 3 0.553467 14.0934 12.2496 22.4431
51 13 3 0.539383 15.331 11.5344 22.9419
52 13 4 -1.09285 14.5719 11.5219 22.51
53 14 2 0 12.686 17.4472 22.2941
54 14 3 0.555651 12.4647 18.0412 23.0113
55 14 3 0.476962 12.409 17.9111 21.504
56 14 4 -1.03261 12.6222 17.5826 22.2848
57 15 2 0 12.7343 4.30931 22.3355
58 15 3 0.497464 12.3991 5.0129 21.7797
59 15 3 0.615823 13.6128 4.59732 22.5836
60 15 4 -1.11329 12.8039 4.43624 22.2961
61 16 2 0 10.3818 8.10913 22.5143
62 16 3 0.588459 11.2278 8.13449 22.0673
63 16 3 0.534124 10.5561 7.64267 23.3318
64 16 4 -1.12258 10.5124 8.05266 22.5617
65 17 2 0 3.97268 2.38441 22.4358
66 17 3 0.678754 3.40613 3.10286 22.1546
67 17 3 0.42811 3.65185 2.15283 23.3074
68 17 4 -1.10686 3.85909 2.44673 22.5114
69 18 2 0 7.00695 7.91806 22.5063
70 18 3 0.418983 7.39506 7.17655 22.9708
71 18 3 0.61804 7.54498 8.66813 22.7596
72 18 4 -1.03702 7.12551 7.91915 22.5982
73 19 2 0 14.5125 1.39421 22.5412
74 19 3 0.465089 14.192 1.01809 21.7214
75 19 3 0.572942 14.794 2.27827 22.3058
76 19 4 -1.03803 14.5075 1.45923 22.4061
77 20 2 0 4.70722 5.93423 22.757
78 20 3 0.581844 5.28921 6.69406 22.7707
79 20 3 0.644615 5.2692 5.20625 22.4916
80 20 4 -1.22646 4.85366 5.93831 22.7248
81 21 2 0 15.7115 4.1425 22.7513
82 21 3 0.645999 16.4709 4.70703 22.607
83 21 3 0.503185 15.7902 3.86292 23.6634
84 21 4 -1.14918 15.8188 4.17898 22.8496
85 22 2 0 3.12828 15.5504 22.3909
86 22 3 0.555882 3.12594 14.6431 22.0858
87 22 3 0.538032 4.04324 15.8236 22.3243
88 22 4 -1.09391 3.24511 15.4693 22.3433
89 23 2 0 8.23864 10.4692 23.1309
90 23 3 0.639022 8.15436 11.4096 22.9735
91 23 3 0.613408 9.14292 10.2659 22.8917
92 23 4 -1.25243 8.34361 10.5635 23.0801
93 24 2 0 3.13655 12.4609 22.4876
94 24 3 0.511139 4.00988 12.7791 22.7164
95 24 3 0.507079 2.87307 11.9245 23.2353
96 24 4 -1.01822 3.21462 12.433 22.6126
97 25 2 0 7.48205 13.2719 22.6811
98 25 3 0.528826 6.70136 13.0818 23.2013
99 25 3 0.520907 7.83862 14.072 23.067
100 25 4 -1.04973 7.42776 13.3499 22.7971
101 26 2 0 2.74371 20.1708 24.5877
102 26 3 0.566845 2.43162 19.3869 24.1356
103 26 3 0.524006 3.61032 20.3336 24.2153
104 26 4 -1.09085 2.8147 20.0913 24.4822
105 27 2 0 4.15606 9.3991 22.317
106 27 3 0.568678 4.46984 10.1594 22.8066
107 27 3 0.510752 4.78375 9.29873 21.6013
108 27 4 -1.07943 4.27658 9.48358 22.288
109 28 2 0 16.4528 14.0925 22.4656
110 28 3 0.64274 15.4972 14.118 22.4149
111 28 3 0.532541 16.7392 14.0106 21.5559
112 28 4 -1.17528 16.3671 14.0852 22.3427
113 29 2 0 10.7122 14.7148 22.6211
114 29 3 0.484283 10.8417 15.0065 23.5236
115 29 3 0.604387 10.3626 15.4825 22.1687
116 29 4 -1.08867 10.684 14.8504 22.6787
117 30 2 0 0.596159 1.60568 22.5071
118 30 3 0.490424 0.65326 1.72704 23.4548
119 30 3 0.592632 17.6382 0.87541 22.3949
120 30 4 -1.08306 0.525564 1.52773 22.614
121 31 2 0 5.74125 1.83163 24.562
122 31 3 0.649807 5.06105 2.12888 23.9577
123 31 3 0.552189 5.63927 2.39097 25.3321
124 31 4 -1.202 5.64112 1.94128 24.5833
125 32 2 0 10.8464 2.16115 22.6621
126 32 3 0.54865 10.1491 2.43249 23.2591
127 32 3 0.590102 11.1907 2.98065 22.307
128 32 4 -1.13875 10.8012 2.30079 22.693
129 33 2 0 13.5893 14.4339 22.4743
130 33 3 0.603821 13.4651 15.3217 22.8098
131 33 3 0.519442 12.9636 13.9019 22.9659
132 33 4 -1.12326 13.4933 14.4795 22.5802
133 34 2 0 11.4143 11.9167 22.3673
134 34 3 0.587314 11.1339 12.8296 22.3025
135 34 3 0.422219 11.577 11.7813 23.3008
136 34 4 -1.00953 11.3992 12.0162 22.4785
137 35 2 0 16.5567 19.5022 23.0639
138 35 3 0.648363 16.5265 18.5534 22.9413
139 35 3 0.532599 15.6484 19.7864 22.9616
140 35 4 -1.18096 16.4366 19.4171 23.0351
141 36 2 0 7.03894 20.2799 26.3184
142 36 3 0.576407 7.05866 19.4754 25.8002
143 36 3 0.582297 6.45559 0.482343 25.8333
144 36 4 -1.1587 6.96679 20.2516 26.19
145 37 2 0 13.9083 10.4089 25.1404
146 37 3 0.579069 14.6467 10.3883 25.749
147 37 3 0.600099 14.3127 10.4293 24.273
148 37 4 -1.17917 14.0546 10.4089 25.1073
149 38 2 0 17.3612 6.41952 22.4665
150 38 3 0.650151 0.613261 6.69983 22.3154
151 38 3 0.617048 16.8383 7.20903 22.3272
152 38 4 -1.2672 17.4098 6.55647 22.4294
153 39 2 0 10.5841 19.7297 22.7407
154 39 3 0.64682 10.7198 0.295596 22.7125
155 39 3 0.584427 11.0866 19.4378 23.5013
156 39 4 -1.23125 10.6658 19.8136 22.8345
157 40 2 0 0.37295 11.943 27.8424
158 40 3 0.611027 17.1531 11.5458 27.8667
159 40 3 0.45888 0.76911 11.6041 27.0396
160 40 4 -1.06991 0.312225 11.8488 27.7427
161 41 2 0 7.93963 5.22785 25.5381
162 41 3 0.586248 7.46272 4.85773 26.281
163 41 3 0.569009 7.64783 4.71364 24.7854
164 41 4 -1.15526 7.84122 5.11464 25.5369
165 42 2 0 7.62656 17.6706 24.9147
166 42 3 0.563996 7.92485 16.8111 25.2121
167 42 3 0.552606 7.01363 17.4795 24.2047
168 42 4 -1.1166 7.58628 17.5361 24.8618
169 43 2 0 16.5405 8.51682 25.1338
170 43 3 0.56338 16.3529 8.6625 24.2065
171 43 3 0.603704 17.2952 7.92802 25.1363
172 43 4 -1.16708 16.6131 8.4601 25.0154
173 44 2 0 13.7309 6.02925 25.1255
174 44 3 0.543284 13.3414 5.1573 25.1903
175 44 3 0.526725 14.5621 5.9562 25.5945
176 44 4 -1.07001 13.7874 5.90828 25.1939
177 45 2 0 9.41966 5.33546 22.7709
178 45 3 0.503943 10.1373 4.97089 23.2888
179 45 3 0.615478 9.69335 6.23252 22.5796
180 45 4 -1.11942 9.54656 5.40362 22.8127
181 46 2 0 1.90542 11.4822 24.8971
182 46 3 0.581386 2.34614 12.3314 24.9265
183 46 3 0.623783 2.5916 10.8483 25.1059
184 46 4 -1.20517 2.04968 11.5097 24.9276
185 47 2 0 1.65162 7.03241 25.2015
186 47 3 0.588615 1.9879 6.17529 25.4632
187 47 3 0.547763 2.05263 7.19721 24.3481
188 47 4 -1.13638 1.746 6.94379 25.1258
189 48 2 0 4.98676 6.48007 25.7779
190 48 3 0.534137 5.93595 6.35977 25.7496
191 48 3 0.544415 4.69298 6.2807 24.889
192 48 4 -1.07855 5.07066 6.43914 25.6605
193 49 2 0 12.3134 18.9397 24.6923
194 49 3 0.585831 12.2929 18.0484 25.0407
195 49 3 0.681109 13.0823 19.3389 25.0994
196 49 4 -1.26694 12.4092 18.8767 24.789
197 50 2 0 5.57326 11.2582 24.1742
198 50 3 0.538762 6.47587 10.9501 24.0932
199 50 3 0.567805 5.2428 10.8284 24.963
200 50 4 -1.10657 5.6465 11.1638 24.2648
201 51 2 0 9.24169 11.939 25.446
202 51 3 0.511152 8.94407 11.0846 25.1334
203 51 3 0.5815 10.1776 11.822 25.6094
204 51 4 -1.09265 9.32339 11.8146 25.4269
205 52 2 0 3.15622 4.4111 25.4532
206 52 3 0.537107 3.97414 4.81682 25.7407
207 52 3 0.509948 2.66892 4.25428 26.262
208 52 4 -1.04705 3.19854 4.44296 25.5936
209 53 2 0 2.91102 14.2821 25.5625
210 53 3 0.556795 2.76972 13.7541 26.3483
211 53 3 0.501673 2.17892 14.8986 25.5528
212 53 4 -1.05847 2.79922 14.2934 25.6619
213 54 2 0 16.5752 11.8657 24.356
214 54 3 0.550636 17.4761 11.7386 24.6535
215 54 3 0.561323 16.5617 12.7561 24.005
216 54 4 -1.11196 16.6888 11.9634 24.3491
217 55 2 0 17.3964 3.75864 25.3548
218 55 3 0.532696 -0.330657 2.80484 25.3293
219 55 3 0.48175 0.289407 3.97623 24.5976
220 55 4 -1.01445 17.4562 3.6644 25.2546
221 56 2 0 10.2467 7.08089 25.2166
222 56 3 0.564965 10.8816 6.42035 25.4938
223 56 3 0.600478 9.3945 6.69286 25.4151
224 56 4 -1.16544 10.2189 6.94666 25.2775
225 57 2 0 4.55998 17.8169 25.4849
226 57 3 0.499821 3.97908 18.389 24.9834
227 57 3 0.535519 4.54726 18.179 26.3709
228 57 4 -1.03534 4.48399 17.9365 25.5341
229 58 2 0 11.3013 9.6348 26.2925
230 58 3 0.557167 11.1777 8.83404 25.7828
231 58 3 0.583917 12.1363 9.98815 25.9856
232 58 4 -1.14108 11.3924 9.57753 26.1879
233 59 2 0 5.31895 14.7604 24.1104
234 59 3 0.50673 5.51004 15.4732 23.5008
235 59 3 0.621366 4.63547 15.1102 24.682
236 59 4 -1.1281 5.25592 14.8964 24.1055
237 60 2 0 8.57897 2.48096 24.4458
238 60 3 0.605608 7.63939 2.3003 24.4739
239 60 3 0.584689 8.9104 2.15912 25.2841
240 60 4 -1.1903 8.50112 2.41663 24.5567
241 61 2 0 7.9783 14.7051 25.6076
242 61 3 0.537413 7.05145 14.7987 25.3876
243 61 3 0.575812 8.17319 13.7833 25.4387
244 61 4 -1.11322 7.8846 14.5991 25.5578
245 62 2 0 7.59396 11.6235 28.197
246 62 3 0.589096 6.67827 11.3609 28.1034
247 62 3 0.495756 7.80163 12.0671 27.3746
248 62 4 -1.08485 7.50333 11.6467 28.0797
249 63 2 0 10.5913 4.18906 25.9409
250 63 3 0.588043 10.4428 3.65844 26.7236
251 63 3 0.587228 9.7218 4.29642 25.5552
252 63 4 -1.17527 10.461 4.13488 25.9917
253 64 2 0 12.4206 12.946 25.445
254 64 3 0.580495 12.8936 12.127 25.2978
255 64 3 0.576302 12.5158 13.1129 26.3827
256 64 4 -1.1568 12.4933 12.8625 25.5462
257 65 2 0 15.7829 10.0762 27.3932
258 65 3 0.490708 15.1321 9.63928 27.9426
259 65 3 0.637023 15.9103 9.48215 26.6535
260 65 4 -1.12773 15.7159 9.94419 27.3689
261 66 2 0 6.48402 9.2744 25.9572
262 66 3 0.624054 7.08811 8.94464 26.6225
263 66 3 0.449806 7.05034 9.57255 25.2455
264 66 4 -1.07386 6.63385 9.27036 25.9513
265 67 2 0 17.7793 0.710756 25.3329
266 67 3 0.558995 0.852254 0.323746 25.8257
267 67 3 0.563952 17.7165 20.5588 24.5404
268 67 4 -1.12295 0.213243 0.592967 25.2945
269 68 2 0 12.5885 12.9516 28.3198
270 68 3 0.486753 13.275 12.8168 28.9731
271 68 3 0.556908 11.8873 13.3957 28.7967
272 68 4 -1.04366 12.5866 12.9912 28.4645
273 69 2 0 12.9671 2.9437 25.0757
274 69 3 0.528008 13.0251 2.86536 24.1235
275 69 3 0.570319 12.0589 3.19694 25.2407
276 69 4 -1.09833 12.8583 2.96609 24.9749
277 70 2 0 4.54804 11.2157 27.681
278 70 3 0.567915 4.1368 10.4568 27.2673
279 70 3 0.471429 3.82219 11.8127 27.8626
280 70 4 -1.03934 4.40248 11.195 27.6513
281 71 2 0 6.50771 3.01602 27.0247
282 71 3 0.558349 7.16766 2.49105 27.4776
283 71 3 0.588443 5.67865 2.76004 27.4289
284 71 4 -1.14679 6.48606 2.91605 27.1344
285 72 2 0 2.73328 13.5126 28.4024
286 72 3 0.58055 2.16125 12.7739 28.6105
287 72 3 0.469838 3.54975 13.3213 28.8639
288 72 4 -1.05039 2.76457 13.3936 28.4881
289 73 2 0 9.8789 0.505212 26.1566
290 73 3 0.560247 10.6177 20.5789 25.6315
291 73 3 0.579397 9.19878 -0.155136 26.0239
292 73 4 -1.13964 9.88641 0.381311 26.0724
293 74 2 0 11.6263 16.1441 25.4779
294 74 3 0.551163 11.9372 15.2488 25.6124
295 74 3 0.485112 10.9323 16.2572 26.1273
296 74 4 -1.03627 11.5773 16.044 25.5783
297 75 2 0 4.02777 1.67553 27.0762
298 75 3 0.485952 4.12062 1.5992 26.1265
299 75 3 0.552196 4.253 0.807127 27.4099
300 75 4 -1.03815 4.06849 1.55459 26.9973
301 76 2 0 8.92462 9.01297 27.7458
302 76 3 0.530615 8.74478 9.87648 28.1176
303 76 3 0.593422 9.71842 9.13636 27.2253
304 76 4 -1.12404 9.00321 9.1393 27.7268
305 77 2 0 9.8488 2.36611 28.2056
306 77 3 0.476984 10.7228 2.38579 28.5954
307 77 3 0.594724 9.78639 1.50138 27.7999
308 77 4 -1.07171 9.95269 2.25794 28.2036
309 78 2 0 14.5852 0.201296 25.4877
310 78 3 0.550099 15.5374 0.188238 25.391
311 78 3 0.562699 14.3095 1.00149 25.0406
312 78 4 -1.1128 14.6718 0.302059 25.4181
313 79 2 0 3.49353 9.13959 25.5708
314 79 3 0.619429 2.87659 8.44852 25.3299
315 79 3 0.617374 4.34207 8.69891 25.6155
316 79 4 -1.2368 3.52318 8.99472 25.5457
317 80 2 0 9.63542 13.7793 29.0818
318 80 3 0.456172 9.37455 14.134 28.2318
319 80 3 0.557328 9.11904 12.9789 29.1765
320 80 4 -1.0135 9.53592 13.7222 28.9851
321 81 2 0 5.11138 18.9264 27.9459
322 81 3 0.577415 5.85615 19.0998 27.3701
323 81 3 0.488969 5.15889 17.987 28.1233
324 81 4 -1.06638 5.2128 18.8284 27.8949
325 82 1 0.000489778 0 0 10
326 82 1 0.000400564 1.47089 2.54765 10
327 82 1 0.000321046 0 5.09531 10
328 82 1 0.000282236 1.47089 7.64296 10
329 82 1 0.000304874 0 10.1906 10
330 82 1 0.000413004 1.47089 12.7383 10
331 82 1 0.000473595 0 15.2859 10
332 82 1 0.000530252 1.47089 17.8336 10
333 82 1 0.000483304 2.94178 0 10
334 82 1 0.000401065 4.41266 2.54765 10
335 82 1 0.000309027 2.94178 5.09531 10
336 82 1 0.000268023 4.41266 7.64296 10
337 82 1 0.000316241 2.94178 10.1906 10
338 82 1 0.000359354 4.41266 12.7383 10
339 82 1 0.000484501 2.94178 15.2859 10
340 82 1 0.000482777 4.41266 17.8336 10
341 82 1 0.000457471 5.88355 0 10
342 82 1 0.000416694 7.35444 2.54765 10
343 82 1 0.000320306 5.88355 5.09531 10
344 82 1 0.000240436 7.35444 7.64296 10
345 82 1 0.000247084 5.88355 10.1906 10
346 82 1 0.000233404 7.35444 12.7383 10
347 82 1 0.000373962 5.88355 15.2859 10
348 82 1 0.000397844 7.35444 17.8336 10
349 82 1 0.000444863 8.82533 0 10
350 82 1 0.000434979 10.2962 2.54765 10
351 82 1 0.000333611 8.82533 5.09531 10
352 82 1 0.000227805 10.2962 7.64296 10
353 82 1 0.000174817 8.82533 10.1906 10
354 82 1 0.000163675 10.2962 12.7383 10
355 82 1 0.00026283 8.82533 15.2859 10
356 82 1 0.000361442 10.2962 17.8336 10
357 82 1 0.00044996 11.7671 0 10
358 82 1 0.000436227 13.238 2.54765 10
359 82 1 0.000343158 11.7671 5.09531 10
360 82 1 0.000239125 13.238 7.64296 10
361 82 1 0.00016654 11.7671 10.1906 10
362 82 1 0.000211681 13.238 12.7383 10
363 82 1 0.000257849 11.7671 15.2859 10
364 82 1 0.000399357 13.238 17.8336 10
365 82 1 0.000469709 14.7089 0 10
366 82 1 0.000420861 16.1798 2.54765 10
367 82 1 0.000337095 14.7089 5.09531 10
368 82 1 0.000266143 16.1798 7.64296 10
369 82 1 0.000224908 14.7089 10.1906 10
370 82 1 0.000332792 16.1798 12.7383 10
371 82 1 0.000358123 14.7089 15.2859 10
372 82 1 0.000482533 16.1798 17.8336 10
373 82 1 0.000156747 1.47089 0.849218 12.402
374 82 1 3.93428e-05 2.94178 3.39687 12.402
375 82 1 -0.000121637 1.47089 5.94452 12.402
376 82 1 -0.000192593 2.94178 8.49218 12.402
377 82 1 -0.00011322 1.47089 11.0398 12.402
378 82 1 5.47385e-05 2.94178 13.5875 12.402
379 82 1 0.00011994 1.47089 16.1351 12.402
380 82 1 0.000182618 2.94178 18.6828 12.402
381 82 1 0.000130522 4.41266 0.849218 12.402
382 82 1 2.99833e-05 5.88355 3.39687 12.402
383 82 1 -0.000120843 4.41266 5.94452 12.402
384 82 1 -0.000212278 5.88355 8.49218 12.402
385 82 1 -0.00010942 4.41266 11.0398 12.402
386 82 1 -6.17829e-06 5.88355 13.5875 12.402
387 82 1 0.000112895 4.41266 16.1351 12.402
388 82 1 8.32393e-05 5.88355 18.6828 12.402
389 82 1 8.15018e-05 7.35444 0.849218 12.402
390 82 1 2.45757e-05 8.82533 3.39687 12.402
391 82 1 -0.000102872 7.35444 5.94452 12.402
392 82 1 -0.000232596 8.82533 8.49218 12.402
393 82 1 -0.000169737 7.35444 11.0398 12.402
394 82 1 -9.08744e-05 8.82533 13.5875 12.402
395 82 1 -1.35641e-05 7.35444 16.1351 12.402
396 82 1 5.98584e-06 8.82533 18.6828 12.402
397 82 1 2.98834e-05 10.2962 0.849218 12.402
398 82 1 -5.65727e-05 11.7671 3.39687 12.402
399 82 1 -0.000160465 10.2962 5.94452 12.402
400 82 1 -0.000292384 11.7671 8.49218 12.402
401 82 1 -0.000211538 10.2962 11.0398 12.402
402 82 1 -0.000106684 11.7671 13.5875 12.402
403 82 1 -5.17349e-05 10.2962 16.1351 12.402
404 82 1 -2.26481e-05 11.7671 18.6828 12.402
405 82 1 -1.45332e-05 13.238 0.849218 12.402
406 82 1 -7.54471e-05 14.7089 3.39687 12.402
407 82 1 -0.000218887 13.238 5.94452 12.402
408 82 1 -0.000280318 14.7089 8.49218 12.402
409 82 1 -0.000233525 13.238 11.0398 12.402
410 82 1 -0.000121892 14.7089 13.5875 12.402
411 82 1 -3.87632e-05 13.238 16.1351 12.402
412 82 1 3.16656e-05 14.7089 18.6828 12.402
413 82 1 5.65154e-05 16.1798 0.849218 12.402
414 82 1 2.58975e-07 0 3.39687 12.402
415 82 1 -0.000173106 16.1798 5.94452 12.402
416 82 1 -0.000211538 0 8.49218 12.402
417 82 1 -0.000205489 16.1798 11.0398 12.402
418 82 1 -5.86314e-05 0 13.5875 12.402
419 82 1 1.36504e-05 16.1798 16.1351 12.402
420 82 1 0.0001412 0 18.6828 12.402
421 82 1 -0.00123453 2.94178 1.69844 14.8039
422 82 1 -0.00117086 4.41266 4.24609 14.8039
423 82 1 -0.00132953 2.94178 6.79374 14.8039
424 82 1 -0.00155712 4.41266 9.34139 14.8039
425 82 1 -0.00178373 2.94178 11.889 14.8039
426 82 1 -0.00180463 4.41266 14.4367 14.8039
427 82 1 -0.0020552 2.94178 16.9844 14.8039
428 82 1 -0.00180346 4.41266 19.532 14.8039
429 82 1 -0.00151925 5.88355 1.69844 14.8039
430 82 1 -0.00143969 7.35444 4.24609 14.8039
431 82 1 -0.00128777 5.88355 6.79374 14.8039
432 82 1 -0.00110072 7.35444 9.34139 14.8039
433 82 1 -0.00131419 5.88355 11.889 14.8039
434 82 1 -0.00126112 7.35444 14.4367 14.8039
435 82 1 -0.0020484 5.88355 16.9844 14.8039
436 82 1 -0.00193366 7.35444 19.532 14.8039
437 82 1 -0.00178735 8.82533 1.69844 14.8039
438 82 1 -0.00192892 10.2962 4.24609 14.8039
439 82 1 -0.00141264 8.82533 6.79374 14.8039
440 82 1 -0.000904901 10.2962 9.34139 14.8039
441 82 1 -0.000549382 8.82533 11.889 14.8039
442 82 1 -0.000588851 10.2962 14.4367 14.8039
443 82 1 -0.0015843 8.82533 16.9844 14.8039
444 82 1 -0.00187152 10.2962 19.532 14.8039
445 82 1 -0.00212579 11.7671 1.69844 14.8039
446 82 1 -0.00210713 13.238 4.24609 14.8039
447 82 1 -0.0018397 11.7671 6.79374 14.8039
448 82 1 -0.00134293 13.238 9.34139 14.8039
449 82 1 -0.000411296 11.7671 11.889 14.8039
450 82 1 -0.000887277 13.238 14.4367 14.8039
451 82 1 -0.0013487 11.7671 16.9844 14.8039
452 82 1 -0.00212682 13.238 19.532 14.8039
453 82 1 -0.00213272 14.7089 1.69844 14.8039
454 82 1 -0.00165168 16.1798 4.24609 14.8039
455 82 1 -0.00183711 14.7089 6.79374 14.8039
456 82 1 -0.00177155 16.1798 9.34139 14.8039
457 82 1 -0.0014064 14.7089 11.889 14.8039
458 82 1 -0.00202801 16.1798 14.4367 14.8039
459 82 1 -0.00178813 14.7089 16.9844 14.8039
460 82 1 -0.00202866 16.1798 19.532 14.8039
461 82 1 -0.00150142 0 1.69844 14.8039
462 82 1 -0.00116247 1.47089 4.24609 14.8039
463 82 1 -0.00147856 0 6.79374 14.8039
464 82 1 -0.00170736 1.47089 9.34139 14.8039
465 82 1 -0.00206864 0 11.889 14.8039
466 82 1 -0.00218095 1.47089 14.4367 14.8039
467 82 1 -0.00215654 0 16.9844 14.8039
468 82 1 -0.00169301 1.47089 19.532 14.8039
469 82 1 -0.00244754 4.41266 2.54765 17.2059
470 82 1 -0.00183307 5.88355 5.09531 17.2059
471 82 1 -0.00161495 4.41266 7.64296 17.2059
472 82 1 -0.00174016 5.88355 10.1906 17.2059
473 82 1 -0.00347922 4.41266 12.7383 17.2059
474 82 1 -0.00407425 5.88355 15.2859 17.2059
475 82 1 -0.00564399 4.41266 17.8336 17.2059
476 82 1 -0.00476004 5.88355 0 17.2059
477 82 1 -0.00386263 7.35444 2.54765 17.2059
478 82 1 -0.00325773 8.82533 5.09531 17.2059
479 82 1 -0.00116169 7.35444 7.64296 17.2059
480 82 1 0.00104119 8.82533 10.1906 17.2059
481 82 1 -0.000291505 7.35444 12.7383 17.2059
482 82 1 -0.000512793 8.82533 15.2859 17.2059
483 82 1 -0.00469063 7.35444 17.8336 17.2059
484 82 1 -0.0045976 8.82533 0 17.2059
485 82 1 -0.00485789 10.2962 2.54765 17.2059
486 82 1 -0.00441585 11.7671 5.09531 17.2059
487 82 1 -0.00158545 10.2962 7.64296 17.2059
488 82 1 0.00155074 11.7671 10.1906 17.2059
489 82 1 0.0031997 10.2962 12.7383 17.2059
490 82 1 0.00130048 11.7671 15.2859 17.2059
491 82 1 -0.00255705 10.2962 17.8336 17.2059
492 82 1 -0.00510784 11.7671 0 17.2059
493 82 1 -0.0053472 13.238 2.54765 17.2059
494 82 1 -0.00314637 14.7089 5.09531 17.2059
495 82 1 -0.00217491 13.238 7.64296 17.2059
496 82 1 -0.00122361 14.7089 10.1906 17.2059
497 82 1 0.00158742 13.238 12.7383 17.2059
498 82 1 -0.00257012 14.7089 15.2859 17.2059
499 82 1 -0.00337313 13.238 17.8336 17.2059
500 82 1 -0.00582038 14.7089 0 17.2059
501 82 1 -0.00366729 16.1798 2.54765 17.2059
502 82 1 -0.00100071 0 5.09531 17.2059
503 82 1 -0.0017116 16.1798 7.64296 17.2059
504 82 1 -0.00322685 0 10.1906 17.2059
505 82 1 -0.00405925 16.1798 12.7383 17.2059
506 82 1 -0.00660829 0 15.2859 17.2059
507 82 1 -0.00552606 16.1798 17.8336 17.2059
508 82 1 -0.00438182 0 0 17.2059
509 82 1 -0.00160843 1.47089 2.54765 17.2059
510 82 1 -0.000702045 2.94178 5.09531 17.2059
511 82 1 -0.0012472 1.47089 7.64296 17.2059
512 82 1 -0.00306909 2.94178 10.1906 17.2059
513 82 1 -0.00529175 1.47089 12.7383 17.2059
514 82 1 -0.00583924 2.94178 15.2859 17.2059
515 82 1 -0.00591372 1.47089 17.8336 17.2059
516 82 1 -0.00374088 2.94178 0 17.2059
517 82 1 0.00283153 5.88355 3.39687 19.6078
518 82 1 0.00422285 7.35444 5.94452 19.6078
519 82 1 0.00594578 5.88355 8.49218 19.6078
520 82 1 0.00818831 7.35444 11.0398 19.6078
521 82 1 0.00250033 5.88355 13.5875 19.6078
522 82 1 0.00174484 7.35444 16.1351 19.6078
523 82 1 -0.00201712 5.88355 18.6828 19.6078
524 82 1 -0.000248048 7.35444 0.849218 19.6078
525 82 1 -1.87767e-05 8.82533 3.39687 19.6078
526 82 1 0.0016894 10.2962 5.94452 19.6078
527 82 1 0.00810897 8.82533 8.49218 19.6078
528 82 1 0.0151286 10.2962 11.0398 19.6078
529 82 1 0.0115749 8.82533 13.5875 19.6078
530 82 1 0.00998827 10.2962 16.1351 19.6078
531 82 1 0.00196806 8.82533 18.6828 19.6078
532 82 1 0.000583906 10.2962 0.849218 19.6078
533 82 1 -0.000103332 11.7671 3.39687 19.6078
534 82 1 0.00396757 13.238 5.94452 19.6078
535 82 1 0.00854879 11.7671 8.49218 19.6078
536 82 1 0.0129126 13.238 11.0398 19.6078
537 82 1 0.0165044 11.7671 13.5875 19.6078
538 82 1 0.00854533 13.238 16.1351 19.6078
539 82 1 0.00358685 11.7671 18.6828 19.6078
540 82 1 -0.000886955 13.238 0.849218 19.6078
541 82 1 0.00304058 14.7089 3.39687 19.6078
542 82 1 0.0092061 16.1798 5.94452 19.6078
543 82 1 0.00806867 14.7089 8.49218 19.6078
544 82 1 0.00369682 16.1798 11.0398 19.6078
545 82 1 0.00624437 14.7089 13.5875 19.6078
546 82 1 -0.00179385 16.1798 16.1351 19.6078
547 82 1 -5.96196e-05 14.7089 18.6828 19.6078
548 82 1 0.000964901 16.1798 0.849218 19.6078
549 82 1 0.00804364 0 3.39687 19.6078
550 82 1 0.0113544 1.47089 5.94452 19.6078
551 82 1 0.0078954 0 8.49218 19.6078
552 82 1 0.00104877 1.47089 11.0398 19.6078
553 82 1 -0.00419822 0 13.5875 19.6078
554 82 1 -0.00507506 1.47089 16.1351 19.6078
555 82 1 -0.0015281 0 18.6828 19.6078
556 82 1 0.00434356 1.47089 0.849218 19.6078
557 82 1 0.00771027 2.94178 3.39687 19.6078
558 82 1 0.00757648 4.41266 5.94452 19.6078
559 82 1 0.00663732 2.94178 8.49218 19.6078
560 82 1 0.00259986 4.41266 11.0398 19.6078
561 82 1 -0.00209651 2.94178 13.5875 19.6078
562 82 1 -0.00268044 4.41266 16.1351 19.6078
563 82 1 -0.00109496 2.94178 18.6828 19.6078
564 82 1 0.00186325 4.41266 0.849218 19.6078
ITEM: TIMESTEP
10000
ITEM: NUMBER OF ATOMS
564
ITEM: BOX BOUNDS pp pp ff
0.0000000000000000e+00 1.7650658050000001e+01
0.0000000000000000e+00 2.0381224350000000e+01
0.0000000000000000e+00 6.0000000000000000e+01
ITEM: ATOMS id mol type q x y z
1 1 2 0 9.23491 17.0591 22.3733
2 1 3 0.549568 9.29951 16.5665 23.1915
3 1 3 0.605358 9.70497 17.8748 22.5466
4 1 4 -1.15493 9.30335 17.1005 22.5003
5 2 2 0 16.7285 16.9917 22.8202
6 2 3 0.57292 16.7231 16.0724 22.5535
7 2 3 0.54346 17.6472 17.2536 22.7602
8 2 4 -1.11638 16.8454 16.9076 22.7784
9 3 2 0 15.8988 9.46849 22.3253
10 3 3 0.56625 15.4572 10.2014 21.8963
11 3 3 0.577991 16.8285 9.61123 22.1477
12 3 4 -1.14424 15.9613 9.58058 22.2476
13 4 2 0 2.55403 3.68726 22.7094
14 4 3 0.638056 2.12545 3.5702 23.5573
15 4 3 0.611044 2.3503 4.58864 22.4599
16 4 4 -1.2491 2.47309 3.78766 22.786
17 5 2 0 13.8889 7.25824 22.716
18 5 3 0.535422 14.1884 7.25282 23.6252
19 5 3 0.536268 14.4752 7.87232 22.2739
20 5 4 -1.07169 14.0023 7.33616 22.7758
21 6 2 0 1.10985 9.63532 22.3754
22 6 3 0.660965 1.63558 10.4352 22.3786
23 6 3 0.517305 1.74597 8.93055 22.2534
24 6 4 -1.17827 1.25858 9.6475 22.3602
25 7 2 0 6.09722 16.3116 22.6984
26 7 3 0.650862 5.6327 17.1469 22.7497
27 7 3 0.56167 6.92586 16.5237 22.2688
28 7 4 -1.21253 6.14383 16.4457 22.65
29 8 2 0 8.07977 0.140267 22.7266
30 8 3 0.60049 8.96407 20.1771 22.6014
31 8 3 0.514857 8.20088 1.08544 22.8173
32 8 4 -1.11535 8.20848 0.21718 22.7222
33 9 2 0 8.27653 3.58269 22.4921
34 9 3 0.615745 9.15265 3.75102 22.8389
35 9 3 0.437061 8.41703 2.96451 21.7749
36 9 4 -1.05281 8.40667 3.5251 22.4447
37 10 2 0 5.39528 19.0554 22.6126
38 10 3 0.49403 5.08574 19.3184 21.7458
39 10 3 0.658191 6.22091 19.5263 22.7257
40 10 4 -1.15222 5.46134 19.1494 22.5161
41 11 2 0 2.81549 6.52718 22.7093
42 11 3 0.657805 3.76059 6.50883 22.5587
43 11 3 0.540397 2.71898 6.90716 23.5825
44 11 4 -1.1982 2.92412 6.57347 22.8018
45 12 2 0 1.93889 17.655 22.3821
46 12 3 0.529633 2.46162 17.8966 21.6175
47 12 3 0.625346 2.14404 16.732 22.5312
48 12 4 -1.15498 2.03207 17.5678 22.3033
49 13 2 0 14.3492 11.9447 22.9541
50 13 3 0.565833 14.0826 12.8639 22.9486
51 13 3 0.614321 14.4341 11.7249 23.8818
52 13 4 -1.18015 14.326 12.0342 23.0722
53 14 2 0 13.4082 17.9682 22.3947
54 14 3 0.489308 13.6279 18.5327 23.1358
55 14 3 0.549947 12.5351 18.2541 22.1258
56 14 4 -1.03925 13.3246 18.077 22.4551
57 15 2 0 13.3323 3.92105 22.4901
58 15 3 0.584479 13.6417 3.02185 22.3807
59 15 3 0.641752 14.1316 4.44481 22.5451
60 15 4 -1.22623 13.4742 3.87299 22.4831
61 16 2 0 10.7019 7.76038 22.418
62 16 3 0.568707 11.6315 7.53489 22.3822
63 16 3 0.489812 10.6861 8.66333 22.7353
64 16 4 -1.05852 10.8189 7.8471 22.4541
65 17 2 0 4.71641 1.76296 22.5202
66 17 3 0.472407 5.03736 1.76344 21.6184
67 17 3 0.608561 4.02889 2.42888 22.5306
68 17 4 -1.08097 4.66948 1.84827 22.4061
69 18 2 0 7.50852 7.68193 22.4578
70 18 3 0.514789 7.6223 6.87517 21.9554
71 18 3 0.565642 8.29128 8.19769 22.2641
72 18 4 -1.08043 7.62329 7.64467 22.3687
73 19 2 0 14.9364 1.60424 22.4111
74 19 3 0.582661 15.7531 1.85802 21.9812
75 19 3 0.529352 15.1362 0.767677 22.8312
76 19 4 -1.11201 15.0665 1.52963 22.4098
77 20 2 0 5.36898 5.21556 22.5286
78 20 3 0.545984 6.20561 4.93349 22.8984
79 20 3 0.483475 4.7334 4.58248 22.8625
80 20 4 -1.02946 5.39472 5.09841 22.6187
81 21 2 0 16.2528 4.44767 22.2383
82 21 3 0.565352 16.6863 5.26989 22.0097
83 21 3 0.506099 16.8176 3.76816 21.8702
84 21 4 -1.07145 16.3806 4.46594 22.1619
85 22 2 0 3.08076 14.9332 22.3171
86 22 3 0.567043 2.66664 14.0704 22.3367
87 22 3 0.53925 3.76915 14.884 22.9804
88 22 4 -1.10629 3.11587 14.8164 22.4045
89 23 2 0 8.79683 10.4903 22.4385
90 23 3 0.53675 8.29239 11.2335 22.1078
91 23 3 0.550955 9.69994 10.6816 22.1855
92 23 4 -1.0877 8.84786 10.6099 22.3638
93 24 2 0 2.50259 12.0374 22.7589
94 24 3 0.616255 3.39078 12.1795 22.4315
95 24 3 0.565477 2.62459 11.6025 23.6028
96 24 4 -1.18173 2.63191 11.9999 22.825
97 25 2 0 7.74143 13.4197 22.3866
98 25 3 0.56288 7.24198 14.1727 22.7028
99 25 3 0.519538 8.29235 13.1688 23.1281
100 25 4 -1.08242 7.74802 13.484 22.522
101 26 2 0 2.87163 19.7425 23.999
102 26 3 0.563641 2.34897 19.0735 23.5569
103 26 3 0.624391 3.76693 19.5843 23.6996
104 26 4 -1.18803 2.91933 19.6366 23.9041
105 27 2 0 4.86123 8.82523 22.5258
106 27 3 0.554159 4.82658 9.76203 22.3323
107 27 3 0.581777 5.75982 8.57009 22.3168
108 27 4 -1.13594 4.97182 8.91249 22.4743
109 28 2 0 16.7313 14.0871 22.4305
110 28 3 0.551702 15.814 14.1034 22.7034
111 28 3 0.51993 16.7797 13.3737 21.7941
112 28 4 -1.07163 16.6201 13.9979 22.384
113 29 2 0 10.6049 14.5927 22.5611
114 29 3 0.472967 9.9135 14.1843 23.082
115 29 3 0.638248 10.1885 15.3603 22.1692
116 29 4 -1.11121 10.4631 14.6387 22.5776
117 30 2 0 0.326078 1.8734 22.2429
118 30 3 0.560811 1.15305 2.30027 22.4668
119 30 3 0.526305 0.317577 1.07489 22.7706
120 30 4 -1.08712 0.430851 1.82583 22.3391
121 31 2 0 6.31901 2.37635 24.9441
122 31 3 0.598051 7.1393 2.64942 24.5332
123 31 3 0.592099 5.73917 2.17278 24.2102
124 31 4 -1.19015 6.34979 2.38525 24.7975
125 32 2 0 11.3409 1.96454 22.0692
126 32 3 0.481425 10.5508 2.25957 22.522
127 32 3 0.614928 11.8303 2.76794 21.8923
128 32 4 -1.09635 11.3024 2.10515 22.1045
129 33 2 0 13.7822 14.8915 22.5102
130 33 3 0.582909 13.9171 15.755 22.1198
131 33 3 0.534758 12.9287 14.9527 22.9391
132 33 4 -1.11767 13.6902 15.0099 22.5151
133 34 2 0 11.5922 11.6287 22.3415
134 34 3 0.541119 11.454 12.5692 22.4542
135 34 3 0.612174 12.5267 11.5021 22.5058
136 34 4 -1.15329 11.6941 11.7329 22.3769
137 35 2 0 16.487 19.6121 22.1919
138 35 3 0.632057 16.135 18.758 22.4425
139 35 3 0.462243 15.7679 20.0414 21.7284
140 35 4 -1.0943 16.3499 19.5577 22.1647
141 36 2 0 8.05362 20.3079 25.9791
142 36 3 0.566352 7.54609 19.5455 26.2574
143 36 3 0.569256 7.41023 0.508701 25.5748
144 36 4 -1.13561 7.90629 20.2848 25.963
145 37 2 0 14.4641 11.0891 25.7363
146 37 3 0.643099 14.8388 10.2481 25.4745
147 37 3 0.576318 15.172 11.7193 25.6025
148 37 4 -1.21942 14.6027 11.0621 25.6857
149 38 2 0 -0.0957358 6.96887 22.5879
150 38 3 0.567158 0.838957 6.78618 22.6839
151 38 3 0.598899 17.5163 7.88587 22.3161
152 38 4 -1.16606 0.0189704 7.06287 22.5654
153 39 2 0 10.8228 19.5859 22.6065
154 39 3 0.635507 10.9294 20.4846 22.2946
155 39 3 0.650557 11.2221 19.5848 23.4764
156 39 4 -1.28606 10.8876 19.7008 22.6779
157 40 2 0 15.6774 12.8649 28.0013
158 40 3 0.603029 14.8471 12.4886 28.2932
159 40 3 0.495979 15.7606 12.5847 27.0898
160 40 4 -1.09901 15.5818 12.7808 27.922
161 41 2 0 9.20496 6.39036 26.4202
162 41 3 0.549498 8.70405 5.74916 26.9243
163 41 3 0.457498 8.90287 7.23905 26.7437
164 41 4 -1.007 9.10217 6.41692 26.5261
165 42 2 0 6.98104 17.3035 26.2907
166 42 3 0.532176 7.33904 16.8993 25.5003
167 42 3 0.536225 6.04591 17.1013 26.2611
168 42 4 -1.0684 6.90716 17.2259 26.1857
169 43 2 0 15.2504 8.55721 25.2357
170 43 3 0.547292 15.5719 8.8097 24.3702
171 43 3 0.597281 15.6906 7.72807 25.4228
172 43 4 -1.14457 15.3479 8.48339 25.1489
173 44 2 0 13.9244 5.61639 25.4732
174 44 3 0.533942 13.0737 5.20705 25.631
175 44 3 0.536916 14.5455 4.88807 25.4767
176 44 4 -1.07086 13.895 5.47076 25.4938
177 45 2 0 10.7441 4.94377 23.1485
178 45 3 0.610856 11.6943 4.82819 23.159
179 45 3 0.60369 10.6095 5.78556 22.7132
180 45 4 -1.21455 10.8485 5.03673 23.0941
181 46 2 0 1.62087 10.7925 25.503
182 46 3 0.488569 2.23113 10.8179 26.24
183 46 3 0.59794 1.52873 9.8617 25.2997
184 46 4 -1.08651 1.68719 10.6766 25.5713
185 47 2 0 17.362 6.04681 25.2771
186 47 3 0.580833 -0.193899 5.09492 25.2431
187 47 3 0.559877 17.3637 6.32103 24.36
188 47 4 -1.14071 17.3743 5.96006 25.1554
189 48 2 0 3.63328 5.43463 26.4388
190 48 3 0.456573 3.94645 5.59752 27.3285
191 48 3 0.643062 4.25332 5.89982 25.8772
192 48 4 -1.09963 3.75275 5.51503 26.4808
193 49 2 0 12.2279 19.2725 24.9614
194 49 3 0.617446 12.074 18.3327 24.8648
195 49 3 0.637787 13.0177 19.3323 25.4989
196 49 4 -1.25523 12.3093 19.1599 25.0179
197 50 2 0 5.35682 11.62 22.543
198 50 3 0.57998 6.21682 11.9879 22.3397
199 50 3 0.57469 5.40695 11.3911 23.471
200 50 4 -1.15467 5.47333 11.6378 22.6358
201 51 2 0 9.54911 12.3501 24.5998
202 51 3 0.595835 9.78244 11.5575 24.1166
203 51 3 0.565368 10.2841 12.9456 24.4534
204 51 4 -1.1612 9.67307 12.3249 24.5192
205 52 2 0 3.89833 2.61352 26.2712
206 52 3 0.564612 3.73964 3.48513 26.6337
207 52 3 0.62512 4.74873 2.68505 25.8377
208 52 4 -1.18973 3.98688 2.73425 26.2621
209 53 2 0 3.33791 13.9297 26.7317
210 53 3 0.599654 2.66546 14.1192 27.3861
211 53 3 0.451075 2.8479 13.6562 25.9563
212 53 4 -1.05073 3.1891 13.9189 26.7162
213 54 2 0 16.6951 12.4864 25.1531
214 54 3 0.594344 17.5871 12.202 25.3521
215 54 3 0.571444 16.8032 13.1728 24.4948
216 54 4 -1.16579 16.8231 12.5378 25.0943
217 55 2 0 1.10193 3.22926 25.0451
218 55 3 0.615449 0.437336 2.54056 25.0296
219 55 3 0.557773 1.69113 2.97819 25.7565
220 55 4 -1.17322 1.09228 3.10896 25.1342
221 56 2 0 12.1573 8.12263 26.2126
222 56 3 0.573552 12.9192 7.57559 26.0213
223 56 3 0.487385 11.4053 7.56243 26.0205
224 56 4 -1.06094 12.1586 7.98089 26.1635
225 57 2 0 4.04807 17.1692 24.8957
226 57 3 0.511469 3.37013 17.5609 24.3451
227 57 3 0.540758 3.88929 17.5326 25.7669
228 57 4 -1.05223 3.94096 17.2659 24.9367
229 58 2 0 10.2241 10.3973 26.6753
230 58 3 0.574887 11.0467 9.91007 26.6286
231 58 3 0.505542 10.4865 11.3165 26.6255
232 58 4 -1.08043 10.363 10.4526 26.6629
233 59 2 0 5.21215 14.2781 24.4381
234 59 3 0.53547 5.35745 15.1248 24.0159
235 59 3 0.579021 4.67972 14.4816 25.2071
236 59 4 -1.11449 5.16259 14.4126 24.4825
237 60 2 0 9.45332 1.82108 24.4789
238 60 3 0.55826 10.1505 2.21104 25.0062
239 60 3 0.599251 9.20078 1.03302 24.9599
240 60 4 -1.15751 9.51024 1.77012 24.608
241 61 2 0 8.19596 15.2813 24.398
242 61 3 0.555844 7.30464 15.399 24.0694
243 61 3 0.625891 8.09441 14.7336 25.1764
244 61 4 -1.18173 8.06886 15.2262 24.4556
245 62 2 0 7.61917 13.4686 26.6396
246 62 3 0.556464 6.72081 13.3246 26.3422
247 62 3 0.568292 8.13984 12.8349 26.1461
248 62 4 -1.12476 7.57082 13.3691 26.5383
249 63 2 0 11.537 3.82981 25.6952
250 63 3 0.5615 11.1546 4.05515 26.5433
251 63 3 0.591085 11.1027 4.41369 25.0734
252 63 4 -1.15259 11.4324 3.9334 25.7242
253 64 2 0 12.1899 13.2869 25.0903
254 64 3 0.492151 12.1692 12.336 25.1982
255 64 3 0.603056 12.0092 13.6316 25.9649
256 64 4 -1.09521 12.1642 13.2093 25.2161
257 65 2 0 13.4018 11.3053 28.7222
258 65 3 0.472075 13.6004 10.7129 29.4473
259 65 3 0.57098 13.5394 10.7769 27.936
260 65 4 -1.04305 13.4448 11.1619 28.7144
261 66 2 0 5.33282 7.14027 24.9843
262 66 3 0.572086 6.14925 7.63831 25.0247
263 66 3 0.57473 4.84865 7.53168 24.2573
264 66 4 -1.14682 5.37535 7.25413 24.8964
265 67 2 0 17.535 0.573542 25.0854
266 67 3 0.627248 0.692497 0.483987 25.5905
267 67 3 0.502145 17.5997 20.2819 24.4077
268 67 4 -1.12939 17.6467 0.475949 25.0633
269 68 2 0 11.4573 13.5124 27.9418
270 68 3 0.522942 11.4195 12.8615 28.6425
271 68 3 0.527404 11.1406 14.3198 28.3469
272 68 4 -1.05035 11.4119 13.5324 28.0833
273 69 2 0 13.9822 2.27916 25.4485
274 69 3 0.533051 14.1195 2.4533 24.5173
275 69 3 0.580631 13.0481 2.43604 25.5868
276 69 4 -1.11368 13.8802 2.32153 25.347
277 70 2 0 5.34778 10.9928 25.6214
278 70 3 0.599741 6.08796 10.3874 25.6638
279 70 3 0.457161 5.15917 11.2056 26.5354
280 70 4 -1.0569 5.41839 10.9425 25.7439
281 71 2 0 8.74751 3.7067 27.7196
282 71 3 0.536173 9.50062 3.22902 28.0673
283 71 3 0.490522 8.13197 3.02361 27.4537
284 71 4 -1.0267 8.76512 3.55811 27.7301
285 72 2 0 0.782678 13.6848 28.3391
286 72 3 0.60634 17.6473 13.1861 28.1165
287 72 3 0.449792 0.819882 13.6598 29.2953
288 72 4 -1.05613 0.686816 13.6178 28.433
289 73 2 0 10.6274 20.024 27.2705
290 73 3 0.566946 11.2503 19.8709 26.56
291 73 3 0.535082 9.77254 19.8294 26.8863
292 73 4 -1.10203 10.5977 19.9795 27.1304
293 74 2 0 10.963 16.6975 24.8942
294 74 3 0.582988 10.3062 16.4622 25.5496
295 74 3 0.518064 11.2437 15.8604 24.5245
296 74 4 -1.10105 10.9149 16.5602 24.9308
297 75 2 0 2.21825 0.316859 26.5653
298 75 3 0.594058 2.43236 20.3034 25.72
299 75 3 0.628847 2.89949 0.975201 26.7022
300 75 4 -1.2229 2.33287 0.350606 26.4747
301 76 2 0 7.59204 9.2495 25.5355
302 76 3 0.537916 7.83131 8.76362 24.7463
303 76 3 0.613053 8.41117 9.64792 25.8296
304 76 4 -1.15097 7.72753 9.2383 25.4721
305 77 2 0 11.551 2.3014 28.2745
306 77 3 0.468314 12.1739 2.38244 28.9967
307 77 3 0.578127 11.2183 1.40658 28.3438
308 77 4 -1.04644 11.5882 2.19723 28.3758
309 78 2 0 14.8148 20.0271 26.1886
310 78 3 0.548896 15.7574 20.0931 26.0354
311 78 3 0.584285 14.4987 0.547526 26.1317
312 78 4 -1.13318 14.895 20.151 26.1617
313 79 2 0 2.14645 7.81232 25.3489
314 79 3 0.59066 1.31493 7.37441 25.5307
315 79 3 0.552988 2.782 7.36052 25.904
316 79 4 -1.14365 2.12136 7.69843 25.4432
317 80 2 0 9.44748 15.8212 27.4709
318 80 3 0.531248 8.81937 16.5433 27.454
319 80 3 0.543405 8.90778 15.0357 27.5601
320 80 4 -1.07465 9.29798 15.813 27.4801
321 81 2 0 3.81977 18.3721 27.8325
322 81 3 0.54733 3.29488 19.0901 27.4788
323 81 3 0.471865 4.31552 18.7676 28.5494
324 81 4 -1.0192 3.81604 18.5146 27.879
325 82 1 0.000320318 0 0 10
326 82 1 0.000391019 1.47089 2.54765 10
327 82 1 0.000352857 0 5.09531 10
328 82 1 0.0003807 1.47089 7.64296 10
329 82 1 0.000372682 0 10.1906 10
330 82 1 0.000367197 1.47089 12.7383 10
331 82 1 0.000342156 0 15.2859 10
332 82 1 0.000377481 1.47089 17.8336 10
333 82 1 0.00044752 2.94178 0 10
334 82 1 0.000492019 4.41266 2.54765 10
335 82 1 0.000427443 2.94178 5.09531 10
336 82 1 0.000381748 4.41266 7.64296 10
337 82 1 0.000350617 2.94178 10.1906 10
338 82 1 0.000327097 4.41266 12.7383 10
339 82 1 0.000382076 2.94178 15.2859 10
340 82 1 0.000434836 4.41266 17.8336 10
341 82 1 0.00049353 5.88355 0 10
342 82 1 0.000479564 7.35444 2.54765 10
343 82 1 0.000452023 5.88355 5.09531 10
344 82 1 0.000354143 7.35444 7.64296 10
345 82 1 0.000299338 5.88355 10.1906 10
346 82 1 0.000265292 7.35444 12.7383 10
347 82 1 0.00035015 5.88355 15.2859 10
348 82 1 0.000401094 7.35444 17.8336 10
349 82 1 0.000414648 8.82533 0 10
350 82 1 0.000376755 10.2962 2.54765 10
351 82 1 0.000405935 8.82533 5.09531 10
352 82 1 0.000334101 10.2962 7.64296 10
353 82 1 0.000274208 8.82533 10.1906 10
354 82 1 0.000247851 10.2962 12.7383 10
355 82 1 0.000283944 8.82533 15.2859 10
356 82 1 0.000295387 10.2962 17.8336 10
357 82 1 0.000283494 11.7671 0 10
358 82 1 0.000279568 13.238 2.54765 10
359 82 1 0.000340814 11.7671 5.09531 10
360 82 1 0.000339628 13.238 7.64296 10
361 82 1 0.000299081 11.7671 10.1906 10
362 82 1 0.000282646 13.238 12.7383 10
363 82 1 0.000239721 11.7671 15.2859 10
364 82 1 0.000226521 13.238 17.8336 10
365 82 1 0.000232846 14.7089 0 10
366 82 1 0.000284967 16.1798 2.54765 10
367 82 1 0.00031495 14.7089 5.09531 10
368 82 1 0.00036163 16.1798 7.64296 10
369 82 1 0.000347825 14.7089 10.1906 10
370 82 1 0.000340474 16.1798 12.7383 10
371 82 1 0.000268078 14.7089 15.2859 10
372 82 1 0.000273465 16.1798 17.8336 10
373 82 1 -4.14811e-05 1.47089 0.849218 12.402
374 82 1 6.8222e-05 2.94178 3.39687 12.402
375 82 1 4.25408e-05 1.47089 5.94452 12.402
376 82 1 7.26054e-05 2.94178 8.49218 12.402
377 82 1 -3.98763e-05 1.47089 11.0398 12.402
378 82 1 2.81171e-05 2.94178 13.5875 12.402
379 82 1 -3.48406e-05 1.47089 16.1351 12.402
380 82 1 -6.98097e-05 2.94178 18.6828 12.402
381 82 1 -5.10043e-05 4.41266 0.849218 12.402
382 82 1 7.6588e-05 5.88355 3.39687 12.402
383 82 1 0.000144807 4.41266 5.94452 12.402
384 82 1 6.40846e-05 5.88355 8.49218 12.402
385 82 1 4.41594e-05 4.41266 11.0398 12.402
386 82 1 5.90748e-05 5.88355 13.5875 12.402
387 82 1 3.29438e-05 4.41266 16.1351 12.402
388 82 1 -5.35068e-05 5.88355 18.6828 12.402
389 82 1 -2.81956e-05 7.35444 0.849218 12.402
390 82 1 1.29169e-05 8.82533 3.39687 12.402
391 82 1 8.04238e-05 7.35444 5.94452 12.402
392 82 1 -2.01714e-05 8.82533 8.49218 12.402
393 82 1 -1.47463e-05 7.35444 11.0398 12.402
394 82 1 -1.04526e-05 8.82533 13.5875 12.402
395 82 1 2.849e-05 7.35444 16.1351 12.402
396 82 1 -3.69922e-05 8.82533 18.6828 12.402
397 82 1 -7.45452e-05 10.2962 0.849218 12.402
398 82 1 -9.38908e-05 11.7671 3.39687 12.402
399 82 1 -1.41475e-05 10.2962 5.94452 12.402
400 82 1 -4.46238e-05 11.7671 8.49218 12.402
401 82 1 -4.2812e-05 10.2962 11.0398 12.402
402 82 1 -8.20768e-05 11.7671 13.5875 12.402
403 82 1 -5.73466e-05 10.2962 16.1351 12.402
404 82 1 -0.000143321 11.7671 18.6828 12.402
405 82 1 -0.000187259 13.238 0.849218 12.402
406 82 1 -0.000160682 14.7089 3.39687 12.402
407 82 1 -8.26806e-05 13.238 5.94452 12.402
408 82 1 -0.00010983 14.7089 8.49218 12.402
409 82 1 -9.33108e-05 13.238 11.0398 12.402
410 82 1 -0.000158814 14.7089 13.5875 12.402
411 82 1 -0.000165412 13.238 16.1351 12.402
412 82 1 -0.000193926 14.7089 18.6828 12.402
413 82 1 -0.000148047 16.1798 0.849218 12.402
414 82 1 -5.92183e-05 0 3.39687 12.402
415 82 1 -0.00010318 16.1798 5.94452 12.402
416 82 1 -6.93598e-05 0 8.49218 12.402
417 82 1 -0.000155046 16.1798 11.0398 12.402
418 82 1 -0.000111566 0 13.5875 12.402
419 82 1 -0.000144522 16.1798 16.1351 12.402
420 82 1 -9.70153e-05 0 18.6828 12.402
421 82 1 -0.00215306 2.94178 1.69844 14.8039
422 82 1 -0.00170143 4.41266 4.24609 14.8039
423 82 1 -0.00130655 2.94178 6.79374 14.8039
424 82 1 -0.00118555 4.41266 9.34139 14.8039
425 82 1 -0.00142808 2.94178 11.889 14.8039
426 82 1 -0.00106909 4.41266 14.4367 14.8039
427 82 1 -0.00186912 2.94178 16.9844 14.8039
428 82 1 -0.00284287 4.41266 19.532 14.8039
429 82 1 -0.00277588 5.88355 1.69844 14.8039
430 82 1 -0.00199467 7.35444 4.24609 14.8039
431 82 1 -0.00124197 5.88355 6.79374 14.8039
432 82 1 -0.00119382 7.35444 9.34139 14.8039
433 82 1 -0.0009484 5.88355 11.889 14.8039
434 82 1 -0.000743277 7.35444 14.4367 14.8039
435 82 1 -0.00176174 5.88355 16.9844 14.8039
436 82 1 -0.0024261 7.35444 19.532 14.8039
437 82 1 -0.00225434 8.82533 1.69844 14.8039
438 82 1 -0.00172104 10.2962 4.24609 14.8039
439 82 1 -0.00151177 8.82533 6.79374 14.8039
440 82 1 -0.00126347 10.2962 9.34139 14.8039
441 82 1 -0.000873922 8.82533 11.889 14.8039
442 82 1 -0.000722348 10.2962 14.4367 14.8039
443 82 1 -0.00116431 8.82533 16.9844 14.8039
444 82 1 -0.00154432 10.2962 19.532 14.8039
445 82 1 -0.00148702 11.7671 1.69844 14.8039
446 82 1 -0.00131383 13.238 4.24609 14.8039
447 82 1 -0.0014262 11.7671 6.79374 14.8039
448 82 1 -0.00167978 13.238 9.34139 14.8039
449 82 1 -0.00112448 11.7671 11.889 14.8039
450 82 1 -0.00125139 13.238 14.4367 14.8039
451 82 1 -0.00108195 11.7671 16.9844 14.8039
452 82 1 -0.00122582 13.238 19.532 14.8039
453 82 1 -0.00121577 14.7089 1.69844 14.8039
454 82 1 -0.00140308 16.1798 4.24609 14.8039
455 82 1 -0.00162416 14.7089 6.79374 14.8039
456 82 1 -0.00225028 16.1798 9.34139 14.8039
457 82 1 -0.00203135 14.7089 11.889 14.8039
458 82 1 -0.00177242 16.1798 14.4367 14.8039
459 82 1 -0.00120064 14.7089 16.9844 14.8039
460 82 1 -0.0010765 16.1798 19.532 14.8039
461 82 1 -0.00131304 0 1.69844 14.8039
462 82 1 -0.00150154 1.47089 4.24609 14.8039
463 82 1 -0.00176053 0 6.79374 14.8039
464 82 1 -0.00186557 1.47089 9.34139 14.8039
465 82 1 -0.00224699 0 11.889 14.8039
466 82 1 -0.00155174 1.47089 14.4367 14.8039
467 82 1 -0.00136617 0 16.9844 14.8039
468 82 1 -0.00177745 1.47089 19.532 14.8039
469 82 1 -0.00652219 4.41266 2.54765 17.2059
470 82 1 -0.00372967 5.88355 5.09531 17.2059
471 82 1 -0.00170438 4.41266 7.64296 17.2059
472 82 1 -0.00145429 5.88355 10.1906 17.2059
473 82 1 -0.00124199 4.41266 12.7383 17.2059
474 82 1 -0.00149645 5.88355 15.2859 17.2059
475 82 1 -0.00646974 4.41266 17.8336 17.2059
476 82 1 -0.00904808 5.88355 0 17.2059
477 82 1 -0.00712758 7.35444 2.54765 17.2059
478 82 1 -0.00430065 8.82533 5.09531 17.2059
479 82 1 -0.00249087 7.35444 7.64296 17.2059
480 82 1 -0.00174972 8.82533 10.1906 17.2059
481 82 1 -0.000271994 7.35444 12.7383 17.2059
482 82 1 -8.59424e-05 8.82533 15.2859 17.2059
483 82 1 -0.00438437 7.35444 17.8336 17.2059
484 82 1 -0.00527888 8.82533 0 17.2059
485 82 1 -0.00382857 10.2962 2.54765 17.2059
486 82 1 -0.00224018 11.7671 5.09531 17.2059
487 82 1 -0.00290947 10.2962 7.64296 17.2059
488 82 1 -0.00233235 11.7671 10.1906 17.2059
489 82 1 -7.03025e-05 10.2962 12.7383 17.2059
490 82 1 -0.000145561 11.7671 15.2859 17.2059
491 82 1 -0.00137527 10.2962 17.8336 17.2059
492 82 1 -0.00149173 11.7671 0 17.2059
493 82 1 -0.000702212 13.238 2.54765 17.2059
494 82 1 -0.00136037 14.7089 5.09531 17.2059
495 82 1 -0.00293964 13.238 7.64296 17.2059
496 82 1 -0.00511617 14.7089 10.1906 17.2059
497 82 1 -0.00217504 13.238 12.7383 17.2059
498 82 1 -0.00170866 14.7089 15.2859 17.2059
499 82 1 -0.000425369 13.238 17.8336 17.2059
500 82 1 0.000164229 14.7089 0 17.2059
501 82 1 -0.000376321 16.1798 2.54765 17.2059
502 82 1 -0.0024938 0 5.09531 17.2059
503 82 1 -0.00421907 16.1798 7.64296 17.2059
504 82 1 -0.00585765 0 10.1906 17.2059
505 82 1 -0.00528814 16.1798 12.7383 17.2059
506 82 1 -0.00282451 0 15.2859 17.2059
507 82 1 -0.000242882 16.1798 17.8336 17.2059
508 82 1 -0.00071661 0 0 17.2059
509 82 1 -0.00267283 1.47089 2.54765 17.2059
510 82 1 -0.00285025 2.94178 5.09531 17.2059
511 82 1 -0.00352414 1.47089 7.64296 17.2059
512 82 1 -0.00293545 2.94178 10.1906 17.2059
513 82 1 -0.00409013 1.47089 12.7383 17.2059
514 82 1 -0.00265329 2.94178 15.2859 17.2059
515 82 1 -0.00325619 1.47089 17.8336 17.2059
516 82 1 -0.00647459 2.94178 0 17.2059
517 82 1 -0.00291913 5.88355 3.39687 19.6078
518 82 1 0.00231692 7.35444 5.94452 19.6078
519 82 1 0.00621199 5.88355 8.49218 19.6078
520 82 1 0.00579585 7.35444 11.0398 19.6078
521 82 1 0.00796821 5.88355 13.5875 19.6078
522 82 1 0.00554713 7.35444 16.1351 19.6078
523 82 1 -0.00585726 5.88355 18.6828 19.6078
524 82 1 -0.00632575 7.35444 0.849218 19.6078
525 82 1 -0.00118357 8.82533 3.39687 19.6078
526 82 1 0.00280522 10.2962 5.94452 19.6078
527 82 1 0.00302698 8.82533 8.49218 19.6078
528 82 1 0.00509038 10.2962 11.0398 19.6078
529 82 1 0.00878649 8.82533 13.5875 19.6078
530 82 1 0.00865095 10.2962 16.1351 19.6078
531 82 1 0.00234957 8.82533 18.6828 19.6078
532 82 1 0.00366033 10.2962 0.849218 19.6078
533 82 1 0.00750015 11.7671 3.39687 19.6078
534 82 1 0.00743942 13.238 5.94452 19.6078
535 82 1 0.00259346 11.7671 8.49218 19.6078
536 82 1 0.00212826 13.238 11.0398 19.6078
537 82 1 0.00838278 11.7671 13.5875 19.6078
538 82 1 0.00876273 13.238 16.1351 19.6078
539 82 1 0.00821615 11.7671 18.6828 19.6078
540 82 1 0.0106802 13.238 0.849218 19.6078
541 82 1 0.0118878 14.7089 3.39687 19.6078
542 82 1 0.00615419 16.1798 5.94452 19.6078
543 82 1 0.00118197 14.7089 8.49218 19.6078
544 82 1 -0.00302501 16.1798 11.0398 19.6078
545 82 1 0.00329177 14.7089 13.5875 19.6078
546 82 1 0.00744762 16.1798 16.1351 19.6078
547 82 1 0.0112076 14.7089 18.6828 19.6078
548 82 1 0.0125638 16.1798 0.849218 19.6078
549 82 1 0.00851751 0 3.39687 19.6078
550 82 1 0.003906 1.47089 5.94452 19.6078
551 82 1 -9.02585e-05 0 8.49218 19.6078
552 82 1 -0.000265948 1.47089 11.0398 19.6078
553 82 1 0.000264002 0 13.5875 19.6078
554 82 1 0.00373463 1.47089 16.1351 19.6078
555 82 1 0.00901573 0 18.6828 19.6078
556 82 1 0.00496706 1.47089 0.849218 19.6078
557 82 1 0.00215246 2.94178 3.39687 19.6078
558 82 1 0.00510792 4.41266 5.94452 19.6078
559 82 1 0.00432233 2.94178 8.49218 19.6078
560 82 1 0.00568346 4.41266 11.0398 19.6078
561 82 1 0.00459393 2.94178 13.5875 19.6078
562 82 1 0.00225142 4.41266 16.1351 19.6078
563 82 1 -0.00298892 2.94178 18.6828 19.6078
564 82 1 -0.00712698 4.41266 0.849218 19.6078
ITEM: TIMESTEP
12500
ITEM: NUMBER OF ATOMS
564
ITEM: BOX BOUNDS pp pp ff
0.0000000000000000e+00 1.7650658050000001e+01
0.0000000000000000e+00 2.0381224350000000e+01
0.0000000000000000e+00 6.0000000000000000e+01
ITEM: ATOMS id mol type q x y z
1 1 2 0 8.78692 17.854 22.7066
2 1 3 0.528933 9.53933 17.7688 23.2922
3 1 3 0.546251 8.49366 18.7578 22.8228
4 1 4 -1.07518 8.84569 17.9588 22.7965
5 2 2 0 16.3131 14.5786 22.4565
6 2 3 0.483864 16.2753 14.659 23.4095
7 2 3 0.611738 15.3967 14.5527 22.1813
8 2 4 -1.0956 16.191 14.5856 22.5433
9 3 2 0 15.9853 9.28891 22.3052
10 3 3 0.698007 15.5611 10.1453 22.3585
11 3 3 0.562662 16.8767 9.48035 22.0135
12 3 4 -1.26067 16.0451 9.42304 22.2747
13 4 2 0 1.61468 3.55387 22.5282
14 4 3 0.620957 1.54159 3.41133 23.4719
15 4 3 0.601565 1.71548 4.50125 22.4357
16 4 4 -1.22252 1.61822 3.6569 22.6371
17 5 2 0 14.0522 7.24484 22.5095
18 5 3 0.544942 14.2001 7.05299 23.4355
19 5 3 0.628027 14.822 7.74721 22.2426
20 5 4 -1.17297 14.1697 7.28459 22.5939
21 6 2 0 1.47065 9.23829 22.2632
22 6 3 0.558502 1.23068 9.23031 23.1898
23 6 3 0.592816 2.39995 9.46765 22.258
24 6 4 -1.15132 1.55889 9.26663 22.3812
25 7 2 0 5.85221 16.7387 22.5786
26 7 3 0.582763 5.1239 17.2926 22.8596
27 7 3 0.547101 6.40484 17.3172 22.053
28 7 4 -1.12986 5.82972 16.8837 22.5473
29 8 2 0 8.51903 0.301511 22.4564
30 8 3 0.583046 9.3882 20.2865 22.5174
31 8 3 0.58682 8.67981 1.24317 22.5168
32 8 4 -1.16987 8.65087 0.371326 22.4719
33 9 2 0 7.50889 3.03408 22.2539
34 9 3 0.635847 8.13979 3.69631 22.5362
35 9 3 0.504355 7.87042 2.69104 21.4367
36 9 4 -1.1402 7.63593 3.07494 22.1855
37 10 2 0 5.80702 19.5949 22.3259
38 10 3 0.497126 6.09314 19.3613 23.209
39 10 3 0.584811 6.46893 20.2124 22.0147
40 10 4 -1.08194 5.92838 19.644 22.3991
41 11 2 0 2.84282 6.53589 22.3806
42 11 3 0.588822 3.62675 6.4912 22.928
43 11 3 0.532941 2.65164 7.47122 22.3111
44 11 4 -1.12176 2.9187 6.6499 22.4418
45 12 2 0 0.952366 17.3278 22.6428
46 12 3 0.454396 0.710963 17.6994 21.7943
47 12 3 0.546252 1.83384 16.9791 22.51
48 12 4 -1.00065 1.0343 17.3307 22.5172
49 13 2 0 14.9993 11.7639 22.3095
50 13 3 0.637615 15.8626 12.1153 22.0916
51 13 3 0.615547 14.82 12.0961 23.1892
52 13 4 -1.25316 15.0869 11.8514 22.3943
53 14 2 0 13.3915 17.9134 22.2393
54 14 3 0.54808 12.6831 18.5492 22.3403
55 14 3 0.532299 14.1115 18.4151 21.8571
56 14 4 -1.08038 13.393 18.0591 22.2033
57 15 2 0 12.524 4.77446 22.3616
58 15 3 0.488939 13.1958 4.31756 21.8555
59 15 3 0.581815 12.7574 5.69998 22.2898
60 15 4 -1.07075 12.6398 4.83445 22.2876
61 16 2 0 11.0641 7.43208 22.5412
62 16 3 0.550792 12.0098 7.3204 22.4445
63 16 3 0.530968 10.9609 8.32053 22.8821
64 16 4 -1.08176 11.1719 7.53152 22.5724
65 17 2 0 4.2301 2.57452 22.2195
66 17 3 0.461576 4.36852 2.28306 21.3183
67 17 3 0.618366 3.41425 3.07411 22.1875
68 17 4 -1.07994 4.14338 2.60117 22.1
69 18 2 0 7.26305 8.27575 22.587
70 18 3 0.662767 7.78763 9.03073 22.3204
71 18 3 0.433186 7.04634 7.83249 21.7667
72 18 4 -1.09595 7.30246 8.31565 22.4478
73 19 2 0 14.0598 1.97984 22.5292
74 19 3 0.581839 14.8937 2.44668 22.4756
75 19 3 0.514636 14.2774 1.07393 22.3097
76 19 4 -1.09647 14.1944 1.92364 22.4943
77 20 2 0 5.68975 5.46938 22.4577
78 20 3 0.488322 6.53004 5.67707 22.049
79 20 3 0.614895 5.59142 4.52485 22.3376
80 20 4 -1.10322 5.78473 5.37505 22.39
81 21 2 0 16.0187 4.38841 22.83
82 21 3 0.657197 16.4997 5.19049 22.626
83 21 3 0.47612 16.6611 3.68793 22.7163
84 21 4 -1.13332 16.1625 4.40142 22.7893
85 22 2 0 2.39904 14.9683 22.2997
86 22 3 0.59509 2.45251 14.0191 22.188
87 22 3 0.541662 1.47484 15.1747 22.1601
88 22 4 -1.13675 2.28758 14.8732 22.2675
89 23 2 0 9.30275 10.3164 22.4442
90 23 3 0.583192 9.17067 10.9897 23.1116
91 23 3 0.539216 9.98815 10.671 21.8779
92 23 4 -1.12241 9.37358 10.448 22.4571
93 24 2 0 3.00094 12.1045 22.361
94 24 3 0.558386 3.87963 11.9595 22.0101
95 24 3 0.592972 3.0654 11.8511 23.2818
96 24 4 -1.15136 3.12168 12.0535 22.4339
97 25 2 0 7.79642 14.3991 22.6135
98 25 3 0.601752 7.41543 15.2631 22.4566
99 25 3 0.604584 8.74184 14.542 22.5688
100 25 4 -1.20634 7.86868 14.528 22.5877
101 26 2 0 2.70781 20.0374 22.3416
102 26 3 0.527604 2.88369 19.0999 22.422
103 26 3 0.54487 3.57229 0.0547971 22.2417
104 26 4 -1.07247 2.84099 19.9684 22.3391
105 27 2 0 4.54457 9.40665 22.493
106 27 3 0.554294 5.00128 10.2467 22.4485
107 27 3 0.540206 5.24227 8.75214 22.4603
108 27 4 -1.0945 4.69235 9.4304 22.4831
109 28 2 0 0.0827806 12.0288 22.373
110 28 3 0.516297 0.17126 12.9699 22.2219
111 28 3 0.638997 0.971397 11.6859 22.2781
112 28 4 -1.15529 0.207861 12.1054 22.3415
113 29 2 0 10.5689 14.9472 22.5499
114 29 3 0.562371 10.6535 15.2959 23.4373
115 29 3 0.563355 10.529 15.7227 21.9901
116 29 4 -1.12573 10.5746 15.0911 22.5918
117 30 2 0 17.3797 1.45253 22.4817
118 30 3 0.513273 17.6422 0.808237 21.8243
119 30 3 0.602139 0.344345 2.17677 22.367
120 30 4 -1.11541 17.4921 1.46277 22.3829
121 31 2 0 6.44656 2.20864 24.6813
122 31 3 0.618855 7.38211 2.1832 24.8821
123 31 3 0.5826 6.40754 2.39032 23.7423
124 31 4 -1.20146 6.56133 2.22864 24.5868
125 32 2 0 10.536 2.60083 22.3865
126 32 3 0.548213 10.0019 3.1102 22.996
127 32 3 0.582944 11.3346 3.11717 22.2778
128 32 4 -1.13116 10.5698 2.73213 22.4506
129 33 2 0 13.6707 14.9644 22.8309
130 33 3 0.577387 13.7918 15.9132 22.7943
131 33 3 0.503246 12.8689 14.8443 23.3397
132 33 4 -1.08063 13.5836 15.0705 22.8913
133 34 2 0 11.7413 12.0962 22.5032
134 34 3 0.521736 11.7454 12.9404 22.0521
135 34 3 0.53899 12.6323 11.763 22.3971
136 34 4 -1.06073 11.8559 12.1616 22.4319
137 35 2 0 16.1412 19.4391 22.3196
138 35 3 0.508004 16.5458 18.8032 22.9096
139 35 3 0.582242 16.2851 20.2852 22.7435
140 35 4 -1.09025 16.2114 19.466 22.4494
141 36 2 0 7.67315 20.0125 26.4126
142 36 3 0.608669 7.37765 19.1287 26.6315
143 36 3 0.485524 6.9049 20.4339 26.0274
144 36 4 -1.09419 7.53698 19.9533 26.3913
145 37 2 0 14.2449 12.3951 25.0326
146 37 3 0.651435 14.3446 11.481 25.2982
147 37 3 0.582596 15.1302 12.7563 25.0786
148 37 4 -1.23403 14.371 12.3243 25.0725
149 38 2 0 0.0426418 6.62707 22.6252
150 38 3 0.614717 0.950089 6.81024 22.3819
151 38 3 0.555553 17.262 7.4813 22.6037
152 38 4 -1.17027 0.103589 6.75987 22.5913
153 39 2 0 11.3537 20.0424 22.3402
154 39 3 0.588367 11.4152 0.606036 22.1997
155 39 3 0.546765 11.7905 19.8957 23.1792
156 39 4 -1.13513 11.4175 20.1446 22.4296
157 40 2 0 15.2069 13.755 27.7583
158 40 3 0.568996 14.6501 13.029 28.0395
159 40 3 0.51078 15.1534 13.7424 26.8027
160 40 4 -1.07978 15.1288 13.6605 27.672
161 41 2 0 9.85668 6.99746 27.237
162 41 3 0.589149 9.6485 6.09323 27.002
163 41 3 0.483544 9.0081 7.39744 27.4272
164 41 4 -1.07269 9.7214 6.93291 27.2313
165 42 2 0 6.51882 17.543 27.3816
166 42 3 0.545292 6.63709 16.8271 26.7574
167 42 3 0.548249 5.56989 17.622 27.4793
168 42 4 -1.09354 6.41249 17.4615 27.3142
169 43 2 0 14.9185 9.82394 25.1849
170 43 3 0.553725 15.2565 9.67369 24.3021
171 43 3 0.564244 14.6145 8.96393 25.4751
172 43 4 -1.11797 14.9228 9.69461 25.1091
173 44 2 0 14.1589 6.51427 25.6687
174 44 3 0.521813 13.3107 6.10039 25.828
175 44 3 0.601513 14.7965 5.81189 25.7969
176 44 4 -1.12333 14.132 6.37138 25.7055
177 45 2 0 9.11272 5.16572 23.2681
178 45 3 0.621546 9.60005 5.929 22.958
179 45 3 0.647103 8.52243 5.51326 23.9367
180 45 4 -1.26865 9.09954 5.30792 23.314
181 46 2 0 1.85126 11.2852 25.4508
182 46 3 0.591742 2.80346 11.193 25.4832
183 46 3 0.490999 1.52026 10.5288 25.9351
184 46 4 -1.08274 1.93078 11.1766 25.5169
185 47 2 0 15.7136 4.09724 25.7581
186 47 3 0.529828 16.6252 3.89164 25.9654
187 47 3 0.588297 15.6766 4.08612 24.8017
188 47 4 -1.11813 15.8256 4.0695 25.6622
189 48 2 0 3.80128 6.27978 25.8694
190 48 3 0.57617 3.83623 5.34121 26.0541
191 48 3 0.503 4.59526 6.63306 26.2707
192 48 4 -1.07917 3.90739 6.20485 25.9444
193 49 2 0 13.0946 19.8336 24.8321
194 49 3 0.483798 13.2475 18.9094 25.0289
195 49 3 0.613467 13.8877 20.2774 25.1326
196 49 4 -1.09726 13.2157 19.7721 24.8958
197 50 2 0 6.16181 12.0906 22.5877
198 50 3 0.587942 6.71304 12.8203 22.3049
199 50 3 0.558165 5.76901 12.3903 23.4075
200 50 4 -1.14611 6.18209 12.2224 22.6564
201 51 2 0 9.19813 12.466 24.5241
202 51 3 0.544891 8.66772 12.9142 23.8653
203 51 3 0.570843 10.0659 12.8618 24.4435
204 51 4 -1.11573 9.24131 12.574 24.4294
205 52 2 0 3.76619 3.35248 25.3575
206 52 3 0.48742 3.48904 2.68657 24.7282
207 52 3 0.609635 4.69403 3.17045 25.5065
208 52 4 -1.09705 3.84948 3.24393 25.296
209 53 2 0 1.69428 14.6025 25.3968
210 53 3 0.485225 0.830617 14.1898 25.3949
211 53 3 0.470894 2.05481 14.4007 26.2603
212 53 4 -0.956119 1.62987 14.5239 25.5071
213 54 2 0 16.9251 12.9495 25.1998
214 54 3 0.626733 -0.0783021 12.813 25.8917
215 54 3 0.598851 17.3818 12.7098 24.3934
216 54 4 -1.22558 17.0664 12.9013 25.1851
217 55 2 0 0.902591 2.59917 25.1729
218 55 3 0.663026 0.827079 1.64894 25.2599
219 55 3 0.512754 1.78707 2.79874 25.4796
220 55 4 -1.17578 1.00615 2.50308 25.2233
221 56 2 0 11.8518 9.19238 28.1186
222 56 3 0.537162 11.3132 8.67489 28.7172
223 56 3 0.510792 11.5972 8.89195 27.2461
224 56 4 -1.04795 11.7503 9.08767 28.0835
225 57 2 0 3.74366 17.4741 24.1713
226 57 3 0.538614 4.05352 16.5862 23.9929
227 57 3 0.608163 3.79592 17.5597 25.1232
228 57 4 -1.14678 3.79002 17.3714 24.2703
229 58 2 0 9.13834 9.78202 26.3458
230 58 3 0.535385 9.67459 9.81458 27.138
231 58 3 0.51851 8.76537 10.6605 26.2722
232 58 4 -1.0539 9.15924 9.89864 26.4378
233 59 2 0 4.55559 14.4867 23.9926
234 59 3 0.471575 5.29726 14.7468 23.4462
235 59 3 0.604264 3.78706 14.8159 23.5265
236 59 4 -1.07584 4.55215 14.5621 23.863
237 60 2 0 9.38281 2.10822 25.016
238 60 3 0.595658 10.2907 1.93454 24.7673
239 60 3 0.562683 9.21752 1.5163 25.7498
240 60 4 -1.15834 9.47787 2.01021 25.0781
241 61 2 0 7.74873 15.7007 25.3601
242 61 3 0.510103 7.88759 15.7417 24.4139
243 61 3 0.506961 7.17784 14.9428 25.4862
244 61 4 -1.01706 7.69342 15.6089 25.2551
245 62 2 0 6.95759 12.9984 26.5112
246 62 3 0.536082 7.73242 13.0005 25.9492
247 62 3 0.494298 7.30725 13.0164 27.4021
248 62 4 -1.03038 7.10154 13.001 26.5533
249 63 2 0 11.3484 5.31713 25.1526
250 63 3 0.505176 11.1229 6.06892 25.7005
251 63 3 0.587349 10.7597 5.38305 24.4007
252 63 4 -1.09252 11.2442 5.42181 25.1265
253 64 2 0 11.7331 14.0664 25.9552
254 64 3 0.621754 12.3719 13.4236 25.6471
255 64 3 0.484945 11.0402 13.5425 26.3572
256 64 4 -1.1067 11.7261 13.9171 25.9672
257 65 2 0 13.2929 11.6474 27.7743
258 65 3 0.588758 12.5838 11.0075 27.8363
259 65 3 0.507974 14.0911 11.1196 27.7506
260 65 4 -1.09673 13.3043 11.4979 27.7792
261 66 2 0 7.01851 5.84035 24.9024
262 66 3 0.475102 7.17168 6.7851 24.9172
263 66 3 0.618947 6.42818 5.70453 24.1613
264 66 4 -1.09405 6.96255 5.9439 24.8094
265 67 2 0 1.08502 20.1547 24.8323
266 67 3 0.585134 1.52183 20.1961 23.9815
267 67 3 0.500193 0.720062 19.2706 24.8719
268 67 4 -1.08533 1.09422 20.0468 24.7284
269 68 2 0 10.3355 12.1972 28.2457
270 68 3 0.493906 11.2897 12.2257 28.1753
271 68 3 0.563115 10.1083 12.9796 28.748
272 68 4 -1.05702 10.4286 12.301 28.301
273 69 2 0 12.2463 2.34951 24.7212
274 69 3 0.614847 12.6038 2.50303 23.8467
275 69 3 0.556315 11.9699 3.2149 25.0229
276 69 4 -1.17116 12.2566 2.47994 24.6479
277 70 2 0 4.6198 11.4213 25.3451
278 70 3 0.617944 5.29437 10.7672 25.5277
279 70 3 0.555565 4.81362 12.1402 25.9465
280 70 4 -1.17351 4.73097 11.4296 25.4455
281 71 2 0 9.35559 4.03859 27.2735
282 71 3 0.520411 9.90958 3.54561 27.8787
283 71 3 0.531055 9.60796 3.7229 26.4058
284 71 4 -1.05147 9.45882 3.93507 27.2399
285 72 2 0 0.431434 13.34 27.9978
286 72 3 0.579449 17.2083 13.7307 28.0085
287 72 3 0.456635 0.864961 13.7003 28.7714
288 72 4 -1.03608 0.37508 13.4361 28.0982
289 73 2 0 10.8077 18.9402 26.7967
290 73 3 0.492739 11.1964 19.7006 26.3644
291 73 3 0.581242 9.87583 19.1501 26.8592
292 73 4 -1.07398 10.7381 19.0644 26.7493
293 74 2 0 10.885 16.8334 24.7306
294 74 3 0.607078 11.0178 17.4992 25.4053
295 74 3 0.532517 11.1046 16.0075 25.1619
296 74 4 -1.13959 10.9301 16.8129 24.8722
297 75 2 0 4.31406 0.113375 24.96
298 75 3 0.545296 4.01172 20.1181 24.1335
299 75 3 0.574006 4.88393 0.837101 24.6997
300 75 4 -1.1193 4.34831 0.157826 24.8208
301 76 2 0 6.38895 9.19213 25.7611
302 76 3 0.492984 6.27975 8.79459 24.8972
303 76 3 0.591196 7.33193 9.33525 25.8419
304 76 4 -1.08418 6.49569 9.15957 25.6609
305 77 2 0 11.2016 1.47564 27.4877
306 77 3 0.522435 11.7167 1.6389 26.6976
307 77 3 0.498206 11.3621 0.55455 27.6928
308 77 4 -1.02064 11.2881 1.37863 27.4128
309 78 2 0 15.3926 1.10116 25.3285
310 78 3 0.513129 14.6421 1.56235 24.954
311 78 3 0.554049 15.8179 1.7503 25.8888
312 78 4 -1.06718 15.3509 1.2433 25.3523
313 79 2 0 1.51078 7.91403 25.0558
314 79 3 0.47866 1.03991 7.26887 24.5283
315 79 3 0.591678 2.32202 7.47249 25.3072
316 79 4 -1.07034 1.55435 7.77492 25.0205
317 80 2 0 10.5002 15.0058 28.8062
318 80 3 0.466197 11.1988 14.5018 28.3889
319 80 3 0.515693 10.9062 15.8452 29.0225
320 80 4 -0.981889 10.6416 15.0487 28.7805
321 81 2 0 3.76095 18.6427 27.0351
322 81 3 0.620183 3.9653 19.4143 26.5067
323 81 3 0.488346 2.88761 18.8167 27.3862
324 81 4 -1.10853 3.67531 18.7638 27.0124
325 82 1 0.000439881 0 0 10
326 82 1 0.0005135 1.47089 2.54765 10
327 82 1 0.000411413 0 5.09531 10
328 82 1 0.000377471 1.47089 7.64296 10
329 82 1 0.000242537 0 10.1906 10
330 82 1 0.00026952 1.47089 12.7383 10
331 82 1 0.000289372 0 15.2859 10
332 82 1 0.000419534 1.47089 17.8336 10
333 82 1 0.000533409 2.94178 0 10
334 82 1 0.000588259 4.41266 2.54765 10
335 82 1 0.000527536 2.94178 5.09531 10
336 82 1 0.00049818 4.41266 7.64296 10
337 82 1 0.000353386 2.94178 10.1906 10
338 82 1 0.000369421 4.41266 12.7383 10
339 82 1 0.000365104 2.94178 15.2859 10
340 82 1 0.000480999 4.41266 17.8336 10
341 82 1 0.000549825 5.88355 0 10
342 82 1 0.000561475 7.35444 2.54765 10
343 82 1 0.00058099 5.88355 5.09531 10
344 82 1 0.000532784 7.35444 7.64296 10
345 82 1 0.000452771 5.88355 10.1906 10
346 82 1 0.000403899 7.35444 12.7383 10
347 82 1 0.000415461 5.88355 15.2859 10
348 82 1 0.000458173 7.35444 17.8336 10
349 82 1 0.000473938 8.82533 0 10
350 82 1 0.000462029 10.2962 2.54765 10
351 82 1 0.000533314 8.82533 5.09531 10
352 82 1 0.00044899 10.2962 7.64296 10
353 82 1 0.000434661 8.82533 10.1906 10
354 82 1 0.000333452 10.2962 12.7383 10
355 82 1 0.000368463 8.82533 15.2859 10
356 82 1 0.000365576 10.2962 17.8336 10
357 82 1 0.000373562 11.7671 0 10
358 82 1 0.000375616 13.238 2.54765 10
359 82 1 0.000416967 11.7671 5.09531 10
360 82 1 0.00032281 13.238 7.64296 10
361 82 1 0.000321026 11.7671 10.1906 10
362 82 1 0.000241283 13.238 12.7383 10
363 82 1 0.000289382 11.7671 15.2859 10
364 82 1 0.000309042 13.238 17.8336 10
365 82 1 0.000355647 14.7089 0 10
366 82 1 0.00040258 16.1798 2.54765 10
367 82 1 0.000353237 14.7089 5.09531 10
368 82 1 0.00028938 16.1798 7.64296 10
369 82 1 0.000225286 14.7089 10.1906 10
370 82 1 0.000210026 16.1798 12.7383 10
371 82 1 0.000254851 14.7089 15.2859 10
372 82 1 0.000338736 16.1798 17.8336 10
373 82 1 5.96963e-05 1.47089 0.849218 12.402
374 82 1 0.000137684 2.94178 3.39687 12.402
375 82 1 0.000130709 1.47089 5.94452 12.402
376 82 1 0.000105064 2.94178 8.49218 12.402
377 82 1 -0.000131476 1.47089 11.0398 12.402
378 82 1 -9.78892e-05 2.94178 13.5875 12.402
379 82 1 -0.000146462 1.47089 16.1351 12.402
380 82 1 4.87498e-05 2.94178 18.6828 12.402
381 82 1 9.02081e-05 4.41266 0.849218 12.402
382 82 1 8.79795e-05 5.88355 3.39687 12.402
383 82 1 0.000191054 4.41266 5.94452 12.402
384 82 1 9.76806e-05 5.88355 8.49218 12.402
385 82 1 6.05524e-06 4.41266 11.0398 12.402
386 82 1 -1.4141e-06 5.88355 13.5875 12.402
387 82 1 4.10068e-05 4.41266 16.1351 12.402
388 82 1 0.000106547 5.88355 18.6828 12.402
389 82 1 7.59167e-05 7.35444 0.849218 12.402
390 82 1 5.4014e-05 8.82533 3.39687 12.402
391 82 1 0.000104986 7.35444 5.94452 12.402
392 82 1 2.88299e-05 8.82533 8.49218 12.402
393 82 1 -1.47011e-05 7.35444 11.0398 12.402
394 82 1 -0.00010954 8.82533 13.5875 12.402
395 82 1 2.72681e-05 7.35444 16.1351 12.402
396 82 1 6.18359e-05 8.82533 18.6828 12.402
397 82 1 6.76456e-05 10.2962 0.849218 12.402
398 82 1 3.01342e-05 11.7671 3.39687 12.402
399 82 1 5.21069e-05 10.2962 5.94452 12.402
400 82 1 -5.31905e-05 11.7671 8.49218 12.402
401 82 1 -0.000126977 10.2962 11.0398 12.402
402 82 1 -0.000274584 11.7671 13.5875 12.402
403 82 1 -0.000110073 10.2962 16.1351 12.402
404 82 1 -2.75364e-05 11.7671 18.6828 12.402
405 82 1 -3.64598e-06 13.238 0.849218 12.402
406 82 1 -3.99835e-05 14.7089 3.39687 12.402
407 82 1 -3.4415e-05 13.238 5.94452 12.402
408 82 1 -0.000135811 14.7089 8.49218 12.402
409 82 1 -0.000240067 13.238 11.0398 12.402
410 82 1 -0.00034923 14.7089 13.5875 12.402
411 82 1 -0.000242892 13.238 16.1351 12.402
412 82 1 -0.00012681 14.7089 18.6828 12.402
413 82 1 -2.92093e-05 16.1798 0.849218 12.402
414 82 1 5.48689e-05 0 3.39687 12.402
415 82 1 -4.08875e-05 16.1798 5.94452 12.402
416 82 1 -5.93467e-05 0 8.49218 12.402
417 82 1 -0.000262586 16.1798 11.0398 12.402
418 82 1 -0.000298548 0 13.5875 12.402
419 82 1 -0.000279426 16.1798 16.1351 12.402
420 82 1 -9.65481e-05 0 18.6828 12.402
421 82 1 -0.00266697 2.94178 1.69844 14.8039
422 82 1 -0.00263293 4.41266 4.24609 14.8039
423 82 1 -0.00154495 2.94178 6.79374 14.8039
424 82 1 -0.00169532 4.41266 9.34139 14.8039
425 82 1 -0.0017051 2.94178 11.889 14.8039
426 82 1 -0.00179357 4.41266 14.4367 14.8039
427 82 1 -0.00206262 2.94178 16.9844 14.8039
428 82 1 -0.00234559 4.41266 19.532 14.8039
429 82 1 -0.00293639 5.88355 1.69844 14.8039
430 82 1 -0.00283437 7.35444 4.24609 14.8039
431 82 1 -0.00232351 5.88355 6.79374 14.8039
432 82 1 -0.00209394 7.35444 9.34139 14.8039
433 82 1 -0.00184786 5.88355 11.889 14.8039
434 82 1 -0.00179551 7.35444 14.4367 14.8039
435 82 1 -0.00171378 5.88355 16.9844 14.8039
436 82 1 -0.00184447 7.35444 19.532 14.8039
437 82 1 -0.00215749 8.82533 1.69844 14.8039
438 82 1 -0.00195342 10.2962 4.24609 14.8039
439 82 1 -0.00216285 8.82533 6.79374 14.8039
440 82 1 -0.00177512 10.2962 9.34139 14.8039
441 82 1 -0.00201026 8.82533 11.889 14.8039
442 82 1 -0.00186082 10.2962 14.4367 14.8039
443 82 1 -0.00149514 8.82533 16.9844 14.8039
444 82 1 -0.00122 10.2962 19.532 14.8039
445 82 1 -0.00157554 11.7671 1.69844 14.8039
446 82 1 -0.00163203 13.238 4.24609 14.8039
447 82 1 -0.00146117 11.7671 6.79374 14.8039
448 82 1 -0.00135565 13.238 9.34139 14.8039
449 82 1 -0.00178251 11.7671 11.889 14.8039
450 82 1 -0.00158639 13.238 14.4367 14.8039
451 82 1 -0.00130781 11.7671 16.9844 14.8039
452 82 1 -0.00132512 13.238 19.532 14.8039
453 82 1 -0.00184594 14.7089 1.69844 14.8039
454 82 1 -0.00174537 16.1798 4.24609 14.8039
455 82 1 -0.00132244 14.7089 6.79374 14.8039
456 82 1 -0.00120951 16.1798 9.34139 14.8039
457 82 1 -0.00146251 14.7089 11.889 14.8039
458 82 1 -0.00170611 16.1798 14.4367 14.8039
459 82 1 -0.00148695 14.7089 16.9844 14.8039
460 82 1 -0.00189454 16.1798 19.532 14.8039
461 82 1 -0.00219109 0 1.69844 14.8039
462 82 1 -0.00194118 1.47089 4.24609 14.8039
463 82 1 -0.00128659 0 6.79374 14.8039
464 82 1 -0.00128448 1.47089 9.34139 14.8039
465 82 1 -0.00156438 0 11.889 14.8039
466 82 1 -0.0019593 1.47089 14.4367 14.8039
467 82 1 -0.00204327 0 16.9844 14.8039
468 82 1 -0.00233814 1.47089 19.532 14.8039
469 82 1 -0.00818723 4.41266 2.54765 17.2059
470 82 1 -0.00787162 5.88355 5.09531 17.2059
471 82 1 -0.00427083 4.41266 7.64296 17.2059
472 82 1 -0.00442112 5.88355 10.1906 17.2059
473 82 1 -0.00282044 4.41266 12.7383 17.2059
474 82 1 -0.00312306 5.88355 15.2859 17.2059
475 82 1 -0.0042881 4.41266 17.8336 17.2059
476 82 1 -0.00621406 5.88355 0 17.2059
477 82 1 -0.00765356 7.35444 2.54765 17.2059
478 82 1 -0.00644369 8.82533 5.09531 17.2059
479 82 1 -0.00660423 7.35444 7.64296 17.2059
480 82 1 -0.0046321 8.82533 10.1906 17.2059
481 82 1 -0.00399363 7.35444 12.7383 17.2059
482 82 1 -0.00342555 8.82533 15.2859 17.2059
483 82 1 -0.00297157 7.35444 17.8336 17.2059
484 82 1 -0.00301075 8.82533 0 17.2059
485 82 1 -0.00376484 10.2962 2.54765 17.2059
486 82 1 -0.00279561 11.7671 5.09531 17.2059
487 82 1 -0.00373953 10.2962 7.64296 17.2059
488 82 1 -0.00224075 11.7671 10.1906 17.2059
489 82 1 -0.00368271 10.2962 12.7383 17.2059
490 82 1 -0.00194436 11.7671 15.2859 17.2059
491 82 1 -0.00120903 10.2962 17.8336 17.2059
492 82 1 -0.00114705 11.7671 0 17.2059
493 82 1 -0.00294316 13.238 2.54765 17.2059
494 82 1 -0.00244087 14.7089 5.09531 17.2059
495 82 1 -0.00112755 13.238 7.64296 17.2059
496 82 1 1.4514e-05 14.7089 10.1906 17.2059
497 82 1 -0.0011669 13.238 12.7383 17.2059
498 82 1 -0.000862913 14.7089 15.2859 17.2059
499 82 1 -0.000590709 13.238 17.8336 17.2059
500 82 1 -0.00252567 14.7089 0 17.2059
501 82 1 -0.00407849 16.1798 2.54765 17.2059
502 82 1 -0.00300925 0 5.09531 17.2059
503 82 1 -0.000650446 16.1798 7.64296 17.2059
504 82 1 9.2371e-07 0 10.1906 17.2059
505 82 1 -0.000349336 16.1798 12.7383 17.2059
506 82 1 -0.00248523 0 15.2859 17.2059
507 82 1 -0.00247237 16.1798 17.8336 17.2059
508 82 1 -0.00461556 0 0 17.2059
509 82 1 -0.00570074 1.47089 2.54765 17.2059
510 82 1 -0.00480554 2.94178 5.09531 17.2059
511 82 1 -0.00126847 1.47089 7.64296 17.2059
512 82 1 -0.00179642 2.94178 10.1906 17.2059
513 82 1 -0.00169369 1.47089 12.7383 17.2059
514 82 1 -0.00315357 2.94178 15.2859 17.2059
515 82 1 -0.00451059 1.47089 17.8336 17.2059
516 82 1 -0.00637725 2.94178 0 17.2059
517 82 1 -0.00563112 5.88355 3.39687 19.6078
518 82 1 -0.00494382 7.35444 5.94452 19.6078
519 82 1 -0.00104121 5.88355 8.49218 19.6078
520 82 1 0.00161876 7.35444 11.0398 19.6078
521 82 1 0.00483568 5.88355 13.5875 19.6078
522 82 1 0.00440567 7.35444 16.1351 19.6078
523 82 1 0.00296075 5.88355 18.6828 19.6078
524 82 1 0.000745228 7.35444 0.849218 19.6078
525 82 1 -0.000195775 8.82533 3.39687 19.6078
526 82 1 0.00296256 10.2962 5.94452 19.6078
527 82 1 -0.000254328 8.82533 8.49218 19.6078
528 82 1 0.00338213 10.2962 11.0398 19.6078
529 82 1 0.00230572 8.82533 13.5875 19.6078
530 82 1 0.00567613 10.2962 16.1351 19.6078
531 82 1 0.00742837 8.82533 18.6828 19.6078
532 82 1 0.00745104 10.2962 0.849218 19.6078
533 82 1 0.00579864 11.7671 3.39687 19.6078
534 82 1 0.00773733 13.238 5.94452 19.6078
535 82 1 0.00630269 11.7671 8.49218 19.6078
536 82 1 0.00961265 13.238 11.0398 19.6078
537 82 1 0.006555 11.7671 13.5875 19.6078
538 82 1 0.0101914 13.238 16.1351 19.6078
539 82 1 0.0100288 11.7671 18.6828 19.6078
540 82 1 0.0064894 13.238 0.849218 19.6078
541 82 1 0.0045291 14.7089 3.39687 19.6078
542 82 1 0.00675262 16.1798 5.94452 19.6078
543 82 1 0.0102547 14.7089 8.49218 19.6078
544 82 1 0.0132095 16.1798 11.0398 19.6078
545 82 1 0.0123035 14.7089 13.5875 19.6078
546 82 1 0.00896917 16.1798 16.1351 19.6078
547 82 1 0.00822874 14.7089 18.6828 19.6078
548 82 1 0.00367447 16.1798 0.849218 19.6078
549 82 1 0.00221745 0 3.39687 19.6078
550 82 1 0.00464819 1.47089 5.94452 19.6078
551 82 1 0.0103457 0 8.49218 19.6078
552 82 1 0.0103299 1.47089 11.0398 19.6078
553 82 1 0.0103715 0 13.5875 19.6078
554 82 1 0.00544014 1.47089 16.1351 19.6078
555 82 1 0.00399074 0 18.6828 19.6078
556 82 1 0.000183235 1.47089 0.849218 19.6078
557 82 1 -0.00204537 2.94178 3.39687 19.6078
558 82 1 -0.00119761 4.41266 5.94452 19.6078
559 82 1 0.0063679 2.94178 8.49218 19.6078
560 82 1 0.00532758 4.41266 11.0398 19.6078
561 82 1 0.00764175 2.94178 13.5875 19.6078
562 82 1 0.00520684 4.41266 16.1351 19.6078
563 82 1 0.00133258 2.94178 18.6828 19.6078
564 82 1 -0.00312104 4.41266 0.849218 19.6078
ITEM: TIMESTEP
15000
ITEM: NUMBER OF ATOMS
564
ITEM: BOX BOUNDS pp pp ff
0.0000000000000000e+00 1.7650658050000001e+01
0.0000000000000000e+00 2.0381224350000000e+01
0.0000000000000000e+00 6.0000000000000000e+01
ITEM: ATOMS id mol type q x y z
1 1 2 0 8.92159 17.1163 22.2031
2 1 3 0.563755 9.70876 17.6157 22.4204
3 1 3 0.514295 8.45284 17.6677 21.5767
4 1 4 -1.07805 8.96235 17.2508 22.1508
5 2 2 0 15.9232 14.5648 22.3027
6 2 3 0.589987 16.2488 13.9125 22.9229
7 2 3 0.614665 14.9702 14.4954 22.3596
8 2 4 -1.20465 15.8429 14.4724 22.3894
9 3 2 0 15.8652 9.51889 22.3684
10 3 3 0.608866 15.6093 10.4294 22.2211
11 3 3 0.603608 16.813 9.55397 22.4981
12 3 4 -1.21247 15.9538 9.63994 22.3662
13 4 2 0 1.47118 3.72119 22.235
14 4 3 0.550007 2.25949 3.18336 22.1606
15 4 3 0.603531 1.79795 4.61878 22.2964
16 4 4 -1.15354 1.61392 3.76724 22.2333
17 5 2 0 12.9761 7.68625 22.7404
18 5 3 0.582718 13.5585 7.81055 23.4898
19 5 3 0.597103 12.9496 8.54208 22.3125
20 5 4 -1.17982 13.0473 7.81172 22.7815
21 6 2 0 1.1352 9.36133 22.4943
22 6 3 0.61419 1.79465 10.0481 22.5931
23 6 3 0.545639 1.6358 8.54548 22.4987
24 6 4 -1.15983 1.2837 9.3448 22.5075
25 7 2 0 5.786 16.8934 22.4666
26 7 3 0.577882 4.97179 17.1674 22.8888
27 7 3 0.479863 6.41789 16.8294 23.1828
28 7 4 -1.05775 5.76266 16.9203 22.6123
29 8 2 0 8.57375 0.209331 22.2657
30 8 3 0.663448 9.52637 0.117152 22.2498
31 8 3 0.536385 8.42055 1.1431 22.1214
32 8 4 -1.19983 8.67609 0.317065 22.2452
33 9 2 0 7.51188 2.96487 22.3834
34 9 3 0.636335 8.1984 3.63074 22.3441
35 9 3 0.471872 7.66445 2.51157 23.2125
36 9 4 -1.10821 7.6193 2.99208 22.4845
37 10 2 0 5.79587 20.3245 22.6776
38 10 3 0.535575 5.80335 19.6698 23.3758
39 10 3 0.594926 6.68295 20.3027 22.3187
40 10 4 -1.1305 5.91038 20.2379 22.721
41 11 2 0 2.22982 6.56621 22.8414
42 11 3 0.511405 2.00277 7.16335 23.5542
43 11 3 0.658666 3.17711 6.66072 22.7417
44 11 4 -1.17007 2.32202 6.65475 22.9199
45 12 2 0 17.1394 17.0351 22.4198
46 12 3 0.609386 16.7465 16.1632 22.3806
47 12 3 0.573206 17.048 17.2986 23.3354
48 12 4 -1.18259 17.0774 16.9572 22.532
49 13 2 0 14.2841 11.9882 22.4531
50 13 3 0.53846 14.7527 12.7652 22.1484
51 13 3 0.566866 14.0849 12.1727 23.371
52 13 4 -1.10533 14.3186 12.1113 22.5316
53 14 2 0 13.4501 17.6725 22.3897
54 14 3 0.625369 12.7865 18.3418 22.2226
55 14 3 0.564679 14.2822 18.1082 22.2051
56 14 4 -1.19005 13.4717 17.8139 22.3447
57 15 2 0 13.0568 4.61168 22.2976
58 15 3 0.540938 14.0124 4.56126 22.276
59 15 3 0.511214 12.8546 5.48288 21.9565
60 15 4 -1.05215 13.1533 4.71675 22.2512
61 16 2 0 10.1988 7.51119 22.678
62 16 3 0.641938 11.1353 7.66805 22.557
63 16 3 0.539204 9.94629 8.10159 23.3879
64 16 4 -1.18114 10.2863 7.60685 22.7534
65 17 2 0 4.22725 2.52366 22.5316
66 17 3 0.603302 4.93746 1.95909 22.2265
67 17 3 0.458082 3.98601 2.16541 23.3858
68 17 4 -1.06138 4.28728 2.40553 22.6019
69 18 2 0 7.19518 7.08787 22.8848
70 18 3 0.581481 8.10108 7.05898 22.577
71 18 3 0.556993 7.23099 6.72654 23.7704
72 18 4 -1.13847 7.31573 7.03791 22.9587
73 19 2 0 14.2313 1.70113 22.7397
74 19 3 0.588949 14.987 2.25536 22.5449
75 19 3 0.590387 14.5544 0.806995 22.6287
76 19 4 -1.17934 14.3694 1.65762 22.7005
77 20 2 0 4.86328 5.41126 22.6656
78 20 3 0.524247 5.4553 6.08245 22.3261
79 20 3 0.587963 5.20681 4.58912 22.3159
80 20 4 -1.11221 4.98304 5.39194 22.5774
81 21 2 0 16.0327 3.9763 22.2764
82 21 3 0.600973 16.2219 4.90918 22.3773
83 21 3 0.545119 16.8743 3.58458 22.043
84 21 4 -1.14609 16.1647 4.04557 22.2595
85 22 2 0 1.35115 14.6687 22.3678
86 22 3 0.505695 0.731298 13.9482 22.4812
87 22 3 0.596785 0.821557 15.3895 22.027
88 22 4 -1.10248 1.20401 14.6688 22.3387
89 23 2 0 8.5516 10.3128 22.2575
90 23 3 0.510791 8.52489 10.6616 21.3665
91 23 3 0.569431 9.43082 9.94454 22.3448
92 23 4 -1.08022 8.66073 10.3103 22.1546
93 24 2 0 2.89471 11.5768 22.5689
94 24 3 0.560032 3.59832 11.4296 21.9368
95 24 3 0.58706 3.2013 12.3096 23.1029
96 24 4 -1.14709 3.02403 11.6518 22.5563
97 25 2 0 7.21339 14.3462 22.436
98 25 3 0.629897 6.8999 15.2148 22.184
99 25 3 0.570134 8.16619 14.4053 22.3659
100 25 4 -1.20003 7.29523 14.4649 22.3947
101 26 2 0 2.54224 19.925 22.5821
102 26 3 0.578353 2.57903 19.0327 22.9268
103 26 3 0.547588 3.23398 19.9556 21.9212
104 26 4 -1.12594 2.6355 19.8147 22.5416
105 27 2 0 4.63312 8.69909 22.5789
106 27 3 0.527326 4.99732 9.58268 22.6323
107 27 3 0.510982 5.39382 8.13363 22.4454
108 27 4 -1.03831 4.77712 8.73982 22.5686
109 28 2 0 17.5985 12.0244 22.2708
110 28 3 0.460363 17.5271 12.7247 21.6222
111 28 3 0.606082 0.805793 11.6327 22.1074
112 28 4 -1.06644 0.0485356 12.0639 22.1669
113 29 2 0 10.0547 14.381 22.4737
114 29 3 0.574954 10.935 14.2658 22.1158
115 29 3 0.613044 9.89389 15.3229 22.417
116 29 4 -1.188 10.1468 14.4868 22.4206
117 30 2 0 0.069375 1.12577 22.4035
118 30 3 0.608376 0.792502 0.502726 22.4751
119 30 3 0.553834 0.492524 1.98429 22.3921
120 30 4 -1.16221 0.216112 1.15591 22.4112
121 31 2 0 5.77164 2.65059 25.4495
122 31 3 0.651631 6.38998 1.92691 25.5503
123 31 3 0.457823 6.31561 3.39837 25.2022
124 31 4 -1.10945 5.92043 2.65368 25.4308
125 32 2 0 11.2635 1.8502 22.5602
126 32 3 0.559815 10.9158 2.53898 21.9937
127 32 3 0.634717 12.1643 2.11932 22.7399
128 32 4 -1.19453 11.3343 1.97283 22.5107
129 33 2 0 13.004 14.7649 22.4477
130 33 3 0.644732 13.0751 15.6972 22.653
131 33 3 0.499852 12.6116 14.3763 23.2295
132 33 4 -1.14458 12.9628 14.8345 22.574
133 34 2 0 11.5776 10.0825 22.3934
134 34 3 0.57166 12.0546 10.856 22.0927
135 34 3 0.50106 11.4942 10.2047 23.3391
136 34 4 -1.07272 11.628 10.1972 22.476
137 35 2 0 15.5529 19.5639 22.4947
138 35 3 0.599608 15.9922 18.721 22.3813
139 35 3 0.622224 16.2607 20.1798 22.6841
140 35 4 -1.22183 15.6998 19.5348 22.5044
141 36 2 0 7.50037 0.464103 24.8862
142 36 3 0.563547 7.31545 0.396283 23.9495
143 36 3 0.618985 8.44387 0.61822 24.9341
144 36 4 -1.18253 7.59747 0.47515 24.7724
145 37 2 0 13.568 12.4964 25.3768
146 37 3 0.580662 13.6578 11.5452 25.4351
147 37 3 0.580497 14.4533 12.8304 25.5217
148 37 4 -1.16116 13.6928 12.4174 25.4028
149 38 2 0 16.8466 6.8025 22.4261
150 38 3 0.516062 0.124236 6.71439 22.21
151 38 3 0.623482 16.6247 7.69791 22.1707
152 38 4 -1.13954 16.937 6.90584 22.3657
153 39 2 0 11.3602 19.5034 22.605
154 39 3 0.636138 11.702 0.00959324 22.714
155 39 3 0.61352 11.1998 19.1967 23.4975
156 39 4 -1.24966 11.3834 19.5777 22.7332
157 40 2 0 16.8092 11.9787 27.8642
158 40 3 0.510202 16.6749 11.1378 28.3014
159 40 3 0.513628 16.9366 11.7524 26.9429
160 40 4 -1.02383 16.8083 11.8421 27.8022
161 41 2 0 10.2862 6.3347 27.532
162 41 3 0.563205 9.95606 5.4526 27.7028
163 41 3 0.472563 9.50688 6.84351 27.3084
164 41 4 -1.03577 10.1442 6.28691 27.5253
165 42 2 0 5.01412 18.7272 24.9728
166 42 3 0.564128 5.31847 17.8451 25.1861
167 42 3 0.53035 5.78939 19.2795 25.0736
168 42 4 -1.09448 5.15233 18.685 25.013
169 43 2 0 14.3004 9.83638 24.6932
170 43 3 0.636443 14.8823 9.9449 23.941
171 43 3 0.595202 14.5172 8.97154 25.0415
172 43 4 -1.23164 14.4027 9.73956 24.6415
173 44 2 0 14.338 7.05949 25.4847
174 44 3 0.554008 13.6457 6.41672 25.3306
175 44 3 0.597408 15.1184 6.53402 25.6611
176 44 4 -1.15142 14.3493 6.90994 25.4876
177 45 2 0 9.77006 4.68036 22.3298
178 45 3 0.617864 9.97523 5.61354 22.3874
179 45 3 0.529202 9.98466 4.33361 23.1958
180 45 4 -1.14707 9.8238 4.75543 22.4481
181 46 2 0 0.736895 10.8845 25.2572
182 46 3 0.506015 1.51621 11.1343 25.7537
183 46 3 0.632789 0.884208 9.96772 25.0246
184 46 4 -1.1388 0.855515 10.7991 25.291
185 47 2 0 17.3039 6.03248 25.5327
186 47 3 0.631778 17.596 5.17224 25.2311
187 47 3 0.517562 17.3034 6.57564 24.7445
188 47 4 -1.14934 17.3412 5.99189 25.3932
189 48 2 0 4.09269 6.51181 26.7002
190 48 3 0.546784 3.87621 5.67279 26.2935
191 48 3 0.478367 3.45902 6.60424 27.4116
192 48 4 -1.02515 3.98386 6.41624 26.7392
193 49 2 0 14.1123 19.6635 25.0888
194 49 3 0.553178 14.7397 19.5705 24.3719
195 49 3 0.569412 14.5053 20.3161 25.6684
196 49 4 -1.12259 14.2429 19.7352 25.0713
197 50 2 0 5.97121 11.8573 22.5708
198 50 3 0.627159 6.30524 12.731 22.3674
199 50 3 0.509584 6.71699 11.3996 22.9587
200 50 4 -1.13674 6.10944 11.9106 22.5944
201 51 2 0 8.79505 12.8688 24.5494
202 51 3 0.552974 8.63663 13.1692 23.6545
203 51 3 0.527895 8.75863 11.914 24.4922
204 51 4 -1.08087 8.77011 12.785 24.4275
205 52 2 0 2.88576 4.11296 25.5063
206 52 3 0.563405 3.40513 3.4776 25.9991
207 52 3 0.565443 3.43477 4.3416 24.7563
208 52 4 -1.12885 3.02253 4.0609 25.4734
209 53 2 0 0.397048 16.9125 25.2242
210 53 3 0.571299 0.411263 16.231 25.8963
211 53 3 0.548843 0.96307 17.6025 25.5702
212 53 4 -1.12014 0.471326 16.9136 25.3545
213 54 2 0 16.3925 12.972 24.8073
214 54 3 0.542364 16.7893 13.5801 25.431
215 54 3 0.653764 17.0327 12.2657 24.7202
216 54 4 -1.19613 16.5253 12.9594 24.876
217 55 2 0 0.214036 3.09959 25.1384
218 55 3 0.480795 0.100438 2.38321 24.5138
219 55 3 0.62181 1.16255 3.19006 25.2299
220 55 4 -1.1026 0.320914 3.01947 25.0701
221 56 2 0 11.442 8.74615 28.814
222 56 3 0.547898 12.1604 9.33386 28.5801
223 56 3 0.512218 11.7338 7.88246 28.5222
224 56 4 -1.06012 11.5713 8.71082 28.7467
225 57 2 0 2.93427 17.1433 23.4551
226 57 3 0.63691 2.14881 16.5991 23.5114
227 57 3 0.520863 2.87137 17.7339 24.2057
228 57 4 -1.15777 2.82567 17.1492 23.5584
229 58 2 0 9.87444 8.73999 25.4946
230 58 3 0.536574 10.2931 9.08465 26.2834
231 58 3 0.514317 8.9483 8.66917 25.7259
232 58 4 -1.05089 9.80948 8.77505 25.6252
233 59 2 0 3.34116 14.2447 24.2145
234 59 3 0.57495 3.603 15.1413 24.0052
235 59 3 0.571227 2.64989 14.0432 23.5838
236 59 4 -1.14618 3.28619 14.3337 24.107
237 60 2 0 9.6817 2.7696 24.6954
238 60 3 0.603943 10.4871 2.57976 24.2143
239 60 3 0.531916 9.98012 3.13493 25.5283
240 60 4 -1.13586 9.82301 2.79206 24.7404
241 61 2 0 7.14625 15.8844 25.4059
242 61 3 0.476684 7.22657 15.2689 24.6773
243 61 3 0.585203 7.11392 15.3303 26.1857
244 61 4 -1.06189 7.15239 15.7347 25.4124
245 62 2 0 7.08138 13.4205 26.9329
246 62 3 0.530466 7.58336 13.2103 26.1455
247 62 3 0.596661 6.26273 12.9347 26.8325
248 62 4 -1.12713 7.04084 13.3314 26.8193
249 63 2 0 11.5978 5.89641 24.9486
250 63 3 0.606114 11.2746 6.4224 25.6801
251 63 3 0.512002 11.8434 6.53781 24.2819
252 63 4 -1.11812 11.5879 6.04585 24.9569
253 64 2 0 11.3991 14.5866 25.1184
254 64 3 0.579706 12.0317 13.9051 25.3454
255 64 3 0.58352 10.8119 14.1688 24.4885
256 64 4 -1.16323 11.4049 14.4459 25.0669
257 65 2 0 13.7024 10.2876 27.6401
258 65 3 0.508921 14.2174 11.0897 27.5524
259 65 3 0.493707 13.5343 10.0106 26.7394
260 65 4 -1.00263 13.7468 10.3548 27.5136
261 66 2 0 6.93697 5.89733 25.7271
262 66 3 0.472888 6.39824 5.10663 25.6988
263 66 3 0.532969 6.42046 6.52154 26.2369
264 66 4 -1.00586 6.80189 5.87602 25.7888
265 67 2 0 0.562023 19.8698 24.8305
266 67 3 0.521329 17.5366 0.123094 25.0682
267 67 3 0.476179 1.2623 0.0163835 24.4468
268 67 4 -0.997507 0.565122 20.0186 24.8118
269 68 2 0 8.66145 10.2294 28.552
270 68 3 0.518285 9.51276 9.84509 28.7613
271 68 3 0.441617 8.15951 10.1573 29.3639
272 68 4 -0.959902 8.70618 10.171 28.6827
273 69 2 0 12.6952 3.17593 24.8064
274 69 3 0.586524 13.3085 2.95858 24.1043
275 69 3 0.604866 12.2639 3.977 24.5088
276 69 4 -1.19139 12.7185 3.25065 24.6784
277 70 2 0 4.63873 12.2186 25.5538
278 70 3 0.517916 5.27245 12.0202 24.8644
279 70 3 0.581743 4.17262 12.9919 25.236
280 70 4 -1.09966 4.66018 12.2922 25.4249
281 71 2 0 10.1471 2.99416 27.8124
282 71 3 0.572918 11.0348 2.70882 27.5961
283 71 3 0.482876 9.82308 2.33006 28.4209
284 71 4 -1.05579 10.2192 2.87262 27.8626
285 72 2 0 0.00644944 14.7965 26.9934
286 72 3 0.560274 17.1386 14.0952 27.3878
287 72 3 0.510853 0.57932 15.0972 27.6988
288 72 4 -1.07113 0.0134089 14.7452 27.1341
289 73 2 0 11.3985 20.1932 25.5261
290 73 3 0.636133 12.2919 19.9288 25.3065
291 73 3 0.497652 10.9914 19.3989 25.8719
292 73 4 -1.13378 11.4608 20.0576 25.5422
293 74 2 0 11.1529 17.3372 24.3484
294 74 3 0.494794 12.017 17.4463 23.9513
295 74 3 0.643002 11.1939 16.4847 24.7818
296 74 4 -1.1378 11.2688 17.242 24.353
297 75 2 0 3.48591 0.98056 25.5684
298 75 3 0.549156 3.70709 0.114368 25.2263
299 75 3 0.514992 4.12815 1.56741 25.1692
300 75 4 -1.06415 3.59644 0.9448 25.4735
301 76 2 0 7.02666 9.97789 24.624
302 76 3 0.471014 6.53953 9.25846 25.0257
303 76 3 0.543196 7.23681 9.66385 23.7445
304 76 4 -1.01421 6.9912 9.84559 24.5628
305 77 2 0 12.7077 1.74495 27.188
306 77 3 0.589952 12.8326 2.36566 26.4701
307 77 3 0.556221 11.9553 1.21709 26.9207
308 77 4 -1.14617 12.6274 1.75684 27.0619
309 78 2 0 15.912 1.26524 26.3382
310 78 3 0.529438 15.1018 1.60912 26.7144
311 78 3 0.549983 16.3573 2.03468 25.9834
312 78 4 -1.07942 15.8653 1.40776 26.3409
313 79 2 0 1.44597 8.05696 25.5572
314 79 3 0.61771 1.05465 7.19664 25.7087
315 79 3 0.514805 2.31021 8.0027 25.9651
316 79 4 -1.13252 1.50651 7.93988 25.6288
317 80 2 0 9.76785 13.6828 27.5297
318 80 3 0.540712 8.8803 13.5336 27.2038
319 80 3 0.462819 10.2991 13.7868 26.7402
320 80 4 -1.00353 9.72223 13.677 27.3869
321 81 2 0 2.49779 18.5782 26.8248
322 81 3 0.532927 2.34268 19.5143 26.6987
323 81 3 0.475604 3.17972 18.5361 27.4952
324 81 4 -1.00853 2.56523 18.6927 26.8945
325 82 1 0.000155677 0 0 10
326 82 1 0.000210367 1.47089 2.54765 10
327 82 1 0.000243718 0 5.09531 10
328 82 1 0.000377178 1.47089 7.64296 10
329 82 1 0.00040744 0 10.1906 10
330 82 1 0.000403255 1.47089 12.7383 10
331 82 1 0.000314632 0 15.2859 10
332 82 1 0.000248708 1.47089 17.8336 10
333 82 1 0.000241623 2.94178 0 10
334 82 1 0.00029951 4.41266 2.54765 10
335 82 1 0.000336199 2.94178 5.09531 10
336 82 1 0.000456592 4.41266 7.64296 10
337 82 1 0.000455187 2.94178 10.1906 10
338 82 1 0.00046626 4.41266 12.7383 10
339 82 1 0.000363941 2.94178 15.2859 10
340 82 1 0.000319088 4.41266 17.8336 10
341 82 1 0.000287619 5.88355 0 10
342 82 1 0.000302123 7.35444 2.54765 10
343 82 1 0.000397845 5.88355 5.09531 10
344 82 1 0.000480289 7.35444 7.64296 10
345 82 1 0.000517288 5.88355 10.1906 10
346 82 1 0.000512525 7.35444 12.7383 10
347 82 1 0.000422261 5.88355 15.2859 10
348 82 1 0.000331461 7.35444 17.8336 10
349 82 1 0.000245414 8.82533 0 10
350 82 1 0.000217874 10.2962 2.54765 10
351 82 1 0.000357747 8.82533 5.09531 10
352 82 1 0.000428148 10.2962 7.64296 10
353 82 1 0.000523264 8.82533 10.1906 10
354 82 1 0.000497052 10.2962 12.7383 10
355 82 1 0.000422991 8.82533 15.2859 10
356 82 1 0.000280332 10.2962 17.8336 10
357 82 1 0.000162756 11.7671 0 10
358 82 1 0.000136089 13.238 2.54765 10
359 82 1 0.000265777 11.7671 5.09531 10
360 82 1 0.000360379 13.238 7.64296 10
361 82 1 0.000476925 11.7671 10.1906 10
362 82 1 0.000444414 13.238 12.7383 10
363 82 1 0.000379818 11.7671 15.2859 10
364 82 1 0.000222923 13.238 17.8336 10
365 82 1 0.000120884 14.7089 0 10
366 82 1 0.000134234 16.1798 2.54765 10
367 82 1 0.000212329 14.7089 5.09531 10
368 82 1 0.000335102 16.1798 7.64296 10
369 82 1 0.000422474 14.7089 10.1906 10
370 82 1 0.000395079 16.1798 12.7383 10
371 82 1 0.000329276 14.7089 15.2859 10
372 82 1 0.000202423 16.1798 17.8336 10
373 82 1 -0.000305447 1.47089 0.849218 12.402
374 82 1 -0.000185432 2.94178 3.39687 12.402
375 82 1 -3.8937e-05 1.47089 5.94452 12.402
376 82 1 0.000145851 2.94178 8.49218 12.402
377 82 1 0.00010985 1.47089 11.0398 12.402
378 82 1 0.000113969 2.94178 13.5875 12.402
379 82 1 -5.22541e-05 1.47089 16.1351 12.402
380 82 1 -0.000190472 2.94178 18.6828 12.402
381 82 1 -0.00025933 4.41266 0.849218 12.402
382 82 1 -0.000112403 5.88355 3.39687 12.402
383 82 1 5.26021e-05 4.41266 5.94452 12.402
384 82 1 0.00021576 5.88355 8.49218 12.402
385 82 1 0.00021193 4.41266 11.0398 12.402
386 82 1 0.000204887 5.88355 13.5875 12.402
387 82 1 4.83793e-05 4.41266 16.1351 12.402
388 82 1 -0.00015582 5.88355 18.6828 12.402
389 82 1 -0.000243686 7.35444 0.849218 12.402
390 82 1 -0.000124789 8.82533 3.39687 12.402
391 82 1 9.82331e-05 7.35444 5.94452 12.402
392 82 1 0.000194501 8.82533 8.49218 12.402
393 82 1 0.000226679 7.35444 11.0398 12.402
394 82 1 0.000174878 8.82533 13.5875 12.402
395 82 1 4.56019e-05 7.35444 16.1351 12.402
396 82 1 -0.000216355 8.82533 18.6828 12.402
397 82 1 -0.000318912 10.2962 0.849218 12.402
398 82 1 -0.000240639 11.7671 3.39687 12.402
399 82 1 2.73186e-05 10.2962 5.94452 12.402
400 82 1 0.000133998 11.7671 8.49218 12.402
401 82 1 0.000198593 10.2962 11.0398 12.402
402 82 1 0.000158648 11.7671 13.5875 12.402
403 82 1 -8.43931e-06 10.2962 16.1351 12.402
404 82 1 -0.000253467 11.7671 18.6828 12.402
405 82 1 -0.000372533 13.238 0.849218 12.402
406 82 1 -0.000298252 14.7089 3.39687 12.402
407 82 1 -9.27911e-05 13.238 5.94452 12.402
408 82 1 7.6567e-05 14.7089 8.49218 12.402
409 82 1 0.000186754 13.238 11.0398 12.402
410 82 1 0.000104728 14.7089 13.5875 12.402
411 82 1 -3.40771e-05 13.238 16.1351 12.402
412 82 1 -0.00025331 14.7089 18.6828 12.402
413 82 1 -0.000352099 16.1798 0.849218 12.402
414 82 1 -0.00026315 0 3.39687 12.402
415 82 1 -0.000107818 16.1798 5.94452 12.402
416 82 1 7.24809e-05 0 8.49218 12.402
417 82 1 0.000117783 16.1798 11.0398 12.402
418 82 1 2.10252e-05 0 13.5875 12.402
419 82 1 -7.55836e-05 16.1798 16.1351 12.402
420 82 1 -0.000231953 0 18.6828 12.402
421 82 1 -0.00165607 2.94178 1.69844 14.8039
422 82 1 -0.00157674 4.41266 4.24609 14.8039
423 82 1 -0.00144285 2.94178 6.79374 14.8039
424 82 1 -0.00171449 4.41266 9.34139 14.8039
425 82 1 -0.00184725 2.94178 11.889 14.8039
426 82 1 -0.00139135 4.41266 14.4367 14.8039
427 82 1 -0.00127714 2.94178 16.9844 14.8039
428 82 1 -0.00168856 4.41266 19.532 14.8039
429 82 1 -0.0018256 5.88355 1.69844 14.8039
430 82 1 -0.00150231 7.35444 4.24609 14.8039
431 82 1 -0.00155962 5.88355 6.79374 14.8039
432 82 1 -0.00199147 7.35444 9.34139 14.8039
433 82 1 -0.00180742 5.88355 11.889 14.8039
434 82 1 -0.00161067 7.35444 14.4367 14.8039
435 82 1 -0.0014018 5.88355 16.9844 14.8039
436 82 1 -0.00188163 7.35444 19.532 14.8039
437 82 1 -0.00171212 8.82533 1.69844 14.8039
438 82 1 -0.00134974 10.2962 4.24609 14.8039
439 82 1 -0.00159398 8.82533 6.79374 14.8039
440 82 1 -0.00208146 10.2962 9.34139 14.8039
441 82 1 -0.00219963 8.82533 11.889 14.8039
442 82 1 -0.00186977 10.2962 14.4367 14.8039
443 82 1 -0.00179549 8.82533 16.9844 14.8039
444 82 1 -0.00181211 10.2962 19.532 14.8039
445 82 1 -0.00139939 11.7671 1.69844 14.8039
446 82 1 -0.00111862 13.238 4.24609 14.8039
447 82 1 -0.00147795 11.7671 6.79374 14.8039
448 82 1 -0.00165013 13.238 9.34139 14.8039
449 82 1 -0.00202425 11.7671 11.889 14.8039
450 82 1 -0.00154865 13.238 14.4367 14.8039
451 82 1 -0.00157953 11.7671 16.9844 14.8039
452 82 1 -0.00129421 13.238 19.532 14.8039
453 82 1 -0.00100166 14.7089 1.69844 14.8039
454 82 1 -0.00101702 16.1798 4.24609 14.8039
455 82 1 -0.00117802 14.7089 6.79374 14.8039
456 82 1 -0.00138278 16.1798 9.34139 14.8039
457 82 1 -0.00168899 14.7089 11.889 14.8039
458 82 1 -0.0016071 16.1798 14.4367 14.8039
459 82 1 -0.00118154 14.7089 16.9844 14.8039
460 82 1 -0.00102211 16.1798 19.532 14.8039
461 82 1 -0.00112044 0 1.69844 14.8039
462 82 1 -0.00132118 1.47089 4.24609 14.8039
463 82 1 -0.00120563 0 6.79374 14.8039
464 82 1 -0.00159026 1.47089 9.34139 14.8039
465 82 1 -0.00187563 0 11.889 14.8039
466 82 1 -0.00168379 1.47089 14.4367 14.8039
467 82 1 -0.00126096 0 16.9844 14.8039
468 82 1 -0.00133505 1.47089 19.532 14.8039
469 82 1 -0.00325045 4.41266 2.54765 17.2059
470 82 1 -0.00357587 5.88355 5.09531 17.2059
471 82 1 -0.00442104 4.41266 7.64296 17.2059
472 82 1 -0.00568786 5.88355 10.1906 17.2059
473 82 1 -0.00438033 4.41266 12.7383 17.2059
474 82 1 -0.00239415 5.88355 15.2859 17.2059
475 82 1 -0.00195049 4.41266 17.8336 17.2059
476 82 1 -0.00315885 5.88355 0 17.2059
477 82 1 -0.00257142 7.35444 2.54765 17.2059
478 82 1 -0.00241179 8.82533 5.09531 17.2059
479 82 1 -0.00495252 7.35444 7.64296 17.2059
480 82 1 -0.00695532 8.82533 10.1906 17.2059
481 82 1 -0.00534369 7.35444 12.7383 17.2059
482 82 1 -0.00388355 8.82533 15.2859 17.2059
483 82 1 -0.0026757 7.35444 17.8336 17.2059
484 82 1 -0.00235831 8.82533 0 17.2059
485 82 1 -0.000843815 10.2962 2.54765 17.2059
486 82 1 -0.000981096 11.7671 5.09531 17.2059
487 82 1 -0.00439299 10.2962 7.64296 17.2059
488 82 1 -0.00614824 11.7671 10.1906 17.2059
489 82 1 -0.0065392 10.2962 12.7383 17.2059
490 82 1 -0.00345686 11.7671 15.2859 17.2059
491 82 1 -0.00254652 10.2962 17.8336 17.2059
492 82 1 -0.000488771 11.7671 0 17.2059
493 82 1 0.000990797 13.238 2.54765 17.2059
494 82 1 6.08997e-05 14.7089 5.09531 17.2059
495 82 1 -0.00284961 13.238 7.64296 17.2059
496 82 1 -0.00378041 14.7089 10.1906 17.2059
497 82 1 -0.00486304 13.238 12.7383 17.2059
498 82 1 -0.00211929 14.7089 15.2859 17.2059
499 82 1 -0.000583625 13.238 17.8336 17.2059
500 82 1 0.00120289 14.7089 0 17.2059
501 82 1 0.00115778 16.1798 2.54765 17.2059
502 82 1 -0.000815779 0 5.09531 17.2059
503 82 1 -0.00175881 16.1798 7.64296 17.2059
504 82 1 -0.00378225 0 10.1906 17.2059
505 82 1 -0.00423186 16.1798 12.7383 17.2059
506 82 1 -0.00263197 0 15.2859 17.2059
507 82 1 0.000153219 16.1798 17.8336 17.2059
508 82 1 0.000320844 0 0 17.2059
509 82 1 -0.00121602 1.47089 2.54765 17.2059
510 82 1 -0.00285603 2.94178 5.09531 17.2059
511 82 1 -0.00299971 1.47089 7.64296 17.2059
512 82 1 -0.00487288 2.94178 10.1906 17.2059
513 82 1 -0.00486101 1.47089 12.7383 17.2059
514 82 1 -0.00248009 2.94178 15.2859 17.2059
515 82 1 -0.00106492 1.47089 17.8336 17.2059
516 82 1 -0.00237516 2.94178 0 17.2059
517 82 1 0.00291747 5.88355 3.39687 19.6078
518 82 1 0.00106193 7.35444 5.94452 19.6078
519 82 1 -0.00214302 5.88355 8.49218 19.6078
520 82 1 -0.00360933 7.35444 11.0398 19.6078
521 82 1 0.00246712 5.88355 13.5875 19.6078
522 82 1 0.00518478 7.35444 16.1351 19.6078
523 82 1 0.00515274 5.88355 18.6828 19.6078
524 82 1 0.00528429 7.35444 0.849218 19.6078
525 82 1 0.00706252 8.82533 3.39687 19.6078
526 82 1 0.00443618 10.2962 5.94452 19.6078
527 82 1 -0.0034492 8.82533 8.49218 19.6078
528 82 1 -0.00763066 10.2962 11.0398 19.6078
529 82 1 -0.00170376 8.82533 13.5875 19.6078
530 82 1 0.00321075 10.2962 16.1351 19.6078
531 82 1 0.00602809 8.82533 18.6828 19.6078
532 82 1 0.00975443 10.2962 0.849218 19.6078
533 82 1 0.0116776 11.7671 3.39687 19.6078
534 82 1 0.00746351 13.238 5.94452 19.6078
535 82 1 -0.00182632 11.7671 8.49218 19.6078
536 82 1 -0.00369179 13.238 11.0398 19.6078
537 82 1 -0.0033621 11.7671 13.5875 19.6078
538 82 1 0.00560871 13.238 16.1351 19.6078
539 82 1 0.00915736 11.7671 18.6828 19.6078
540 82 1 0.013688 13.238 0.849218 19.6078
541 82 1 0.0133295 14.7089 3.39687 19.6078
542 82 1 0.00809013 16.1798 5.94452 19.6078
543 82 1 0.00335392 14.7089 8.49218 19.6078
544 82 1 0.00105402 16.1798 11.0398 19.6078
545 82 1 0.000410173 14.7089 13.5875 19.6078
546 82 1 0.00686163 16.1798 16.1351 19.6078
547 82 1 0.0118409 14.7089 18.6828 19.6078
548 82 1 0.0131461 16.1798 0.849218 19.6078
549 82 1 0.00952376 0 3.39687 19.6078
550 82 1 0.00420948 1.47089 5.94452 19.6078
551 82 1 0.00384773 0 8.49218 19.6078
552 82 1 -0.000360124 1.47089 11.0398 19.6078
553 82 1 0.000537778 0 13.5875 19.6078
554 82 1 0.0056902 1.47089 16.1351 19.6078
555 82 1 0.0101269 0 18.6828 19.6078
556 82 1 0.00717447 1.47089 0.849218 19.6078
557 82 1 0.00383403 2.94178 3.39687 19.6078
558 82 1 0.000683543 4.41266 5.94452 19.6078
559 82 1 0.000290564 2.94178 8.49218 19.6078
560 82 1 -0.0010368 4.41266 11.0398 19.6078
561 82 1 0.00118249 2.94178 13.5875 19.6078
562 82 1 0.00606564 4.41266 16.1351 19.6078
563 82 1 0.00589916 2.94178 18.6828 19.6078
564 82 1 0.00300708 4.41266 0.849218 19.6078
ITEM: TIMESTEP
17500
ITEM: NUMBER OF ATOMS
564
ITEM: BOX BOUNDS pp pp ff
0.0000000000000000e+00 1.7650658050000001e+01
0.0000000000000000e+00 2.0381224350000000e+01
0.0000000000000000e+00 6.0000000000000000e+01
ITEM: ATOMS id mol type q x y z
1 1 2 0 9.51458 17.0652 22.7915
2 1 3 0.602452 10.2835 17.0953 23.3609
3 1 3 0.491869 8.78619 17.3191 23.3583
4 1 4 -1.09432 9.51976 17.1015 22.937
5 2 2 0 16.3453 14.6964 22.8345
6 2 3 0.542205 16.7115 14.0352 23.4218
7 2 3 0.560301 15.3985 14.5657 22.8864
8 2 4 -1.10251 16.271 14.595 22.9163
9 3 2 0 16.3179 9.29578 22.4489
10 3 3 0.576047 15.5534 9.86971 22.4001
11 3 3 0.613594 17.0668 9.89184 22.4351
12 3 4 -1.18964 16.3159 9.44555 22.4409
13 4 2 0 1.64666 4.1948 22.2933
14 4 3 0.541498 2.43201 3.64757 22.2916
15 4 3 0.558758 1.96382 5.07041 22.072
16 4 4 -1.10026 1.7878 4.23683 22.2647
17 5 2 0 13.4489 7.56344 22.4987
18 5 3 0.458554 14.2563 7.58862 21.9852
19 5 3 0.566555 13.3666 6.64972 22.7718
20 5 4 -1.02511 13.5417 7.44969 22.468
21 6 2 0 1.62026 9.2959 22.4674
22 6 3 0.577203 2.40011 9.83853 22.584
23 6 3 0.579906 1.95596 8.45935 22.1453
24 6 4 -1.15711 1.76306 9.25827 22.4411
25 7 2 0 6.48347 17.5789 22.5246
26 7 3 0.556718 5.99789 18.4018 22.4672
27 7 3 0.510657 5.80773 16.9009 22.5237
28 7 4 -1.06737 6.3348 17.5974 22.5171
29 8 2 0 8.96337 19.984 22.405
30 8 3 0.418042 8.0248 20.1719 22.4029
31 8 3 0.568353 9.04447 19.1613 21.9224
32 8 4 -0.986395 8.8536 19.9027 22.3429
33 9 2 0 7.62884 2.52692 22.937
34 9 3 0.640182 8.20463 3.2535 22.6988
35 9 3 0.576739 7.43778 2.6663 23.8646
36 9 4 -1.21692 7.67809 2.63777 23.0253
37 10 2 0 5.8507 0.242687 22.6076
38 10 3 0.559239 5.80206 20.2529 23.4886
39 10 3 0.606762 6.60373 0.832863 22.637
40 10 4 -1.166 5.94087 0.270745 22.7242
41 11 2 0 3.05444 6.81745 22.4777
42 11 3 0.602007 3.35075 6.15566 23.1026
43 11 3 0.587852 3.78701 7.42996 22.4114
44 11 4 -1.18986 3.18615 6.81114 22.5492
45 12 2 0 0.399364 16.9658 22.7176
46 12 3 0.637124 17.5633 16.1486 22.6102
47 12 3 0.546016 1.24377 16.799 22.2988
48 12 4 -1.18314 0.445153 16.8398 22.6502
49 13 2 0 14.5669 11.801 22.6074
50 13 3 0.531615 15.4245 11.8552 23.029
51 13 3 0.52366 14.4009 12.6874 22.2864
52 13 4 -1.05528 14.6554 11.9214 22.6203
53 14 2 0 13.8524 17.5826 22.4769
54 14 3 0.602062 13.2347 18.3133 22.4487
55 14 3 0.683242 14.7113 17.9974 22.5574
56 14 4 -1.2853 13.8833 17.7292 22.4836
57 15 2 0 13.2591 4.64995 22.4849
58 15 3 0.588049 13.9226 4.78008 23.1625
59 15 3 0.49319 13.7591 4.56091 21.6735
60 15 4 -1.08124 13.4081 4.65521 22.4677
61 16 2 0 10.2887 7.88749 22.7351
62 16 3 0.574182 11.0749 8.02277 22.2062
63 16 3 0.536654 10.4706 8.34412 23.5565
64 16 4 -1.11084 10.4126 7.96326 22.7725
65 17 2 0 3.57699 1.99057 22.5082
66 17 3 0.498972 3.59845 2.51325 23.3098
67 17 3 0.625698 4.38784 1.48242 22.5313
68 17 4 -1.12467 3.68353 1.99243 22.6138
69 18 2 0 7.30217 7.59106 22.5809
70 18 3 0.579726 8.17716 7.46233 22.2148
71 18 3 0.572784 7.34576 7.19564 23.4515
72 18 4 -1.15251 7.41976 7.52396 22.6455
73 19 2 0 14.2839 1.7885 22.251
74 19 3 0.532439 14.6508 2.63986 22.4894
75 19 3 0.52121 14.9868 1.35007 21.7714
76 19 4 -1.05365 14.4209 1.84136 22.2202
77 20 2 0 5.97725 4.7417 22.4435
78 20 3 0.5808 6.72834 5.30626 22.2608
79 20 3 0.555955 6.30269 3.85383 22.2951
80 20 4 -1.13675 6.11506 4.70031 22.4011
81 21 2 0 16.189 4.30837 22.5958
82 21 3 0.631099 16.6516 5.03194 22.173
83 21 3 0.489869 16.8835 3.76017 22.9608
84 21 4 -1.12097 16.3371 4.33082 22.5884
85 22 2 0 1.50112 13.9278 23.567
86 22 3 0.521997 0.849901 13.2271 23.6016
87 22 3 0.579659 1.18411 14.5811 24.1906
88 22 4 -1.10166 1.37717 13.9217 23.6512
89 23 2 0 8.71874 10.69 22.5299
90 23 3 0.558375 9.48596 10.6259 21.9611
91 23 3 0.52937 8.90792 10.0956 23.2559
92 23 4 -1.08775 8.84117 10.6057 22.55
93 24 2 0 3.31933 11.7541 22.3717
94 24 3 0.597572 4.2604 11.9151 22.3033
95 24 3 0.531044 2.96067 12.571 22.7184
96 24 4 -1.12862 3.39388 11.8793 22.4073
97 25 2 0 7.7831 14.5472 22.3812
98 25 3 0.550019 7.51633 15.4616 22.2867
99 25 3 0.613307 8.67796 14.522 22.0424
100 25 4 -1.16333 7.86351 14.6611 22.3258
101 26 2 0 1.86535 19.9029 22.5571
102 26 3 0.531199 2.49827 0.239771 22.5504
103 26 3 0.614751 2.37918 19.128 22.3298
104 26 4 -1.14595 2.01215 19.8957 22.5272
105 27 2 0 5.02625 9.32844 22.4547
106 27 3 0.497883 5.11128 10.1993 22.0666
107 27 3 0.622545 5.90455 8.95252 22.3956
108 27 4 -1.12043 5.14957 9.39179 22.3975
109 28 2 0 0.00978925 11.8061 22.294
110 28 3 0.542813 -0.0985753 12.4528 21.5968
111 28 3 0.590974 0.833849 11.3654 22.0867
112 28 4 -1.13379 0.101407 11.8325 22.1782
113 29 2 0 10.6781 14.4046 22.4969
114 29 3 0.654044 11.6266 14.5172 22.4343
115 29 3 0.549263 10.3475 15.2744 22.7215
116 29 4 -1.20331 10.7572 14.5304 22.5177
117 30 2 0 17.5118 1.53589 22.3512
118 30 3 0.632839 0.616287 0.950544 22.409
119 30 3 0.535121 0.118883 2.19752 21.7093
120 30 4 -1.16796 17.6415 1.54566 22.2764
121 31 2 0 6.55293 2.44571 26.1168
122 31 3 0.575516 6.96292 1.73618 26.6115
123 31 3 0.548156 6.70155 3.22686 26.6497
124 31 4 -1.12367 6.62444 2.45488 26.2484
125 32 2 0 11.2046 2.35398 22.3069
126 32 3 0.558363 11.8664 3.02845 22.1541
127 32 3 0.504257 10.3756 2.83198 22.3298
128 32 4 -1.06262 11.1832 2.50151 22.2903
129 33 2 0 13.3798 14.7415 22.3957
130 33 3 0.721511 13.5038 15.6906 22.3978
131 33 3 0.504324 13.2309 14.5169 23.3142
132 33 4 -1.22583 13.3766 14.8342 22.5136
133 34 2 0 11.7222 11.4288 22.6182
134 34 3 0.477723 11.5819 12.3413 22.3654
135 34 3 0.567647 12.5359 11.4418 23.1221
136 34 4 -1.04537 11.8084 11.5473 22.6503
137 35 2 0 16.1127 19.0579 22.4891
138 35 3 0.599644 16.8429 18.4423 22.4251
139 35 3 0.54522 16.5286 19.9167 22.5648
140 35 4 -1.14486 16.2594 19.089 22.4906
141 36 2 0 7.77963 20.0914 26.5156
142 36 3 0.568403 8.02853 19.1685 26.567
143 36 3 0.537918 8.5721 0.156205 26.2168
144 36 4 -1.10632 7.91294 20.0304 26.4839
145 37 2 0 13.5016 11.6982 25.4821
146 37 3 0.530013 12.9864 10.922 25.7019
147 37 3 0.624588 14.4113 11.4051 25.5344
148 37 4 -1.1546 13.5521 11.5613 25.5169
149 38 2 0 17.4903 6.83456 22.5126
150 38 3 0.486895 0.729798 6.85269 22.864
151 38 3 0.694393 17.255 7.7564 22.4073
152 38 4 -1.18129 17.5741 6.95489 22.5441
153 39 2 0 11.9704 19.9077 22.3001
154 39 3 0.635256 11.7109 0.447735 22.3138
155 39 3 0.453461 11.5862 19.5383 23.0952
156 39 4 -1.08872 11.888 19.9784 22.4036
157 40 2 0 1.42866 11.8558 27.9788
158 40 3 0.497839 2.19139 11.3265 28.2119
159 40 3 0.558071 1.11336 11.4745 27.1594
160 40 4 -1.05591 1.48594 11.7392 27.9037
161 41 2 0 10.2939 5.6631 27.4831
162 41 3 0.58524 10.2372 4.72278 27.3134
163 41 3 0.509579 10.2125 5.74072 28.4337
164 41 4 -1.09482 10.2763 5.55267 27.5831
165 42 2 0 4.70663 19.2148 24.9222
166 42 3 0.541273 5.35004 19.2279 25.6308
167 42 3 0.591598 3.87695 19.4318 25.3474
168 42 4 -1.13287 4.68278 19.2443 25.0674
169 43 2 0 14.6292 8.98365 25.1693
170 43 3 0.549809 14.9729 9.00696 24.2762
171 43 3 0.583379 14.4776 8.05481 25.3439
172 43 4 -1.13319 14.6538 8.86773 25.0773
173 44 2 0 14.4307 6.0661 25.0146
174 44 3 0.530973 13.9445 5.25631 25.1697
175 44 3 0.594275 15.3307 5.85732 25.2648
176 44 4 -1.12525 14.4836 5.93571 25.0665
177 45 2 0 9.14741 4.9566 22.3125
178 45 3 0.485139 9.56111 5.27871 21.5117
179 45 3 0.689794 9.75984 5.19073 23.0099
180 45 4 -1.17493 9.27876 5.02781 22.2993
181 46 2 0 0.583691 10.1821 25.7165
182 46 3 0.437651 0.301821 10.3143 24.8113
183 46 3 0.697616 1.16961 9.42615 25.6774
184 46 4 -1.13527 0.622612 10.1022 25.5956
185 47 2 0 17.1886 5.78252 25.4095
186 47 3 0.570057 17.2796 4.84023 25.268
187 47 3 0.554121 17.082 6.14795 24.5313
188 47 4 -1.12418 17.1866 5.70867 25.279
189 48 2 0 5.92951 5.17713 27.0513
190 48 3 0.560823 5.3755 5.78282 26.5589
191 48 3 0.452093 5.31741 4.54698 27.4314
192 48 4 -1.01292 5.78024 5.174 27.0369
193 49 2 0 13.9037 20.1379 24.4908
194 49 3 0.594814 13.9143 0.173123 23.629
195 49 3 0.560392 14.6176 20.559 24.9696
196 49 4 -1.15521 13.9965 20.2451 24.4418
197 50 2 0 6.1415 12.1943 22.5173
198 50 3 0.628179 6.64711 13.0054 22.4644
199 50 3 0.606842 6.75804 11.5098 22.2574
200 50 4 -1.23502 6.28515 12.2105 22.4772
201 51 2 0 9.43452 12.791 24.7235
202 51 3 0.591746 9.41395 13.2737 23.8972
203 51 3 0.555023 9.32892 11.8744 24.4688
204 51 4 -1.14677 9.41837 12.7355 24.5851
205 52 2 0 4.10707 5.43089 24.5215
206 52 3 0.578828 3.95336 4.54859 24.8594
207 52 3 0.621785 4.74247 5.31032 23.8159
208 52 4 -1.20061 4.16873 5.30251 24.4745
209 53 2 0 0.797885 15.4983 25.8645
210 53 3 0.477129 1.7431 15.6087 25.7615
211 53 3 0.625206 0.492436 16.3423 26.1969
212 53 4 -1.10234 0.879782 15.6205 25.8938
213 54 2 0 16.394 12.5477 25.1633
214 54 3 0.644993 16.4372 13.0633 25.9686
215 54 3 0.530033 16.865 11.7404 25.3696
216 54 4 -1.17503 16.4598 12.5104 25.2928
217 55 2 0 0.221612 2.85218 24.9844
218 55 3 0.578626 0.0942089 2.59751 24.0705
219 55 3 0.532481 1.09743 3.23781 25.0062
220 55 4 -1.11111 0.317417 2.86895 24.8702
221 56 2 0 10.0228 8.46094 28.2533
222 56 3 0.617782 10.8818 8.78692 27.9849
223 56 3 0.520945 9.9997 7.55748 27.9379
224 56 4 -1.13873 10.1298 8.38702 28.1786
225 57 2 0 3.58142 17.6306 22.5581
226 57 3 0.567454 4.11662 16.8372 22.5743
227 57 3 0.547997 3.96117 18.1901 23.2355
228 57 4 -1.11545 3.69855 17.6007 22.6469
229 58 2 0 8.95138 8.89412 25.3858
230 58 3 0.616089 9.3959 9.01132 26.2253
231 58 3 0.601723 8.15371 9.4178 25.4614
232 58 4 -1.21781 8.90617 8.97616 25.5029
233 59 2 0 5.0878 15.2613 23.4792
234 59 3 0.492738 5.56217 14.7335 22.8368
235 59 3 0.621511 5.24813 14.8232 24.315
236 59 4 -1.11425 5.16905 15.1376 23.5039
237 60 2 0 9.62185 1.39797 24.7845
238 60 3 0.585847 10.1411 0.594201 24.7597
239 60 3 0.583569 9.04801 1.33672 24.0209
240 60 4 -1.16942 9.61486 1.28724 24.6836
241 61 2 0 8.20619 17.4027 25.5756
242 61 3 0.481958 7.85422 17.7524 24.757
243 61 3 0.521829 8.07009 16.4574 25.5109
244 61 4 -1.00379 8.14371 17.3264 25.4625
245 62 2 0 6.61654 13.2825 25.0888
246 62 3 0.568872 7.52083 13.0942 25.3399
247 62 3 0.559381 6.4679 12.7483 24.3086
248 62 4 -1.12825 6.71327 13.19 25.0211
249 63 2 0 10.8459 5.58233 24.418
250 63 3 0.593512 10.377 5.57263 25.2524
251 63 3 0.552777 10.6646 6.44752 24.0509
252 63 4 -1.14629 10.7627 5.69184 24.4778
253 64 2 0 12.0016 13.9774 25.2966
254 64 3 0.657759 12.5771 13.2129 25.3214
255 64 3 0.609363 11.1265 13.6146 25.1593
256 64 4 -1.26712 11.9632 13.8331 25.2822
257 65 2 0 12.3236 9.38015 26.857
258 65 3 0.559274 12.5553 10.2884 27.051
259 65 3 0.593691 13.034 9.06543 26.298
260 65 4 -1.15297 12.4442 9.45613 26.8103
261 66 2 0 8.07839 6.34889 25.25
262 66 3 0.60288 8.2576 7.27723 25.3993
263 66 3 0.526539 7.90287 5.9951 26.122
264 66 4 -1.12942 8.07887 6.42244 25.3808
265 67 2 0 0.227796 18.3335 25.4581
266 67 3 0.578407 17.3196 19.1011 25.3371
267 67 3 0.598791 0.217486 17.8928 24.6084
268 67 4 -1.1772 0.154938 18.3753 25.3339
269 68 2 0 9.05663 7.0435 30.9969
270 68 3 0.517628 9.12699 7.77958 30.3891
271 68 3 0.433277 8.33749 7.2829 31.5815
272 68 4 -0.950905 8.97358 7.16837 30.994
273 69 2 0 12.8573 3.04604 24.9172
274 69 3 0.547831 12.7282 2.67831 24.043
275 69 3 0.545052 12.0159 3.44667 25.1357
276 69 4 -1.09288 12.7331 3.05025 24.8333
277 70 2 0 3.60538 11.927 25.4817
278 70 3 0.499149 3.05011 12.0587 24.7133
279 70 3 0.46321 3.43991 12.6929 26.0315
280 70 4 -0.962359 3.51312 12.0419 25.4538
281 71 2 0 10.5675 2.67551 27.2405
282 71 3 0.532673 11.3556 2.29238 27.6256
283 71 3 0.568708 10.3876 2.13312 26.4725
284 71 4 -1.10138 10.6453 2.55703 27.1915
285 72 2 0 16.7243 13.622 27.6039
286 72 3 0.594388 17.3013 12.9378 27.9434
287 72 3 0.511238 17.2874 14.1533 27.041
288 72 4 -1.10563 16.8703 13.6024 27.5753
289 73 2 0 11.1844 19.4035 25.2321
290 73 3 0.57029 12.0409 19.8064 25.0896
291 73 3 0.594255 11.3258 18.4723 25.0617
292 73 4 -1.16454 11.3121 19.3359 25.1921
293 74 2 0 11.8378 16.7369 24.3855
294 74 3 0.583178 12.6971 17.1101 24.1891
295 74 3 0.655554 12.0256 15.9837 24.9456
296 74 4 -1.23873 11.9719 16.6882 24.432
297 75 2 0 3.48244 2.66617 25.4464
298 75 3 0.615765 3.06993 1.87253 25.7873
299 75 3 0.553595 4.41983 2.47271 25.4564
300 75 4 -1.16936 3.54963 2.53981 25.4913
301 76 2 0 6.27827 10.1795 25.0287
302 76 3 0.557101 5.78075 9.99256 24.2326
303 76 3 0.565928 5.79596 10.8898 25.4519
304 76 4 -1.12303 6.15284 10.2465 24.9809
305 77 2 0 13.428 1.23707 27.468
306 77 3 0.543535 13.361 1.44452 26.536
307 77 3 0.459531 13.0455 0.363244 27.5475
308 77 4 -1.00307 13.3705 1.15177 27.3589
309 78 2 0 16.189 0.401088 25.9661
310 78 3 0.532006 15.898 0.305193 26.8729
311 78 3 0.570387 16.2897 1.34524 25.8449
312 78 4 -1.10239 16.1646 0.509674 26.0667
313 79 2 0 1.92923 7.79215 25.6655
314 79 3 0.561625 1.29946 7.11032 25.4316
315 79 3 0.535427 2.74408 7.52162 25.2424
316 79 4 -1.09705 1.95292 7.67024 25.5814
317 80 2 0 11.7573 12.2466 27.7435
318 80 3 0.470412 11.9003 12.7867 28.5207
319 80 3 0.532935 11.6118 12.876 27.0372
320 80 4 -1.00335 11.757 12.3963 27.7526
321 81 2 0 2.264 20.4543 26.2166
322 81 3 0.625674 1.62599 19.8807 25.7921
323 81 3 0.502677 1.77676 0.489468 26.9275
324 81 4 -1.12835 2.11996 20.4342 26.2532
325 82 1 0.000289038 0 0 10
326 82 1 0.000344773 1.47089 2.54765 10
327 82 1 0.000403499 0 5.09531 10
328 82 1 0.00044214 1.47089 7.64296 10
329 82 1 0.000435319 0 10.1906 10
330 82 1 0.00043436 1.47089 12.7383 10
331 82 1 0.000336639 0 15.2859 10
332 82 1 0.000355066 1.47089 17.8336 10
333 82 1 0.00034942 2.94178 0 10
334 82 1 0.000351781 4.41266 2.54765 10
335 82 1 0.000392338 2.94178 5.09531 10
336 82 1 0.000444683 4.41266 7.64296 10
337 82 1 0.000467041 2.94178 10.1906 10
338 82 1 0.000471925 4.41266 12.7383 10
339 82 1 0.000435873 2.94178 15.2859 10
340 82 1 0.000381967 4.41266 17.8336 10
341 82 1 0.000319739 5.88355 0 10
342 82 1 0.00032969 7.35444 2.54765 10
343 82 1 0.000399134 5.88355 5.09531 10
344 82 1 0.000464294 7.35444 7.64296 10
345 82 1 0.000474603 5.88355 10.1906 10
346 82 1 0.000422779 7.35444 12.7383 10
347 82 1 0.000405048 5.88355 15.2859 10
348 82 1 0.000290362 7.35444 17.8336 10
349 82 1 0.000237816 8.82533 0 10
350 82 1 0.000306926 10.2962 2.54765 10
351 82 1 0.000415884 8.82533 5.09531 10
352 82 1 0.000487765 10.2962 7.64296 10
353 82 1 0.000465339 8.82533 10.1906 10
354 82 1 0.000348259 10.2962 12.7383 10
355 82 1 0.000284722 8.82533 15.2859 10
356 82 1 0.000166898 10.2962 17.8336 10
357 82 1 0.000182517 11.7671 0 10
358 82 1 0.000303186 13.238 2.54765 10
359 82 1 0.000427195 11.7671 5.09531 10
360 82 1 0.000480234 13.238 7.64296 10
361 82 1 0.00044912 11.7671 10.1906 10
362 82 1 0.000309772 13.238 12.7383 10
363 82 1 0.000189422 11.7671 15.2859 10
364 82 1 0.000135532 13.238 17.8336 10
365 82 1 0.000205159 14.7089 0 10
366 82 1 0.000319244 16.1798 2.54765 10
367 82 1 0.000416731 14.7089 5.09531 10
368 82 1 0.000454058 16.1798 7.64296 10
369 82 1 0.000423614 14.7089 10.1906 10
370 82 1 0.000345711 16.1798 12.7383 10
371 82 1 0.00021531 14.7089 15.2859 10
372 82 1 0.000227336 16.1798 17.8336 10
373 82 1 -6.70736e-05 1.47089 0.849218 12.402
374 82 1 7.37982e-05 2.94178 3.39687 12.402
375 82 1 8.4011e-05 1.47089 5.94452 12.402
376 82 1 0.000213239 2.94178 8.49218 12.402
377 82 1 0.000110556 1.47089 11.0398 12.402
378 82 1 0.000112777 2.94178 13.5875 12.402
379 82 1 -5.85069e-06 1.47089 16.1351 12.402
380 82 1 5.31717e-05 2.94178 18.6828 12.402
381 82 1 6.25922e-05 4.41266 0.849218 12.402
382 82 1 5.37455e-05 5.88355 3.39687 12.402
383 82 1 0.000185471 4.41266 5.94452 12.402
384 82 1 0.000183921 5.88355 8.49218 12.402
385 82 1 0.000212242 4.41266 11.0398 12.402
386 82 1 0.000124511 5.88355 13.5875 12.402
387 82 1 0.000101287 4.41266 16.1351 12.402
388 82 1 2.14242e-05 5.88355 18.6828 12.402
389 82 1 -6.29062e-05 7.35444 0.849218 12.402
390 82 1 -0.00015092 8.82533 3.39687 12.402
391 82 1 1.86446e-05 7.35444 5.94452 12.402
392 82 1 2.01912e-05 8.82533 8.49218 12.402
393 82 1 0.000121981 7.35444 11.0398 12.402
394 82 1 -2.7692e-05 8.82533 13.5875 12.402
395 82 1 -4.13183e-05 7.35444 16.1351 12.402
396 82 1 -0.000156667 8.82533 18.6828 12.402
397 82 1 -0.000194457 10.2962 0.849218 12.402
398 82 1 -0.000277967 11.7671 3.39687 12.402
399 82 1 -0.000179908 10.2962 5.94452 12.402
400 82 1 -2.42429e-05 11.7671 8.49218 12.402
401 82 1 1.6513e-05 10.2962 11.0398 12.402
402 82 1 -9.48921e-05 11.7671 13.5875 12.402
403 82 1 -0.000182371 10.2962 16.1351 12.402
404 82 1 -0.000211889 11.7671 18.6828 12.402
405 82 1 -0.000267277 13.238 0.849218 12.402
406 82 1 -0.000310337 14.7089 3.39687 12.402
407 82 1 -0.000185457 13.238 5.94452 12.402
408 82 1 3.66767e-05 14.7089 8.49218 12.402
409 82 1 2.88665e-05 13.238 11.0398 12.402
410 82 1 -0.000106887 14.7089 13.5875 12.402
411 82 1 -0.00020256 13.238 16.1351 12.402
412 82 1 -0.000216058 14.7089 18.6828 12.402
413 82 1 -0.000256655 16.1798 0.849218 12.402
414 82 1 -0.000161282 0 3.39687 12.402
415 82 1 -0.000100408 16.1798 5.94452 12.402
416 82 1 9.96612e-05 0 8.49218 12.402
417 82 1 3.07035e-05 16.1798 11.0398 12.402
418 82 1 -6.21061e-05 0 13.5875 12.402
419 82 1 -0.000164382 16.1798 16.1351 12.402
420 82 1 -0.000123767 0 18.6828 12.402
421 82 1 -0.0012876 2.94178 1.69844 14.8039
422 82 1 -0.00104556 4.41266 4.24609 14.8039
423 82 1 -0.000973389 2.94178 6.79374 14.8039
424 82 1 -0.00134498 4.41266 9.34139 14.8039
425 82 1 -0.0018241 2.94178 11.889 14.8039
426 82 1 -0.00201456 4.41266 14.4367 14.8039
427 82 1 -0.00171201 2.94178 16.9844 14.8039
428 82 1 -0.00128678 4.41266 19.532 14.8039
429 82 1 -0.00118365 5.88355 1.69844 14.8039
430 82 1 -0.00183213 7.35444 4.24609 14.8039
431 82 1 -0.00142816 5.88355 6.79374 14.8039
432 82 1 -0.00199025 7.35444 9.34139 14.8039
433 82 1 -0.00192103 5.88355 11.889 14.8039
434 82 1 -0.00187102 7.35444 14.4367 14.8039
435 82 1 -0.00164486 5.88355 16.9844 14.8039
436 82 1 -0.00114791 7.35444 19.532 14.8039
437 82 1 -0.00143658 8.82533 1.69844 14.8039
438 82 1 -0.00266867 10.2962 4.24609 14.8039
439 82 1 -0.00257038 8.82533 6.79374 14.8039
440 82 1 -0.00215616 10.2962 9.34139 14.8039
441 82 1 -0.00187948 8.82533 11.889 14.8039
442 82 1 -0.00128774 10.2962 14.4367 14.8039
443 82 1 -0.00120166 8.82533 16.9844 14.8039
444 82 1 -0.000636821 10.2962 19.532 14.8039
445 82 1 -0.00149013 11.7671 1.69844 14.8039
446 82 1 -0.00291569 13.238 4.24609 14.8039
447 82 1 -0.00288398 11.7671 6.79374 14.8039
448 82 1 -0.00175904 13.238 9.34139 14.8039
449 82 1 -0.00132886 11.7671 11.889 14.8039
450 82 1 -0.00100919 13.238 14.4367 14.8039
451 82 1 -0.000579224 11.7671 16.9844 14.8039
452 82 1 -0.000575464 13.238 19.532 14.8039
453 82 1 -0.00199231 14.7089 1.69844 14.8039
454 82 1 -0.00258913 16.1798 4.24609 14.8039
455 82 1 -0.00249162 14.7089 6.79374 14.8039
456 82 1 -0.00160978 16.1798 9.34139 14.8039
457 82 1 -0.00144649 14.7089 11.889 14.8039
458 82 1 -0.0016935 16.1798 14.4367 14.8039
459 82 1 -0.000798397 14.7089 16.9844 14.8039
460 82 1 -0.00128915 16.1798 19.532 14.8039
461 82 1 -0.00199246 0 1.69844 14.8039
462 82 1 -0.00153904 1.47089 4.24609 14.8039
463 82 1 -0.00164725 0 6.79374 14.8039
464 82 1 -0.00133666 1.47089 9.34139 14.8039
465 82 1 -0.00194411 0 11.889 14.8039
466 82 1 -0.00209783 1.47089 14.4367 14.8039
467 82 1 -0.00153238 0 16.9844 14.8039
468 82 1 -0.00146463 1.47089 19.532 14.8039
469 82 1 -0.00171793 4.41266 2.54765 17.2059
470 82 1 -0.00237935 5.88355 5.09531 17.2059
471 82 1 -0.00179116 4.41266 7.64296 17.2059
472 82 1 -0.00439158 5.88355 10.1906 17.2059
473 82 1 -0.00572212 4.41266 12.7383 17.2059
474 82 1 -0.00561046 5.88355 15.2859 17.2059
475 82 1 -0.00414479 4.41266 17.8336 17.2059
476 82 1 -0.00211628 5.88355 0 17.2059
477 82 1 -0.00260169 7.35444 2.54765 17.2059
478 82 1 -0.00596135 8.82533 5.09531 17.2059
479 82 1 -0.00471005 7.35444 7.64296 17.2059
480 82 1 -0.0051021 8.82533 10.1906 17.2059
481 82 1 -0.00519931 7.35444 12.7383 17.2059
482 82 1 -0.00261001 8.82533 15.2859 17.2059
483 82 1 -0.00243596 7.35444 17.8336 17.2059
484 82 1 0.000218376 8.82533 0 17.2059
485 82 1 -0.00246868 10.2962 2.54765 17.2059
486 82 1 -0.00735218 11.7671 5.09531 17.2059
487 82 1 -0.00685932 10.2962 7.64296 17.2059
488 82 1 -0.0032378 11.7671 10.1906 17.2059
489 82 1 -0.00244214 10.2962 12.7383 17.2059
490 82 1 0.000821572 11.7671 15.2859 17.2059
491 82 1 0.00176891 10.2962 17.8336 17.2059
492 82 1 0.00303297 11.7671 0 17.2059
493 82 1 -0.00309775 13.238 2.54765 17.2059
494 82 1 -0.00684669 14.7089 5.09531 17.2059
495 82 1 -0.00573808 13.238 7.64296 17.2059
496 82 1 -0.00248206 14.7089 10.1906 17.2059
497 82 1 -0.000875372 13.238 12.7383 17.2059
498 82 1 -0.000326443 14.7089 15.2859 17.2059
499 82 1 0.00345515 13.238 17.8336 17.2059
500 82 1 0.000844282 14.7089 0 17.2059
501 82 1 -0.00461196 16.1798 2.54765 17.2059
502 82 1 -0.0041954 0 5.09531 17.2059
503 82 1 -0.0039469 16.1798 7.64296 17.2059
504 82 1 -0.00336602 0 10.1906 17.2059
505 82 1 -0.00371326 16.1798 12.7383 17.2059
506 82 1 -0.00438679 0 15.2859 17.2059
507 82 1 -5.04919e-05 16.1798 17.8336 17.2059
508 82 1 -0.00230166 0 0 17.2059
509 82 1 -0.00309166 1.47089 2.54765 17.2059
510 82 1 -0.00135061 2.94178 5.09531 17.2059
511 82 1 -0.00192121 1.47089 7.64296 17.2059
512 82 1 -0.00330085 2.94178 10.1906 17.2059
513 82 1 -0.00572761 1.47089 12.7383 17.2059
514 82 1 -0.006116 2.94178 15.2859 17.2059
515 82 1 -0.00342087 1.47089 17.8336 17.2059
516 82 1 -0.00255694 2.94178 0 17.2059
517 82 1 0.00396353 5.88355 3.39687 19.6078
518 82 1 0.00235605 7.35444 5.94452 19.6078
519 82 1 0.00380089 5.88355 8.49218 19.6078
520 82 1 -6.52609e-05 7.35444 11.0398 19.6078
521 82 1 -0.00384349 5.88355 13.5875 19.6078
522 82 1 1.99014e-05 7.35444 16.1351 19.6078
523 82 1 0.000708446 5.88355 18.6828 19.6078
524 82 1 0.0052745 7.35444 0.849218 19.6078
525 82 1 0.00311504 8.82533 3.39687 19.6078
526 82 1 -0.00213435 10.2962 5.94452 19.6078
527 82 1 0.000186263 8.82533 8.49218 19.6078
528 82 1 0.00415739 10.2962 11.0398 19.6078
529 82 1 0.00243168 8.82533 13.5875 19.6078
530 82 1 0.0102441 10.2962 16.1351 19.6078
531 82 1 0.00971145 8.82533 18.6828 19.6078
532 82 1 0.0142793 10.2962 0.849218 19.6078
533 82 1 0.0041981 11.7671 3.39687 19.6078
534 82 1 -0.00179873 13.238 5.94452 19.6078
535 82 1 0.00164843 11.7671 8.49218 19.6078
536 82 1 0.00810964 13.238 11.0398 19.6078
537 82 1 0.00945158 11.7671 13.5875 19.6078
538 82 1 0.0139428 13.238 16.1351 19.6078
539 82 1 0.0195885 11.7671 18.6828 19.6078
540 82 1 0.0154541 13.238 0.849218 19.6078
541 82 1 0.0013007 14.7089 3.39687 19.6078
542 82 1 0.000878295 16.1798 5.94452 19.6078
543 82 1 0.00440117 14.7089 8.49218 19.6078
544 82 1 0.00431965 16.1798 11.0398 19.6078
545 82 1 0.00645019 14.7089 13.5875 19.6078
546 82 1 0.00652352 16.1798 16.1351 19.6078
547 82 1 0.0163626 14.7089 18.6828 19.6078
548 82 1 0.00700538 16.1798 0.849218 19.6078
549 82 1 0.00133424 0 3.39687 19.6078
550 82 1 0.00581226 1.47089 5.94452 19.6078
551 82 1 0.00587584 0 8.49218 19.6078
552 82 1 0.00161917 1.47089 11.0398 19.6078
553 82 1 -0.00165806 0 13.5875 19.6078
554 82 1 -0.00192958 1.47089 16.1351 19.6078
555 82 1 0.00646405 0 18.6828 19.6078
556 82 1 0.00315989 1.47089 0.849218 19.6078
557 82 1 0.00448162 2.94178 3.39687 19.6078
558 82 1 0.0068443 4.41266 5.94452 19.6078
559 82 1 0.00664043 2.94178 8.49218 19.6078
560 82 1 0.000827057 4.41266 11.0398 19.6078
561 82 1 -0.00461022 2.94178 13.5875 19.6078
562 82 1 -0.00498438 4.41266 16.1351 19.6078
563 82 1 0.00058649 2.94178 18.6828 19.6078
564 82 1 0.00261488 4.41266 0.849218 19.6078
ITEM: TIMESTEP
20000
ITEM: NUMBER OF ATOMS
564
ITEM: BOX BOUNDS pp pp ff
0.0000000000000000e+00 1.7650658050000001e+01
0.0000000000000000e+00 2.0381224350000000e+01
0.0000000000000000e+00 6.0000000000000000e+01
ITEM: ATOMS id mol type q x y z
1 1 2 0 10.2491 17.4372 22.6592
2 1 3 0.575865 9.72334 16.9673 23.3065
3 1 3 0.525803 9.6066 17.8644 22.0926
4 1 4 -1.10167 10.0995 17.4317 22.6695
5 2 2 0 16.2307 14.825 22.4379
6 2 3 0.577765 15.3078 14.8116 22.1844
7 2 3 0.514217 16.38 13.9721 22.846
8 2 4 -1.09198 16.1317 14.7141 22.4577
9 3 2 0 15.4829 9.0673 22.956
10 3 3 0.658005 15.0898 9.93709 22.8839
11 3 3 0.541628 15.2323 8.76232 23.8281
12 3 4 -1.19963 15.4005 9.1396 23.0584
13 4 2 0 1.84917 4.18794 22.3806
14 4 3 0.553378 2.65563 3.68608 22.2623
15 4 3 0.622957 2.05719 5.05938 22.0436
16 4 4 -1.17633 1.97904 4.23525 22.3223
17 5 2 0 13.1106 7.54656 22.5208
18 5 3 0.573192 13.8953 8.08107 22.3996
19 5 3 0.588193 13.4054 6.64902 22.3668
20 5 4 -1.16139 13.2488 7.50009 22.4856
21 6 2 0 0.961478 9.38953 22.5964
22 6 3 0.525546 0.155888 9.89894 22.6845
23 6 3 0.596552 1.65143 10.0461 22.5012
24 6 4 -1.1221 0.946676 9.5388 22.5955
25 7 2 0 6.21037 17.3312 22.7381
26 7 3 0.48067 6.42956 16.9705 23.5972
27 7 3 0.565807 5.87347 18.2075 22.9246
28 7 4 -1.04648 6.1953 17.3972 22.872
29 8 2 0 8.86151 20.2517 22.1674
30 8 3 0.491089 8.06178 19.7462 22.3129
31 8 3 0.612595 8.62675 0.766138 22.4099
32 8 4 -1.10368 8.72908 20.3016 22.2171
33 9 2 0 7.93392 2.4346 22.4675
34 9 3 0.541025 7.44906 3.17289 22.8364
35 9 3 0.638597 8.78329 2.80285 22.2242
36 9 4 -1.17962 7.98058 2.57625 22.4836
37 10 2 0 6.06142 0.0432131 22.5963
38 10 3 0.572586 6.19249 0.353496 23.4922
39 10 3 0.569652 6.55841 0.656441 22.0548
40 10 4 -1.14224 6.14182 0.161434 22.6417
41 11 2 0 2.43587 6.93904 22.7874
42 11 3 0.553107 1.73309 7.47397 23.1564
43 11 3 0.627109 3.16015 7.55112 22.657
44 11 4 -1.18022 2.43863 7.08587 22.8179
45 12 2 0 17.6049 17.3583 23.1909
46 12 3 0.623596 17.1067 16.7257 22.6734
47 12 3 0.593395 0.7896 17.44 22.7308
48 12 4 -1.21699 -0.00260412 17.2878 23.0658
49 13 2 0 14.8015 11.7095 22.3222
50 13 3 0.602049 15.6668 11.89 22.6894
51 13 3 0.54234 14.3785 12.5667 22.272
52 13 4 -1.14439 14.8581 11.8423 22.3627
53 14 2 0 13.8895 17.5773 22.7729
54 14 3 0.568504 13.2788 18.2952 22.9399
55 14 3 0.561114 14.756 17.9768 22.8485
56 14 4 -1.12962 13.9222 17.7203 22.8039
57 15 2 0 13.0446 4.48071 22.5499
58 15 3 0.578847 13.1207 4.52532 23.5031
59 15 3 0.569085 13.6699 3.80395 22.2907
60 15 4 -1.14793 13.1344 4.39978 22.6388
61 16 2 0 10.1532 7.90832 22.4047
62 16 3 0.422728 10.0114 8.83901 22.2317
63 16 3 0.658144 11.0856 7.77223 22.2361
64 16 4 -1.08087 10.2544 8.01004 22.361
65 17 2 0 4.11855 2.49479 22.7793
66 17 3 0.612956 3.85642 2.58077 23.6959
67 17 3 0.579336 4.5655 1.64946 22.7358
68 17 4 -1.19229 4.14221 2.39758 22.8911
69 18 2 0 6.97966 7.96754 22.9227
70 18 3 0.521255 7.64146 8.48994 22.4696
71 18 3 0.601376 7.46323 7.21982 23.2739
72 18 4 -1.12263 7.12628 7.93869 22.9097
73 19 2 0 14.3288 1.80105 22.365
74 19 3 0.561075 14.7814 2.64442 22.3553
75 19 3 0.534419 14.9774 1.17687 22.0394
76 19 4 -1.09549 14.4698 1.82911 22.3221
77 20 2 0 5.85928 4.85801 22.6028
78 20 3 0.535539 5.2808 4.12189 22.8021
79 20 3 0.502331 6.08261 4.7444 21.679
80 20 4 -1.03787 5.81382 4.74923 22.51
81 21 2 0 15.9163 4.2569 22.4173
82 21 3 0.62192 15.8763 5.1782 22.6738
83 21 3 0.497405 16.8314 4.11476 22.1752
84 21 4 -1.11932 16.0284 4.35664 22.4191
85 22 2 0 1.91273 14.7006 24.0773
86 22 3 0.527035 1.06237 15.0617 24.3278
87 22 3 0.55653 2.50413 14.9695 24.7803
88 22 4 -1.08356 1.87958 14.7812 24.1993
89 23 2 0 8.76216 10.3996 22.484
90 23 3 0.584864 9.42953 11.0857 22.4959
91 23 3 0.446839 9.25447 9.58423 22.5793
92 23 4 -1.0317 8.91062 10.383 22.4977
93 24 2 0 2.79204 11.9167 22.4362
94 24 3 0.480287 3.25285 11.7332 23.2549
95 24 3 0.639452 3.39315 12.4743 21.9423
96 24 4 -1.11974 2.92798 11.9646 22.4778
97 25 2 0 7.25158 14.4069 22.4282
98 25 3 0.484661 7.7791 14.5303 21.6391
99 25 3 0.59871 6.83257 13.555 22.306
100 25 4 -1.08337 7.26547 14.3136 22.3116
101 26 2 0 2.44727 0.034823 22.7057
102 26 3 0.488397 2.93963 0.78608 22.3749
103 26 3 0.632083 2.96828 19.6555 22.4483
104 26 4 -1.12048 2.57699 0.0336276 22.6304
105 27 2 0 4.35698 8.972 22.6444
106 27 3 0.476896 4.1556 8.93366 21.7094
107 27 3 0.667946 5.28184 8.7318 22.7008
108 27 4 -1.14484 4.4496 8.93634 22.5319
109 28 2 0 17.4828 12.3132 23.3172
110 28 3 0.550473 17.497 12.5229 24.251
111 28 3 0.612139 0.499458 12.882 22.9333
112 28 4 -1.16261 17.57 12.4128 23.3876
113 29 2 0 10.314 13.2476 22.4223
114 29 3 0.571999 10.7922 12.4838 22.0998
115 29 3 0.570773 10.8227 13.9973 22.1134
116 29 4 -1.14277 10.4403 13.2458 22.3415
117 30 2 0 0.324206 1.75511 22.5441
118 30 3 0.5863 1.04182 1.15215 22.7383
119 30 3 0.616307 0.75207 2.59942 22.4016
120 30 4 -1.20261 0.47084 1.786 22.5508
121 31 2 0 6.72182 0.745641 25.7351
122 31 3 0.523851 7.58382 0.606084 26.1272
123 31 3 0.498501 6.30439 1.39697 26.2988
124 31 4 -1.02235 6.77873 0.811153 25.8575
125 32 2 0 10.9451 2.34353 22.5528
126 32 3 0.462105 11.6003 1.68724 22.7899
127 32 3 0.60476 11.3923 3.18187 22.6685
128 32 4 -1.06686 11.0862 2.36683 22.5979
129 33 2 0 13.2523 14.8361 22.2554
130 33 3 0.605915 13.324 15.7906 22.2507
131 33 3 0.570757 12.9998 14.6189 23.1527
132 33 4 -1.17667 13.2291 14.9305 22.3696
133 34 2 0 11.8403 10.8894 22.3428
134 34 3 0.638524 12.1155 10.8955 23.2595
135 34 3 0.542057 12.6587 10.8718 21.8466
136 34 4 -1.18058 11.9803 10.8879 22.3966
137 35 2 0 16.3791 19.8119 22.9129
138 35 3 0.586884 16.781 18.9571 23.0676
139 35 3 0.542251 17.1187 0.021406 22.7707
140 35 4 -1.12913 16.5252 19.7781 22.9145
141 36 2 0 6.95528 17.4036 25.8633
142 36 3 0.555216 7.00105 16.4815 25.6107
143 36 3 0.561054 7.84612 17.731 25.7389
144 36 4 -1.11627 7.07518 17.3275 25.815
145 37 2 0 12.4013 10.5837 24.9491
146 37 3 0.600767 13.0875 9.99672 25.2667
147 37 3 0.511488 12.7552 11.4625 25.0854
148 37 4 -1.11226 12.5345 10.621 25.0072
149 38 2 0 17.0416 6.7703 22.6786
150 38 3 0.504693 0.310797 6.94298 22.4776
151 38 3 0.599833 16.6448 7.63833 22.7512
152 38 4 -1.10453 17.1086 6.90353 22.6621
153 39 2 0 11.9057 19.7559 22.7072
154 39 3 0.482192 11.4229 0.155651 22.978
155 39 3 0.644065 11.2665 19.0459 22.7671
156 39 4 -1.12626 11.7621 19.765 22.7495
157 40 2 0 0.948208 11.0214 27.4522
158 40 3 0.516067 1.40718 10.3995 28.0168
159 40 3 0.612731 0.562363 10.4804 26.7632
160 40 4 -1.1288 0.95757 10.8725 27.4362
161 41 2 0 8.86192 4.48653 27.4377
162 41 3 0.594888 9.62334 3.98363 27.1486
163 41 3 0.529133 9.12697 5.40105 27.3395
164 41 4 -1.12402 8.99332 4.53922 27.3881
165 42 2 0 4.30302 18.4902 25.0389
166 42 3 0.638124 5.00446 18.144 25.5906
167 42 3 0.494037 4.02772 19.2951 25.4777
168 42 4 -1.13216 4.35757 18.5489 25.1657
169 43 2 0 13.8679 7.9151 25.4421
170 43 3 0.563967 13.5172 7.56989 24.6211
171 43 3 0.641325 14.6225 7.35828 25.6337
172 43 4 -1.20529 13.9196 7.79963 25.3616
173 44 2 0 15.7657 5.85117 25.3193
174 44 3 0.574585 15.1358 5.14175 25.4467
175 44 3 0.599809 16.6095 5.40902 25.226
176 44 4 -1.17439 15.7931 5.70375 25.3237
177 45 2 0 9.21636 5.09691 22.5796
178 45 3 0.529445 10.0053 5.63214 22.494
179 45 3 0.531414 8.89752 5.27899 23.4635
180 45 4 -1.06086 9.27654 5.18873 22.6818
181 46 2 0 17.5361 9.65604 25.2797
182 46 3 0.63596 0.159324 8.76207 25.4848
183 46 3 0.576107 0.211814 9.80956 24.393
184 46 4 -1.21207 17.613 9.56125 25.1925
185 47 2 0 0.658335 4.47599 25.4244
186 47 3 0.6191 0.229255 3.64113 25.6119
187 47 3 0.549128 1.14046 4.32097 24.6122
188 47 4 -1.16823 0.665125 4.34927 25.3444
189 48 2 0 6.43025 3.37476 27.2386
190 48 3 0.69689 7.35198 3.62954 27.197
191 48 3 0.466865 6.12532 3.71372 28.0802
192 48 4 -1.16375 6.50921 3.45076 27.341
193 49 2 0 14.01 20.2615 24.6423
194 49 3 0.528004 13.3457 19.8599 24.0823
195 49 3 0.647751 14.5048 0.45227 24.0555
196 49 4 -1.17575 13.9883 20.2833 24.4955
197 50 2 0 5.79708 11.7398 22.356
198 50 3 0.525961 5.58121 11.0681 23.0029
199 50 3 0.486667 6.21751 11.2595 21.6426
200 50 4 -1.01263 5.82327 11.5923 22.3475
201 51 2 0 9.76459 12.9811 25.1588
202 51 3 0.55847 10.0728 12.9998 24.2528
203 51 3 0.591745 10.0102 12.1127 25.478
204 51 4 -1.15021 9.8355 12.8723 25.0837
205 52 2 0 4.27938 6.71685 25.0116
206 52 3 0.523083 4.28916 5.76553 24.9061
207 52 3 0.54685 3.56182 7.01304 24.4516
208 52 4 -1.06993 4.18878 6.63298 24.9264
209 53 2 0 2.41609 15.371 27.2469
210 53 3 0.494516 3.17375 15.7159 27.7194
211 53 3 0.56437 1.84933 16.131 27.1149
212 53 4 -1.05889 2.44053 15.5125 27.2905
213 54 2 0 15.4448 11.7714 25.2527
214 54 3 0.522259 15.992 12.2746 25.8558
215 54 3 0.525576 15.7425 10.8676 25.3558
216 54 4 -1.04783 15.5529 11.7201 25.3431
217 55 2 0 17.4836 1.73077 25.3098
218 55 3 0.630346 17.3495 1.63023 24.3674
219 55 3 0.534707 0.694919 1.34748 25.4718
220 55 4 -1.16505 17.5768 1.66883 25.2099
221 56 2 0 7.20362 7.71234 27.1683
222 56 3 0.567133 6.28132 7.96575 27.1313
223 56 3 0.465494 7.65921 8.3914 26.6707
224 56 4 -1.03263 7.14388 7.83171 27.0999
225 57 2 0 3.11803 17.5754 22.6731
226 57 3 0.527478 3.72632 16.9435 22.2898
227 57 3 0.622623 3.49159 17.7783 23.5307
228 57 4 -1.1501 3.24372 17.5205 22.7338
229 58 2 0 9.2773 9.6296 25.3143
230 58 3 0.522738 9.42158 9.31639 24.4213
231 58 3 0.492119 8.33074 9.56527 25.4411
232 58 4 -1.01486 9.1746 9.58127 25.2162
233 59 2 0 4.14184 14.5047 22.272
234 59 3 0.471278 4.79556 15.139 22.5662
235 59 3 0.602927 3.35848 14.7139 22.7807
236 59 4 -1.07421 4.12524 14.6126 22.3748
237 60 2 0 9.74325 0.467063 24.8755
238 60 3 0.599849 9.78974 19.9275 25.1328
239 60 3 0.507009 10.1064 0.487397 23.9901
240 60 4 -1.10686 9.79569 0.351795 24.7951
241 61 2 0 8.7139 15.6619 24.4463
242 61 3 0.598165 8.13902 15.6421 23.6812
243 61 3 0.652853 8.84682 14.7409 24.6705
244 61 4 -1.25102 8.65732 15.5415 24.3771
245 62 2 0 5.39527 15.0675 24.8543
246 62 3 0.517731 5.26869 14.9261 23.9162
247 62 3 0.512258 5.60367 14.2003 25.2018
248 62 4 -1.02999 5.40574 14.9384 24.7787
249 63 2 0 11.1533 5.49381 24.9896
250 63 3 0.558665 10.7725 6.22635 25.4739
251 63 3 0.51121 10.4769 4.81677 25.0075
252 63 4 -1.06987 11.018 5.50091 25.0539
253 64 2 0 12.4775 13.7938 24.7753
254 64 3 0.512459 12.9374 13.4254 25.5297
255 64 3 0.607184 11.5632 13.5422 24.9054
256 64 4 -1.11964 12.4194 13.7144 24.8885
257 65 2 0 11.0532 8.03574 26.8975
258 65 3 0.602372 10.7782 8.82443 26.4299
259 65 3 0.525087 11.9658 7.90879 26.6379
260 65 4 -1.12746 11.1348 8.12045 26.8044
261 66 2 0 7.93771 5.9403 24.9495
262 66 3 0.616734 7.72151 6.44448 25.7339
263 66 3 0.528512 7.09907 5.8167 24.505
264 66 4 -1.14525 7.80268 5.98902 24.993
265 67 2 0 0.893091 17.5971 25.9415
266 67 3 0.581437 0.234855 18.1793 26.3209
267 67 3 0.589059 0.669099 17.5552 25.0118
268 67 4 -1.1705 0.780155 17.6662 25.871
269 68 2 0 10.8376 8.94931 29.7729
270 68 3 0.440956 10.4014 8.40661 30.4297
271 68 3 0.533156 11.0342 8.34659 29.0558
272 68 4 -0.974112 10.8069 8.80268 29.7652
273 69 2 0 13.5975 4.03188 25.2843
274 69 3 0.516765 13.8268 3.51782 26.0585
275 69 3 0.63355 12.6498 4.15109 25.3474
276 69 4 -1.15031 13.5055 3.98133 25.3915
277 70 2 0 2.99052 11.5555 25.2742
278 70 3 0.493031 2.49725 11.4603 24.4594
279 70 3 0.583617 2.32445 11.7309 25.9389
280 70 4 -1.07665 2.84211 11.5658 25.255
281 71 2 0 10.9101 2.69631 26.1368
282 71 3 0.595982 11.5312 2.09324 26.5451
283 71 3 0.601178 10.3402 2.13461 25.6115
284 71 4 -1.19716 10.9167 2.54721 26.1219
285 72 2 0 0.0312665 13.666 26.5976
286 72 3 0.537376 0.352067 12.8544 26.9908
287 72 3 0.563082 0.765349 14.2757 26.6728
288 72 4 -1.10046 0.166304 13.6402 26.6575
289 73 2 0 9.86626 18.0383 25.7106
290 73 3 0.589031 10.816 18.0184 25.8279
291 73 3 0.577128 9.64541 17.1631 25.3922
292 73 4 -1.16616 9.95957 17.9237 25.6849
293 74 2 0 12.7569 17.2461 25.462
294 74 3 0.53485 13.1779 17.4337 24.623
295 74 3 0.510079 12.8515 16.2999 25.5717
296 74 4 -1.04493 12.8229 17.149 25.3686
297 75 2 0 3.90516 3.0212 25.672
298 75 3 0.51342 3.71154 2.09781 25.8335
299 75 3 0.598253 4.68076 3.20033 26.2036
300 75 4 -1.11167 3.97966 2.92592 25.7607
301 76 2 0 5.16625 9.61471 25.9099
302 76 3 0.568269 4.47079 10.2527 25.7502
303 76 3 0.500205 4.92485 8.85787 25.3759
304 76 4 -1.06847 5.04632 9.5995 25.8211
305 77 2 0 13.2469 0.997564 26.9806
306 77 3 0.472072 14.0569 0.827586 27.4615
307 77 3 0.614998 13.2746 0.390071 26.2414
308 77 4 -1.08707 13.3541 0.898039 26.9476
309 78 2 0 16.3994 19.5599 26.3707
310 78 3 0.562635 15.6182 19.3983 25.8418
311 78 3 0.549235 16.6198 0.0943704 26.1999
312 78 4 -1.11187 16.3276 19.6564 26.2811
313 79 2 0 1.49105 7.20255 25.9724
314 79 3 0.61087 1.2757 6.32116 25.6674
315 79 3 0.515744 2.4408 7.19011 26.0909
316 79 4 -1.12661 1.58506 7.08813 25.9486
317 80 2 0 12.1171 11.7714 28.1436
318 80 3 0.520824 12.1554 10.9315 28.6012
319 80 3 0.430337 12.7195 12.3362 28.6278
320 80 4 -0.951161 12.1991 11.7362 28.2642
321 81 2 0 2.51576 0.379076 26.1832
322 81 3 0.572976 2.28928 19.8345 26.0943
323 81 3 0.501104 2.37539 0.572546 27.1101
324 81 4 -1.07408 2.4688 0.285334 26.2905
325 82 1 0.000236043 0 0 10
326 82 1 0.000354757 1.47089 2.54765 10
327 82 1 0.000333247 0 5.09531 10
328 82 1 0.000482245 1.47089 7.64296 10
329 82 1 0.000419691 0 10.1906 10
330 82 1 0.000435017 1.47089 12.7383 10
331 82 1 0.000324204 0 15.2859 10
332 82 1 0.000313359 1.47089 17.8336 10
333 82 1 0.000344885 2.94178 0 10
334 82 1 0.000403783 4.41266 2.54765 10
335 82 1 0.000489486 2.94178 5.09531 10
336 82 1 0.000567219 4.41266 7.64296 10
337 82 1 0.000534682 2.94178 10.1906 10
338 82 1 0.000501407 4.41266 12.7383 10
339 82 1 0.000396955 2.94178 15.2859 10
340 82 1 0.000341298 4.41266 17.8336 10
341 82 1 0.000286158 5.88355 0 10
342 82 1 0.000264702 7.35444 2.54765 10
343 82 1 0.000469043 5.88355 5.09531 10
344 82 1 0.000506304 7.35444 7.64296 10
345 82 1 0.000569812 5.88355 10.1906 10
346 82 1 0.000488189 7.35444 12.7383 10
347 82 1 0.000398787 5.88355 15.2859 10
348 82 1 0.000255697 7.35444 17.8336 10
349 82 1 0.000120421 8.82533 0 10
350 82 1 7.17212e-05 10.2962 2.54765 10
351 82 1 0.000293088 8.82533 5.09531 10
352 82 1 0.000345094 10.2962 7.64296 10
353 82 1 0.000491091 8.82533 10.1906 10
354 82 1 0.000406886 10.2962 12.7383 10
355 82 1 0.000327275 8.82533 15.2859 10
356 82 1 0.000141843 10.2962 17.8336 10
357 82 1 1.41275e-05 11.7671 0 10
358 82 1 1.34317e-05 13.238 2.54765 10
359 82 1 0.00012437 11.7671 5.09531 10
360 82 1 0.000243981 13.238 7.64296 10
361 82 1 0.000375385 11.7671 10.1906 10
362 82 1 0.000338017 13.238 12.7383 10
363 82 1 0.000256114 11.7671 15.2859 10
364 82 1 0.000113496 13.238 17.8336 10
365 82 1 6.72468e-05 14.7089 0 10
366 82 1 0.000156762 16.1798 2.54765 10
367 82 1 0.000140963 14.7089 5.09531 10
368 82 1 0.000315928 16.1798 7.64296 10
369 82 1 0.000335887 14.7089 10.1906 10
370 82 1 0.00035004 16.1798 12.7383 10
371 82 1 0.000253228 14.7089 15.2859 10
372 82 1 0.000197217 16.1798 17.8336 10
373 82 1 -9.43491e-05 1.47089 0.849218 12.402
374 82 1 -2.53347e-05 2.94178 3.39687 12.402
375 82 1 8.2052e-05 1.47089 5.94452 12.402
376 82 1 0.000218383 2.94178 8.49218 12.402
377 82 1 0.000313441 1.47089 11.0398 12.402
378 82 1 0.000288593 2.94178 13.5875 12.402
379 82 1 0.000132988 1.47089 16.1351 12.402
380 82 1 3.67951e-05 2.94178 18.6828 12.402
381 82 1 -7.38824e-05 4.41266 0.849218 12.402
382 82 1 -0.00012014 5.88355 3.39687 12.402
383 82 1 6.97099e-05 4.41266 5.94452 12.402
384 82 1 0.000156313 5.88355 8.49218 12.402
385 82 1 0.000241302 4.41266 11.0398 12.402
386 82 1 0.000165256 5.88355 13.5875 12.402
387 82 1 0.000173309 4.41266 16.1351 12.402
388 82 1 -4.44594e-05 5.88355 18.6828 12.402
389 82 1 -0.000215677 7.35444 0.849218 12.402
390 82 1 -0.000243909 8.82533 3.39687 12.402
391 82 1 -9.91151e-06 7.35444 5.94452 12.402
392 82 1 9.46375e-05 8.82533 8.49218 12.402
393 82 1 0.000136613 7.35444 11.0398 12.402
394 82 1 -1.1412e-05 8.82533 13.5875 12.402
395 82 1 -4.39924e-05 7.35444 16.1351 12.402
396 82 1 -0.000252198 8.82533 18.6828 12.402
397 82 1 -0.000374374 10.2962 0.849218 12.402
398 82 1 -0.000387374 11.7671 3.39687 12.402
399 82 1 -0.000144074 10.2962 5.94452 12.402
400 82 1 -2.87854e-05 11.7671 8.49218 12.402
401 82 1 6.0808e-05 10.2962 11.0398 12.402
402 82 1 -3.79776e-05 11.7671 13.5875 12.402
403 82 1 -0.000202567 10.2962 16.1351 12.402
404 82 1 -0.000361228 11.7671 18.6828 12.402
405 82 1 -0.000450606 13.238 0.849218 12.402
406 82 1 -0.000348988 14.7089 3.39687 12.402
407 82 1 -0.000232042 13.238 5.94452 12.402
408 82 1 1.83501e-05 14.7089 8.49218 12.402
409 82 1 6.02818e-05 13.238 11.0398 12.402
410 82 1 8.32062e-05 14.7089 13.5875 12.402
411 82 1 -0.000173793 13.238 16.1351 12.402
412 82 1 -0.000319005 14.7089 18.6828 12.402
413 82 1 -0.000312477 16.1798 0.849218 12.402
414 82 1 -0.000129848 0 3.39687 12.402
415 82 1 -7.59314e-05 16.1798 5.94452 12.402
416 82 1 0.000198937 0 8.49218 12.402
417 82 1 0.000223529 16.1798 11.0398 12.402
418 82 1 0.000224422 0 13.5875 12.402
419 82 1 -4.17928e-05 16.1798 16.1351 12.402
420 82 1 -0.00012656 0 18.6828 12.402
421 82 1 -0.00213127 2.94178 1.69844 14.8039
422 82 1 -0.00249584 4.41266 4.24609 14.8039
423 82 1 -0.0022122 2.94178 6.79374 14.8039
424 82 1 -0.00237695 4.41266 9.34139 14.8039
425 82 1 -0.00134938 2.94178 11.889 14.8039
426 82 1 -0.00113716 4.41266 14.4367 14.8039
427 82 1 -0.00108081 2.94178 16.9844 14.8039
428 82 1 -0.00161239 4.41266 19.532 14.8039
429 82 1 -0.00197098 5.88355 1.69844 14.8039
430 82 1 -0.00171643 7.35444 4.24609 14.8039
431 82 1 -0.00242347 5.88355 6.79374 14.8039
432 82 1 -0.00236064 7.35444 9.34139 14.8039
433 82 1 -0.00215691 5.88355 11.889 14.8039
434 82 1 -0.0018802 7.35444 14.4367 14.8039
435 82 1 -0.00120106 5.88355 16.9844 14.8039
436 82 1 -0.00119869 7.35444 19.532 14.8039
437 82 1 -0.000843412 8.82533 1.69844 14.8039
438 82 1 -0.000752848 10.2962 4.24609 14.8039
439 82 1 -0.00151958 8.82533 6.79374 14.8039
440 82 1 -0.0018372 10.2962 9.34139 14.8039
441 82 1 -0.00233022 8.82533 11.889 14.8039
442 82 1 -0.00197562 10.2962 14.4367 14.8039
443 82 1 -0.00145264 8.82533 16.9844 14.8039
444 82 1 -0.000621807 10.2962 19.532 14.8039
445 82 1 -0.000332131 11.7671 1.69844 14.8039
446 82 1 -0.000800628 13.238 4.24609 14.8039
447 82 1 -0.00118805 11.7671 6.79374 14.8039
448 82 1 -0.00143525 13.238 9.34139 14.8039
449 82 1 -0.00184216 11.7671 11.889 14.8039
450 82 1 -0.00133468 13.238 14.4367 14.8039
451 82 1 -0.00116489 11.7671 16.9844 14.8039
452 82 1 -0.000685746 13.238 19.532 14.8039
453 82 1 -0.000851906 14.7089 1.69844 14.8039
454 82 1 -0.00116865 16.1798 4.24609 14.8039
455 82 1 -0.00111524 14.7089 6.79374 14.8039
456 82 1 -0.00096247 16.1798 9.34139 14.8039
457 82 1 -0.00112342 14.7089 11.889 14.8039
458 82 1 -0.00094616 16.1798 14.4367 14.8039
459 82 1 -0.00109957 14.7089 16.9844 14.8039
460 82 1 -0.00125057 16.1798 19.532 14.8039
461 82 1 -0.00150256 0 1.69844 14.8039
462 82 1 -0.00188703 1.47089 4.24609 14.8039
463 82 1 -0.00125732 0 6.79374 14.8039
464 82 1 -0.00135529 1.47089 9.34139 14.8039
465 82 1 -0.000801746 0 11.889 14.8039
466 82 1 -0.0008495 1.47089 14.4367 14.8039
467 82 1 -0.00121836 0 16.9844 14.8039
468 82 1 -0.00157983 1.47089 19.532 14.8039
469 82 1 -0.00664067 4.41266 2.54765 17.2059
470 82 1 -0.00656838 5.88355 5.09531 17.2059
471 82 1 -0.00842432 4.41266 7.64296 17.2059
472 82 1 -0.00817316 5.88355 10.1906 17.2059
473 82 1 -0.00443029 4.41266 12.7383 17.2059
474 82 1 -0.00264141 5.88355 15.2859 17.2059
475 82 1 -0.00225574 4.41266 17.8336 17.2059
476 82 1 -0.00291891 5.88355 0 17.2059
477 82 1 -0.00187079 7.35444 2.54765 17.2059
478 82 1 -0.000773183 8.82533 5.09531 17.2059
479 82 1 -0.00602215 7.35444 7.64296 17.2059
480 82 1 -0.00642989 8.82533 10.1906 17.2059
481 82 1 -0.00637454 7.35444 12.7383 17.2059
482 82 1 -0.00413266 8.82533 15.2859 17.2059
483 82 1 -0.00127541 7.35444 17.8336 17.2059
484 82 1 0.00202993 8.82533 0 17.2059
485 82 1 0.00380317 10.2962 2.54765 17.2059
486 82 1 0.00170377 11.7671 5.09531 17.2059
487 82 1 -0.00243941 10.2962 7.64296 17.2059
488 82 1 -0.00440039 11.7671 10.1906 17.2059
489 82 1 -0.00571958 10.2962 12.7383 17.2059
490 82 1 -0.00260342 11.7671 15.2859 17.2059
491 82 1 0.000287143 10.2962 17.8336 17.2059
492 82 1 0.00422546 11.7671 0 17.2059
493 82 1 0.00367039 13.238 2.54765 17.2059
494 82 1 0.000699154 14.7089 5.09531 17.2059
495 82 1 -0.00165964 13.238 7.64296 17.2059
496 82 1 -0.00260298 14.7089 10.1906 17.2059
497 82 1 -0.00332976 13.238 12.7383 17.2059
498 82 1 -0.00174786 14.7089 15.2859 17.2059
499 82 1 0.00056055 13.238 17.8336 17.2059
500 82 1 0.00134938 14.7089 0 17.2059
501 82 1 5.39583e-05 16.1798 2.54765 17.2059
502 82 1 -0.00241426 0 5.09531 17.2059
503 82 1 -0.00154553 16.1798 7.64296 17.2059
504 82 1 -0.00246913 0 10.1906 17.2059
505 82 1 -0.00204536 16.1798 12.7383 17.2059
506 82 1 -0.00253384 0 15.2859 17.2059
507 82 1 -0.00198672 16.1798 17.8336 17.2059
508 82 1 -0.002487 0 0 17.2059
509 82 1 -0.00449351 1.47089 2.54765 17.2059
510 82 1 -0.00705533 2.94178 5.09531 17.2059
511 82 1 -0.00471264 1.47089 7.64296 17.2059
512 82 1 -0.00587733 2.94178 10.1906 17.2059
513 82 1 -0.00270052 1.47089 12.7383 17.2059
514 82 1 -0.0020723 2.94178 15.2859 17.2059
515 82 1 -0.00320064 1.47089 17.8336 17.2059
516 82 1 -0.00464779 2.94178 0 17.2059
517 82 1 -0.00185751 5.88355 3.39687 19.6078
518 82 1 0.0019728 7.35444 5.94452 19.6078
519 82 1 -0.00738202 5.88355 8.49218 19.6078
520 82 1 -0.0057263 7.35444 11.0398 19.6078
521 82 1 0.00110301 5.88355 13.5875 19.6078
522 82 1 0.00426216 7.35444 16.1351 19.6078
523 82 1 0.00501881 5.88355 18.6828 19.6078
524 82 1 0.00862456 7.35444 0.849218 19.6078
525 82 1 0.0136323 8.82533 3.39687 19.6078
526 82 1 0.0111187 10.2962 5.94452 19.6078
527 82 1 -0.000293347 8.82533 8.49218 19.6078
528 82 1 -0.00292849 10.2962 11.0398 19.6078
529 82 1 -0.00213791 8.82533 13.5875 19.6078
530 82 1 0.00404007 10.2962 16.1351 19.6078
531 82 1 0.0111777 8.82533 18.6828 19.6078
532 82 1 0.0203669 10.2962 0.849218 19.6078
533 82 1 0.0197063 11.7671 3.39687 19.6078
534 82 1 0.0111464 13.238 5.94452 19.6078
535 82 1 0.00290745 11.7671 8.49218 19.6078
536 82 1 -1.1305e-05 13.238 11.0398 19.6078
537 82 1 1.21896e-05 11.7671 13.5875 19.6078
538 82 1 0.00570969 13.238 16.1351 19.6078
539 82 1 0.0141869 11.7671 18.6828 19.6078
540 82 1 0.0188233 13.238 0.849218 19.6078
541 82 1 0.0151818 14.7089 3.39687 19.6078
542 82 1 0.00838758 16.1798 5.94452 19.6078
543 82 1 0.00391634 14.7089 8.49218 19.6078
544 82 1 0.00207601 16.1798 11.0398 19.6078
545 82 1 0.00232422 14.7089 13.5875 19.6078
546 82 1 0.0020297 16.1798 16.1351 19.6078
547 82 1 0.00868342 14.7089 18.6828 19.6078
548 82 1 0.00933031 16.1798 0.849218 19.6078
549 82 1 0.00549739 0 3.39687 19.6078
550 82 1 -0.000503251 1.47089 5.94452 19.6078
551 82 1 0.00285324 0 8.49218 19.6078
552 82 1 0.000100193 1.47089 11.0398 19.6078
553 82 1 0.00148461 0 13.5875 19.6078
554 82 1 0.00120045 1.47089 16.1351 19.6078
555 82 1 0.0015289 0 18.6828 19.6078
556 82 1 -0.000310813 1.47089 0.849218 19.6078
557 82 1 -0.00514247 2.94178 3.39687 19.6078
558 82 1 -0.00701539 4.41266 5.94452 19.6078
559 82 1 -0.00525319 2.94178 8.49218 19.6078
560 82 1 -0.00442659 4.41266 11.0398 19.6078
561 82 1 0.00246111 2.94178 13.5875 19.6078
562 82 1 0.00510157 4.41266 16.1351 19.6078
563 82 1 0.000376792 2.94178 18.6828 19.6078
564 82 1 -0.00297684 4.41266 0.849218 19.6078
ITEM: TIMESTEP
22500
ITEM: NUMBER OF ATOMS
564
ITEM: BOX BOUNDS pp pp ff
0.0000000000000000e+00 1.7650658050000001e+01
0.0000000000000000e+00 2.0381224350000000e+01
0.0000000000000000e+00 6.0000000000000000e+01
ITEM: ATOMS id mol type q x y z
1 1 2 0 10.9143 17.5242 22.1877
2 1 3 0.499176 10.1255 17.551 22.7294
3 1 3 0.629719 11.2617 16.6412 22.3131
4 1 4 -1.12889 10.8578 17.4146 22.2731
5 2 2 0 15.5012 14.6323 22.3335
6 2 3 0.595997 15.1594 14.4953 23.217
7 2 3 0.536035 16.1003 13.8994 22.1916
8 2 4 -1.13203 15.5342 14.521 22.4284
9 3 2 0 15.2826 9.4909 22.3305
10 3 3 0.595369 15.2384 10.4419 22.4295
11 3 3 0.518408 15.937 9.21303 22.9713
12 3 4 -1.11378 15.3607 9.57707 22.4252
13 4 2 0 1.73402 4.15534 22.4328
14 4 3 0.551357 2.39341 3.59711 22.0207
15 4 3 0.657364 2.11777 5.0321 22.4166
16 4 4 -1.20872 1.86755 4.19612 22.378
17 5 2 0 13.2907 7.32566 22.5791
18 5 3 0.575098 14.0363 7.88736 22.3673
19 5 3 0.554978 13.4623 6.51086 22.107
20 5 4 -1.13008 13.4081 7.29326 22.4916
21 6 2 0 1.54595 9.4553 22.5368
22 6 3 0.502098 1.72718 8.73423 21.9339
23 6 3 0.598069 2.23049 10.0989 22.3539
24 6 4 -1.10017 1.65678 9.44538 22.4362
25 7 2 0 6.22949 17.2937 22.2944
26 7 3 0.481213 6.9767 17.3121 22.8924
27 7 3 0.546741 6.16268 18.1904 21.9662
28 7 4 -1.02795 6.31659 17.4108 22.3289
29 8 2 0 8.17312 20.0239 22.8387
30 8 3 0.566034 8.42252 0.427967 23.3259
31 8 3 0.497679 7.34639 20.2563 22.4159
32 8 4 -1.06371 8.09922 20.1542 22.847
33 9 2 0 7.28676 2.49086 22.4941
34 9 3 0.417513 6.86841 2.64479 23.3412
35 9 3 0.636338 7.65937 3.3389 22.2528
36 9 4 -1.05385 7.28091 2.61912 22.5716
37 10 2 0 4.76396 19.8137 22.3858
38 10 3 0.521704 4.65029 0.335734 22.0901
39 10 3 0.565848 4.41215 19.8065 23.276
40 10 4 -1.08755 4.70437 19.9284 22.4619
41 11 2 0 2.91359 6.6422 22.354
42 11 3 0.586313 1.98592 6.80318 22.5265
43 11 3 0.645329 3.32115 7.50665 22.4074
44 11 4 -1.23164 2.84701 6.77347 22.3829
45 12 2 0 17.2652 16.9542 22.3069
46 12 3 0.626908 16.5208 16.3525 22.3104
47 12 3 0.608247 0.352492 16.4249 22.6094
48 12 4 -1.23515 17.2644 16.8094 22.3461
49 13 2 0 14.0026 11.9969 22.5391
50 13 3 0.563486 14.2174 12.0922 23.467
51 13 3 0.527953 14.5754 12.622 22.0947
52 13 4 -1.09144 14.1034 12.0891 22.601
53 14 2 0 13.9454 17.6503 22.834
54 14 3 0.547369 13.0631 17.874 22.5376
55 14 3 0.579927 14.4219 18.4803 22.8169
56 14 4 -1.1273 13.8934 17.7852 22.7938
57 15 2 0 13.0815 4.21498 22.3057
58 15 3 0.476581 12.3876 3.74111 22.7641
59 15 3 0.588369 13.7726 3.56497 22.1788
60 15 4 -1.06495 13.0812 4.07111 22.3481
61 16 2 0 10.3588 7.41714 22.637
62 16 3 0.554687 10.4987 7.27798 23.5737
63 16 3 0.650045 11.2205 7.66173 22.2994
64 16 4 -1.20473 10.487 7.43064 22.7137
65 17 2 0 4.10963 2.46996 22.3664
66 17 3 0.605211 3.91949 1.80837 23.0315
67 17 3 0.530581 5.05099 2.39126 22.2119
68 17 4 -1.13579 4.2058 2.37519 22.4318
69 18 2 0 7.24533 7.57726 22.5068
70 18 3 0.50096 8.02222 8.1036 22.318
71 18 3 0.528695 7.5641 6.67479 22.5193
72 18 4 -1.02965 7.38559 7.52911 22.4842
73 19 2 0 14.8327 1.85802 22.4442
74 19 3 0.570131 15.7475 2.09702 22.5933
75 19 3 0.643356 14.8108 0.908103 22.5601
76 19 4 -1.21349 14.947 1.76701 22.4781
77 20 2 0 5.41301 5.10651 22.8393
78 20 3 0.530368 4.97303 4.25762 22.8844
79 20 3 0.573905 4.7032 5.74728 22.8821
80 20 4 -1.10427 5.26582 5.07987 22.8506
81 21 2 0 15.9312 4.3614 22.8322
82 21 3 0.517225 15.6649 3.45216 22.6959
83 21 3 0.528855 15.2257 4.74236 23.355
84 21 4 -1.04608 15.8068 4.29377 22.8817
85 22 2 0 1.49042 14.7651 22.7358
86 22 3 0.477727 0.772878 14.6486 22.113
87 22 3 0.630077 2.04567 13.9958 22.6087
88 22 4 -1.1078 1.46964 14.6517 22.6398
89 23 2 0 8.6371 10.121 22.1665
90 23 3 0.581506 9.16838 10.9024 22.0138
91 23 3 0.571218 9.22473 9.39008 21.975
92 23 4 -1.15272 8.78033 10.1275 22.1225
93 24 2 0 3.01915 12.0328 22.1698
94 24 3 0.616735 3.48308 12.275 22.9712
95 24 3 0.525054 3.64094 12.2203 21.4666
96 24 4 -1.14179 3.15814 12.0878 22.1823
97 25 2 0 7.50042 13.9342 22.6946
98 25 3 0.557721 8.21727 13.5871 22.1637
99 25 3 0.643638 6.82865 13.253 22.6657
100 25 4 -1.20136 7.50619 13.8026 22.623
101 26 2 0 1.30097 19.5589 22.3619
102 26 3 0.482882 0.578775 19.0299 22.023
103 26 3 0.594373 2.07097 18.9968 22.2763
104 26 4 -1.07725 1.30709 19.4192 22.3076
105 27 2 0 4.59743 9.04374 22.4077
106 27 3 0.523789 4.75453 9.9455 22.1277
107 27 3 0.590894 5.45301 8.7313 22.702
108 27 4 -1.11468 4.72706 9.11918 22.4095
109 28 2 0 17.2371 12.0651 22.4738
110 28 3 0.548668 17.1741 12.0364 23.4285
111 28 3 0.58298 0.266136 11.4263 22.2588
112 28 4 -1.13165 17.316 11.9796 22.5685
113 29 2 0 10.1853 12.712 22.3015
114 29 3 0.564183 10.8071 11.9888 22.3825
115 29 3 0.643159 10.7196 13.5 22.4
116 29 4 -1.20734 10.3333 12.7203 22.3244
117 30 2 0 0.17417 1.78339 22.605
118 30 3 0.59258 0.511722 0.897596 22.4721
119 30 3 0.573516 0.855334 2.35536 22.2513
120 30 4 -1.1661 0.304578 1.74322 22.5427
121 31 2 0 6.78372 18.5579 25.3461
122 31 3 0.558599 7.2697 18.5513 24.5215
123 31 3 0.571348 6.63099 19.4853 25.5273
124 31 4 -1.12995 6.82638 18.6757 25.2638
125 32 2 0 10.7417 2.43525 22.5535
126 32 3 0.471187 11.4475 2.96698 22.1858
127 32 3 0.631611 10.119 3.0722 22.904
128 32 4 -1.1028 10.7523 2.58486 22.5513
129 33 2 0 11.9591 14.9478 22.7383
130 33 3 0.563886 12.6832 14.4683 22.3358
131 33 3 0.649726 12.2663 15.1488 23.6223
132 33 4 -1.21361 12.0911 14.9121 22.8
133 34 2 0 11.6505 9.95907 22.3307
134 34 3 0.490622 11.4479 10.0236 23.264
135 34 3 0.592296 12.6056 10.0059 22.2886
136 34 4 -1.08292 11.7468 9.97333 22.4448
137 35 2 0 15.8212 19.6854 22.3469
138 35 3 0.594701 16.2862 18.8621 22.1982
139 35 3 0.536635 16.1692 20.2809 21.6833
140 35 4 -1.13134 15.9252 19.6563 22.2429
141 36 2 0 6.98598 16.0051 26.8259
142 36 3 0.543294 7.21085 16.933 26.7575
143 36 3 0.536806 7.53749 15.5757 26.1719
144 36 4 -1.0801 7.08537 16.069 26.7334
145 37 2 0 11.5371 10.8983 25.1383
146 37 3 0.622017 12.1727 11.0081 25.8456
147 37 3 0.580494 11.1253 11.7579 25.0502
148 37 4 -1.20251 11.5658 11.0224 25.2176
149 38 2 0 0.0842591 6.88885 22.4328
150 38 3 0.606308 17.0552 6.27096 22.1637
151 38 3 0.476169 17.3151 7.43194 23.0999
152 38 4 -1.08248 17.5942 6.87928 22.4837
153 39 2 0 11.9975 20.1228 22.426
154 39 3 0.533465 11.6706 0.454078 21.8766
155 39 3 0.593643 11.4323 19.3794 22.2162
156 39 4 -1.12711 11.8833 20.1189 22.3288
157 40 2 0 2.20413 9.93786 26.2396
158 40 3 0.660724 1.82999 9.07842 26.0456
159 40 3 0.453878 2.87251 10.0661 25.5665
160 40 4 -1.1146 2.24179 9.84425 26.1286
161 41 2 0 8.3932 2.54148 25.7794
162 41 3 0.663755 9.12357 1.92586 25.7177
163 41 3 0.551784 8.80086 3.40495 25.7126
164 41 4 -1.21554 8.53888 2.57321 25.7629
165 42 2 0 4.06083 17.7642 25.7646
166 42 3 0.564057 4.07356 16.9699 26.2986
167 42 3 0.61282 4.98346 17.9531 25.5934
168 42 4 -1.17688 4.18056 17.6867 25.811
169 43 2 0 13.7247 8.26804 25.6172
170 43 3 0.602238 13.3251 7.84724 24.856
171 43 3 0.591533 14.4088 7.6595 25.8963
172 43 4 -1.19377 13.7611 8.13627 25.5555
173 44 2 0 15.9866 6.24 25.5166
174 44 3 0.597922 15.2565 5.62437 25.581
175 44 3 0.609623 16.7236 5.70774 25.2169
176 44 4 -1.20754 15.9875 6.09306 25.4865
177 45 2 0 8.96921 4.75234 22.403
178 45 3 0.54214 8.36868 4.84507 23.1426
179 45 3 0.631636 9.38208 5.61191 22.3199
180 45 4 -1.17378 8.94518 4.87425 22.4871
181 46 2 0 17.126 8.82585 24.6399
182 46 3 0.577629 16.9814 7.9545 25.0088
183 46 3 0.567169 0.171984 8.70101 23.9955
184 46 4 -1.1448 17.1967 8.69832 24.6047
185 47 2 0 0.64276 4.3499 24.9782
186 47 3 0.472083 0.9886 3.69962 25.5896
187 47 3 0.667395 1.03139 4.1171 24.135
188 47 4 -1.13948 0.736781 4.23686 24.9486
189 48 2 0 6.064 1.05806 25.7161
190 48 3 0.676392 6.84214 1.61503 25.7388
191 48 3 0.449568 5.92074 0.808493 26.629
192 48 4 -1.12596 6.14527 1.09741 25.8358
193 49 2 0 12.9758 0.849868 25.0273
194 49 3 0.554452 13.1145 1.37182 24.237
195 49 3 0.586036 12.0654 0.560218 24.9668
196 49 4 -1.14049 12.877 0.879606 24.9183
197 50 2 0 5.95454 11.6174 22.6683
198 50 3 0.611765 5.91779 11.3077 23.5732
199 50 3 0.556814 6.59367 11.0447 22.2444
200 50 4 -1.16858 6.03165 11.5045 22.7298
201 51 2 0 9.64195 13.061 25.1023
202 51 3 0.535419 9.79839 12.9121 24.1697
203 51 3 0.525298 9.23579 12.2506 25.4098
204 51 4 -1.06072 9.60998 12.9382 25.0223
205 52 2 0 5.09363 6.99235 24.8799
206 52 3 0.490478 5.83294 7.39243 25.3377
207 52 3 0.639853 5.49191 6.33487 24.3095
208 52 4 -1.13033 5.23926 6.9594 24.8655
209 53 2 0 0.821788 14.6886 25.5466
210 53 3 0.545533 1.07124 14.6524 24.6232
211 53 3 0.537102 0.370181 15.5273 25.6405
212 53 4 -1.08264 0.795909 14.7914 25.4404
213 54 2 0 14.6792 11.0579 25.3225
214 54 3 0.616693 15.632 11.0213 25.4068
215 54 3 0.587575 14.4269 10.1714 25.0643
216 54 4 -1.20427 14.7689 10.9397 25.3002
217 55 2 0 17.4398 1.67222 25.8837
218 55 3 0.571354 17.54 2.19735 25.0897
219 55 3 0.506463 0.386181 0.934261 25.7603
220 55 4 -1.07782 17.5291 1.64498 25.7663
221 56 2 0 7.61805 7.78457 26.5832
222 56 3 0.634388 7.98324 8.60379 26.2489
223 56 3 0.479334 7.59772 7.90081 27.5331
224 56 4 -1.11372 7.6622 7.90432 26.662
225 57 2 0 3.38786 17.1875 22.9919
226 57 3 0.55326 4.21093 17.5371 22.6505
227 57 3 0.557986 3.44635 17.3172 23.9385
228 57 4 -1.11125 3.50071 17.2489 23.0693
229 58 2 0 8.92306 9.96471 25.1793
230 58 3 0.54638 9.82403 10.243 25.0148
231 58 3 0.619308 8.51959 9.93273 24.3119
232 58 4 -1.16569 8.98675 9.99623 25.0472
233 59 2 0 4.66728 14.5722 22.5635
234 59 3 0.536276 5.60379 14.7056 22.4173
235 59 3 0.585404 4.29063 15.4513 22.5242
236 59 4 -1.12168 4.73895 14.7018 22.5397
237 60 2 0 10.1512 0.597386 24.6898
238 60 3 0.63922 9.86526 20.0801 24.8545
239 60 3 0.644355 10.6178 0.551657 23.8554
240 60 4 -1.28358 10.1743 0.476508 24.6041
241 61 2 0 8.52574 16.0309 24.3149
242 61 3 0.664832 7.98354 15.4178 23.8186
243 61 3 0.52702 9.35558 15.5705 24.4399
244 61 4 -1.19185 8.56256 15.8935 24.2674
245 62 2 0 4.42614 14.7381 25.8643
246 62 3 0.535511 4.31342 14.9171 24.9307
247 62 3 0.584206 5.22698 15.2048 26.1031
248 62 4 -1.11972 4.51422 14.8207 25.7753
249 63 2 0 10.8802 4.58286 25.2423
250 63 3 0.539324 11.009 5.41478 25.6979
251 63 3 0.555933 10.8402 3.93013 25.9413
252 63 4 -1.09526 10.8916 4.6058 25.3901
253 64 2 0 14.7798 14.4021 25.1057
254 64 3 0.599372 14.4729 14.0286 25.9318
255 64 3 0.527453 15.5685 14.8905 25.3414
256 64 4 -1.12682 14.8415 14.4168 25.2416
257 65 2 0 10.9239 7.49909 25.4811
258 65 3 0.549619 10.5045 8.34816 25.3416
259 65 3 0.522114 11.5351 7.64891 26.2023
260 65 4 -1.07173 10.9484 7.62696 25.5556
261 66 2 0 7.4021 5.20865 24.9153
262 66 3 0.586605 7.49175 5.86787 25.6035
263 66 3 0.484173 7.04295 4.44227 25.3624
264 66 4 -1.07078 7.3676 5.19493 25.0606
265 67 2 0 16.9084 17.1926 25.1128
266 67 3 0.603553 16.434 17.9849 25.3647
267 67 3 0.591336 16.897 17.2003 24.1557
268 67 4 -1.19489 16.8462 17.295 25.0225
269 68 2 0 13.0281 10.1436 27.8056
270 68 3 0.486393 13.6643 9.7341 28.392
271 68 3 0.545877 13.1343 9.68004 26.9749
272 68 4 -1.03227 13.1231 10.0318 27.7744
273 69 2 0 13.8549 4.41743 25.4709
274 69 3 0.549445 13.9133 3.79534 26.1961
275 69 3 0.590481 12.9244 4.43855 25.2473
276 69 4 -1.13993 13.7432 4.3405 25.5351
277 70 2 0 3.71377 12.1247 25.0802
278 70 3 0.64434 4.08445 12.9035 25.4952
279 70 3 0.553202 3.10648 11.7721 25.7307
280 70 4 -1.19754 3.68348 12.1792 25.2166
281 71 2 0 11.148 2.22593 26.9717
282 71 3 0.586 11.8159 2.11524 27.6484
283 71 3 0.531828 11.359 1.56198 26.3153
284 71 4 -1.11783 11.2605 2.12676 26.9743
285 72 2 0 0.0113048 11.9207 25.4357
286 72 3 0.577232 0.531029 11.1656 25.7113
287 72 3 0.575494 0.618232 12.6594 25.4817
288 72 4 -1.15273 0.155529 11.9186 25.4769
289 73 2 0 10.0987 18.1385 25.4103
290 73 3 0.57526 10.9498 17.803 25.1287
291 73 3 0.557111 9.46938 17.4877 25.0994
292 73 4 -1.13237 10.1271 18.0123 25.3345
293 74 2 0 12.523 16.6084 25.0457
294 74 3 0.614051 13.1451 17.0835 24.4948
295 74 3 0.542262 13.0359 16.3354 25.8064
296 74 4 -1.15631 12.6683 16.6343 25.0726
297 75 2 0 3.25611 0.598603 24.517
298 75 3 0.653258 2.55709 0.0430133 24.8618
299 75 3 0.51398 3.90922 0.624379 25.2163
300 75 4 -1.16724 3.25024 0.53078 24.6506
301 76 2 0 6.12553 10.2946 25.1539
302 76 3 0.546018 5.36602 10.8531 25.3198
303 76 3 0.512906 5.94635 9.49342 25.646
304 76 4 -1.05892 6.00536 10.2636 25.2381
305 77 2 0 13.8223 2.16618 27.7364
306 77 3 0.513295 14.5291 1.92517 28.3353
307 77 3 0.555492 13.9928 1.6545 26.9457
308 77 4 -1.06879 13.9346 2.06983 27.7119
309 78 2 0 15.4625 19.7353 25.8762
310 78 3 0.556833 14.6958 20.1019 25.4357
311 78 3 0.555374 16.0761 0.0861214 25.9389
312 78 4 -1.11221 15.4429 19.876 25.8278
313 79 2 0 2.1549 7.27983 25.4841
314 79 3 0.523031 1.87781 6.37179 25.6062
315 79 3 0.600402 3.1026 7.22698 25.3603
316 79 4 -1.12343 2.24075 7.15683 25.4839
317 80 2 0 13.0399 13.0776 26.5409
318 80 3 0.560988 13.7877 12.6411 26.1327
319 80 3 0.541482 12.8572 12.5586 27.3241
320 80 4 -1.10247 13.1123 12.9553 26.5889
321 81 2 0 1.44323 19.1976 25.7828
322 81 3 0.557174 2.24007 18.7369 26.0456
323 81 3 0.593056 0.772166 18.5159 25.7483
324 81 4 -1.15023 1.45933 19.0514 25.8121
325 82 1 0.000394905 0 0 10
326 82 1 0.000331326 1.47089 2.54765 10
327 82 1 0.000294791 0 5.09531 10
328 82 1 0.000254633 1.47089 7.64296 10
329 82 1 0.000284174 0 10.1906 10
330 82 1 0.000334505 1.47089 12.7383 10
331 82 1 0.000383915 0 15.2859 10
332 82 1 0.000408626 1.47089 17.8336 10
333 82 1 0.000351966 2.94178 0 10
334 82 1 0.000265556 4.41266 2.54765 10
335 82 1 0.000256553 2.94178 5.09531 10
336 82 1 0.000238416 4.41266 7.64296 10
337 82 1 0.000277264 2.94178 10.1906 10
338 82 1 0.000336976 4.41266 12.7383 10
339 82 1 0.000391407 2.94178 15.2859 10
340 82 1 0.00037108 4.41266 17.8336 10
341 82 1 0.000286869 5.88355 0 10
342 82 1 0.000232416 7.35444 2.54765 10
343 82 1 0.000223762 5.88355 5.09531 10
344 82 1 0.000245823 7.35444 7.64296 10
345 82 1 0.000280361 5.88355 10.1906 10
346 82 1 0.000331966 7.35444 12.7383 10
347 82 1 0.000367403 5.88355 15.2859 10
348 82 1 0.000318942 7.35444 17.8336 10
349 82 1 0.000270004 8.82533 0 10
350 82 1 0.000255135 10.2962 2.54765 10
351 82 1 0.000226855 8.82533 5.09531 10
352 82 1 0.000268713 10.2962 7.64296 10
353 82 1 0.000295121 8.82533 10.1906 10
354 82 1 0.000327182 10.2962 12.7383 10
355 82 1 0.000334955 8.82533 15.2859 10
356 82 1 0.000311955 10.2962 17.8336 10
357 82 1 0.000307691 11.7671 0 10
358 82 1 0.000308272 13.238 2.54765 10
359 82 1 0.000263589 11.7671 5.09531 10
360 82 1 0.000286129 13.238 7.64296 10
361 82 1 0.000307609 11.7671 10.1906 10
362 82 1 0.000330071 13.238 12.7383 10
363 82 1 0.000337127 11.7671 15.2859 10
364 82 1 0.000353699 13.238 17.8336 10
365 82 1 0.000367182 14.7089 0 10
366 82 1 0.00035062 16.1798 2.54765 10
367 82 1 0.000296451 14.7089 5.09531 10
368 82 1 0.000275605 16.1798 7.64296 10
369 82 1 0.000301933 14.7089 10.1906 10
370 82 1 0.000330823 16.1798 12.7383 10
371 82 1 0.000359868 14.7089 15.2859 10
372 82 1 0.000397142 16.1798 17.8336 10
373 82 1 -9.62785e-05 1.47089 0.849218 12.402
374 82 1 -0.000116365 2.94178 3.39687 12.402
375 82 1 -0.000131916 1.47089 5.94452 12.402
376 82 1 -0.000232399 2.94178 8.49218 12.402
377 82 1 -0.000212635 1.47089 11.0398 12.402
378 82 1 -0.000124655 2.94178 13.5875 12.402
379 82 1 6.40739e-05 1.47089 16.1351 12.402
380 82 1 4.01928e-05 2.94178 18.6828 12.402
381 82 1 -5.34242e-05 4.41266 0.849218 12.402
382 82 1 -0.000100359 5.88355 3.39687 12.402
383 82 1 -0.000130697 4.41266 5.94452 12.402
384 82 1 -0.000207692 5.88355 8.49218 12.402
385 82 1 -0.000283324 4.41266 11.0398 12.402
386 82 1 -9.21048e-05 5.88355 13.5875 12.402
387 82 1 6.08047e-05 4.41266 16.1351 12.402
388 82 1 7.24452e-05 5.88355 18.6828 12.402
389 82 1 -4.29418e-05 7.35444 0.849218 12.402
390 82 1 -8.85127e-05 8.82533 3.39687 12.402
391 82 1 -0.000120277 7.35444 5.94452 12.402
392 82 1 -0.000148816 8.82533 8.49218 12.402
393 82 1 -0.000165757 7.35444 11.0398 12.402
394 82 1 4.2826e-05 8.82533 13.5875 12.402
395 82 1 0.000125767 7.35444 16.1351 12.402
396 82 1 0.000115018 8.82533 18.6828 12.402
397 82 1 -2.37008e-05 10.2962 0.849218 12.402
398 82 1 -9.45701e-05 11.7671 3.39687 12.402
399 82 1 -0.00011888 10.2962 5.94452 12.402
400 82 1 -8.76479e-05 11.7671 8.49218 12.402
401 82 1 -3.54068e-05 10.2962 11.0398 12.402
402 82 1 0.000114167 11.7671 13.5875 12.402
403 82 1 0.000187521 10.2962 16.1351 12.402
404 82 1 0.000114347 11.7671 18.6828 12.402
405 82 1 -5.44414e-05 13.238 0.849218 12.402
406 82 1 -0.000123388 14.7089 3.39687 12.402
407 82 1 -0.000113712 13.238 5.94452 12.402
408 82 1 -5.60771e-05 14.7089 8.49218 12.402
409 82 1 2.97385e-05 13.238 11.0398 12.402
410 82 1 0.000108237 14.7089 13.5875 12.402
411 82 1 0.00017632 13.238 16.1351 12.402
412 82 1 4.66637e-05 14.7089 18.6828 12.402
413 82 1 -0.000118832 16.1798 0.849218 12.402
414 82 1 -0.000139286 0 3.39687 12.402
415 82 1 -0.00011271 16.1798 5.94452 12.402
416 82 1 -0.000134334 0 8.49218 12.402
417 82 1 -3.01279e-05 16.1798 11.0398 12.402
418 82 1 -3.98959e-06 0 13.5875 12.402
419 82 1 0.000122974 16.1798 16.1351 12.402
420 82 1 1.73647e-05 0 18.6828 12.402
421 82 1 -0.00179639 2.94178 1.69844 14.8039
422 82 1 -0.00103508 4.41266 4.24609 14.8039
423 82 1 -0.00110934 2.94178 6.79374 14.8039
424 82 1 -0.00184818 4.41266 9.34139 14.8039
425 82 1 -0.0021808 2.94178 11.889 14.8039
426 82 1 -0.00158574 4.41266 14.4367 14.8039
427 82 1 -0.0013824 2.94178 16.9844 14.8039
428 82 1 -0.00155128 4.41266 19.532 14.8039
429 82 1 -0.00135903 5.88355 1.69844 14.8039
430 82 1 -0.000925193 7.35444 4.24609 14.8039
431 82 1 -0.00101249 5.88355 6.79374 14.8039
432 82 1 -0.00176517 7.35444 9.34139 14.8039
433 82 1 -0.00216478 5.88355 11.889 14.8039
434 82 1 -0.0013307 7.35444 14.4367 14.8039
435 82 1 -0.00100919 5.88355 16.9844 14.8039
436 82 1 -0.00104346 7.35444 19.532 14.8039
437 82 1 -0.000998441 8.82533 1.69844 14.8039
438 82 1 -0.00119213 10.2962 4.24609 14.8039
439 82 1 -0.00127645 8.82533 6.79374 14.8039
440 82 1 -0.00157271 10.2962 9.34139 14.8039
441 82 1 -0.0017685 8.82533 11.889 14.8039
442 82 1 -0.00108629 10.2962 14.4367 14.8039
443 82 1 -0.000699551 8.82533 16.9844 14.8039
444 82 1 -0.000823414 10.2962 19.532 14.8039
445 82 1 -0.0013471 11.7671 1.69844 14.8039
446 82 1 -0.00163596 13.238 4.24609 14.8039
447 82 1 -0.00149062 11.7671 6.79374 14.8039
448 82 1 -0.00128588 13.238 9.34139 14.8039
449 82 1 -0.00134879 11.7671 11.889 14.8039
450 82 1 -0.00110671 13.238 14.4367 14.8039
451 82 1 -0.000738095 11.7671 16.9844 14.8039
452 82 1 -0.00137212 13.238 19.532 14.8039
453 82 1 -0.00198533 14.7089 1.69844 14.8039
454 82 1 -0.00172642 16.1798 4.24609 14.8039
455 82 1 -0.00148332 14.7089 6.79374 14.8039
456 82 1 -0.00126536 16.1798 9.34139 14.8039
457 82 1 -0.00123303 14.7089 11.889 14.8039
458 82 1 -0.0013948 16.1798 14.4367 14.8039
459 82 1 -0.00125115 14.7089 16.9844 14.8039
460 82 1 -0.0020733 16.1798 19.532 14.8039
461 82 1 -0.00212453 0 1.69844 14.8039
462 82 1 -0.00137787 1.47089 4.24609 14.8039
463 82 1 -0.00131195 0 6.79374 14.8039
464 82 1 -0.00165865 1.47089 9.34139 14.8039
465 82 1 -0.00164783 0 11.889 14.8039
466 82 1 -0.00166556 1.47089 14.4367 14.8039
467 82 1 -0.00161815 0 16.9844 14.8039
468 82 1 -0.00200038 1.47089 19.532 14.8039
469 82 1 -0.00224879 4.41266 2.54765 17.2059
470 82 1 0.000609524 5.88355 5.09531 17.2059
471 82 1 -0.000115662 4.41266 7.64296 17.2059
472 82 1 -0.00374998 5.88355 10.1906 17.2059
473 82 1 -0.00430266 4.41266 12.7383 17.2059
474 82 1 -0.00232227 5.88355 15.2859 17.2059
475 82 1 -0.00274283 4.41266 17.8336 17.2059
476 82 1 -0.0030643 5.88355 0 17.2059
477 82 1 -0.000919019 7.35444 2.54765 17.2059
478 82 1 -0.00034422 8.82533 5.09531 17.2059
479 82 1 -0.00105867 7.35444 7.64296 17.2059
480 82 1 -0.0036982 8.82533 10.1906 17.2059
481 82 1 -0.00427197 7.35444 12.7383 17.2059
482 82 1 -0.00214306 8.82533 15.2859 17.2059
483 82 1 -0.00157958 7.35444 17.8336 17.2059
484 82 1 -0.00127527 8.82533 0 17.2059
485 82 1 -0.00109589 10.2962 2.54765 17.2059
486 82 1 -0.00204965 11.7671 5.09531 17.2059
487 82 1 -0.0022598 10.2962 7.64296 17.2059
488 82 1 -0.00259168 11.7671 10.1906 17.2059
489 82 1 -0.00354311 10.2962 12.7383 17.2059
490 82 1 -0.00204399 11.7671 15.2859 17.2059
491 82 1 -0.000774592 10.2962 17.8336 17.2059
492 82 1 -0.00203364 11.7671 0 17.2059
493 82 1 -0.00336154 13.238 2.54765 17.2059
494 82 1 -0.00295417 14.7089 5.09531 17.2059
495 82 1 -0.00221348 13.238 7.64296 17.2059
496 82 1 -0.00142037 14.7089 10.1906 17.2059
497 82 1 -0.00270996 13.238 12.7383 17.2059
498 82 1 -0.00258228 14.7089 15.2859 17.2059
499 82 1 -0.00204272 13.238 17.8336 17.2059
500 82 1 -0.00484331 14.7089 0 17.2059
501 82 1 -0.00452726 16.1798 2.54765 17.2059
502 82 1 -0.0016078 0 5.09531 17.2059
503 82 1 -0.00138903 16.1798 7.64296 17.2059
504 82 1 -0.00182889 0 10.1906 17.2059
505 82 1 -0.00264435 16.1798 12.7383 17.2059
506 82 1 -0.0033201 0 15.2859 17.2059
507 82 1 -0.00419067 16.1798 17.8336 17.2059
508 82 1 -0.00595045 0 0 17.2059
509 82 1 -0.00351757 1.47089 2.54765 17.2059
510 82 1 0.000144441 2.94178 5.09531 17.2059
511 82 1 -0.000565701 1.47089 7.64296 17.2059
512 82 1 -0.0032461 2.94178 10.1906 17.2059
513 82 1 -0.00369202 1.47089 12.7383 17.2059
514 82 1 -0.00288414 2.94178 15.2859 17.2059
515 82 1 -0.00406487 1.47089 17.8336 17.2059
516 82 1 -0.00458652 2.94178 0 17.2059
517 82 1 0.00635383 5.88355 3.39687 19.6078
518 82 1 0.00969976 7.35444 5.94452 19.6078
519 82 1 0.00777067 5.88355 8.49218 19.6078
520 82 1 -7.59829e-05 7.35444 11.0398 19.6078
521 82 1 0.00231388 5.88355 13.5875 19.6078
522 82 1 0.00317768 7.35444 16.1351 19.6078
523 82 1 0.00107274 5.88355 18.6828 19.6078
524 82 1 0.00273594 7.35444 0.849218 19.6078
525 82 1 0.00787942 8.82533 3.39687 19.6078
526 82 1 0.00597415 10.2962 5.94452 19.6078
527 82 1 0.00361175 8.82533 8.49218 19.6078
528 82 1 -0.000201881 10.2962 11.0398 19.6078
529 82 1 -0.000666503 8.82533 13.5875 19.6078
530 82 1 0.00263441 10.2962 16.1351 19.6078
531 82 1 0.00376409 8.82533 18.6828 19.6078
532 82 1 0.00536136 10.2962 0.849218 19.6078
533 82 1 0.00473769 11.7671 3.39687 19.6078
534 82 1 0.00348144 13.238 5.94452 19.6078
535 82 1 0.00349483 11.7671 8.49218 19.6078
536 82 1 0.00297162 13.238 11.0398 19.6078
537 82 1 -0.000554013 11.7671 13.5875 19.6078
538 82 1 0.00266106 13.238 16.1351 19.6078
539 82 1 0.00458369 11.7671 18.6828 19.6078
540 82 1 0.00133084 13.238 0.849218 19.6078
541 82 1 0.00193229 14.7089 3.39687 19.6078
542 82 1 0.00547912 16.1798 5.94452 19.6078
543 82 1 0.00572112 14.7089 8.49218 19.6078
544 82 1 0.00561918 16.1798 11.0398 19.6078
545 82 1 0.00120787 14.7089 13.5875 19.6078
546 82 1 0.00147767 16.1798 16.1351 19.6078
547 82 1 0.000588127 14.7089 18.6828 19.6078
548 82 1 -0.00178217 16.1798 0.849218 19.6078
549 82 1 0.00441238 0 3.39687 19.6078
550 82 1 0.010811 1.47089 5.94452 19.6078
551 82 1 0.00845402 0 8.49218 19.6078
552 82 1 0.00501067 1.47089 11.0398 19.6078
553 82 1 0.00235937 0 13.5875 19.6078
554 82 1 0.0028527 1.47089 16.1351 19.6078
555 82 1 -0.0013124 0 18.6828 19.6078
556 82 1 -0.000830616 1.47089 0.849218 19.6078
557 82 1 0.00598076 2.94178 3.39687 19.6078
558 82 1 0.0124162 4.41266 5.94452 19.6078
559 82 1 0.00955335 2.94178 8.49218 19.6078
560 82 1 0.00295545 4.41266 11.0398 19.6078
561 82 1 0.00373523 2.94178 13.5875 19.6078
562 82 1 0.00477988 4.41266 16.1351 19.6078
563 82 1 0.000582432 2.94178 18.6828 19.6078
564 82 1 -0.00060886 4.41266 0.849218 19.6078
ITEM: TIMESTEP
25000
ITEM: NUMBER OF ATOMS
564
ITEM: BOX BOUNDS pp pp ff
0.0000000000000000e+00 1.7650658050000001e+01
0.0000000000000000e+00 2.0381224350000000e+01
0.0000000000000000e+00 6.0000000000000000e+01
ITEM: ATOMS id mol type q x y z
1 1 2 0 10.0487 17.9544 22.2513
2 1 3 0.529296 9.13371 17.9705 21.9705
3 1 3 0.549426 10.1686 17.0829 22.6287
4 1 4 -1.07872 9.9469 17.8449 22.2637
5 2 2 0 15.6594 14.769 22.481
6 2 3 0.600124 15.4027 14.978 23.3792
7 2 3 0.593513 15.8819 13.8383 22.5054
8 2 4 -1.19364 15.655 14.6766 22.5991
9 3 2 0 16.0599 9.33451 22.3645
10 3 3 0.529372 16.5131 10.1593 22.1895
11 3 3 0.570936 16.755 8.67658 22.3767
12 3 4 -1.10031 16.2069 9.35587 22.3436
13 4 2 0 1.60877 3.84597 22.4242
14 4 3 0.675908 2.55733 3.71769 22.4239
15 4 3 0.558938 1.49474 4.79374 22.3538
16 4 4 -1.23485 1.7156 3.95087 22.4152
17 5 2 0 13.4823 7.8174 22.4468
18 5 3 0.548971 14.2989 8.03838 21.9989
19 5 3 0.545002 13.389 6.87276 22.3236
20 5 4 -1.09397 13.5749 7.72476 22.3737
21 6 2 0 1.44837 9.18632 22.9154
22 6 3 0.51223 1.72822 8.28843 22.7374
23 6 3 0.565334 2.15704 9.73097 22.5728
24 6 4 -1.07756 1.57491 9.1411 22.8488
25 7 2 0 6.78274 16.7378 22.5852
26 7 3 0.482917 7.50617 16.1452 22.7893
27 7 3 0.590694 7.14747 17.6139 22.7107
28 7 4 -1.07361 6.92204 16.7741 22.6274
29 8 2 0 7.38601 19.5027 22.3635
30 8 3 0.562697 7.81031 19.7447 23.1867
31 8 3 0.586231 6.45862 19.6913 22.507
32 8 4 -1.14893 7.32161 19.5578 22.4873
33 9 2 0 7.30756 2.29127 22.9702
34 9 3 0.532929 7.92707 1.59542 22.7506
35 9 3 0.563555 7.69854 3.08483 22.6046
36 9 4 -1.09648 7.43691 2.30377 22.8953
37 10 2 0 4.15538 19.8331 22.4613
38 10 3 0.4949 3.73339 20.0643 23.2888
39 10 3 0.585365 3.73881 19.0116 22.2008
40 10 4 -1.08026 4.04804 19.7575 22.5339
41 11 2 0 2.95889 6.41274 22.5201
42 11 3 0.632956 2.81066 6.19795 23.441
43 11 3 0.608737 3.34116 7.29014 22.5368
44 11 4 -1.24169 2.98885 6.49757 22.6401
45 12 2 0 16.7616 17.2139 22.5536
46 12 3 0.694092 16.2903 16.3937 22.4075
47 12 3 0.498922 17.6544 17.0335 22.2592
48 12 4 -1.19301 16.8156 17.0858 22.4972
49 13 2 0 13.7281 12.5887 22.366
50 13 3 0.478285 13.5932 12.6032 23.3136
51 13 3 0.55453 14.1626 13.4194 22.1728
52 13 4 -1.03282 13.7665 12.6969 22.4626
53 14 2 0 13.3418 18.0241 22.4278
54 14 3 0.532228 12.7775 18.4066 21.7559
55 14 3 0.597581 14.1186 18.5833 22.4356
56 14 4 -1.12981 13.369 18.1447 22.3428
57 15 2 0 12.8287 4.88581 22.4517
58 15 3 0.658075 12.6372 4.6105 23.3483
59 15 3 0.566054 13.7189 4.5734 22.2897
60 15 4 -1.22413 12.9181 4.81057 22.5458
61 16 2 0 10.3423 7.22776 22.5653
62 16 3 0.511719 9.88389 6.64566 21.9593
63 16 3 0.484775 11.0221 6.67937 22.9569
64 16 4 -0.996494 10.3706 7.08304 22.5379
65 17 2 0 4.13746 2.58971 22.684
66 17 3 0.553452 3.96527 2.32763 23.5884
67 17 3 0.603293 4.39264 1.77902 22.2436
68 17 4 -1.15674 4.14809 2.45238 22.7434
69 18 2 0 7.3182 7.98446 22.3649
70 18 3 0.546076 7.01116 7.07977 22.3058
71 18 3 0.62991 7.78679 8.02486 23.1986
72 18 4 -1.17599 7.33888 7.87382 22.4641
73 19 2 0 13.9092 1.86971 22.5603
74 19 3 0.579094 14.6076 1.22133 22.4704
75 19 3 0.600265 13.151 1.46584 22.1381
76 19 4 -1.17936 13.9016 1.73501 22.4947
77 20 2 0 5.57674 5.11889 22.6799
78 20 3 0.565406 5.48203 4.17574 22.813
79 20 3 0.580525 4.68482 5.43027 22.5258
80 20 4 -1.14593 5.45044 5.03802 22.6773
81 21 2 0 15.8396 4.11649 22.6852
82 21 3 0.542885 15.274 3.37065 22.485
83 21 3 0.589144 16.2974 3.86221 23.4865
84 21 4 -1.13203 15.8258 3.98846 22.7622
85 22 2 0 1.50919 14.7109 22.4916
86 22 3 0.563828 0.708061 14.5974 23.003
87 22 3 0.53214 1.73812 13.8269 22.2047
88 22 4 -1.09597 1.43594 14.5832 22.5203
89 23 2 0 8.71081 10.4846 22.4014
90 23 3 0.485606 9.40213 10.8384 21.8418
91 23 3 0.580981 8.58777 9.58707 22.0924
92 23 4 -1.06659 8.78356 10.415 22.2902
93 24 2 0 2.78555 11.9013 22.328
94 24 3 0.634614 3.03296 11.8938 23.2526
95 24 3 0.525823 3.45727 12.4355 21.9041
96 24 4 -1.16044 2.90321 11.9687 22.3921
97 25 2 0 7.8165 13.1811 22.5293
98 25 3 0.581514 8.58883 13.2626 21.9698
99 25 3 0.628165 7.35588 12.4127 22.1921
100 25 4 -1.20968 7.85641 13.0931 22.4145
101 26 2 0 1.02139 19.4875 22.5146
102 26 3 0.474765 0.714452 19.3883 21.6133
103 26 3 0.595064 1.59787 18.7365 22.6558
104 26 4 -1.06983 1.05589 19.3787 22.4173
105 27 2 0 4.6517 8.66569 22.3988
106 27 3 0.471862 4.52211 8.66502 21.4504
107 27 3 0.676801 5.60092 8.71632 22.5113
108 27 4 -1.14866 4.75662 8.67208 22.2918
109 28 2 0 17.4655 12.1367 22.4728
110 28 3 0.532355 17.5003 12.0573 23.426
111 28 3 0.579281 0.670712 11.8285 22.1749
112 28 4 -1.11164 17.5795 12.0871 22.5567
113 29 2 0 10.7847 12.9215 22.4329
114 29 3 0.570916 11.4272 12.2342 22.2569
115 29 3 0.595051 11.2731 13.7384 22.331
116 29 4 -1.16597 10.9294 12.9381 22.3973
117 30 2 0 17.6198 1.70026 22.4684
118 30 3 0.51411 0.614306 1.05527 22.1786
119 30 3 0.69182 0.423504 2.54021 22.4032
120 30 4 -1.20593 0.109882 1.72522 22.4229
121 31 2 0 6.30859 19.7788 25.576
122 31 3 0.466888 6.69931 19.1606 26.1935
123 31 3 0.565924 6.92817 0.126424 25.5416
124 31 4 -1.03281 6.43792 19.793 25.6506
125 32 2 0 10.8201 2.92442 22.4328
126 32 3 0.606128 11.6236 3.4216 22.2798
127 32 3 0.538898 10.1183 3.50753 22.1435
128 32 4 -1.14503 10.8331 3.06271 22.3762
129 33 2 0 12.2144 15.3809 22.5854
130 33 3 0.602719 12.757 16.1533 22.4262
131 33 3 0.475928 11.5025 15.6982 23.141
132 33 4 -1.07865 12.1928 15.5204 22.6362
133 34 2 0 11.6434 10.1375 22.8266
134 34 3 0.597388 11.6203 9.18409 22.9082
135 34 3 0.484733 12.5748 10.3513 22.7725
136 34 4 -1.08212 11.7596 10.0428 22.8301
137 35 2 0 15.6414 19.9497 22.661
138 35 3 0.59546 16.0939 19.1207 22.5056
139 35 3 0.598321 16.3275 0.23258 22.5943
140 35 4 -1.19378 15.7871 19.9286 22.6325
141 36 2 0 7.44461 13.7273 25.3077
142 36 3 0.567935 8.14087 13.0969 25.4925
143 36 3 0.52445 7.42808 13.7935 24.353
144 36 4 -1.09238 7.53162 13.655 25.2092
145 37 2 0 12.6345 11.1998 26.3615
146 37 3 0.548102 12.4916 10.4023 26.8712
147 37 3 0.51147 13.1482 10.9132 25.6064
148 37 4 -1.05957 12.6819 11.061 26.3301
149 38 2 0 0.0887244 6.51949 22.4808
150 38 3 0.586972 17.2635 5.69455 22.3847
151 38 3 0.477335 0.890514 6.39451 21.9731
152 38 4 -1.06431 0.130442 6.39789 22.4035
153 39 2 0 11.6398 0.168 22.3977
154 39 3 0.611186 11.1225 0.968583 22.4854
155 39 3 0.572735 11.0152 19.8924 22.0902
156 39 4 -1.18392 11.4936 0.186397 22.3695
157 40 2 0 2.44136 8.95484 27.0087
158 40 3 0.591483 1.69035 8.91176 26.4168
159 40 3 0.454585 2.07189 8.79522 27.8772
160 40 4 -1.04607 2.29792 8.9289 27.0441
161 41 2 0 10.3459 2.62236 26.3674
162 41 3 0.550539 10.4549 1.68364 26.2152
163 41 3 0.564194 10.9702 2.82675 27.0636
164 41 4 -1.11473 10.4397 2.52836 26.437
165 42 2 0 4.31864 17.2999 25.2602
166 42 3 0.613061 4.33875 16.4561 25.7117
167 42 3 0.511198 5.03432 17.7995 25.6532
168 42 4 -1.12426 4.41283 17.2558 25.3683
169 43 2 0 14.3538 7.69361 25.6163
170 43 3 0.528849 14.0655 7.57141 24.7118
171 43 3 0.570173 14.8929 6.92486 25.8023
172 43 4 -1.09902 14.3859 7.57956 25.5243
173 44 2 0 17.0694 6.38375 26.2741
174 44 3 0.582352 16.7063 5.50154 26.1962
175 44 3 0.550322 0.211126 6.36533 25.7374
176 44 4 -1.13267 17.1243 6.26846 26.1954
177 45 2 0 8.58154 4.87035 22.6637
178 45 3 0.597926 7.66601 4.93532 22.9354
179 45 3 0.537217 9.05696 5.41661 23.2897
180 45 4 -1.13514 8.5252 4.9486 22.7786
181 46 2 0 -0.0277969 9.11905 25.5582
182 46 3 0.624634 17.1544 8.32155 25.8046
183 46 3 0.582916 17.7599 9.03503 24.6146
184 46 4 -1.20755 17.5804 9.00621 25.4689
185 47 2 0 0.120519 3.6702 24.8661
186 47 3 0.629194 0.0267642 2.71783 24.845
187 47 3 0.574197 0.831829 3.85493 24.2528
188 47 4 -1.20339 0.199574 3.57193 24.7849
189 48 2 0 7.30034 2.22958 25.7595
190 48 3 0.546201 8.14646 2.13235 26.1964
191 48 3 0.613484 7.49436 2.10599 24.8304
192 48 4 -1.15969 7.43349 2.20132 25.6965
193 49 2 0 12.7519 0.808381 25.1171
194 49 3 0.590018 13.1098 1.19602 24.3185
195 49 3 0.504341 12.3261 0.00311362 24.8231
196 49 4 -1.09436 12.7432 0.75492 24.9773
197 50 2 0 5.82027 11.4511 22.8975
198 50 3 0.578442 5.30648 11.1258 23.6367
199 50 3 0.496984 6.44619 12.0599 23.2897
200 50 4 -1.07543 5.83462 11.4874 23.0424
201 51 2 0 10.7719 13.988 25.6699
202 51 3 0.637678 10.7066 13.0866 25.3548
203 51 3 0.494853 10.6765 13.9177 26.6197
204 51 4 -1.13253 10.7513 13.8636 25.7512
205 52 2 0 4.39244 6.21746 26.7524
206 52 3 0.54923 4.50452 7.14528 26.9593
207 52 3 0.547016 5.24554 5.94157 26.4172
208 52 4 -1.09625 4.516 6.30091 26.736
209 53 2 0 0.168082 15.0038 25.1524
210 53 3 0.481129 0.224643 14.6919 26.0556
211 53 3 0.502202 0.454121 15.9163 25.1952
212 53 4 -0.983332 0.211939 15.0807 25.2735
213 54 2 0 15.0223 10.6969 24.6075
214 54 3 0.563873 15.3135 10.7088 23.6958
215 54 3 0.528616 14.7349 9.79597 24.7559
216 54 4 -1.09249 15.0228 10.5831 24.5098
217 55 2 0 0.32124 0.924748 25.2481
218 55 3 0.593908 0.36419 0.572958 24.3589
219 55 3 0.643528 0.853259 0.323943 25.7698
220 55 4 -1.23744 0.394843 0.802805 25.201
221 56 2 0 8.5319 8.50395 24.9776
222 56 3 0.578823 8.79873 9.39553 25.2015
223 56 3 0.56128 7.62433 8.44307 25.2757
224 56 4 -1.1401 8.44988 8.61029 25.0445
225 57 2 0 3.01519 17.1791 22.4246
226 57 3 0.628927 2.81073 16.2946 22.1209
227 57 3 0.572147 3.35542 17.0558 23.3108
228 57 4 -1.20107 3.03257 17.0501 22.4991
229 58 2 0 9.68896 11.4881 25.0462
230 58 3 0.501624 10.3768 10.9281 25.4063
231 58 3 0.688609 9.7336 11.3452 24.1008
232 58 4 -1.19023 9.78272 11.3981 24.9713
233 59 2 0 4.93078 14.5031 22.7333
234 59 3 0.624827 5.2336 15.3937 22.5562
235 59 3 0.503473 5.45759 13.9512 22.1553
236 59 4 -1.1283 5.03699 14.5465 22.6366
237 60 2 0 9.42959 20.2962 24.1535
238 60 3 0.654276 9.63282 19.5595 24.7299
239 60 3 0.538822 10.1435 20.3062 23.516
240 60 4 -1.1931 9.54699 20.2032 24.1457
241 61 2 0 9.37953 15.4447 23.7414
242 61 3 0.54453 8.8515 14.7635 23.3249
243 61 3 0.679561 9.93908 14.9715 24.3573
244 61 4 -1.22409 9.38356 15.2969 23.7669
245 62 2 0 4.51319 14.5376 25.5031
246 62 3 0.576877 4.32438 14.5314 24.5647
247 62 3 0.621358 5.39673 14.176 25.5725
248 62 4 -1.19824 4.60212 14.4905 25.3918
249 63 2 0 11.9958 4.18655 24.913
250 63 3 0.584771 11.6153 5.02654 25.1697
251 63 3 0.686391 11.4939 3.53577 25.4037
252 63 4 -1.27116 11.8829 4.21077 25.0087
253 64 2 0 14.6045 15.5322 25.2878
254 64 3 0.592798 14.9387 14.765 25.7527
255 64 3 0.575796 15.2277 16.2286 25.4949
256 64 4 -1.16859 14.7271 15.5231 25.3739
257 65 2 0 10.8712 6.57324 26.0451
258 65 3 0.577763 10.0176 6.94491 25.823
259 65 3 0.484505 11.1023 6.98392 26.8783
260 65 4 -1.06227 10.7915 6.67339 26.1233
261 66 2 0 7.16993 5.03558 25.6345
262 66 3 0.457014 7.98447 5.07394 26.1358
263 66 3 0.605883 6.93086 4.10872 25.6356
264 66 4 -1.0629 7.24359 4.92184 25.6988
265 67 2 0 16.8273 17.8212 25.4718
266 67 3 0.667145 16.3223 18.584 25.7534
267 67 3 0.544339 16.874 17.9026 24.5193
268 67 4 -1.21148 16.7686 17.9293 25.386
269 68 2 0 12.6688 8.69566 27.7609
270 68 3 0.521874 13.579 8.91816 27.5656
271 68 3 0.503648 12.524 7.86228 27.3129
272 68 4 -1.02552 12.7668 8.61746 27.6786
273 69 2 0 14.9906 4.26408 25.5129
274 69 3 0.518425 15.3812 3.42946 25.772
275 69 3 0.551373 14.0595 4.07002 25.4048
276 69 4 -1.0698 14.9214 4.13239 25.5323
277 70 2 0 3.6894 11.7973 24.9688
278 70 3 0.587886 3.86565 12.7371 25.0141
279 70 3 0.585518 2.93298 11.6672 25.5407
280 70 4 -1.1734 3.61513 11.901 25.0478
281 71 2 0 12.8536 3.83429 28.1835
282 71 3 0.512236 13.58 4.03822 27.5945
283 71 3 0.478295 13.1853 3.12824 28.7382
284 71 4 -0.990531 12.989 3.77001 28.1791
285 72 2 0 0.418502 12.01 25.7181
286 72 3 0.625621 0.0683425 11.1331 25.8747
287 72 3 0.470952 17.3414 12.5984 25.919
288 72 4 -1.09657 0.280517 11.9731 25.7638
289 73 2 0 9.65607 17.9185 25.5029
290 73 3 0.618634 10.5849 17.6972 25.4357
291 73 3 0.559013 9.19978 17.1332 25.2006
292 73 4 -1.17765 9.71656 17.7896 25.4556
293 74 2 0 12.4622 17.3516 25.1912
294 74 3 0.520168 12.6477 17.6695 24.3076
295 74 3 0.644308 12.9352 16.5216 25.2518
296 74 4 -1.16448 12.5465 17.286 25.0858
297 75 2 0 3.7608 0.962356 25.4804
298 75 3 0.503298 3.2408 0.197866 25.7282
299 75 3 0.554509 4.65381 0.741011 25.7445
300 75 4 -1.05781 3.80855 0.836157 25.5459
301 76 2 0 5.51155 8.69342 25.5267
302 76 3 0.556725 4.82058 9.20473 25.9479
303 76 3 0.508609 5.13093 8.41618 24.6934
304 76 4 -1.06533 5.37437 8.72338 25.474
305 77 2 0 16.2254 2.24425 27.3529
306 77 3 0.494821 17.007 2.43388 26.8338
307 77 3 0.556241 16.0034 1.34006 27.1307
308 77 4 -1.05106 16.297 2.15278 27.258
309 78 2 0 15.5003 20.0953 26.3316
310 78 3 0.629551 14.6756 -0.0250329 25.9216
311 78 3 0.538205 16.1682 0.222969 25.8721
312 78 4 -1.16776 15.4802 20.1939 26.2203
313 79 2 0 2.13616 5.64527 25.1784
314 79 3 0.545814 1.55015 4.92738 25.4181
315 79 3 0.665058 2.89719 5.53431 25.7482
316 79 4 -1.21087 2.15857 5.53917 25.282
317 80 2 0 15.7338 13.2185 26.8961
318 80 3 0.581012 15.037 12.5735 27.0174
319 80 3 0.47344 16.5408 12.7038 26.9016
320 80 4 -1.05445 15.7479 13.07 26.9124
321 81 2 0 1.76231 18.9782 25.8494
322 81 3 0.558398 2.50428 18.3772 25.9164
323 81 3 0.593908 1.01348 18.4144 25.6556
324 81 4 -1.15231 1.76143 18.8291 25.8332
325 82 1 0.000512189 0 0 10
326 82 1 0.000478017 1.47089 2.54765 10
327 82 1 0.000435687 0 5.09531 10
328 82 1 0.000440257 1.47089 7.64296 10
329 82 1 0.000379747 0 10.1906 10
330 82 1 0.000460522 1.47089 12.7383 10
331 82 1 0.000458912 0 15.2859 10
332 82 1 0.00049967 1.47089 17.8336 10
333 82 1 0.000469407 2.94178 0 10
334 82 1 0.000439041 4.41266 2.54765 10
335 82 1 0.000460427 2.94178 5.09531 10
336 82 1 0.000467571 4.41266 7.64296 10
337 82 1 0.00048032 2.94178 10.1906 10
338 82 1 0.000494755 4.41266 12.7383 10
339 82 1 0.000496981 2.94178 15.2859 10
340 82 1 0.000460883 4.41266 17.8336 10
341 82 1 0.00041402 5.88355 0 10
342 82 1 0.000382052 7.35444 2.54765 10
343 82 1 0.000417944 5.88355 5.09531 10
344 82 1 0.000387477 7.35444 7.64296 10
345 82 1 0.000459437 5.88355 10.1906 10
346 82 1 0.000413216 7.35444 12.7383 10
347 82 1 0.000454308 5.88355 15.2859 10
348 82 1 0.000408017 7.35444 17.8336 10
349 82 1 0.000383733 8.82533 0 10
350 82 1 0.000366647 10.2962 2.54765 10
351 82 1 0.000344431 8.82533 5.09531 10
352 82 1 0.000290754 10.2962 7.64296 10
353 82 1 0.00034205 8.82533 10.1906 10
354 82 1 0.000309705 10.2962 12.7383 10
355 82 1 0.000374172 8.82533 15.2859 10
356 82 1 0.000390952 10.2962 17.8336 10
357 82 1 0.000423623 11.7671 0 10
358 82 1 0.000421824 13.238 2.54765 10
359 82 1 0.000322318 11.7671 5.09531 10
360 82 1 0.000268602 13.238 7.64296 10
361 82 1 0.000253501 11.7671 10.1906 10
362 82 1 0.000285552 13.238 12.7383 10
363 82 1 0.000346496 11.7671 15.2859 10
364 82 1 0.000434261 13.238 17.8336 10
365 82 1 0.000496158 14.7089 0 10
366 82 1 0.000480536 16.1798 2.54765 10
367 82 1 0.00037065 14.7089 5.09531 10
368 82 1 0.000340767 16.1798 7.64296 10
369 82 1 0.000266888 14.7089 10.1906 10
370 82 1 0.000353383 16.1798 12.7383 10
371 82 1 0.000388203 14.7089 15.2859 10
372 82 1 0.000488235 16.1798 17.8336 10
373 82 1 0.000152816 1.47089 0.849218 12.402
374 82 1 0.000151182 2.94178 3.39687 12.402
375 82 1 -1.29775e-06 1.47089 5.94452 12.402
376 82 1 -0.000139405 2.94178 8.49218 12.402
377 82 1 -6.01826e-05 1.47089 11.0398 12.402
378 82 1 1.47213e-05 2.94178 13.5875 12.402
379 82 1 0.000115055 1.47089 16.1351 12.402
380 82 1 0.000173761 2.94178 18.6828 12.402
381 82 1 0.000220656 4.41266 0.849218 12.402
382 82 1 9.97194e-05 5.88355 3.39687 12.402
383 82 1 -1.44812e-05 4.41266 5.94452 12.402
384 82 1 -0.000183351 5.88355 8.49218 12.402
385 82 1 -0.000162163 4.41266 11.0398 12.402
386 82 1 -0.000125432 5.88355 13.5875 12.402
387 82 1 0.000119253 4.41266 16.1351 12.402
388 82 1 0.000230556 5.88355 18.6828 12.402
389 82 1 0.000155676 7.35444 0.849218 12.402
390 82 1 -2.67395e-05 8.82533 3.39687 12.402
391 82 1 -8.23601e-05 7.35444 5.94452 12.402
392 82 1 -0.000266311 8.82533 8.49218 12.402
393 82 1 -0.000293288 7.35444 11.0398 12.402
394 82 1 -0.00025485 8.82533 13.5875 12.402
395 82 1 2.08532e-05 7.35444 16.1351 12.402
396 82 1 8.8229e-05 8.82533 18.6828 12.402
397 82 1 1.12611e-05 10.2962 0.849218 12.402
398 82 1 -6.86555e-05 11.7671 3.39687 12.402
399 82 1 -0.000183504 10.2962 5.94452 12.402
400 82 1 -0.000283499 11.7671 8.49218 12.402
401 82 1 -0.000350125 10.2962 11.0398 12.402
402 82 1 -0.000208799 11.7671 13.5875 12.402
403 82 1 -8.8949e-05 10.2962 16.1351 12.402
404 82 1 -2.90659e-05 11.7671 18.6828 12.402
405 82 1 -1.09335e-05 13.238 0.849218 12.402
406 82 1 1.77062e-05 14.7089 3.39687 12.402
407 82 1 -0.000139763 13.238 5.94452 12.402
408 82 1 -0.000179468 14.7089 8.49218 12.402
409 82 1 -0.000220592 13.238 11.0398 12.402
410 82 1 -1.88069e-05 14.7089 13.5875 12.402
411 82 1 -3.59089e-05 13.238 16.1351 12.402
412 82 1 1.48759e-06 14.7089 18.6828 12.402
413 82 1 6.49983e-05 16.1798 0.849218 12.402
414 82 1 0.000119395 0 3.39687 12.402
415 82 1 -5.25381e-05 16.1798 5.94452 12.402
416 82 1 -0.000122313 0 8.49218 12.402
417 82 1 -6.09552e-05 16.1798 11.0398 12.402
418 82 1 8.06116e-05 0 13.5875 12.402
419 82 1 7.34134e-05 16.1798 16.1351 12.402
420 82 1 6.31227e-05 0 18.6828 12.402
421 82 1 -0.00147357 2.94178 1.69844 14.8039
422 82 1 -0.00148631 4.41266 4.24609 14.8039
423 82 1 -0.00228529 2.94178 6.79374 14.8039
424 82 1 -0.00274175 4.41266 9.34139 14.8039
425 82 1 -0.00250102 2.94178 11.889 14.8039
426 82 1 -0.00230576 4.41266 14.4367 14.8039
427 82 1 -0.00189071 2.94178 16.9844 14.8039
428 82 1 -0.00117704 4.41266 19.532 14.8039
429 82 1 -0.0010062 5.88355 1.69844 14.8039
430 82 1 -0.00156394 7.35444 4.24609 14.8039
431 82 1 -0.00210843 5.88355 6.79374 14.8039
432 82 1 -0.00245086 7.35444 9.34139 14.8039
433 82 1 -0.00284838 5.88355 11.889 14.8039
434 82 1 -0.00243111 7.35444 14.4367 14.8039
435 82 1 -0.00141748 5.88355 16.9844 14.8039
436 82 1 -0.000950258 7.35444 19.532 14.8039
437 82 1 -0.00152581 8.82533 1.69844 14.8039
438 82 1 -0.00181527 10.2962 4.24609 14.8039
439 82 1 -0.0018878 8.82533 6.79374 14.8039
440 82 1 -0.00177428 10.2962 9.34139 14.8039
441 82 1 -0.00249482 8.82533 11.889 14.8039
442 82 1 -0.00201101 10.2962 14.4367 14.8039
443 82 1 -0.00165387 8.82533 16.9844 14.8039
444 82 1 -0.00179403 10.2962 19.532 14.8039
445 82 1 -0.00205514 11.7671 1.69844 14.8039
446 82 1 -0.00173058 13.238 4.24609 14.8039
447 82 1 -0.00154629 11.7671 6.79374 14.8039
448 82 1 -0.00115326 13.238 9.34139 14.8039
449 82 1 -0.00142986 11.7671 11.889 14.8039
450 82 1 -0.00130315 13.238 14.4367 14.8039
451 82 1 -0.00190933 11.7671 16.9844 14.8039
452 82 1 -0.00231755 13.238 19.532 14.8039
453 82 1 -0.00205311 14.7089 1.69844 14.8039
454 82 1 -0.00167675 16.1798 4.24609 14.8039
455 82 1 -0.00149889 14.7089 6.79374 14.8039
456 82 1 -0.00151518 16.1798 9.34139 14.8039
457 82 1 -0.000970313 14.7089 11.889 14.8039
458 82 1 -0.00133344 16.1798 14.4367 14.8039
459 82 1 -0.00198676 14.7089 16.9844 14.8039
460 82 1 -0.00247919 16.1798 19.532 14.8039
461 82 1 -0.00197856 0 1.69844 14.8039
462 82 1 -0.00170545 1.47089 4.24609 14.8039
463 82 1 -0.00197195 0 6.79374 14.8039
464 82 1 -0.00236629 1.47089 9.34139 14.8039
465 82 1 -0.00161489 0 11.889 14.8039
466 82 1 -0.00192116 1.47089 14.4367 14.8039
467 82 1 -0.00217545 0 16.9844 14.8039
468 82 1 -0.00222149 1.47089 19.532 14.8039
469 82 1 -0.0022929 4.41266 2.54765 17.2059
470 82 1 -0.00307588 5.88355 5.09531 17.2059
471 82 1 -0.00559211 4.41266 7.64296 17.2059
472 82 1 -0.00568282 5.88355 10.1906 17.2059
473 82 1 -0.00637762 4.41266 12.7383 17.2059
474 82 1 -0.00457445 5.88355 15.2859 17.2059
475 82 1 -0.00261018 4.41266 17.8336 17.2059
476 82 1 -0.00070103 5.88355 0 17.2059
477 82 1 -0.00222821 7.35444 2.54765 17.2059
478 82 1 -0.00284313 8.82533 5.09531 17.2059
479 82 1 -0.00330115 7.35444 7.64296 17.2059
480 82 1 -0.00288071 8.82533 10.1906 17.2059
481 82 1 -0.00577659 7.35444 12.7383 17.2059
482 82 1 -0.00390581 8.82533 15.2859 17.2059
483 82 1 -0.00134797 7.35444 17.8336 17.2059
484 82 1 -0.00224908 8.82533 0 17.2059
485 82 1 -0.00375002 10.2962 2.54765 17.2059
486 82 1 -0.00218362 11.7671 5.09531 17.2059
487 82 1 -0.00110964 10.2962 7.64296 17.2059
488 82 1 0.0005626 11.7671 10.1906 17.2059
489 82 1 -0.00230554 10.2962 12.7383 17.2059
490 82 1 -0.00213281 11.7671 15.2859 17.2059
491 82 1 -0.00336491 10.2962 17.8336 17.2059
492 82 1 -0.00513072 11.7671 0 17.2059
493 82 1 -0.00417831 13.238 2.54765 17.2059
494 82 1 -0.00234555 14.7089 5.09531 17.2059
495 82 1 -2.54027e-05 13.238 7.64296 17.2059
496 82 1 0.000788309 14.7089 10.1906 17.2059
497 82 1 0.000874065 13.238 12.7383 17.2059
498 82 1 -0.00183619 14.7089 15.2859 17.2059
499 82 1 -0.00497795 13.238 17.8336 17.2059
500 82 1 -0.00656397 14.7089 0 17.2059
501 82 1 -0.00436589 16.1798 2.54765 17.2059
502 82 1 -0.00370798 0 5.09531 17.2059
503 82 1 -0.00227766 16.1798 7.64296 17.2059
504 82 1 -0.00300878 0 10.1906 17.2059
505 82 1 -0.000409646 16.1798 12.7383 17.2059
506 82 1 -0.00372661 0 15.2859 17.2059
507 82 1 -0.00640237 16.1798 17.8336 17.2059
508 82 1 -0.00696672 0 0 17.2059
509 82 1 -0.00404396 1.47089 2.54765 17.2059
510 82 1 -0.00409382 2.94178 5.09531 17.2059
511 82 1 -0.0054753 1.47089 7.64296 17.2059
512 82 1 -0.00629487 2.94178 10.1906 17.2059
513 82 1 -0.00409849 1.47089 12.7383 17.2059
514 82 1 -0.00493429 2.94178 15.2859 17.2059
515 82 1 -0.00623006 1.47089 17.8336 17.2059
516 82 1 -0.00408657 2.94178 0 17.2059
517 82 1 0.00542729 5.88355 3.39687 19.6078
518 82 1 0.00553159 7.35444 5.94452 19.6078
519 82 1 0.00402493 5.88355 8.49218 19.6078
520 82 1 0.00569413 7.35444 11.0398 19.6078
521 82 1 0.000775258 5.88355 13.5875 19.6078
522 82 1 0.0050702 7.35444 16.1351 19.6078
523 82 1 0.00894355 5.88355 18.6828 19.6078
524 82 1 0.00694347 7.35444 0.849218 19.6078
525 82 1 0.00379961 8.82533 3.39687 19.6078
526 82 1 0.0078568 10.2962 5.94452 19.6078
527 82 1 0.0101962 8.82533 8.49218 19.6078
528 82 1 0.0131901 10.2962 11.0398 19.6078
529 82 1 0.00531966 8.82533 13.5875 19.6078
530 82 1 0.00587167 10.2962 16.1351 19.6078
531 82 1 0.00666713 8.82533 18.6828 19.6078
532 82 1 0.00243359 10.2962 0.849218 19.6078
533 82 1 0.00450432 11.7671 3.39687 19.6078
534 82 1 0.00954226 13.238 5.94452 19.6078
535 82 1 0.0146408 11.7671 8.49218 19.6078
536 82 1 0.016473 13.238 11.0398 19.6078
537 82 1 0.0125457 11.7671 13.5875 19.6078
538 82 1 0.00610801 13.238 16.1351 19.6078
539 82 1 0.00156163 11.7671 18.6828 19.6078
540 82 1 -6.51991e-05 13.238 0.849218 19.6078
541 82 1 0.00455475 14.7089 3.39687 19.6078
542 82 1 0.00600455 16.1798 5.94452 19.6078
543 82 1 0.0121925 14.7089 8.49218 19.6078
544 82 1 0.0105374 16.1798 11.0398 19.6078
545 82 1 0.0119082 14.7089 13.5875 19.6078
546 82 1 0.00229455 16.1798 16.1351 19.6078
547 82 1 -0.00246708 14.7089 18.6828 19.6078
548 82 1 -0.00208347 16.1798 0.849218 19.6078
549 82 1 0.00311968 0 3.39687 19.6078
550 82 1 0.00185038 1.47089 5.94452 19.6078
551 82 1 0.00423511 0 8.49218 19.6078
552 82 1 0.00262696 1.47089 11.0398 19.6078
553 82 1 0.00590568 0 13.5875 19.6078
554 82 1 -0.000199485 1.47089 16.1351 19.6078
555 82 1 -0.00542256 0 18.6828 19.6078
556 82 1 -0.00126783 1.47089 0.849218 19.6078
557 82 1 0.00353106 2.94178 3.39687 19.6078
558 82 1 0.00278568 4.41266 5.94452 19.6078
559 82 1 -0.000381689 2.94178 8.49218 19.6078
560 82 1 0.000832827 4.41266 11.0398 19.6078
561 82 1 0.00107723 2.94178 13.5875 19.6078
562 82 1 0.00308453 4.41266 16.1351 19.6078
563 82 1 0.0006168 2.94178 18.6828 19.6078
564 82 1 0.00553488 4.41266 0.849218 19.6078
