LAMMPS (2 Sep 2026)
OMP_NUM_THREADS environment is not set. Defaulting to 1 thread.
  using 1 OpenMP thread(s) per MPI task
units metal
atom_style full
boundary p p p
lattice sc 3.1
Lattice spacing in x,y,z = 3.1 3.1 3.1
region box block 0 8 0 8 0 8
create_box 2 box
Created orthogonal box = (0 0 0) to (24.8 24.8 24.8)
  1 by 1 by 3 MPI processor grid
mass 1 15.9994
mass 2 1.008
molecule h2o spcfq.mol
Read molecule template h2o:
# SPC-FQ 3-site water: O(type1) + 2H(type2), all charged via samqeq. SPC geom rOH=1.0 theta=109.47.
  1 molecules
  0 fragments
  0 bodies
  3 atoms with max type 2
  0 bonds with max type 0
  0 angles with max type 0
  0 dihedrals with max type 0
  0 impropers with max type 0
create_atoms 0 box mol h2o 12345
Created 1536 atoms
  using lattice units in orthogonal box = (0 0 0) to (24.8 24.8 24.8)
  create_atoms CPU = 0.092 seconds
group fq type 1 2
1536 atoms in group fq
set type 1 charge 0.0
Setting atom values ...
  512 settings made for charge
set type 2 charge 0.0
Setting atom values ...
  1024 settings made for charge
pair_style hybrid/overlay lj/cut 12.0 coul/long 12.0 coul/shield/intra 12.0 all cbrt
pair_coeff 1 1 lj/cut 0.01275 3.144
pair_coeff 1 2 lj/cut 0.0 1.0
pair_coeff 2 2 lj/cut 0.0 1.0
pair_coeff * * coul/long
pair_coeff * * coul/shield/intra 1.11
kspace_style pppm/samqeq 1.0e-6
kspace_modify gewald 0.35 mesh 30 30 30
Updated KSpace settings:
  KSpace computation is turned:    ON
  Use MPI collective operations:   OFF
  Use MPI non-blocking operations: OFF
  Gewald manually set to:          0.35
neighbor 2.0 bin
velocity all create 298 4928459 mom yes rot yes
timestep 0.001
fix chg fq qeq/sam 1 0.0 12.0 1.0e-7 spcfq_expt.param
fix_modify chg shield cbrt
samqeq: lr-solve shielding = cbrt J_shield (param 4th col = gamma); routed through compute_H + add_fixed_charge_field + the legacy gas path (calc_Hval)
fix_modify chg energy yes
fix integ all rigid/nvt/small molecule temp 298 298 0.1
Fix rigid/nvt/small setup ...
  create bodies CPU = 0.000 seconds
  512 rigid bodies with 1536 atoms
  1.0000026 = max distance from body owner to body atom
variable aq atom abs(q)
compute qmax fq reduce max v_aq
thermo_style custom step temp pe c_qmax
thermo 200
run 3000

CITE-CITE-CITE-CITE-CITE-CITE-CITE-CITE-CITE-CITE-CITE-CITE-CITE

Your simulation uses code contributions which should be cited:

- fix acks2/reaxff command: https://doi.org/10.1137/18M1224684

@Article{O'Hearn2020,
 author = {K. A. {O'Hearn} and A. Alperen and H. M. Aktulga},
 title = {Fast Solvers for Charge Distribution Models on Shared Memory Platforms},
 journal = {SIAM J.\ Sci.\ Comput.},
 year =    2020,
 volume =  42,
 number =  1,
 pages =   {1--22}
}

CITE-CITE-CITE-CITE-CITE-CITE-CITE-CITE-CITE-CITE-CITE-CITE-CITE

PPPM initialization ...
WARNING: Using kspace solver on system with no charge (src/kspace.cpp:317)
  using 12-bit tables for long-range coulomb
  G vector (1/distance) = 0.35
  grid = 30 30 30
  stencil order = 5
  estimated absolute RMS force accuracy = 0
  estimated relative force accuracy = 0
  using double precision FFTW3
  3d grid and FFT values/proc = 23273 9000
Generated 0 of 1 mixed pair_coeff terms from geometric mixing rule
samqeq: E_self = sum(chi q + 1/2 eta qs^2) INCLUDED in pe/etotal (fix_modify chg energy yes; eselfref qs = q - q0) -- pe + E_self is the energy the forces integrate
Neighbor list info ...
  update: every = 1 steps, delay = 0 steps, check = yes
  max neighbors/atom: 2000, page size: 100000
  master list distance cutoff = 14
  ghost atom cutoff = 14
  binsize = 7, bins = 4 4 4
  5 neighbor lists, perpetual/occasional/extra = 5 0 0
  (1) pair lj/cut, perpetual, half/full from (5)
      attributes: half, newton on
      pair build: halffull/newton
      stencil: none
      bin: none
  (2) pair coul/long, perpetual, copy from (1)
      attributes: half, newton on
      pair build: copy
      stencil: none
      bin: none
  (3) pair coul/shield/intra, perpetual, copy from (1)
      attributes: half, newton on
      pair build: copy
      stencil: none
      bin: none
  (4) fix qeq/sam, perpetual, half/full from (5)
      attributes: half, newton off
      pair build: halffull/newtoff
      stencil: none
      bin: none
  (5) fix qeq/sam, perpetual
      attributes: full, newton on
      pair build: full/bin
      stencil: full/bin/3d
      bin: standard
samqeq: recip_self ACTIVE at run start (step 0): not yet calibrated -- measured at the first solve by the K=16 deterministic-probe route
samqeq: calibrated grid reciprocal self-term recip_self=0.39480 +/- 0.00000 (raw, K=16 deterministic probes) = 5.6849 eV/e (subtracted so the QEq diagonal stays = eta)
samqeq SOLVER-DIAG step 0: CG 18 iters (=18 matvecs), resid/b=5.78e-08
Per MPI rank memory allocation (min/avg/max) = 42.09 | 43.46 | 46.06 Mbytes
   Step          Temp          PotEng         c_qmax    
         0   299.10164     -368.37953      0.9521151    
samqeq SOLVER-DIAG step 200: CG 19 iters (=19 matvecs), resid/b=5.56e-08
       200   702.74004     -516.43342      1.2250656    
samqeq SOLVER-DIAG step 400: CG 19 iters (=19 matvecs), resid/b=3.34e-08
       400   504.84325     -538.63029      1.2492421    
samqeq SOLVER-DIAG step 600: CG 19 iters (=19 matvecs), resid/b=4.04e-08
       600   415.44751     -554.6688       1.2491804    
samqeq SOLVER-DIAG step 800: CG 19 iters (=19 matvecs), resid/b=5.62e-08
       800   375.52948     -568.50229      1.2847386    
samqeq SOLVER-DIAG step 1000: CG 19 iters (=19 matvecs), resid/b=5.68e-08
      1000   344.69962     -577.9519       1.2847077    
samqeq SOLVER-DIAG step 1200: CG 19 iters (=19 matvecs), resid/b=5.70e-08
      1200   322.67386     -585.51313      1.3311718    
samqeq SOLVER-DIAG step 1400: CG 19 iters (=19 matvecs), resid/b=9.28e-08
      1400   306.22744     -590.11767      1.454157     
samqeq SOLVER-DIAG step 1600: CG 20 iters (=20 matvecs), resid/b=6.54e-08
      1600   289.68864     -591.93307      1.4864533    
samqeq SOLVER-DIAG step 1800: CG 20 iters (=20 matvecs), resid/b=5.97e-08
      1800   307.55246     -597.20203      1.3726894    
samqeq SOLVER-DIAG step 2000: CG 20 iters (=20 matvecs), resid/b=8.22e-08
      2000   299.41053     -599.73842      1.4678084    
samqeq SOLVER-DIAG step 2200: CG 20 iters (=20 matvecs), resid/b=8.51e-08
      2200   307.86494     -601.22758      1.4388946    
samqeq SOLVER-DIAG step 2400: CG 20 iters (=20 matvecs), resid/b=6.73e-08
      2400   297.05982     -602.73183      1.4297658    
samqeq SOLVER-DIAG step 2600: CG 20 iters (=20 matvecs), resid/b=6.27e-08
      2600   290.82525     -604.09668      1.5078405    
samqeq SOLVER-DIAG step 2800: CG 20 iters (=20 matvecs), resid/b=7.96e-08
      2800   299.16491     -606.0573       1.4869513    
samqeq SOLVER-DIAG step 3000: CG 20 iters (=20 matvecs), resid/b=7.84e-08
      3000   299.70805     -604.44452      1.4869798    
Loop time of 506.119 on 3 procs for 3000 steps with 1536 atoms

Performance: 0.512 ns/day, 46.863 hours/ns, 5.927 timesteps/s, 9.105 katom-step/s
87.0% CPU use with 3 MPI tasks x 1 OpenMP threads

MPI task timing breakdown:
Section |  min time  |  avg time  |  max time  |%varavg| %total
---------------------------------------------------------------
Pair    | 62.939     | 63.519     | 64.486     |   8.6 | 12.55
Bond    | 0.0022772  | 0.0024909  | 0.0028532  |   0.5 |  0.00
Kspace  | 32.532     | 33.466     | 34.017     |  11.5 |  6.61
Neigh   | 3.2461     | 3.2604     | 3.268      |   0.6 |  0.64
Comm    | 2.9799     | 3.0657     | 3.1596     |   4.2 |  0.61
Output  | 0.0011192  | 0.0011698  | 0.0012136  |   0.1 |  0.00
Modify  | 402.17     | 402.26     | 402.33     |   0.3 | 79.48
Other   |            | 0.5433     |            |       |  0.11

Nlocal:            512 ave         516 max         505 min
Histogram: 1 0 0 0 0 0 0 0 0 2
Nghost:        9628.33 ave        9698 max        9583 min
Histogram: 1 1 0 0 0 0 0 0 0 1
Neighs:         295941 ave      302467 max      290326 min
Histogram: 1 0 0 1 0 0 0 0 0 1
FullNghs:       591883 ave      598029 max      581149 min
Histogram: 1 0 0 0 0 0 0 0 0 2

Total # of neighbors = 1775648
Ave neighs/atom = 1156.0208
Ave special neighs/atom = 0
Neighbor list builds = 149
Dangerous builds = 0
Total wall time: 0:08:26
