ITEM: TIMESTEP
0
ITEM: NUMBER OF ATOMS
240
ITEM: BOX BOUNDS pp pp ff
0.0000000000000000e+00 1.7650658050000001e+01
0.0000000000000000e+00 2.0381224350000000e+01
0.0000000000000000e+00 6.0000000000000000e+01
ITEM: ATOMS id type q
1 1 -0.00216996991235
2 1 -0.00216996990905
3 1 -0.00216996989791
4 1 -0.0021699698996
5 1 -0.0021699699124
6 1 -0.00216996990907
7 1 -0.00216996989789
8 1 -0.00216996989956
9 1 -0.00216996991237
10 1 -0.00216996990907
11 1 -0.00216996989792
12 1 -0.00216996989962
13 1 -0.00216996991241
14 1 -0.00216996990909
15 1 -0.00216996989791
16 1 -0.00216996989958
17 1 -0.00216996991239
18 1 -0.00216996990909
19 1 -0.00216996989794
20 1 -0.00216996989964
21 1 -0.00216996991243
22 1 -0.00216996990911
23 1 -0.00216996989793
24 1 -0.0021699698996
25 1 -0.00216996991239
26 1 -0.00216996990908
27 1 -0.00216996989795
28 1 -0.00216996989963
29 1 -0.00216996991244
30 1 -0.0021699699091
31 1 -0.00216996989794
32 1 -0.00216996989959
33 1 -0.00216996991238
34 1 -0.00216996990906
35 1 -0.00216996989793
36 1 -0.00216996989961
37 1 -0.00216996991242
38 1 -0.00216996990908
39 1 -0.00216996989792
40 1 -0.00216996989957
41 1 -0.00216996991236
42 1 -0.00216996990905
43 1 -0.00216996989791
44 1 -0.0021699698996
45 1 -0.0021699699124
46 1 -0.00216996990907
47 1 -0.0021699698979
48 1 -0.00216996989956
49 1 -0.00106824159368
50 1 -0.0010682415834
51 1 -0.00106824157732
52 1 -0.00106824158807
53 1 -0.00106824159371
54 1 -0.0010682415834
55 1 -0.0010682415773
56 1 -0.00106824158804
57 1 -0.0010682415937
58 1 -0.00106824158341
59 1 -0.00106824157733
60 1 -0.00106824158808
61 1 -0.00106824159372
62 1 -0.00106824158342
63 1 -0.00106824157732
64 1 -0.00106824158805
65 1 -0.00106824159371
66 1 -0.00106824158342
67 1 -0.00106824157734
68 1 -0.00106824158809
69 1 -0.00106824159374
70 1 -0.00106824158342
71 1 -0.00106824157733
72 1 -0.00106824158806
73 1 -0.00106824159371
74 1 -0.0010682415834
75 1 -0.00106824157734
76 1 -0.00106824158808
77 1 -0.00106824159373
78 1 -0.00106824158341
79 1 -0.00106824157732
80 1 -0.00106824158805
81 1 -0.00106824159369
82 1 -0.00106824158339
83 1 -0.00106824157733
84 1 -0.00106824158806
85 1 -0.00106824159372
86 1 -0.0010682415834
87 1 -0.00106824157731
88 1 -0.00106824158803
89 1 -0.00106824159368
90 1 -0.00106824158339
91 1 -0.00106824157732
92 1 -0.00106824158806
93 1 -0.00106824159371
94 1 -0.00106824158339
95 1 -0.0010682415773
96 1 -0.00106824158803
97 1 2.4935303996e-08
98 1 2.49320671489e-08
99 1 2.49353079831e-08
100 1 2.49385423412e-08
101 1 2.49353023565e-08
102 1 2.49320708604e-08
103 1 2.49353149357e-08
104 1 2.49385483295e-08
105 1 2.49353039863e-08
106 1 2.49320671383e-08
107 1 2.49353079734e-08
108 1 2.49385423307e-08
109 1 2.49353023468e-08
110 1 2.49320708498e-08
111 1 2.4935314926e-08
112 1 2.4938548319e-08
113 1 2.49353039815e-08
114 1 2.49320671432e-08
115 1 2.49353079686e-08
116 1 2.49385423355e-08
117 1 2.49353023419e-08
118 1 2.49320708547e-08
119 1 2.49353149212e-08
120 1 2.49385483237e-08
121 1 2.4935303992e-08
122 1 2.49320671528e-08
123 1 2.49353079791e-08
124 1 2.49385423452e-08
125 1 2.49353023525e-08
126 1 2.49320708644e-08
127 1 2.49353149318e-08
128 1 2.49385483335e-08
129 1 2.49353039979e-08
130 1 2.49320671554e-08
131 1 2.49353079849e-08
132 1 2.49385423477e-08
133 1 2.49353023583e-08
134 1 2.49320708669e-08
135 1 2.49353149376e-08
136 1 2.4938548336e-08
137 1 2.49353039985e-08
138 1 2.49320671547e-08
139 1 2.49353079856e-08
140 1 2.49385423471e-08
141 1 2.4935302359e-08
142 1 2.49320708662e-08
143 1 2.49353149383e-08
144 1 2.49385483354e-08
145 1 0.00106827766531
146 1 0.00106827765966
147 1 0.00106827764899
148 1 0.00106827765511
149 1 0.00106827766533
150 1 0.00106827765967
151 1 0.00106827764898
152 1 0.00106827765509
153 1 0.00106827766533
154 1 0.00106827765967
155 1 0.001068277649
156 1 0.00106827765512
157 1 0.00106827766534
158 1 0.00106827765967
159 1 0.00106827764899
160 1 0.0010682776551
161 1 0.00106827766532
162 1 0.00106827765965
163 1 0.001068277649
164 1 0.0010682776551
165 1 0.00106827766534
166 1 0.00106827765966
167 1 0.00106827764899
168 1 0.00106827765509
169 1 0.00106827766531
170 1 0.00106827765964
171 1 0.00106827764898
172 1 0.00106827765509
173 1 0.00106827766532
174 1 0.00106827765964
175 1 0.00106827764898
176 1 0.00106827765507
177 1 0.0010682776653
178 1 0.00106827765964
179 1 0.00106827764897
180 1 0.00106827765509
181 1 0.00106827766531
182 1 0.00106827765964
183 1 0.00106827764897
184 1 0.00106827765507
185 1 0.0010682776653
186 1 0.00106827765965
187 1 0.00106827764898
188 1 0.0010682776551
189 1 0.00106827766531
190 1 0.00106827765965
191 1 0.00106827764897
192 1 0.00106827765508
193 1 0.0021699089055
194 1 0.00216990889268
195 1 0.00216990889096
196 1 0.00216990890215
197 1 0.00216990890552
198 1 0.00216990889268
199 1 0.00216990889094
200 1 0.00216990890212
201 1 0.00216990890551
202 1 0.00216990889268
203 1 0.00216990889097
204 1 0.00216990890214
205 1 0.00216990890553
206 1 0.00216990889268
207 1 0.00216990889095
208 1 0.00216990890211
209 1 0.00216990890549
210 1 0.00216990889266
211 1 0.00216990889095
212 1 0.00216990890212
213 1 0.00216990890551
214 1 0.00216990889265
215 1 0.00216990889093
216 1 0.00216990890209
217 1 0.00216990890547
218 1 0.00216990889264
219 1 0.00216990889093
220 1 0.00216990890211
221 1 0.00216990890549
222 1 0.00216990889264
223 1 0.00216990889091
224 1 0.00216990890208
225 1 0.00216990890547
226 1 0.00216990889265
227 1 0.00216990889093
228 1 0.00216990890211
229 1 0.00216990890548
230 1 0.00216990889265
231 1 0.0021699088909
232 1 0.00216990890208
233 1 0.00216990890548
234 1 0.00216990889267
235 1 0.00216990889094
236 1 0.00216990890213
237 1 0.0021699089055
238 1 0.00216990889267
239 1 0.00216990889092
240 1 0.0021699089021
