ITEM: TIMESTEP
0
ITEM: NUMBER OF ATOMS
1536
ITEM: BOX BOUNDS pp pp pp
0.0000000000000000e+00 2.4800000000000001e+01
0.0000000000000000e+00 2.4800000000000001e+01
0.0000000000000000e+00 2.4800000000000001e+01
ITEM: ATOMS id q fx fy fz x y z
1 -0.85 -0.779464189549 2.01150897427 0.117241672927 24.7855237723 24.4164843291 24.7707736585
2 0.425 -0.786034807141 -1.01440936639 -0.390418232891 0.819119209219 0.155122073625 0.0932207909377
3 0.425 1.37200511813 -1.10338844506 0.278316447223 23.9953570185 0.228393597231 24.7360055506
4 -0.85 1.57216817122 -2.39495048237 1.82618999976 2.78969390066 0.196042379022 24.6841314523
5 0.425 -1.61301993564 0.285830425512 0.367537543353 3.7034844961 0.273192136987 24.2853333392
6 0.425 -0.312321149067 1.79047806681 -0.911654054787 2.80682160324 24.330765484 0.630535208499
7 -0.85 1.3301637718 -2.08701345273 -2.42320554992 5.94194540038 0.250337472548 0.137429921973
8 0.425 -0.0476121742084 2.34642541767 0.276711681642 5.85538138772 24.0546736352 0.171568862372
9 0.425 -1.55329420126 -0.0401932882618 1.10535213696 6.8026732119 0.494988892231 24.4910012157
10 -0.85 0.825179482553 -0.456545287699 -2.62904936434 9.21735594329 24.7025204733 0.363064335563
11 0.425 0.152823820542 -0.72274672388 1.18767729371 9.07055633894 0.80589999068 24.7601243944
12 0.425 -0.861024917421 0.954117335896 1.43877154495 9.61208771777 24.0915795361 24.47681127
13 -0.85 -0.0137743766295 2.39658698797 -1.83555138411 12.4073816018 24.416799484 0.0353678738697
14 0.425 -1.50569981034 -1.46464579453 0.300127049039 13.1636955 0.231855142871 0.258305300969
15 0.425 1.15482018074 -0.900150108765 0.855357801123 11.6289228982 0.151345373116 24.5063268252
16 -0.85 0.730058715186 2.30028554557 -1.59898640158 15.4233809056 24.4269405094 0.0557148170344
17 0.425 -1.43610384347 -0.798417142119 -0.179676554982 16.3308962806 0.0438524411556 0.106759481122
18 0.425 1.18749054492 -1.57179508962 0.622504486803 14.7457228139 0.329207049447 24.6375257018
19 -0.85 -0.458578408614 -1.40703882039 4.8632411664 18.550037249 0.0502400374311 24.4216778196
20 0.425 0.922858448404 1.33631982503 -1.72047240644 18.0794860865 24.167399413 0.180529819347
21 0.425 -0.566507407169 -0.322459090733 -1.67995231387 19.1704766645 0.582360549577 0.197792361013
22 -0.85 0.431330810338 -1.46434027308 -5.30911490323 21.5335096938 0.0620863216358 0.341429753549
23 0.425 -0.485104017524 1.72257818542 1.27047379482 21.8505544771 23.9747727277 0.00652310417774
24 0.425 -0.594634083374 -0.495394806768 1.59000514678 21.7159358291 0.763140950711 24.4520471423
25 -0.85 0.475586627821 3.18509224858 1.33268714912 24.7209723992 2.78424111598 24.5945761078
26 0.425 -1.17338062907 -1.09435703338 -0.879987690039 0.667812465353 2.87226592658 0.453732250806
27 0.425 0.760747998186 -2.23587585008 -0.0403295451445 24.2112151354 3.64349295744 24.5516916414
28 -0.85 -0.58515102774 3.03714600484 -3.7931422167 3.12116391684 2.90311711994 0.330056404516
29 0.425 -0.966691196031 -0.447625356182 1.63153075073 3.82281613553 2.91287366985 24.4175999173
30 0.425 1.58092012235 -1.46988163975 1.02022108287 2.35601994763 3.48400921021 0.0523436782274
31 -0.85 -0.576912797324 -0.403010458589 -4.01073730687 6.30482388809 3.23061210774 0.34655510355
32 0.425 1.41711176854 0.722827633466 1.2302096666 5.51405472895 2.64609788235 0.164806569107
33 0.425 -0.692947734755 0.00964816160693 2.09567529364 6.78112138296 3.42329000991 24.2886383273
34 -0.85 -0.863128193098 2.4120154435 -0.267039897772 9.35182714903 2.72017082536 24.7654781994
35 0.425 -0.135819806283 -1.11229370308 -1.43390080676 9.33899459153 3.22503168613 0.82858659885
36 0.425 0.338867435874 -1.04850515231 1.19236198812 9.20917825944 3.3547974885 24.0059352018
37 -0.85 2.45281628354 0.233437872105 -3.74699071515 12.1707918806 2.9004714174 0.236220220836
38 0.425 -2.20974912602 0.202601131817 0.927659153623 13.1576861754 2.76926566441 0.142252280667
39 0.425 -0.035594668668 -0.8843925939 1.40919952474 11.871521944 3.63026291819 24.4215274985
40 -0.85 -0.228130811018 -0.0498521070503 -2.22033968945 15.5071921277 3.08012547067 0.384319250602
41 0.425 -0.923608375975 0.309924464115 0.843390415169 16.2829198743 2.89224447415 24.5818638856
42 0.425 1.49572764696 -0.0576683645939 1.17354301325 14.709887998 3.32763005517 24.6338168638
43 -0.85 -2.32143963634 2.47279188485 2.44419762877 18.8144735578 2.83794833741 24.6170299774
44 0.425 0.463408957969 -1.80820506674 -0.1138528553 18.6933624612 3.78790132151 24.3290600089
45 0.425 1.1756365787 0.00577236603513 -1.47727847398 18.2921639811 2.67415034107 0.653910013646
46 -0.85 2.27704056046 1.82998886451 2.28091475572 21.6012281353 2.89840825644 24.487345402
47 0.425 0.22119149711 -0.266834921749 -1.63582889984 21.24244328 2.74782427811 0.608541996384
48 0.425 -1.59802540465 -1.58797972395 -0.0677263980448 22.2563285847 3.65376746545 24.5041126016
49 -0.85 -2.22820652357 -2.21109314868 -1.9633807893 0.255007042029 6.29613874125 0.271802797901
50 0.425 0.818448762377 2.05371982286 0.834248747716 0.0432832877083 5.36241358797 24.7831236291
51 0.425 1.1632093026 -0.0739406378096 1.15348411469 24.5017096703 6.94144767078 24.545073573
52 -0.85 -0.940643649437 -1.73133401666 -2.42817259513 3.17796967059 6.19985501778 0.37692004384
53 0.425 0.854398328374 1.7292104075 1.51017129248 2.99931018934 5.38600264479 24.6239911359
54 0.425 0.476741445712 -0.564014898587 1.49659631611 3.12272014007 7.01414233743 24.5990888203
55 -0.85 1.14721859485 0.0105125785607 7.95367239541 6.04343405397 6.15932864501 24.4507422794
56 0.425 0.161204207589 -0.815961107067 -1.53890264683 5.74640153139 6.81632514471 0.343658257254
57 0.425 -1.28558759904 0.943684743647 -1.13448053683 6.81016441464 5.62434621028 0.00559946338684
58 -0.85 2.07378035329 0.551718687753 3.20056973606 9.08838997392 6.03708529833 24.5228213449
59 0.425 -1.05048078711 0.660183870198 -1.65135121583 9.48186841509 5.55656566924 0.506582070446
60 0.425 -1.05570741925 -1.46555555803 -0.704839948049 9.32974161099 7.00634903243 24.5705965847
61 -0.85 0.46918682446 2.27840352433 0.654511747264 12.3334090709 5.82692378809 0.0672889164025
62 0.425 -1.50404762164 -0.828959051221 -0.0152378405707 13.2209807242 6.221163409 24.6289678009
63 0.425 1.14682847177 -1.32151500894 -0.441458779837 11.6456102049 6.55191280291 0.103743282675
64 -0.85 -2.16423798415 -3.2018328261 3.35508891199 15.5753520957 6.32485352976 24.4437954692
65 0.425 -0.358465548285 1.62592274202 -1.44531213685 16.0259796006 5.55308085876 0.0924680319821
66 0.425 1.60204516737 0.0263709913211 -1.52722450205 14.8986683037 6.72206561148 0.263736498846
67 -0.85 3.61007513047 -0.813768434641 2.18443420707 18.2754378466 6.21019617395 24.5933518531
68 0.425 -0.586919123913 -0.557763338844 -1.83253191673 18.3803352453 6.56713166665 0.721575351161
69 0.425 -1.84061051987 0.706990611814 -0.0125069699638 19.1442269081 5.8226721594 24.2850727957
70 -0.85 0.367557397918 -0.606780996653 -8.44968148995 21.6577573119 6.08521618731 0.36494964262
71 0.425 -1.48695328947 0.52639484057 1.60389506394 22.4743807066 5.94253886033 24.6056870173
72 0.425 1.02379037587 -0.595034716563 1.4384749405 20.9678619814 6.57224495236 24.6293633401
73 -0.85 3.06832565174 1.77447994574 0.856961607196 24.4954727707 9.06931683263 24.7531336696
74 0.425 -1.57315935021 -0.354643848559 -0.577498599629 0.432731042446 8.92527180018 0.613214378228
75 0.425 -1.01194700683 -1.90039098419 0.471993883167 24.6717961868 9.90541136718 24.2336519522
76 -0.85 -1.18091933093 3.43127337485 -0.243621622682 3.07985143265 8.91600693165 24.7829304747
77 0.425 -0.570585802013 -1.38344744596 0.0309553566685 3.9254466799 9.4494592165 0.00299562153171
78 0.425 1.4913749541 -1.53250137748 0.0836759918401 2.29470188746 9.53453385185 0.0140739037332
79 -0.85 1.16866442193 1.22956140215 -1.81402955976 5.95201041222 9.10816963271 0.223271772825
80 0.425 -0.40579422071 -0.0858072468545 1.76280324109 6.1826609966 8.8702720361 24.0797622
81 0.425 -0.960301638848 -1.15590918596 -0.320673876962 6.46532859118 9.92155833119 0.496966027143
82 -0.85 3.27428842149 0.935774884874 0.669835754883 8.93977376492 9.1644159637 24.7985721825
83 0.425 -1.45778824588 -0.195917572321 -1.30270853101 9.56495646193 9.13418568238 0.778468328097
84 0.425 -1.51243121272 -0.987188062275 0.955181426134 9.39526977314 9.60139835392 24.0229594894
85 -0.85 0.237486165747 1.99242731473 -0.89451413341 12.3034341026 8.97678056707 0.185343561091
86 0.425 -1.5342974413 -0.880224915915 -0.0187033917835 13.1997519037 9.41853392129 0.223731657264
87 0.425 1.18638200154 -1.20138704929 0.959712167514 11.6968139936 9.50468551164 24.3909247816
88 -0.85 -0.816826482386 4.06090148499 1.07226589239 15.4958646671 8.91597188109 24.7744400135
89 0.425 -1.12590774582 -0.943599643278 -0.385277358847 16.3182770947 9.48193955625 0.0320912250654
90 0.425 1.89566259621 -0.96914430622 -0.381595735699 14.6858582382 9.50208856266 24.7934687614
91 -0.85 0.549664517173 0.97320555733 3.58289021221 18.630586568 9.17858648927 24.4360340246
92 0.425 -0.639521974191 -1.17978310105 -1.31535244508 18.8595530321 10.0966848933 24.7595691098
93 0.425 0.129290194029 0.687715353151 -1.97183508445 18.3098603999 8.62472861748 0.40439686562
94 -0.85 -2.32534876586 -1.42895266533 -1.64018221752 21.8360550247 9.59225561615 0.21029430587
95 0.425 1.72205080783 0.536948308167 0.34799921227 20.8718854416 9.4338991943 24.7974433457
96 0.425 -0.261178602846 1.54480310084 0.914265505636 22.3920595337 8.87384518955 24.5922623484
97 -0.85 1.15679421741 -1.34074377971 -3.76290625005 24.6896387518 12.604692757 0.306707156933
98 0.425 -0.915797029222 -0.228190964381 2.02602133771 0.406343810762 12.9628552537 24.3290563481
99 0.425 -0.266953257823 1.85747108699 0.991994558234 24.5040174374 11.6324519892 0.164236495003
100 -0.85 0.0254910415121 -3.59448960079 0.393297506113 2.96029042162 12.6938851456 24.5944257679
101 0.425 -1.3508994559 0.851231899067 -0.0663607417432 3.90691558907 12.3722980146 24.5723399802
102 0.425 0.83996210002 1.45824172486 -0.600896578311 2.43279398931 12.1338168398 0.433234251892
103 -0.85 -0.553399530522 2.13539233251 0.310518893575 6.11913548908 12.0409647668 24.6872940009
104 0.425 -1.07507376453 -0.762798739836 -0.277154101587 7.03793190116 12.4052217317 0.0393968912083
105 0.425 1.36303299781 -1.11220605891 -0.1110132768 5.44293260976 12.7538135015 0.0733091078473
106 -0.85 3.47661016589 0.27814008302 0.806188406922 8.93873449939 12.2684852223 0.0184149754499
107 0.425 -2.04056520132 0.506324917165 -0.97430751079 9.70822230741 11.9193263073 0.553187672837
108 0.425 -1.16912751335 -0.604949309844 0.399275047915 9.2530431932 13.0121884704 24.2283973517
109 -0.85 -2.14539331741 1.99028800218 1.15471972281 12.5960735734 12.0852079794 24.6969992838
110 0.425 -0.132038949392 -1.51163543578 -0.796835377135 13.0039036066 12.96345931 0.146708187927
111 0.425 1.97059115082 -0.254956868498 -0.550045693486 11.6000228199 12.1513327107 24.7562925283
112 -0.85 -1.26099413434 1.36221045834 -0.174559854629 15.5247543185 12.0168105996 0.026478616668
113 0.425 -0.589818560834 -1.11559278582 -0.19096536338 16.292726814 12.652019602 0.108533732295
114 0.425 1.89896304358 -1.15970843866 0.104617395615 14.6825188674 12.5311697984 24.664987651
115 -0.85 2.16262084625 -3.99054713716 1.46439022816 18.264000702 12.5598841675 24.7015645656
116 0.425 -1.01238395389 1.38178625563 -1.63217828763 18.5028346039 12.2353875362 0.816805285892
117 0.425 -1.38610082316 0.916696089091 0.337529275408 19.0331646941 12.4047282963 24.0816301485
118 -0.85 1.38353000968 -2.45874173792 2.93343535784 21.4673877901 12.6096726639 24.5762212167
119 0.425 -0.590431704109 0.221006784434 -1.54787075484 21.7736909321 12.8676084593 0.692546913774
120 0.425 -0.943943854805 1.53691846615 -0.00102319622585 21.8589212777 11.7227188768 24.3312318695
121 -0.85 -1.38893960274 -6.55589130981 -1.09377282355 0.225986140386 15.774112676 0.148123310792
122 0.425 1.56428269997 0.896225275533 -0.469590581407 24.1947736294 15.4179905429 0.575051947077
123 0.425 0.205895943543 1.51489273941 1.78860356176 0.379240230167 15.3078967811 24.0768247421
124 -0.85 -1.7012529481 2.1527304906 -0.939248356831 3.43161594666 15.3231672675 0.0831207474126
125 0.425 1.6167769271 0.343892596055 1.31795640166 2.72626440442 14.9685763857 24.2693212843
126 0.425 0.65077221776 -1.29894082323 -0.379620666838 3.14211964892 16.2082563468 0.447557968249
127 -0.85 -1.8063873377 0.873561295641 -1.06169008054 6.52634612031 15.4576140284 0.199623769052
128 0.425 0.20092225693 0.0237284979639 1.16255593581 6.44437924139 15.3872284278 24.0054745999
129 0.425 1.27669136783 -0.707857848851 -0.512861656304 5.6292746383 15.6551575438 0.59490163103
130 -0.85 0.661592820221 0.537397644015 3.68661719343 9.35329955595 15.306411896 24.4716239757
131 0.425 -1.18679535421 -0.065381643011 -1.86898508982 9.99505224099 15.3307821956 0.438151765325
132 0.425 0.797607821789 -1.03984057404 -0.699904905691 8.55164820306 15.8628059084 24.690224259
133 -0.85 1.33943361889 1.12841848432 2.77963566244 12.2274295093 15.2708841496 24.543341934
134 0.425 -0.506798571708 0.370654444777 -2.01204100554 12.5543283899 14.9853732748 0.644244778261
135 0.425 -0.426054321126 -1.32551300335 -0.351020119934 12.4182421009 16.2437425756 24.4124132877
136 -0.85 0.408757739438 2.63513736802 0.783467231873 15.3425058896 15.1714006315 24.676040046
137 0.425 -1.45479741798 -1.16392562335 -0.0256683510666 16.2893334232 15.452750853 24.5199472949
138 0.425 0.968272699048 -1.62018712891 -1.065947915 14.8681606873 15.8758485155 0.404012659156
139 -0.85 0.0820035580708 5.44272291002 0.449221611133 18.5854484818 15.1180606179 24.7546285144
140 0.425 -1.65304098177 -1.62061151654 0.22000544708 19.399358968 15.684321453 24.6246144396
141 0.425 1.65852431507 -1.46940848325 -0.346643370185 17.8151925502 15.6976179291 0.220757046003
142 -0.85 0.831280182707 3.05741988487 -2.55359180445 21.7057843331 15.2580346403 0.299277991469
143 0.425 -1.58452507113 -0.868561003587 1.11254770746 22.5094284326 15.6921131316 24.6921695325
144 0.425 1.23752341348 -1.10259944755 1.19607596123 20.8847872343 15.5498522282 24.608552476
145 -0.85 -0.285964862878 6.87568276031 -0.442426249776 24.7522765608 18.2216140672 24.7480907598
146 0.425 -1.94882201661 -1.26964232568 -0.121883943915 0.831260964681 18.6800233172 0.079440101953
147 0.425 1.39066454131 -1.1818296322 0.00360616179286 24.0164624746 18.8983626156 24.7724691382
148 -0.85 -1.86481328439 2.46636195828 -1.6203924882 3.26980335095 18.3317090023 0.217565559226
149 0.425 -0.347330896835 -1.77737391946 0.920107089172 3.74725989332 19.0342952944 24.4899169784
150 0.425 1.76639233036 -0.878658566583 0.344547355614 2.28293675573 18.4339957033 0.0925174623891
151 -0.85 1.78674484979 0.30121057443 2.68661447006 6.00952070407 18.6103284769 24.4656962902
152 0.425 -0.786748030906 0.738100674896 -1.29862954196 6.3393490964 17.7810795774 0.116877813323
153 0.425 -0.445369210439 -1.29604533712 -1.7388649606 6.25113019953 19.4085919458 0.217425896481
154 -0.85 0.307650698585 2.94826189048 -0.201554606633 9.29164222337 18.2351142872 0.122215277937
155 0.425 -1.37615958926 -1.10767800811 0.169246161416 10.1131602533 18.7311176015 24.640978525
156 0.425 1.10649133807 -1.36492677065 -0.141681357805 8.49519752331 18.8337681113 0.036806197044
157 -0.85 -1.3093359593 1.57549705743 2.67063924602 12.6146709705 18.3037127805 24.6805082933
158 0.425 -0.148020148255 -1.72479126679 -0.00391652160946 12.7562815784 19.2598109255 24.4239385263
159 0.425 1.44259791003 -0.168091006809 -0.968571294123 11.8290474511 18.2364762941 0.49555318039
160 -0.85 -1.86769406935 1.86156482676 1.12887121267 15.6184590571 18.3179129823 24.5664569071
161 0.425 -0.426575607209 -1.73088875193 -0.25840699972 16.1406036013 19.1414741217 24.7880813576
162 0.425 1.20662891687 -0.259229639947 -1.18408089825 14.7409373416 18.340612896 0.245461735274
163 -0.85 2.09132684129 1.1644233178 -3.32167721775 18.3070735915 18.4153630913 0.168081352788
164 0.425 -1.515161182 0.105574325893 0.510561785023 19.272667998 18.1731075556 0.262659204796
165 0.425 0.0658466913974 -1.47529806472 1.45418515386 18.2202584105 19.2115293531 24.3692594424
166 -0.85 1.19409258849 1.02637467908 -2.74093514915 21.4709730652 18.440901883 0.265296932284
167 0.425 -1.87220522632 -0.27388682439 0.444896224796 22.4707225599 18.4249518489 0.281165668258
168 0.425 0.477143161131 -0.923649997641 1.44451854124 21.158304375 18.9341462682 24.2535373995
169 -0.85 2.09747532289 1.88277579086 -0.691538234167 24.6284291358 21.3560862639 0.0208516345894
170 0.425 -1.52903311412 -0.62843458978 -0.505791277519 0.720588166277 21.5809193866 0.412652098775
171 0.425 0.535906194807 -1.41291949437 1.14482590729 24.250982698 22.1629943495 24.3664962666
172 -0.85 2.34300423583 1.39288907662 1.42551002299 2.82862783466 21.4666338978 24.65841815
173 0.425 -1.81744934336 0.209334782662 -0.775761338411 3.76119132183 21.192162156 0.0929301493546
174 0.425 -0.340517105425 -1.51403511721 -0.778279527573 2.71018084351 22.4412039461 0.0486517006218
175 -0.85 -2.53870723393 1.7175533764 4.80792592324 6.34831465959 21.4937275303 24.5108591347
176 0.425 0.577171193891 -1.94986196927 -0.93982831486 6.35830366713 22.4917763029 24.5725368433
177 0.425 1.15868747966 0.464498818873 -2.01944498722 5.89338167328 21.1144961669 0.516604022038
178 -0.85 1.67252739129 0.878154921176 5.80908943246 9.11982517207 21.6615911955 24.4620505879
179 0.425 -0.120530198662 1.07887374261 -1.83070278682 9.0479737251 21.0253892073 0.430223532217
180 0.425 -1.040610645 -1.63643639557 -0.848119758499 9.73220110283 22.4130195972 24.7077258798
181 -0.85 2.27744258761 0.198684794789 1.03903717961 12.0515005415 21.5692670797 24.701994689
182 0.425 -1.49649153146 0.591828921214 0.472767828327 12.9181310549 21.2397462059 24.3273310805
183 0.425 -0.436857514551 -0.876729094396 -1.37391934434 12.2303684035 22.2909867144 0.570674230504
184 -0.85 1.67755464155 0.86034112118 -2.39910000124 15.2366993528 21.4680796621 0.15822052974
185 0.425 -1.51579044311 0.305742557849 0.817961016308 16.1404613463 21.1826188333 24.6392665411
186 0.425 -0.147868847047 -1.22974480873 0.511603297785 15.122839301 22.4493015046 0.00251292917317
187 -0.85 1.11892715757 2.43270094187 0.475731454766 18.3618903882 21.3995203595 24.7658853632
188 0.425 -1.45056258319 -0.561838123746 0.359079664821 19.2286710283 21.5074893964 24.2790185626
189 0.425 0.0713425569728 -1.81954222783 -0.994916615752 18.2094385834 22.1929902441 0.555096074204
190 -0.85 -3.2736271018 2.92334082852 -0.608761542228 21.9223461253 21.3858583994 24.794973536
191 0.425 0.328235416068 -1.97968886295 1.04803600891 21.9744194049 22.1405739328 24.1409872138
192 0.425 1.80911162754 -0.944244762716 -0.959251272341 21.2032344698 21.5735676678 0.664039250222
193 -0.85 5.75469446711 -0.162871040793 0.52216495688 24.4339584732 24.7077095828 3.1751271558
194 0.425 -1.03094082307 -0.859044104454 1.20248185672 24.7431795887 0.457448548393 2.39912802957
195 0.425 -1.36894263137 0.224076559681 -0.880554517157 0.422861938134 24.4348418688 3.72574481462
196 -0.85 1.41052240522 1.48472615389 1.23207774678 2.8824121452 24.5897527642 2.86209322142
197 0.425 0.360197572666 -1.09092490941 -1.09385028346 2.58195117885 0.613386274735 3.34308835714
198 0.425 -1.89251337776 0.216410121171 -0.749331266107 3.83563667595 24.396860961 3.09481842144
199 -0.85 -0.237648932016 -0.173354572221 2.79471087571 6.20286613469 24.5312662465 2.82446059261
200 0.425 -1.06611692635 -0.390891226318 -0.599292038308 6.93433025956 0.391596634866 2.99454670249
201 0.425 1.56645188924 0.135671012024 -1.33958801559 5.46280360575 24.6771371186 3.48099270489
202 -0.85 0.434190278594 -3.23471062994 -0.494750197565 9.26844276631 0.341894927626 3.27395404412
203 0.425 0.368769542366 2.26503573177 -0.635423558961 8.95119662048 24.2713008002 3.65002055509
204 0.425 -0.759153246418 0.850014287212 1.05440867809 9.68036061321 0.186804272221 2.37602540079
205 -0.85 -0.59696586252 -0.326980091332 3.74232465897 12.4317807441 0.0568483590386 2.72065021632
206 0.425 0.551359647502 1.7125608104 -1.05464719757 12.1442022098 24.0029312679 3.15438914777
207 0.425 -0.489851492742 -1.2398076759 -1.54110915702 12.6240170461 0.740220373023 3.42496063592
208 -0.85 2.20088972626 0.354947155601 3.30318922749 15.2982044235 0.0224047566117 2.77300675514
209 0.425 -0.980471410847 -1.21668505302 -0.882691298345 15.867882266 0.752174813379 3.15103862211
210 0.425 -0.546775249676 1.2419044515 -1.21840552562 15.3339133105 24.02542043 3.37595462274
211 -0.85 0.341872422128 0.91998004601 -4.19934625941 18.50719215 24.5391600527 3.36738966863
212 0.425 -1.43976796772 -0.54767212454 0.621340803538 19.3978774741 0.185470769797 3.28083523556
213 0.425 0.982746216595 -0.440562276202 1.60900582749 17.8949303759 0.0753691774856 2.65177509581
214 -0.85 -5.23541517386 -3.01818224989 4.15138716312 21.9575031224 0.139829603704 2.85042469291
215 0.425 1.01958454083 0.0568876802983 -1.83936852758 21.7288249132 0.548644750392 3.73393005509
216 0.425 1.67938826808 1.72408766409 -0.384890433467 21.4136719645 24.1115256459 2.715645252
217 -0.85 0.261039224813 3.29246623658 1.6864991638 24.7873011323 2.79912569969 2.86028891521
218 0.425 -1.11437144337 -1.61325357413 -0.308041380463 0.69677868579 3.50384022414 2.86521970079
219 0.425 1.1067278801 -1.25013534249 -1.2847180283 24.1159201819 2.99703407617 3.574491384
220 -0.85 -0.704313886177 2.94529339609 2.11170379072 3.12514524045 2.72340664808 3.02454687436
221 0.425 -1.23492249559 -1.54405125311 -0.284681684011 3.90180735277 3.34544567232 3.12388814527
222 0.425 1.80497542083 -1.41197025667 -0.374346832458 2.27304740678 3.23114767961 3.15156498037
223 -0.85 -1.45159723057 2.52082217091 1.61181964488 6.23535482511 2.72412258273 3.02507194432
224 0.425 -0.520167124458 -1.54761371405 -0.508662757163 6.98743707138 3.33852846107 3.26357348313
225 0.425 1.87441949949 -1.55702338464 -0.278031088137 5.37720810351 3.2373489562 3.01135457255
226 -0.85 3.21245916368 -1.30951326305 -0.626283343117 8.97572348896 3.30716057882 3.09121086072
227 0.425 -1.23916412424 0.350518266619 1.55260178644 9.43303797921 2.91641532883 2.29234486499
228 0.425 -1.59619367785 0.104816632763 -0.892552962119 9.49123853184 3.07642409235 3.91644427429
229 -0.85 -0.333468454545 -2.06437819699 3.83275880106 12.4701496466 3.34861532566 2.81466255602
230 0.425 1.26693979037 0.179652299669 -1.45229667054 11.7428911373 3.44061999936 3.49483567602
231 0.425 -0.905782432927 1.79010053014 -0.932231916749 12.9869592162 2.51076467498 2.99050176796
232 -0.85 -0.103806987557 -1.63312655493 -2.21925934187 15.5338023748 3.34024352235 3.39881174579
233 0.425 0.591373074968 1.94002302149 0.128690538327 15.1782442216 2.40677123378 3.44585596609
234 0.425 -0.592324389649 -0.188212545494 1.36811288343 15.7879534035 3.55298524386 2.45533228812
235 -0.85 0.721980242133 2.23930457639 0.395005762588 18.5181506731 2.74211825351 2.98437408066
236 0.425 -1.80890728759 -1.08416942138 -0.166664109174 19.4307880491 3.15074407934 2.99547484345
237 0.425 0.709948585763 -1.1783660785 -0.46406522164 17.8510612777 3.40713766715 3.32015107588
238 -0.85 -0.576474625828 5.54783669603 0.30376133097 21.7022891309 2.71510906072 3.09868290586
239 0.425 -1.35049747545 -1.82884129618 -0.250232015046 22.5153253296 3.29731865795 3.09561745787
240 0.425 1.55841149463 -1.5190310391 -0.0355010285335 20.8823855396 3.28757228133 3.10569963628
241 -0.85 -0.691630086316 -4.26747027984 -0.887162861856 24.7835179609 6.48188193106 3.36157012315
242 0.425 0.308002845449 2.39203804006 -0.103301810255 24.778730724 5.50310936448 3.56647648658
243 0.425 0.108292220525 0.66996071231 1.44810069168 0.0377513151349 6.61500870445 2.37195339027
244 -0.85 0.309887093687 -0.33000375129 -2.05293735702 3.00285427717 6.09386526237 3.45699598878
245 0.425 -0.325876865949 1.41527831235 1.1910462812 3.27300047267 5.47094102448 2.72283544816
246 0.425 -0.0912525259328 -1.24622592579 0.876427941802 3.02414525016 7.03519371315 3.12016856306
247 -0.85 0.840890246218 -6.40000761638 -1.07469288325 6.02369931597 6.47473641374 3.30392641265
248 0.425 -1.19381645653 0.230551774651 1.45080594227 6.64585570913 6.63407547097 2.53741629543
249 0.425 0.0408991968859 2.0237117628 0.0646558752737 5.9304449749 5.49118811529 3.45865729191
250 -0.85 2.97014311474 2.59169629482 0.362037087218 8.96338421665 6.02858561272 3.02614248697
251 0.425 -2.04995643878 0.0973223566599 0.581991329644 9.85618145287 5.70818499489 2.70950103107
252 0.425 -0.640816518615 -1.49206050973 -0.910916876423 9.08043433048 6.86322939239 3.56435648196
253 -0.85 -0.1308931614 1.42017964799 -3.02541614673 12.4044927487 6.1009130638 3.47189999231
254 0.425 1.46225703892 0.13063496757 1.30520494034 11.7302214445 5.79326519369 2.80054593612
255 0.425 -1.0296124578 -1.1421361902 1.04736427339 13.0652858068 6.70582174251 3.02755407156
256 -0.85 -0.0136563661645 -2.78020622476 -0.0238139203422 15.4918572148 6.58424449313 3.07907454778
257 0.425 0.998560344182 0.89848728465 -0.545682102223 14.7996257362 6.01542778718 3.52322363048
258 0.425 -1.35502968595 1.25298270657 0.641195148625 16.208517049 6.00032771969 2.69770182174
259 -0.85 -0.0499721661359 2.14584111792 0.0166771754052 18.6225039441 5.81678643705 3.07191178767
260 0.425 -1.27450851165 -1.1284199269 -0.504147088655 19.3940626972 6.42942335761 3.24331297349
261 0.425 1.25538808864 -0.743526059119 0.384121604811 17.7834333587 6.35379020535 2.98477523884
262 -0.85 -0.60371359705 -4.04562745743 7.91161281049 21.69253103 6.39844246825 2.77028374125
263 0.425 1.42990180793 0.349780514938 -1.83932880987 21.0989934064 6.56465237825 3.55774334514
264 0.425 -0.915538575375 2.05487422933 -1.01597735975 22.3084755636 5.6369051535 2.97197291361
265 -0.85 -1.53392346748 2.8035201493 0.432804462987 0.298237540642 9.09577915378 2.96772670217
266 0.425 0.468311252425 -1.20914307497 0.45616838841 0.0400087535246 10.0096831877 2.65451338371
267 0.425 1.13496527482 -0.107988682929 -1.29221392595 24.4617537058 8.79453765856 3.67775991413
268 -0.85 0.00693794083857 0.806855879367 -5.86886525822 3.17423006501 9.27555944742 3.47688269639
269 0.425 1.02095755847 -0.826716360909 1.06203191016 2.34632822709 9.66755850621 3.0757336503
270 0.425 -0.866728467546 0.228057471244 1.45385218479 3.77944170791 8.95688204637 2.74738365331
271 -0.85 1.04439069418 7.0626787846 0.41093898115 6.20731782516 8.91563629308 3.08105269846
272 0.425 -1.60489329684 -1.29297967448 -0.189642119558 7.01140612888 9.50540530607 3.15601791456
273 0.425 1.19469020981 -1.24635014253 0.0273676823999 5.38127604596 9.47895840085 3.06292938698
274 -0.85 -2.4211122007 -0.365736618832 -3.14254455024 9.4014727318 9.25473313363 3.46851350791
275 0.425 0.0344973342426 -1.08360218293 1.77518010451 9.7122922075 9.99363647185 2.87066872638
276 0.425 0.890386017769 0.863628986562 1.02690861004 8.7862350607 8.65163039452 2.96081776572
277 -0.85 2.78272397429 -0.263413455214 -2.76109374074 12.1199338387 9.202670414 3.34543411947
278 0.425 -1.36287250196 1.18742470034 1.16945434637 12.6853259895 8.55883610574 2.82986223136
279 0.425 -0.699394575678 -0.924241855283 0.891155954133 12.3947401717 10.1384934803 3.12470364917
280 -0.85 -4.76617791886 -0.161233814321 0.15225729426 15.8435424433 9.47332126045 3.10929195146
281 0.425 1.20032761922 0.776186665366 -1.34703107324 15.3922364901 9.04378721947 3.89148675891
282 0.425 1.53179318972 0.273596433653 1.08529703569 15.2642210666 9.38289152008 2.29922128963
283 -0.85 4.74169998732 1.27150022482 -1.0038910728 18.3740212086 9.01242070345 3.21991557037
284 0.425 -1.47034252521 -0.151824835187 1.18457838187 19.0800069925 8.93676300822 2.51573856241
285 0.425 -0.845632713993 -1.7478811953 -0.385017693404 18.3459717989 9.95081628833 3.56434586723
286 -0.85 -1.56703918998 4.79947317001 1.60373133198 21.8235913497 8.95240963138 2.99020872568
287 0.425 -0.325762602637 -1.77079175022 -0.192629756089 22.30124522 9.81470464818 2.82198459928
288 0.425 1.92782308678 -0.759097516649 -0.869142470643 20.9751634302 9.13288572044 3.48780667504
289 -0.85 0.767158768622 1.83259376285 2.53401970428 24.7336595345 12.0411220683 2.97771515734
290 0.425 -0.959424275517 -1.13497886951 -0.220846936225 0.757419966346 12.5740065863 2.78417416981
291 0.425 0.778218069511 -1.32459562706 -1.64323067654 24.1089204992 12.5848713455 3.53811067285
292 -0.85 1.5397037779 0.564430238253 1.45715552925 2.81856353633 12.2561177245 2.88036526295
293 0.425 -0.757942447989 0.346652555745 -1.33030136533 3.24210184293 11.7881367513 3.65600331257
294 0.425 -0.736530230557 -0.855670172632 -0.256907320448 3.23933462074 13.1557455242 2.76363142448
295 -0.85 0.88040272605 0.249827889439 2.8580849428 6.1118432275 12.2181778111 2.77240713519
296 0.425 0.964995470935 -0.700752411385 -1.3478895755 5.50380578096 12.8352999038 3.27186289776
297 0.425 -1.8141477259 0.285165195884 -1.08024505664 6.98435099154 12.1465222851 3.25572996705
298 -0.85 -0.860794713734 0.409076619193 -3.94104195182 9.411936004 12.4050293541 3.46822961126
299 0.425 -0.818840903631 -0.752446593682 1.77327564571 9.85842402966 12.8991892189 2.72226731766
300 0.425 1.40857172346 0.841543898458 1.08739668913 8.62963996634 11.8957814269 3.10950307108
301 -0.85 -0.694224046476 3.15104137031 -0.997857965325 12.4786682278 12.0251188709 3.13772875497
302 0.425 0.69590310204 -1.45352946025 1.45593947386 12.3159622948 12.496520539 2.27094589913
303 0.425 0.0321680722846 -1.89099031686 -0.720372873443 12.4053694773 12.6783605902 3.8913253459
304 -0.85 -0.805714576455 -0.837564206942 4.01653273116 15.4857846519 12.4870234216 2.72533634021
305 0.425 0.00535215013651 1.24083137952 -1.21322970224 15.607209782 11.5680053117 3.10039223473
306 0.425 0.168620388837 -0.997730518958 -2.05160647204 15.407005566 13.1449712666 3.47427142507
307 -0.85 3.40429963361 -0.825795576958 2.5779204637 18.3033693545 12.4564688973 2.86131708528
308 0.425 -0.718941247784 -0.89104792874 -1.91411514993 18.4459009969 12.9341322597 3.72822406739
309 0.425 -1.79890623275 1.34125386539 -0.213813728432 19.0507296486 11.8093988429 2.71045884733
310 -0.85 -2.78737528848 -1.64784320833 2.43072147639 21.9870910925 12.42105786 2.84449406825
311 0.425 0.14697360743 -0.163083606529 -2.21141572198 22.0186484869 12.775812946 3.77892343013
312 0.425 1.97337970537 0.985744962449 -0.383131332605 21.0942604207 12.0031291941 2.67658250163
313 -0.85 -2.84693423116 -2.53464029592 1.05230216941 0.371443086439 15.5932357871 3.13853740447
314 0.425 1.43700976982 0.676897942747 0.988792907581 24.7053116697 15.425903586 2.26978732001
315 0.425 1.52543051362 0.539387888754 -1.66577055187 24.5232452439 15.4808606269 3.89167527553
316 -0.85 -0.545568843736 1.46843571682 0.623767030909 3.27965156134 15.168774051 3.02149715133
317 0.425 -1.03214752976 -1.41749617274 -0.165214902663 3.70654728888 16.0730451392 3.01380889123
318 0.425 1.22298920771 0.00607726863776 -0.598097319056 2.31380114978 15.2581808097 3.26469395744
319 -0.85 -0.48040191376 2.51409991713 0.749281330137 6.19489851456 15.1151338311 3.09987003658
320 0.425 -0.913390075974 -1.21845340065 -0.26092276075 7.0189779295 15.6816107132 3.10139725871
321 0.425 1.2584912136 -1.45677653877 -0.0795879469775 5.38612355594 15.7032554557 3.09873270471
322 -0.85 2.9288428636 -0.384578643829 0.7281078398 8.95041573468 15.6047097137 2.97762873171
323 0.425 -0.589166188189 1.0236446622 -1.11524162814 9.13350137849 14.9375046809 3.69965529896
324 0.425 -1.59240131435 -0.427978155397 0.645812044894 9.81608288682 15.9577856054 2.62271596933
325 -0.85 1.44986443003 -3.88805193912 -2.43527055989 12.1842853744 15.6744736573 3.36678484444
326 0.425 -0.481232534152 1.93985052146 0.550024272147 12.3475234792 14.6895223592 3.30995585497
327 0.425 -1.11345499467 0.0769951240837 1.72423314864 12.6681911464 16.1360039835 2.62325930059
328 -0.85 0.38530225384 3.08151593782 2.65153772435 15.3968305956 15.2431169069 2.83257681391
329 0.425 -1.52920155603 -0.465859932412 -1.52741058195 16.2321810867 15.2020176463 3.38076079788
330 0.425 0.748587625624 -1.60571859585 -0.606107029459 14.8709883177 16.0548654469 3.0866623882
331 -0.85 -1.87508710082 -0.379561504334 3.84402752421 18.8199319188 15.588481641 2.79676913036
332 0.425 0.195025636807 1.20002545354 -1.97105986892 18.9954810205 14.8425934085 3.43929425055
333 0.425 1.71220431861 -0.538568835891 -1.47025203882 17.9845870607 16.0689249504 3.06393661909
334 -0.85 0.341930321762 2.75147146969 1.75561046258 21.7470727029 15.1202628185 3.14161542491
335 0.425 -1.51300854277 -1.04381325896 -0.233998785973 22.4834699658 15.7806220441 2.99447590966
336 0.425 1.22891811416 -0.776727154433 -0.674168590929 20.8694573313 15.5991151375 3.16390866542
337 -0.85 -1.31962973344 3.99289928736 1.75869151982 0.117031896814 18.2786071313 2.92348323287
338 0.425 -0.774231985863 -1.67143934291 -1.02897514753 0.718465930062 18.9595840744 3.34127837296
339 0.425 1.79564697457 -1.13064263618 -0.64586630163 23.9645021731 18.5618087943 3.03523839417
340 -0.85 0.686872796533 3.38282578717 1.46038956197 3.08281082699 18.2216595089 3.03136316474
341 0.425 -0.843089298051 -1.52153334631 -1.33669276213 3.52612974174 18.6456001942 3.82114029009
342 0.425 0.461744488417 -2.01083870018 0.457364380688 2.69105943127 18.9327402969 2.44749654516
343 -0.85 -1.56135691057 1.44382989969 -2.62124400498 6.31305110588 18.3530256615 3.37271071414
344 0.425 -0.247383364585 -0.418244083795 2.07515643011 6.65904446853 18.3754656529 2.43473933276
345 0.425 1.56799042769 -1.27793806223 0.173020509013 5.62790442559 19.0715086856 3.4925499531
346 -0.85 1.3476958655 -2.45343705368 -3.40931080306 9.18485242562 18.7365072628 3.44096160095
347 0.425 -0.868944830342 -0.527840662876 1.89224818837 9.48893264944 19.2942091873 2.66862161535
348 0.425 -0.428686083175 1.48333008942 1.04359792666 9.22621492494 17.7692835499 3.19041678369
349 -0.85 0.556326214599 3.83780226916 -0.499540431086 12.4472622387 18.2395595346 2.97352090404
350 0.425 -1.65686183576 -1.16148862279 -0.532990911496 13.1823353562 18.8463250193 3.27602450916
351 0.425 1.25746287586 -1.05327777499 0.294482868076 11.5704024051 18.7141154461 3.0504545868
352 -0.85 -3.03966419094 -0.0528385894024 -0.250630658683 15.8637031423 18.5959256604 3.22590247817
353 0.425 1.20040068896 0.775401491807 1.09520606017 15.5333023262 18.1381455019 2.40050687626
354 0.425 1.6711242325 -0.806451959015 -0.833034222229 15.1029945315 19.0659288377 3.67359064557
355 -0.85 -0.204529603939 -0.786967812733 4.56344913025 18.7508677007 18.6190973664 2.74641516225
356 0.425 0.0100018526031 1.14670111613 -1.86695638319 18.9367558716 17.8993823633 3.41534055024
357 0.425 1.06798501176 -0.763091598248 -1.24905871893 18.1123764277 19.2815202702 3.13824428751
358 -0.85 0.684026509009 2.54350359596 1.69213795134 21.7099850077 18.2238818959 3.01886134456
359 0.425 -1.65275681899 -1.27485171544 -0.563913367997 22.4933564481 18.7724731193 3.3110635494
360 0.425 0.971134562752 -1.43231482367 -0.460122358339 20.8966585442 18.8036449848 2.97007510605
361 -0.85 -2.76820917387 -0.488476137512 -0.0496226212941 0.38287630501 21.6681226747 3.0768142028
362 0.425 1.25793964508 1.41060690572 -0.701551794509 24.5642029704 20.96036667 3.41788606525
363 0.425 0.99177835862 -0.971749025854 0.282672351136 24.6529207246 22.4715106553 2.80529973195
364 -0.85 0.937574098233 -2.76138664016 -2.09481070523 3.16882197356 21.9310428168 3.40005126686
365 0.425 -0.0938240838906 2.13959513718 0.392190560497 3.05213746507 20.9391273055 3.44998738981
366 0.425 -0.30294953278 0.0612824769224 2.10186659314 3.07904056137 22.2298298777 2.44996134332
367 -0.85 0.380546228581 2.19485851975 -2.12849550405 6.13396234685 21.3733042779 3.29250180132
368 0.425 -1.05839882383 -1.54585720785 -0.380591612268 6.6111061346 22.1724831005 3.65808665843
369 0.425 0.446458628232 -0.382270495377 2.08539393475 5.85493151855 21.5542126216 2.34941154025
370 -0.85 0.744580487915 4.96259695561 -0.928130437793 9.23116361884 21.3285194855 3.17356486937
371 0.425 -1.31743410223 -1.21627981095 0.557005069708 10.0958661271 21.6994172722 2.83484717501
372 0.425 0.859176305559 -1.87520914431 -0.222713065374 8.57297025402 22.0720632422 3.29158795562
373 -0.85 -0.99870747394 2.74629447808 0.0830760886676 12.4109696389 21.3153103358 3.10644509556
374 0.425 -0.194762276709 -1.39102398199 0.898256141789 12.9045986398 21.896208595 2.45922573985
375 0.425 0.964908409886 -1.51521455029 -0.657768823581 11.8844317213 21.8884810692 3.73432916459
376 -0.85 2.74499591798 0.827090930141 3.40763785948 15.2100653883 21.6412747908 2.85375361775
377 0.425 -0.687504000735 0.608705046145 -1.89562678342 15.3136218617 21.192373125 3.74131692461
378 0.425 -1.82406588614 -1.16231050856 -0.445205349049 15.97631275 22.2663520842 2.70492945764
379 -0.85 -0.032085320886 3.75598649797 -0.427513832491 18.567642986 21.3194265442 3.14759073867
380 0.425 -1.66142821267 -1.25120828223 0.428671888215 19.4297743793 21.8215868653 3.07999084881
381 0.425 1.45465502944 -1.45651116234 0.257602639825 17.8025826347 21.9589865905 3.07241841253
382 -0.85 -2.85413938914 0.594367631004 1.84948752793 22.0133687021 21.6372952266 2.88548618248
383 0.425 2.1743376455 -0.272902933581 0.257046439904 21.0693663324 21.5253097916 2.5751250045
384 0.425 0.671087893321 -0.597944275172 -1.46735585162 22.0172649654 21.9373949818 3.83938881302
385 -0.85 -4.40573195703 -0.348199344901 -1.43069605639 0.250380674184 0.16712621525 6.43984652629
386 0.425 0.6836952139 1.72879004966 0.414868080074 0.0676023787891 23.9853237071 6.38825968424
387 0.425 0.873262308534 -0.947245891311 1.26223820608 24.482016947 0.647550077625 5.77189378947
388 -0.85 5.78328060217 -0.395232592037 0.566907281975 2.7497769515 0.030674205718 6.04331266993
389 0.425 -1.91503167193 -0.0528714807311 0.519420583537 3.61271744916 0.191143297388 5.56415858134
390 0.425 -1.09199043816 0.260681011143 -1.52358327574 2.93750559934 24.5781824969 6.99252874873
391 -0.85 -2.11960314285 -3.05699824014 1.94447752715 6.45998082602 0.0787990780348 5.92733044651
392 0.425 1.47958315542 -0.109425962531 -1.2231752106 5.91574293171 0.758048818056 6.41970243756
393 0.425 0.72984626673 1.89749133904 -0.762398849431 6.22427624227 23.9631521039 6.25296711593
394 -0.85 -2.04661017119 0.609354817673 -1.99691297269 9.5291016082 24.6144955545 6.44748447188
395 0.425 0.807316900401 1.00889580695 1.83075925826 9.25732185758 24.2752771652 5.54688915544
396 0.425 0.783065961541 -0.990762154087 -0.254454599888 9.11357653422 0.710227280304 6.60562637269
397 -0.85 1.04759069875 2.32053177302 -0.877007029426 12.4115163839 24.4419760185 6.05916601403
398 0.425 -1.75620605198 -1.45136465946 0.545554962222 13.1179996302 0.337298885159 5.92720842092
399 0.425 0.651916209998 -0.916494226107 -0.300473703223 11.6704839859 0.0207250962984 6.61362556505
400 -0.85 0.535217005468 3.50126131118 0.249370331921 15.4940915093 24.4170130434 6.16213060835
401 0.425 -1.43027886092 -1.05342271114 -0.518565157971 16.305518732 0.164501327779 6.3666977444
402 0.425 1.23829877923 -1.50916223982 0.321504053858 14.7003897587 0.218485628805 6.07117164725
403 -0.85 -0.038786537717 1.33522920944 3.4843393489 18.5781030107 24.4752204448 5.99460581214
404 0.425 -1.33370125514 -0.262808021962 -0.832145944283 19.4169515033 0.0582810853914 6.38139131423
405 0.425 1.75765589968 -0.811387729355 -0.844306962175 17.804945486 0.266498469774 6.22400287362
406 -0.85 -1.08528171039 -8.51761940745 -0.806822626452 21.9091391459 0.320068549799 6.24432776859
407 0.425 1.56758772707 1.32132087868 -0.78584943446 21.2220985431 24.7853771789 6.88927906042
408 0.425 0.338377025312 1.50315147681 1.36318211567 21.9687623109 24.4945542713 5.46639317099
409 -0.85 -1.99684176848 -1.59927271262 -0.697359806376 0.266915383224 3.37728746661 6.20398108763
410 0.425 0.14532765112 1.28472021258 0.494731013803 0.442423914871 2.40952375667 6.02332830036
411 0.425 1.91642600135 -0.0412656931195 0.0664668093179 24.0906607019 3.51318877671 6.37269061201
412 -0.85 -2.24949390619 -0.498550589139 1.19152006402 3.4552258668 3.13556106508 6.05613199034
413 0.425 1.69019533881 0.0995008188466 0.731257386335 2.61465458094 3.09711984504 5.51579185813
414 0.425 0.57927892701 0.151815206445 -1.66223819323 3.23011955225 3.06731908987 7.02807615153
415 -0.85 -1.6529984251 2.90818041713 1.22734509351 6.36224645586 2.760724254 6.11804839394
416 0.425 -0.703831591081 -1.59040897236 -0.637434867004 6.85844153729 3.5946288669 6.35970685177
417 0.425 1.36582545855 -0.316905571443 -0.367800157023 5.37931200685 2.9446468791 6.1222447543
418 -0.85 1.87330788369 1.92114284876 1.08316635219 9.17580511362 2.81885085027 5.96831315142
419 0.425 -1.35117510079 -0.241045532478 -0.778213306528 9.92211642777 2.73540628009 6.62866283045
420 0.425 0.34159023473 -1.64792963473 -0.0873594189866 8.80207845861 3.74574286964 6.00302401813
421 -0.85 1.27016320487 2.31575421081 -1.15914334937 12.3078392521 2.73147997769 6.26202741091
422 0.425 -1.94507531775 -0.81567543438 0.133433524146 13.2178332413 3.12755818084 6.38465803146
423 0.425 0.756989543503 -1.18176723959 0.703460304955 11.6743275066 3.44096184147 5.95331455763
424 -0.85 -2.21820587162 1.03526232981 0.93049341933 15.7446163665 2.80404653445 6.1731226961
425 0.425 0.0571816094058 -1.21574336109 -0.829443352567 15.968171779 3.70617678219 6.54216099515
426 0.425 2.0656770472 -0.0221424536307 0.256826449829 14.7872118545 2.78977668335 5.88471630875
427 -0.85 -1.29262100857 2.23830446469 -1.2169184811 18.7665836147 2.7550786146 6.237777602
428 0.425 0.289711137323 -1.11389149412 1.64018103203 18.5790449873 3.21363366519 5.36912243376
429 0.425 0.877736187412 -1.28383019509 -0.798406559093 18.454371398 3.33128772021 6.99309996423
430 -0.85 0.841091214229 8.82886894382 -1.10364259226 21.685467186 2.72273173384 6.2748696378
431 0.425 -1.84097559624 -1.58015870534 -0.00927479978891 22.4418113033 3.3306014814 6.51661996083
432 0.425 0.69968731282 -1.57546261277 1.30859737118 20.9727215108 3.24666678476 5.80851040136
433 -0.85 0.567279090386 -1.41632126041 -3.68250238262 24.7466874926 6.32646328131 6.55960092469
434 0.425 -0.148519630091 1.56210899061 1.1861070088 0.121730915322 5.37626545994 6.30174597915
435 0.425 -0.0641973631587 -0.430295485514 1.59299465149 24.7315815921 6.89727125875 5.73865309616
436 -0.85 -1.41198677401 -0.0439874419966 -0.879351173457 3.32911950739 6.15502080887 6.50598878035
437 0.425 1.525230716 0.710924031535 0.236812032229 2.41440618069 5.76320379383 6.40707351764
438 0.425 -0.386946235426 -0.589935427166 0.955910236877 3.55647431192 6.6817753973 5.68693770201
439 -0.85 1.14017513159 2.57776967373 0.834996064547 6.16498440562 5.81669605007 6.19998922919
440 0.425 -1.59531348282 -1.41931234619 -0.173631588494 7.02279557685 6.31809047636 6.08698968801
441 0.425 0.670213130542 -1.49132422475 -0.450002362693 5.41222001753 6.46521347357 6.31302108279
442 -0.85 -0.829534450923 2.47651119293 -4.18865573809 9.29195311752 5.91531992962 6.45892183224
443 0.425 -0.522999644367 -0.456219338782 1.66973382122 9.7648576788 5.88174524665 5.57844509258
444 0.425 1.00799241247 -1.99351613505 0.126356429392 8.84318920369 6.80293482373 6.56263307518
445 -0.85 1.98946829756 1.93319197516 0.880976826758 12.193602996 5.87600372982 6.22397297718
446 0.425 -2.03024448957 -0.573450245206 -0.511878639259 13.1362098915 5.98476763377 6.53967525182
447 0.425 0.300505775533 -1.50898509423 0.330305559092 11.8701871125 6.73922863641 5.83635177099
448 -0.85 -1.18251045459 2.79740311595 0.303130035003 15.5264746073 5.81742077334 6.23286701225
449 0.425 -0.689659917323 -1.67121830889 -0.199187697749 16.3012613681 6.44814035316 6.18923721185
450 0.425 1.50471520718 -1.16472929992 -0.157416793759 14.6722640245 6.3344388735 6.1778957759
451 -0.85 1.14533150082 1.91920067555 -0.213309881561 18.3871254076 5.87940325983 6.20708153116
452 0.425 -1.37013580676 -0.563886242185 1.31098943597 19.1420865115 6.05732235361 5.57590501066
453 0.425 0.51585015733 -1.22472330315 -0.795829718185 18.2707880809 6.66327438656 6.81701345818
454 -0.85 0.907539604496 0.607508984153 -5.02672254986 21.5598058914 6.02911779369 6.51510774901
455 0.425 -1.02442011248 0.882511024054 1.8921887806 22.1982686226 5.61245878151 5.8679865231
456 0.425 0.426100652817 -1.49891774084 1.36925832807 21.341925486 6.9584234248 6.21690572788
457 -0.85 2.89084484401 1.43309254706 -1.18493938189 24.5289310934 9.123671995 6.40875366475
458 0.425 -1.63931930944 0.0842241474936 0.453858364369 0.662133870196 8.79034978098 6.27446237096
459 0.425 -0.251146082748 -1.33915307629 1.02295309727 24.4089350364 9.98597822403 5.91678396429
460 -0.85 -1.13818336142 1.62608655686 5.2284252454 3.1659217687 8.99723866808 5.97166273561
461 0.425 1.56204476317 -1.40125314057 -0.357172724047 2.47299795264 9.70044791098 5.81241883986
462 0.425 -0.490695736476 -0.53191941403 -1.81735366981 3.66108027866 9.20231342093 6.81591842453
463 -0.85 2.04575651473 -1.30819312525 -1.20131669217 5.99399915955 9.28599511647 6.5248315363
464 0.425 -1.67958541924 -0.165739589328 0.137719873396 6.87197403142 9.75254834371 6.41762387323
465 0.425 -0.183439689254 0.76171142048 1.16930463621 5.73402680902 8.86145653982 5.65754459047
466 -0.85 -1.24715369715 -10.973316385 1.13116084866 9.43736748093 9.65791168997 6.23431337012
467 0.425 0.731409164913 1.72400465594 0.692387908934 9.30433549085 9.17083795179 5.37114077111
468 0.425 1.14332488574 1.74712677948 -1.5272123952 9.15829702822 9.07125035824 6.99454585877
469 -0.85 -1.3874984598 -1.06609679006 1.45474123163 12.7523223149 9.23172489879 6.06087592948
470 0.425 0.741231375303 1.21319646755 -1.09085927363 12.3500228921 8.78367247925 6.85925521044
471 0.425 1.00241722148 -0.533899090678 0.389883301641 12.097654793 9.88460262196 5.67986886007
472 -0.85 -0.484591895437 -6.17063431119 -1.09990127194 15.730247796 9.54097086926 6.39252792676
473 0.425 1.02555822161 0.384048825895 1.20249245366 14.9217046242 9.80962624637 5.8689942601
474 0.425 -0.0652950517984 2.22764252723 0.198521970052 15.8480475797 8.54940288436 6.33847781314
475 -0.85 0.129080428022 1.93668894596 -0.571475750417 18.6812774579 8.92633017561 6.24373610839
476 0.425 -1.24990576405 -1.17450757732 -0.0356429069323 19.2961593919 9.6814095211 6.47128975419
477 0.425 1.08591959294 -0.588043818427 0.636320170515 17.8225631502 9.29226030329 5.88497413743
478 -0.85 -2.95494021496 -0.425459531576 1.5546839206 21.8914579529 9.43440677705 5.89434221661
479 0.425 0.0244481593907 0.239974141528 -1.38537341849 22.2983742078 9.22159309376 6.78267479522
480 0.425 1.81532689282 0.274009456258 -0.130587235025 20.9101678393 9.24400012919 5.92298298817
481 -0.85 0.874214704341 3.49210382389 -0.729751960157 24.6841594621 12.0469479484 6.30041528093
482 0.425 -1.63711961883 -1.10359291435 0.379016378325 0.771321979606 12.2704651382 5.89669755052
483 0.425 0.700001302268 -2.00717068633 -0.121523847276 24.1445185583 12.8825869134 6.40288716854
484 -0.85 -1.20400581276 3.1766172808 1.08690005601 3.20291147094 12.0516130421 6.07278456565
485 0.425 -0.943450776922 -1.84121458165 -0.64203275141 3.83391789031 12.7955960189 6.29261518558
486 0.425 1.91627021687 -1.09939751687 -0.407994965819 2.26317063876 12.3527909389 6.23460024877
487 -0.85 0.139838277648 3.52636375593 0.100909264729 6.20393505314 12.015710684 6.22131306946
488 0.425 -1.41692648043 -1.27706682342 -0.026700744099 7.01434017787 12.6013434453 6.20448823302
489 0.425 1.62597623324 -1.50176778579 -0.171731605946 5.38172476899 12.5829458707 6.17419869751
490 -0.85 -1.42703403832 10.3384505674 1.16457759415 9.29683361839 12.0151294225 6.20355283406
491 0.425 -1.22542303522 -1.48407784361 -0.166262946049 10.1179483794 12.5858416365 6.21151465312
492 0.425 1.92106752066 -1.44178364631 -0.088116418945 8.48521800218 12.599028941 6.18493251283
493 -0.85 1.36643584694 3.3758547275 -0.129163289678 12.2663395226 12.0489499311 6.1160551615
494 0.425 -1.87911712215 -1.35700652897 0.379503227285 13.2051122329 12.3599819078 5.96783174816
495 0.425 0.63615167806 -1.51062264284 -0.276502565587 11.7285482445 12.7910681611 6.51611309034
496 -0.85 0.00731462583848 6.56680409411 -1.01939655065 15.4810003663 12.0164001064 6.17473845768
497 0.425 -1.94016538693 -1.47350768628 0.0419880391707 16.3241116261 12.5541365257 6.17187151605
498 0.425 1.44980495426 -1.4703187838 0.200735398723 14.6948880076 12.6294633679 6.25339002626
499 -0.85 -1.92876249529 2.54534107046 -0.463166349304 18.6837740608 12.0244509837 6.19036396949
500 0.425 -0.323463016668 -1.46314056303 0.439516351842 19.3514345443 12.7666146067 6.13181562992
501 0.425 1.73072631638 -1.37643886926 -0.0221120719663 17.7647913949 12.4089344097 6.27782040059
502 -0.85 3.22332290217 0.59248481049 -2.21948524961 21.369226769 12.4148306255 6.3962578207
503 0.425 -0.631834408531 0.478036823408 1.56604169235 21.5859771146 11.7522144006 5.67934478646
504 0.425 -1.95451552969 -1.10731291807 0.235050714897 22.1447961164 13.0329549738 6.52439739284
505 -0.85 0.14802513189 -2.40673583755 -2.1805128416 24.7242836825 15.6927968416 6.52441397493
506 0.425 0.245216598833 0.182198179906 1.72682439691 24.6535669631 16.0677634981 5.60007398088
507 0.425 -0.276087902276 2.19659778376 0.374006246632 0.222149354392 14.7394396603 6.47551204418
508 -0.85 0.953459607119 -2.10230579625 3.35254651846 2.9579246668 15.5338001609 5.84388181903
509 0.425 -1.09053763847 1.54902482166 -1.30436813662 3.58569144032 14.8178986306 6.14949456332
510 0.425 0.111264463269 -0.164063285213 -1.78184978228 2.75638389288 16.1483012085 6.60662361765
511 -0.85 -0.056562010297 1.87603502197 0.496763647205 6.18557801152 15.1159577245 6.22124963289
512 0.425 -1.46292791105 -0.912780473153 -0.00265671457932 7.0227895543 15.6601696186 6.16725408268
513 0.425 1.30750392521 -0.803080377617 -0.316765163528 5.39163243418 15.7238726568 6.21149628443
514 -0.85 -3.91262718537 1.49592447731 -1.83264466919 9.44827891228 15.207001729 6.40078193983
515 0.425 0.241009336968 -1.50831464147 0.21206730081 9.82208087679 16.1340263817 6.37073768739
516 0.425 1.80769601741 -0.200002424347 1.15872679022 8.62964021093 15.1589718893 5.82848037277
517 -0.85 4.90539332762 0.0794401446119 -1.43520575515 12.0407614993 15.3697942915 6.24628372383
518 0.425 -1.56355653067 -1.04379153906 -0.532483393789 12.4912054973 16.0424113139 6.83338832978
519 0.425 -1.8219264324 0.722342057189 1.16343176746 12.6680330034 15.0877943946 5.52032794639
520 -0.85 0.406078415589 2.2177606366 -0.395389477345 15.5142123739 15.1215551657 6.1312575397
521 0.425 -1.64873956377 -1.21673095104 0.0328415898393 16.3077399344 15.7112816974 6.28139714512
522 0.425 1.16579058491 -0.997156331148 0.0718471276821 14.6780476917 15.6671631368 6.18734531518
523 -0.85 -5.41415931886 1.27047089074 -0.867948383343 18.9068334094 15.275286606 6.259204387
524 0.425 1.25412550054 -1.47391348611 -0.533066570162 18.6902161186 16.1042705031 6.77482820353
525 0.425 1.67384609553 0.00196644188003 1.22553544859 18.2029504721 15.120442891 5.56596740947
526 -0.85 4.11898536756 -0.172434916475 -2.70289872192 21.4727437145 15.3646646784 6.47961927941
527 0.425 -1.20679079525 1.14438925572 1.28931795688 21.8368756234 14.8257727821 5.72000835956
528 0.425 -0.8928785243 -1.01446278766 0.369674012632 21.7903806622 16.3095625395 6.40037236102
529 -0.85 2.38436410464 0.607018911199 1.20937496457 24.455871227 18.5530569039 6.03410924283
530 0.425 -0.24539643003 -0.137085964066 -1.72732095719 24.6142808821 18.655065779 7.01620182659
531 0.425 -1.6939534549 -0.180203028877 0.502526887702 0.529847890926 18.5918773171 5.54968893058
532 -0.85 -0.120439803048 3.50028264957 -0.305366495215 3.11666346451 18.2219626662 6.27041387083
533 0.425 -1.37237348502 -1.37196429214 0.774883548484 3.86097116217 18.7720693401 5.89173990686
534 0.425 1.24957730386 -1.02130190484 -0.11843517529 2.32236537332 18.8059679937 6.43784622231
535 -0.85 0.0532328812724 2.16838530329 0.75225069033 6.182461266 18.217658576 6.2406870776
536 0.425 -1.3897485518 -0.880571281735 -0.220318275884 7.02439148862 18.7549136619 6.19052987129
537 0.425 1.64399618493 -1.2605576842 0.168038843406 5.39314724538 18.8274277621 6.16878305111
538 -0.85 -2.78571873269 1.34096565663 1.40645337585 9.57883145951 18.3434514046 6.13229589843
539 0.425 0.22229191951 -1.95490530244 0.0463882059537 9.67025555051 19.3345529656 6.0355250155
540 0.425 1.97294063126 0.169336448393 -0.592539151712 8.65091298998 18.1219956298 6.43217908608
541 -0.85 2.43923046348 2.46117607985 2.17463847047 12.3163957575 18.3510423981 5.91861333882
542 0.425 -1.90758889583 -1.60625128206 -0.327248017617 13.118321387 18.9480161318 5.94191394945
543 0.425 0.138041987268 -0.792590520501 -1.63733320091 11.7652828556 18.50094147 6.73947271174
544 -0.85 1.23567873244 2.44336656174 -0.693100170994 15.3460633271 18.257194652 6.28328267617
545 0.425 -1.77498592165 -0.494316785098 -0.030427334608 16.3171360892 18.485991288 6.35165710608
546 0.425 0.781998180396 -1.66383133535 0.652302665305 14.8368005837 19.05681406 5.96506021775
547 -0.85 -0.722139714953 -6.01951867665 -0.242857012298 18.5243182445 18.977312603 6.20744859162
548 0.425 1.43297651928 1.65861529292 -0.151906294147 17.867142643 18.2524559667 6.41410859797
549 0.425 -1.23425414556 1.00818126449 0.39686337025 19.4085391125 18.5702314303 5.97844281041
550 -0.85 -0.570193573499 2.09468070992 1.10811066657 21.634056591 18.2544521901 6.04380720929
551 0.425 -1.04406865529 -0.606208176121 -1.08635652856 22.4734507917 18.5240301239 6.51577159989
552 0.425 1.26907803823 -1.29352667672 -0.0765202391536 20.9924926173 19.021517686 6.04042119082
553 -0.85 -4.69117409492 0.970227839394 0.121729190124 0.348684909435 21.5897262949 6.07997269518
554 0.425 0.789094528036 -1.30363661989 -0.665586005841 0.171221217124 22.2348759125 6.82313746921
555 0.425 1.62012437944 0.37662877006 0.628461361449 24.2800938734 21.2753977926 5.69688983561
556 -0.85 4.76067811972 1.08965813115 -0.776149825413 2.89517205022 21.4208929908 6.36820463256
557 0.425 -2.24551710334 -0.470764776888 0.160433463301 3.89157869531 21.5015293166 6.39422103253
558 0.425 -0.248021646123 -1.3475664307 0.768894578089 2.51324925447 22.1775776925 5.83757433491
559 -0.85 -0.414442442898 3.10150233625 0.164519268632 6.20205905056 21.3151056143 6.19971337529
560 0.425 -1.0955414917 -1.71032030468 0.197493246932 7.0153641608 21.8968238686 6.18771576061
561 0.425 1.48957570781 -1.46227126094 -0.0623050311204 5.38257678864 21.8880705171 6.21257086411
562 -0.85 -2.79842582153 0.189934819457 -3.14572149141 9.38669056677 21.619880738 6.56635182473
563 0.425 1.41826329001 -1.27780096658 1.34518026708 8.94351403602 22.457847366 6.24789968491
564 0.425 0.113600407786 0.90321860766 1.61520911777 9.56979539721 21.022271896 5.78574849036
565 -0.85 3.67738340234 -0.72895516752 -1.59555217381 12.0668693897 21.6195915063 6.37523264704
566 0.425 -1.71670889618 1.37597388067 0.223701689316 12.8573494275 21.008803831 6.32957086752
567 0.425 -0.679677332799 -0.742049855405 1.42762950948 12.2757811829 22.4716046627 5.89519648544
568 -0.85 2.66857174621 -1.94809237168 0.0919532262066 15.1223166467 21.6985379571 6.1258302145
569 0.425 -1.60736516523 0.320305933466 1.23580869498 15.844695137 21.7981212798 5.44153659976
570 0.425 -1.05769795619 0.419945683718 -1.24529601324 15.5329882163 21.6033407631 7.03263318574
571 -0.85 -1.28215272169 4.84551360709 0.776572992926 18.890246816 21.4632829825 6.11128782828
572 0.425 0.140325858022 -1.31649333561 -1.18629138957 18.9620693519 22.2706064315 6.69701442354
573 0.425 2.18019992268 -0.326095656533 0.360787112923 17.9476838321 21.366110586 5.79169774818
574 -0.85 -1.70522418111 1.38726908551 0.732847080327 21.9813733767 21.5139704416 6.01460842447
575 0.425 0.20637242096 -0.983794625385 -1.07461803326 22.0990366642 22.0596229875 6.84432158116
576 0.425 1.32023687879 -0.365770693743 0.452693839577 21.0195899591 21.5264065709 5.74106999436
577 -0.85 0.573328350132 4.45480927705 -0.35131477018 24.707927564 24.4311777378 9.36033916997
578 0.425 -1.31619076137 -1.42245710353 0.473706996426 0.798501454093 24.7599527315 9.04602973285
579 0.425 0.860100532542 -2.03673105798 -0.239494808404 24.0935709819 0.408869530685 9.49363109718
580 -0.85 2.40566973627 3.1796257896 -0.618390837821 2.83188061333 24.5286729478 9.35139684093
581 0.425 -1.84041537381 -0.367888113316 -0.322742599591 3.78365403453 24.4639823285 9.65130974656
582 0.425 -0.0112450106106 -1.48070980912 0.850855617628 2.68446535215 0.607344723632 8.89729341251
583 -0.85 -0.472765025402 1.928682702 -1.89029770634 6.20951356749 24.4411511547 9.438870473
584 0.425 1.37035022353 -1.11101203947 -0.175266142787 5.6101690725 0.371413216154 9.76675577375
585 0.425 -0.766176382923 -0.560989204634 1.47750349369 6.78031736001 24.7874356291 8.69437375325
586 -0.85 -3.37212889129 -1.26178570562 0.995720745057 9.63833042056 0.180918245972 9.33080786914
587 0.425 1.13134255703 0.715407494483 -1.35225079531 9.18947920502 24.4674604695 10.0621757455
588 0.425 1.74160577554 0.167767192974 1.11135213521 9.07219037443 0.151621284564 8.50701638538
589 -0.85 0.866352935645 0.360402127157 2.08284171809 12.358390611 24.6304647489 8.95696287753
590 0.425 0.511887530975 0.249064517756 -1.72322259987 11.820111903 24.4213941692 9.7733885004
591 0.425 -1.0639037284 -1.11614892376 -0.494862218531 13.0214974861 0.548141081825 9.16964862207
592 -0.85 3.62634524077 -0.133444109191 -1.36774730197 15.1451839872 24.7177433389 9.42444857894
593 0.425 -1.29340848166 0.0572978729996 1.6057714626 15.4419643105 24.6947901784 8.46977593104
594 0.425 -1.95839185972 -0.137407249186 -0.482997644676 15.9128517023 0.187466482696 10.00577549
595 -0.85 -3.09130500055 -2.27835228253 1.00213048514 18.9377232258 0.00483654344093 9.11542578568
596 0.425 1.00695185034 0.755443572255 -1.87929576365 18.8227702164 24.7912486253 10.1087064341
597 0.425 2.07602055745 0.624913921522 0.535882307013 18.0395065578 0.00391483122119 8.67586778018
598 -0.85 0.0208441452279 6.29478821523 -0.654116759296 21.8041046114 24.4737572678 9.47571545053
599 0.425 -0.998054868433 -1.57306931059 -0.197766012805 22.224093849 0.569023648666 9.62441790519
600 0.425 1.05089719589 -0.194067707876 1.59300549929 21.0718015396 24.5572190836 8.79986664427
601 -0.85 -0.331552364513 -8.86654927714 -1.84723750494 0.194803848083 3.42827366369 9.34935455905
602 0.425 0.474518708128 1.45889976382 1.54185076315 0.032806666659 2.97960269742 8.47045948583
603 0.425 0.938532994044 1.78067223356 -0.422418827899 24.5723894853 2.89212363889 10.0801859551
604 -0.85 -1.1167792079 1.82365469652 -0.812313531155 3.32612818838 2.7931028935 9.353180997
605 0.425 -0.648917472573 -1.54985345867 0.621902052564 3.63566582429 3.69105979267 9.04034696483
606 0.425 1.10352149464 0.103291712975 0.134027486181 2.33820598733 2.81583731383 9.50647203817
607 -0.85 0.142951173051 2.49791882052 -1.1140247923 6.22726604847 2.71679493477 9.32363155901
608 0.425 -1.40573823418 -1.34935807908 -0.0146532548498 7.00020487519 3.35123592878 9.31618389045
609 0.425 1.36677870913 -1.40847569138 0.227453768952 5.37252907634 3.23196913646 9.26018455054
610 -0.85 -0.279451272797 1.63166071875 2.76838064167 9.35925038186 2.97177498002 8.94195566406
611 0.425 -1.45494665746 -1.00343011011 -1.51695877667 10.0549007378 3.38457397193 9.52989515677
612 0.425 1.52168027216 -0.476973640435 -1.17679633377 8.48584888037 2.94365104805 9.42814917917
613 -0.85 -0.00921122096398 3.73669092602 0.713423227473 12.4491706226 2.71946178187 9.26965326356
614 0.425 -1.27409943289 -1.70873173355 -0.224560147985 13.1819824693 3.38802748701 9.39619166784
615 0.425 1.42124132951 -1.67984418536 -0.413810454969 11.5688469081 3.19251073112 9.2341550686
616 -0.85 -0.185740089914 1.81842226945 -2.27476387494 15.5224556023 2.85281723066 9.59418435455
617 0.425 -1.00810169946 -0.473236668703 1.35554168243 16.2494752726 3.0276317611 8.93019071645
618 0.425 1.6880474495 -1.18012946594 0.763109899329 14.728069125 3.41955100824 9.375624929
619 -0.85 -2.88422177299 2.87153681837 0.507409017528 18.6652451015 2.75047388288 9.15261417919
620 0.425 -0.114091344514 -1.53382163643 0.55300457487 19.2498139884 3.5510182565 9.02065511406
621 0.425 1.80572058452 -0.531016151797 -0.616683099932 17.8849409101 2.99850786063 9.72673070676
622 -0.85 3.68272133595 1.2831378803 -0.269339006008 21.3909601708 2.8812229816 9.23086961475
623 0.425 -1.28001282212 -0.389322016082 -0.695956826062 21.7217540758 3.14322216341 10.1374770787
624 0.425 -1.64465806437 -0.802588462089 1.135697641 21.9872857534 3.27555485499 8.5316533066
625 -0.85 -0.892871294853 7.99844021523 0.479787805391 24.7222269031 5.82404079151 9.2725404123
626 0.425 -1.24124437861 -1.11361518223 0.547467183875 0.78752403711 6.25483887161 9.01626096209
627 0.425 1.17773680403 -1.50353568045 -0.511465963896 24.0902490598 6.52112033688 9.61119862561
628 -0.85 3.03011612219 -1.49977312552 -0.501228655405 2.76931209847 6.38288719837 9.37311494002
629 0.425 -1.1856401564 0.4563008995 0.934362100868 3.16203724626 6.24118952072 8.46443788025
630 0.425 -1.60458278176 0.891775183777 -0.730260606178 3.36865065527 5.97592328091 10.0624471797
631 -0.85 0.289305416124 0.333262620793 -2.54602402496 6.14835600245 6.10402522704 9.66914732895
632 0.425 -1.4013415527 -0.459064474737 1.08438947084 7.0330604186 6.16666843641 9.20721746754
633 0.425 1.02641564641 -0.290942029603 1.25908794783 5.41858357895 6.32930633655 9.0236352035
634 -0.85 -0.570387717 2.34483143714 4.16134545626 9.35352909293 5.91896186139 9.04251172676
635 0.425 -0.522374108182 -0.156652789565 -1.62784107516 9.65188770629 5.8923707847 9.99659784708
636 0.425 1.23410733506 -1.80985827903 0.00217021908654 8.89458320077 6.78866735392 8.86089042616
637 -0.85 -1.36645502702 -1.21112335364 -4.05321992763 12.7205462811 6.22017267509 9.51211118516
638 0.425 1.30902388239 1.55542054171 0.194654203373 12.0467999041 5.48232714124 9.55279361656
639 0.425 0.439372068425 -0.480244718171 1.42459907371 12.4326538148 6.89750018367 8.83509519828
640 -0.85 -1.83795209286 1.46358686013 -3.39782590911 15.7292705165 5.99945218781 9.53529474128
641 0.425 -0.102911402928 -0.934958195702 1.97441534222 16.0017859601 6.38460950471 8.65359499262
642 0.425 1.42990035872 -0.526698647266 0.35039609908 14.7689435234 6.21593830748 9.7111102661
643 -0.85 -2.15401038778 0.95410733425 -3.092184347 18.6969267686 5.97916602699 9.59997594552
644 0.425 0.0845310222086 -1.49790461289 0.695845080625 18.9827775266 6.92792716332 9.46526543054
645 0.425 1.31290745835 0.262333902166 1.97518711888 18.1202957048 5.69290680969 8.83475862393
646 -0.85 3.29799440013 -1.40711587065 2.06006876122 21.3514942821 6.26213041876 9.14889875685
647 0.425 -1.10210203626 1.42182487954 -0.696097438454 21.6430880618 5.4187756452 9.60026453545
648 0.425 -1.80023671157 -0.667714298523 -0.173950941126 22.1054176561 6.91909393605 9.1508367077
649 -0.85 0.0368278326833 1.23669804728 -2.52659637927 24.6960707572 9.10987694308 9.61811938909
650 0.425 -0.139761666526 0.304558075996 1.58598793265 24.769157934 8.71000359576 8.70446472611
651 0.425 -0.281277138771 -1.59294573475 0.409893461994 0.13477130884 10.0801194612 9.5774158848
652 -0.85 2.07506216897 0.126800836088 -3.31220607062 2.84204804901 9.2920978931 9.58556322888
653 0.425 -1.24882191688 -0.970666938397 0.973280809134 3.38274778285 10.0895846339 9.31786196151
654 0.425 -0.925810933566 0.892408815509 1.5558137279 3.07520416814 8.51831747297 8.99657480961
655 -0.85 1.4743985408 0.379988382994 -2.4973064551 6.07035956819 9.22663955626 9.65490789472
656 0.425 -1.76330722584 0.724020652375 1.11760456506 6.83383359841 8.75778592353 9.21073568853
657 0.425 0.339015387108 -1.04759986434 1.28959500322 5.69580683339 9.9155745202 9.03435641675
658 -0.85 -4.701261688 0.0104042572298 0.547615490184 9.67416662801 9.23053198564 9.24236720151
659 0.425 1.84254979604 0.318503051076 1.1395469955 8.99036078868 9.34429919077 8.52162323197
660 0.425 1.29971796314 0.201627269068 -1.31917109766 9.23547258331 9.3251688236 10.1360095665
661 -0.85 2.57345497005 1.69001519122 0.877550116187 12.3084492337 8.97348968177 9.11790804716
662 0.425 -1.86401638504 -0.504512460121 -0.676511806801 13.2379147616 9.27461066038 9.33104007497
663 0.425 0.488758801426 -1.08771833544 -0.894825357931 11.6536360047 9.65189965784 9.45105187787
664 -0.85 -1.10086427343 -4.47482128618 0.320879864092 15.7155935365 9.60342931365 9.39796983529
665 0.425 1.61832992514 0.724769615411 -0.75925595532 14.9356639441 9.25693425806 9.91917639678
666 0.425 -0.00836866915121 1.5454989576 1.05783286043 15.8487425194 9.03963642828 8.58285376793
667 -0.85 -0.00523539597016 2.7538578522 0.0306182615737 18.6171914974 8.91578239953 9.28485741422
668 0.425 -1.45516388637 -1.41697377159 0.0254453742117 19.4066281986 9.52960989133 9.28157448924
669 0.425 1.04477467412 -1.16889855919 -0.107849627734 17.7761803039 9.45460770914 9.33356809654
670 -0.85 -0.188201199522 4.00433077666 -0.464842415103 21.7130829315 8.91533599613 9.29676719455
671 0.425 -0.914937657227 -1.48188714607 0.122152923553 22.5090130905 9.51983437746 9.32966341893
672 0.425 1.66553431055 -1.45886342527 0.108697021994 20.877903978 9.46482962641 9.27356938652
673 -0.85 0.524639688858 3.36298559177 -0.905374836371 24.7127311615 12.0366337937 9.3921800411
674 0.425 -1.37524966616 -1.41467936323 -0.0936463924531 0.681994717555 12.5573688929 9.76241484543
675 0.425 0.817379107879 -1.69004409457 0.96111016134 24.2052741209 12.6059973134 8.74540511347
676 -0.85 -0.936759983588 3.34424787083 -0.946525627975 3.17618654181 12.0301911587 9.37473313689
677 0.425 -0.61179962957 -1.46028683932 0.547580419055 3.85065169281 12.7684593341 9.36685063727
678 0.425 1.64223331754 -1.28800324501 0.463118634448 2.27316176538 12.4013495072 9.15841622584
679 -0.85 0.455740247054 0.192234716975 -6.19535914409 6.04506959401 12.4110081627 9.65216956094
680 0.425 -1.4945521694 0.0601238317812 0.985937554685 7.000997075 12.6091653715 9.4355093565
681 0.425 0.850771079984 0.256706605637 1.76575956143 5.55393333098 12.1798264658 8.81232108256
682 -0.85 -1.57876765256 -5.00281978689 -0.511922220607 9.51068786674 12.7171999294 9.35606101685
683 0.425 0.78907184947 1.06257267623 1.16372014481 9.35570468103 12.2757701716 8.47224811039
684 0.425 1.2236406796 1.25872837976 -0.891059684646 9.03360745223 12.207029899 10.0716908728
685 -0.85 2.0532544422 2.0176484151 2.08144459195 12.2360484886 12.120907545 9.09173259146
686 0.425 -1.63290352623 -0.97736764344 -0.564767227884 13.2007803782 12.3809512801 9.05080693304
687 0.425 -0.00868466413892 -1.36111899381 -1.45859435497 11.7631711332 12.698141175 9.7574604755
688 -0.85 0.76714157964 4.91263762874 2.26749473562 15.3458874622 12.1241018107 9.08027852893
689 0.425 -1.7930493819 -1.14345955139 -0.149106143152 16.1845112588 12.6272731076 8.87163038893
690 0.425 0.371435812256 -1.06981188067 -1.8895915513 14.969601279 12.4486250816 9.94809108213
691 -0.85 -1.7027894957 1.98407891736 -1.25212233049 18.7756499967 12.1213168817 9.49907488103
692 0.425 -0.544270169318 -1.55993707013 0.622972086522 19.1788146938 13.0062320953 9.26586132163
693 0.425 1.72841790548 -0.511655530212 0.739072733922 17.8455353095 12.0724510229 9.13506379733
694 -0.85 1.34658868025 2.89320566569 1.3483857832 21.6190188739 12.0326323586 9.21856853618
695 0.425 -1.47115479158 -1.30601822933 -0.470993146517 22.5165169208 12.3792504741 9.4912559222
696 0.425 0.716984371448 -1.86423993393 -0.159743307228 20.9644642053 12.7881171673 9.19017554162
697 -0.85 -2.74186458244 -0.702112637827 -0.848354090534 0.366765256164 15.5198258604 9.41505734279
698 0.425 1.44358285174 1.5291085464 0.0609289847191 24.5384034124 14.768343747 9.61615756409
699 0.425 1.2293719382 -0.918871752895 0.657392123661 24.6948313314 16.2118303925 8.86878509313
700 -0.85 -0.852731908046 -0.31125169359 -2.06569493297 3.34412014362 15.3420104736 9.55217588114
701 0.425 0.802473404412 -0.68066556393 0.0954039865502 2.78057796762 16.1502718589 9.72287743757
702 0.425 0.351258806342 0.80209342895 1.97968958549 3.17530188876 15.0077176675 8.62494668128
703 -0.85 -3.68345528445 0.6965536453 -2.22904222213 6.47228649136 15.5785389942 9.56046055943
704 0.425 1.63884436611 0.425324203145 0.177009286706 5.55606188629 15.2360345265 9.76837504953
705 0.425 0.279281080297 -0.394146742161 1.87378723422 6.57165162235 15.6854264793 8.57116439105
706 -0.85 2.7904125133 5.23550313153 -0.387038380335 9.0530620805 15.2103961188 9.35743923668
707 0.425 -1.90809705456 -0.469269943094 -0.219524415007 10.0497054338 15.133509082 9.3856470784
708 0.425 0.185272896711 -2.37285566233 0.401817305396 8.79723248567 16.1560947991 9.15691368492
709 -0.85 1.18715891155 -1.92476198383 3.36211125792 12.2980159626 15.5752975089 8.93657524676
710 0.425 -1.38296287385 -0.554156419546 -1.28912639286 12.8999569726 16.1441645425 9.49698812227
711 0.425 0.179654806932 1.37591213936 -1.30572961322 12.0020270649 14.7805379487 9.46643663097
712 -0.85 -1.20493296647 0.757498999304 1.53698660708 15.7384481423 15.3030900932 9.07083416042
713 0.425 0.915797189651 0.680691324354 -1.2660058118 15.2558592389 14.9267938739 9.86172882983
714 0.425 0.592556033524 -1.30987135089 0.0239277709328 15.5056926188 16.2701160329 8.96743700976
715 -0.85 -2.46412399424 -0.0837424849105 -1.05755877644 18.9247798905 15.3810480986 9.4688682263
716 0.425 1.32590726124 -0.974944941849 -0.60569124074 18.2662140142 16.0186132503 9.86862682381
717 0.425 0.917398251762 0.491767405457 1.51260332319 18.6090060953 15.1003386511 8.5625049499
718 -0.85 1.0270081884 -1.91054937869 3.0630193087 21.7554576626 15.8273951774 9.10535967663
719 0.425 -0.245812924334 0.270305287984 -1.80976548029 21.6971826868 15.7502364088 10.1006766232
720 0.425 -0.182090761568 2.07144934999 -0.0295552824481 21.6473596506 14.9223684138 8.69396370018
721 -0.85 -3.82338850034 -0.852754641117 0.0990203478097 0.340480019272 18.7174405506 9.16424623931
722 0.425 1.78723895964 0.296278852695 0.826025755546 24.2638861999 18.8242114304 8.69500373526
723 0.425 1.17554911956 0.918892389693 -1.18754927207 0.195633780811 18.258348019 10.0407500254
724 -0.85 1.58752507941 1.9199216926 -1.1048018453 3.01780827229 18.2450711784 9.42416948689
725 0.425 -1.01098310823 -1.09473587208 -0.172091513165 3.69465718248 18.8573817793 9.83277266026
726 0.425 0.345961556792 -1.03766821943 1.5823937286 2.58753454523 18.6975470423 8.64305785285
727 -0.85 0.366710485306 -8.32230752665 -1.02546223607 6.23606048004 18.9437423112 9.46937790668
728 0.425 -0.327447723543 1.71757521813 -0.698164516571 6.32783510346 18.0607798815 9.92976908671
729 0.425 0.342855502179 0.841553332713 1.71853628592 6.0361044165 18.7954778073 8.50085300661
730 -0.85 0.577116123681 -1.5527863049 2.59526476196 9.26870919253 18.817449586 8.98395479294
731 0.425 0.740625380472 1.71232240104 -0.619541259192 8.71684122647 18.0080745766 9.18485057339
732 0.425 -1.37152335146 0.024840904832 -1.40168634242 9.914449581 18.9744758374 9.73119463367
733 -0.85 0.815874556279 4.20375303758 0.695593125161 12.3923887847 18.2155392706 9.28326599449
734 0.425 -1.60553770578 -1.3303644009 0.0803513357013 13.2045458076 18.7833159851 9.14896839545
735 0.425 1.03575427219 -1.27307240347 -0.506421904051 11.6030654077 18.8011447443 9.46776561006
736 -0.85 -1.25064245611 2.12489476186 -0.0809883299182 15.6836121108 18.2617199886 9.30111204441
737 0.425 -0.53380897588 -1.28403603405 0.461337240842 16.076062393 19.1306607991 8.99956616675
738 0.425 1.79750235556 -0.671303303898 -0.259375507275 14.7403254962 18.4076192123 9.59932178884
739 -0.85 -0.276218797785 2.61674828675 1.66921941553 18.6674459676 18.2581070783 9.13657331436
740 0.425 -1.0754334088 -1.59124495404 -0.800860867994 19.3235363288 19.0107067741 9.19264833889
741 0.425 1.09954747819 -0.897364564401 -0.93807658284 17.8090177036 18.5311861476 9.57077834675
742 -0.85 -0.0869913931761 -1.26169215945 1.5663957889 21.7095813331 18.9072006284 9.06830195951
743 0.425 -1.37962449844 1.07267280495 -0.357919542287 22.4070324412 18.1916376376 9.10750438837
744 0.425 1.4375717059 0.149841469206 -1.27966504184 20.9833862257 18.701161734 9.72419365212
745 -0.85 -0.180588080152 -2.68147091681 1.51815703951 24.6065011173 21.8080939731 8.98532256935
746 0.425 -0.749801034853 1.35362051133 -0.14774401105 0.524642388075 21.112668019 9.01103501734
747 0.425 0.555669687964 0.0248580624856 -1.67093402584 24.4688564946 22.1792380079 9.90364241332
748 -0.85 2.94441740857 -1.80002576667 -0.12221653174 2.72848796541 21.7972765807 9.32576984698
749 0.425 -1.8164133599 -0.740470897299 -0.465383781109 3.48466810961 22.2853154416 9.76167686947
750 0.425 -1.0402078816 1.45861969389 0.889911131262 3.08684392498 21.0174079778 8.81255328356
751 -0.85 0.509276437325 7.85527712664 -2.45476240252 6.03425507763 21.3562984371 9.35045657877
752 0.425 -1.98210716131 -0.993950578941 0.560750845575 7.01867126235 21.5179713867 9.28123299082
753 0.425 0.866346491182 -1.73066780864 0.675670852991 5.54707366003 22.2257301763 9.26831043041
754 -0.85 -3.25992437951 -1.239436466 -1.95650493386 9.5173433582 21.9297295575 9.51939508892
755 0.425 2.12603460182 -0.246705977713 0.793503936381 8.64078706581 22.1827305222 9.10995052535
756 0.425 -0.0146114977541 1.87567280878 0.456266707601 9.74186957599 20.9875399203 9.27065438573
757 -0.85 2.98280244172 -0.864420545771 -3.22714613805 12.2395419966 21.687109158 9.64962131705
758 0.425 -0.85526316558 -0.68251628227 1.00726988686 12.3514217939 22.5121849276 9.09578184776
759 0.425 -1.24581034671 1.74647187261 1.22421132564 12.6090362096 20.9007059144 9.15459683519
760 -0.85 -1.37737937721 1.9546603082 -0.616203416403 15.5716940897 21.3233694214 9.33402021145
761 0.425 -0.904696325069 -1.50832303062 -0.0179313399003 16.2449502435 22.0526003583 9.45630538857
762 0.425 1.12258984932 -0.554314331222 0.646738608021 14.6833556668 21.7240302202 9.10967439998
763 -0.85 2.85373094659 1.52960107426 0.398973281483 18.2885318062 21.4740941319 9.31010509824
764 0.425 -1.64114440567 0.442353392042 -0.845813407835 19.1734064035 21.2561813726 9.72182860843
765 0.425 -0.0754638346432 -1.47897186551 0.612000927944 18.3380617903 22.3697244955 8.86806629333
766 -0.85 -0.406782593599 -7.29876447827 -0.114655643584 21.5206992579 22.04049042 9.30809492241
767 0.425 1.12043260591 1.72410545717 -0.424495722375 21.0689887218 21.1490896906 9.34507605047
768 0.425 -1.10245536801 0.908816745618 -0.0583315095222 22.5103120203 21.9104198894 9.24682902713
769 -0.85 0.946242483822 2.09237207609 2.68424870042 24.658952724 24.5208455076 12.1756644359
770 0.425 -1.28454790031 -1.38286032734 -0.283894009041 0.538562899462 0.398763512839 11.8953744788
771 0.425 0.214850491652 -0.698904938747 -1.57534339477 24.4024843765 24.6803909796 13.1289610853
772 -0.85 -1.52845516655 2.86704482181 -0.790964494862 3.26911002583 24.4702379748 12.5039558364
773 0.425 -0.624618067106 -1.79080212385 0.843861743496 3.69601874014 0.390809826481 11.9575764547
774 0.425 1.71760240658 -0.98344497915 -0.332968312426 2.33487123403 24.7389521987 12.7384677089
775 -0.85 -0.31934061409 2.81430357624 -0.839378961176 6.19785361017 24.4151744009 12.3927431913
776 0.425 -0.920265500363 -1.28742287508 0.3079161242 7.0174666607 0.188094319003 12.3911660712
777 0.425 1.61204717826 -1.67834979527 0.326262248166 5.38467972913 0.196731280118 12.4160907375
778 -0.85 1.78174095752 -3.30077460525 -2.17987891078 9.07263703084 0.151428284232 12.6711522911
779 0.425 -0.880763217388 -0.204360993299 1.56204097918 9.42672710714 0.641670746339 11.8747304063
780 0.425 -0.72553118162 1.78159402908 0.572937748431 9.40063586202 24.0069009694 12.6541173026
781 -0.85 -2.78037436344 1.97524180999 -0.417043077607 12.4999814589 24.4321174745 12.4530487067
782 0.425 -0.422181964248 -1.56661662886 0.0867141890873 13.1321746465 0.406894490468 12.4454578176
783 0.425 1.77557964797 -0.817377261174 0.405583198821 11.5678438946 24.7609880351 12.3014934757
784 -0.85 3.75381516285 0.359175662304 -0.481185386833 15.1308584192 24.6914921532 12.4104187571
785 0.425 -1.41308040311 1.08202374517 -0.12057818143 15.9041782285 24.1384186947 12.7204050382
786 0.425 -0.744763587585 -1.05404127334 0.89156315448 15.4649633523 0.770089152129 12.0691762046
787 -0.85 1.43391853323 -1.806601152 -2.2631388091 18.2500121333 0.107096054348 12.5191089347
788 0.425 -1.32211036472 0.586837121245 -0.370615036282 19.0566652199 0.0183687161924 13.1034406298
789 0.425 -0.452644987318 0.968883257864 2.32371709637 18.4933226468 24.6745352295 11.5774504354
790 -0.85 2.16841858725 -1.38202322093 -1.83492103906 21.4107168099 0.0900432130015 12.6373930617
791 0.425 -0.677589978723 1.93617834983 0.540739344411 21.5575900835 23.9930211907 12.220517774
792 0.425 -1.70820723439 -0.900424773012 0.564099112117 22.1316931066 0.716935596343 12.3420891643
793 -0.85 -2.48983454975 -1.84325595642 3.09376945869 0.101880408876 3.05228879383 12.0319075753
794 0.425 0.209657437462 1.6869830822 -1.58653832804 0.202870329431 2.36630688078 12.7524872888
795 0.425 1.01656455651 -0.647055951728 -1.18127957235 24.4952492617 3.88140432539 12.4156051359
796 -0.85 4.52512409651 -0.608770076013 0.0178359933957 2.73046335255 3.06389959048 12.5014270015
797 0.425 -1.48106942947 -0.895566841435 0.281278753065 3.17749985571 3.92061206209 12.2441190569
798 0.425 -1.6235734813 1.33478513046 0.0774980220245 3.39203679173 2.31548834743 12.4544539416
799 -0.85 -1.18283400622 1.5719159249 3.3710098084 6.32408566209 2.96440313699 12.0618221633
800 0.425 1.42992883752 -1.05280007023 -0.716486888374 5.51115889484 3.5317699797 12.1931622158
801 0.425 -0.553989685717 -0.461004649334 -1.58747485343 6.76475544306 2.8038268833 12.9450156209
802 -0.85 1.13326193628 5.09679511994 -0.535837181658 9.23988521806 2.73059993473 12.4898766642
803 0.425 -1.55084188525 -1.26078241596 0.576065703126 10.0842588403 3.1004571699 12.1022633465
804 0.425 0.855872242193 -1.70911774277 -0.424752783111 8.5758559416 3.46894289537 12.6078599893
805 -0.85 -0.709352112212 2.89125435031 -0.537248586004 12.4869316864 2.73358214758 12.4795540654
806 0.425 -0.783429192595 -1.37995282641 0.79045120231 13.0593620382 3.36133431707 11.9520543227
807 0.425 1.61013546219 -1.30254775662 -0.0994515925756 11.6537062754 3.20508353535 12.7683916119
808 -0.85 -1.49167428286 1.16390487878 -1.83632112403 15.6720236277 2.84963974143 12.6363802497
809 0.425 -0.424319756063 -0.837913322681 1.17340795568 16.141721646 3.53753419206 12.0830356293
810 0.425 1.95238926673 -0.443169949649 0.652594635829 14.6862547262 2.91282606651 12.4805841211
811 -0.85 -2.92703932331 0.935484508392 0.453127398193 18.9205025943 2.90722889394 12.3090857671
812 0.425 0.38252338312 -1.06100513342 -1.20893756055 18.8649075327 3.65615210106 12.9694103021
813 0.425 2.00311090916 0.110496608313 0.876903909481 18.0145898731 2.73661900499 11.9215039308
814 -0.85 2.23854509717 -2.37368817208 2.27786959024 21.6691448125 3.20348790039 12.0305595828
815 0.425 -1.31729729082 1.78537720908 -0.748578924563 22.1392959575 2.38626075475 12.3638806979
816 0.425 0.0877406368549 -0.392170663986 -1.74800350392 21.2915592299 3.71025134486 12.8055597193
817 -0.85 -1.11656628657 2.54193726334 1.10481081473 0.14734970934 5.85181855763 12.3278490725
818 0.425 -0.723255214583 -1.34320808538 -0.0988888172626 0.592601711561 6.72211742964 12.1172883914
819 0.425 1.82489394643 -0.50683753352 -0.812593310351 24.0600485791 6.02606401273 12.7548625361
820 -0.85 -1.81784744781 0.772253040013 0.170913427988 3.38785253603 5.94476423521 12.3880153483
821 0.425 1.06464828195 -0.0286668301159 -1.1120661625 2.54875487373 5.84399070014 12.9225853439
822 0.425 -2.12968006373e-05 -0.963792915814 0.698859062247 3.36339259024 6.81124506465 11.8893993078
823 -0.85 1.48573486502 -3.75559689223 -0.356890427178 6.11889040547 6.51009193672 12.6131014652
824 0.425 -1.49526797711 1.47549954539 -0.589771164095 6.80414846798 5.81762693871 12.8387536019
825 0.425 0.467439333944 0.837302182843 1.16572122 5.67696112656 6.27228112456 11.748144933
826 -0.85 1.20434731998 1.05039568469 2.23517037056 9.13771964063 6.02003804198 12.1009568783
827 0.425 0.489766363134 -0.53342323027 -1.71170146013 8.64592182565 6.3837748444 12.8920546727
828 0.425 -1.35360526764 -0.450543070257 -0.532445627318 10.1163585337 6.19618711362 12.206988449
829 -0.85 -1.08398460797 -0.257705369052 4.99265096437 12.4259506589 6.0359259019 12.0527907495
830 0.425 -0.200122156314 0.521389814236 -1.49613487723 12.7533552731 5.63323945457 12.9075744158
831 0.425 1.20398476229 -0.757056448596 -0.852241850459 12.020694068 6.93083464353 12.2396348347
832 -0.85 -1.62272845364 2.28944866369 1.97442280863 15.6889043954 5.88614514354 12.2818548837
833 0.425 -0.755209490914 -1.76167879722 -1.04515966862 16.1125054582 6.69752964354 12.6846235583
834 0.425 1.78644915008 -0.415560526394 -0.220897540612 14.6985901464 6.01632521291 12.233521558
835 -0.85 -0.408182959559 3.27123603568 1.31803887535 18.6233310894 5.81580949866 12.4011527998
836 0.425 -1.30479692518 -1.85167882683 -0.585387172373 19.4033190177 6.44160149439 12.4040652411
837 0.425 1.5068116084 -1.77102810705 -0.49087741633 17.7733498929 6.34258900695 12.3947819591
838 -0.85 1.55462837697 4.06867378461 1.1549570155 21.5463130253 5.85150096116 12.344531597
839 0.425 -1.85048011495 -0.791779746972 -0.206323732797 22.4967312569 6.09982114656 12.1573217067
840 0.425 0.795561561553 -1.92004837 -0.998687508192 21.0569557178 6.64867789229 12.6981466964
841 -0.85 1.89172920108 1.73653684553 -0.935501463752 24.6856414621 8.94423831168 12.4922158118
842 0.425 -1.77551274855 -1.01276785072 -0.188830607808 0.795931572558 9.32082866587 12.6641369928
843 0.425 0.838569979064 -1.65991223387 0.663795839177 24.1184269653 9.63493302245 12.0436471954
844 -0.85 1.24846239355 2.37578362727 2.71126786513 2.98601827094 8.95362506422 12.2767905064
845 0.425 -1.68198958154 -0.796937718867 -1.18863117083 3.85748447833 9.14828286165 12.7269685421
846 0.425 0.571661071219 -1.83888823301 -0.460344975138 2.45649725073 9.79809207414 12.1962409515
847 -0.85 -1.19254700824 2.52317689376 -0.0302474343612 6.49659988809 9.12352565001 12.570391667
848 0.425 -0.0786528878776 -0.596880225852 1.07577278369 6.51029018336 9.51907316141 11.6520453192
849 0.425 1.91819846177 -0.402391510458 -0.753091826499 5.59310992855 9.25740118858 12.9775630138
850 -0.85 -2.47465170674 -2.86115510618 0.243790994278 9.63997309697 9.4803306371 12.3931323467
851 0.425 0.69960241898 1.48784778899 0.870704972405 9.39818457587 8.68281557928 11.8403997566
852 0.425 1.29636890607 0.142491039221 -1.21422838471 8.86184232716 9.73685378363 12.9664678967
853 -0.85 0.176434810745 2.16114842007 0.152712917877 12.4036099644 8.91511917865 12.4013158699
854 0.425 -1.3505152764 -1.3231791278 0.129644670935 13.2146090356 9.50006690797 12.3902735402
855 0.425 0.846576095512 -0.970997724573 -0.00451817591506 11.581781 9.48481391338 12.4084105899
856 -0.85 1.62542331509 2.84829690649 0.81895869672 15.3385722113 8.95571446331 12.3403631972
857 0.425 -1.51473437669 -0.797259780554 -1.03001189464 16.1391848094 9.12628745326 12.9147581791
858 0.425 0.294562577064 -1.71629555001 0.37882940342 15.0222429793 9.81799808343 11.9448786236
859 -0.85 -1.21771006537 2.73231484936 1.01677322233 18.778359838 8.96052287787 12.3669687762
860 0.425 -0.392839853013 -1.6550337624 -0.608700239669 19.15749444 9.77084448886 12.8137809435
861 0.425 1.74959380326 -0.970034503386 -0.00420823274078 17.8641457221 9.16863263327 12.0192502802
862 -0.85 -3.36913923149 2.20885841834 1.02527080656 21.9843810888 9.0453001549 12.3509755647
863 0.425 0.379365893973 -2.11236457333 0.0463006329484 22.0691100649 10.0348499628 12.2342817308
864 0.425 1.7162055768 -0.0330565967681 -0.888452677124 21.0465088464 8.81984988233 12.6147427045
865 -0.85 0.0649161599182 2.45439506017 -0.122074110046 0.0155825793688 12.0155160032 12.4087891631
866 0.425 -1.25315766247 -1.21217501295 0.203923882243 0.806671555937 12.6263138191 12.4420987958
867 0.425 1.1391241244 -0.975560813176 0.330974320752 23.9777458647 12.5581701777 12.3491120411
868 -0.85 -1.05904803777 -0.989716197294 -4.26895881258 3.1538381946 12.5590763875 12.7463295566
869 0.425 -0.103299867656 1.76922053967 0.852159186041 3.37722811036 11.6150610142 12.5035597212
870 0.425 0.936230231887 -0.583204666981 1.63886175217 2.76893369504 13.0258625983 11.9501107222
871 -0.85 0.036410481018 0.655015647704 5.25800284207 6.31851917158 12.1448836667 12.1372893751
872 0.425 -1.10322700631 -0.482217140282 -1.78640481783 6.86245306957 12.4735833753 12.9093630041
873 0.425 1.48440122924 -0.581997275761 -0.334904879007 5.41902775885 12.581532958 12.1533476207
874 -0.85 -1.23408549513 1.94322923257 2.02534193655 9.52095287376 12.1678354975 12.186862764
875 0.425 1.28200890919 -0.556597744807 0.148446709985 8.74870793533 12.7035753254 11.8453574721
876 0.425 0.0175376317872 -0.334144664519 -2.03068308269 9.63033919091 12.3285891771 13.1677797639
877 -0.85 -2.46104830776 1.859830403 -0.707383210215 12.6505774055 12.1162338953 12.469539713
878 0.425 0.0723990592142 -2.1459265616 -0.208366215935 12.8425998782 13.0927823168 12.5669349031
879 0.425 1.21163329538 -0.192565010369 0.417531927268 11.7068227163 11.9909837878 12.1635253839
880 -0.85 2.19149090073 -1.27273521674 -1.72292771345 15.2869283834 12.6563264411 12.5924714312
881 0.425 -0.389688124625 0.0667962831269 1.94316214693 15.5352684691 12.7215238369 11.6259923709
882 0.425 -0.717930595232 1.72643032832 -0.0562023337842 15.6778031475 11.822149722 12.9815361979
883 -0.85 1.57298487737 -2.98954204478 -1.21865651617 18.2863969712 12.5734773851 12.5403807223
884 0.425 -0.522671285232 2.08643693949 0.282326013533 18.440999097 11.5856423158 12.5234889776
885 0.425 -1.43074626801 -0.0361201992244 0.83454980559 19.0726039317 13.040880299 12.1361303001
886 -0.85 -0.546805405169 -9.37199468328 -0.872113015025 21.854539036 12.733816399 12.5132797779
887 0.425 -0.274871923956 1.18515759489 1.46864348902 22.0522615676 12.2695559088 11.6499297503
888 0.425 1.1565702714 1.45693847784 -0.46432840454 21.1931993964 12.1966276922 13.0367904719
889 -0.85 -1.02219100807 1.89697717265 -0.613371656847 0.0638304113582 15.12554054 12.3379210066
890 0.425 -0.5727923591 -1.00766589823 0.134868590197 0.769241138463 15.833498756 12.3725063072
891 0.425 1.94362250804 -1.2862212235 0.175366960017 23.9669284502 15.540960704 12.4895726862
892 -0.85 0.724313431979 -2.42448984382 -1.57193966037 3.01523234192 15.8437828055 12.5509166551
893 0.425 -1.25776284148 0.524738133689 1.14922883305 3.68615999002 15.680327795 11.8276298357
894 0.425 0.686862641296 1.6270349269 0.196761347524 2.59860766806 14.9758893995 12.8214535092
895 -0.85 0.177111359692 3.02944886871 0.460222804072 6.18686244285 15.1154792728 12.410919019
896 0.425 -1.58041582668 -1.50942224567 -0.330834010924 7.02259290241 15.6644149697 12.3957706779
897 0.425 1.12393887189 -1.33286740645 0.187765715496 5.39054465474 15.7201057575 12.393310303
898 -0.85 -0.546666636433 2.50549358342 -0.227056942548 9.30583766959 15.1167117994 12.4346999556
899 0.425 -1.10842617365 -1.30548097744 0.0591806384703 10.110966334 15.6981583398 12.3176827476
900 0.425 1.73264310085 -1.326335415 -0.20335306561 8.48319599645 15.6851298607 12.4476172968
901 -0.85 1.91822898979 0.366890156654 2.21692245784 12.1746346509 15.4471635148 12.0924828863
902 0.425 -0.800412541322 1.18873816907 -1.43870359024 12.3781896858 14.754945916 12.7848739724
903 0.425 -0.982813098206 -1.41614329773 -0.824066712873 12.6471756633 16.2978905692 12.3226431414
904 -0.85 1.39902935675 -1.00154790273 2.01821087589 15.2871620989 15.523483135 12.0801616342
905 0.425 -0.972018682093 -0.673828495064 -1.27063056622 15.7150425133 16.2973983424 12.5470437128
906 0.425 -0.56677538068 0.825176524416 -0.895294266319 15.4977953878 14.6791185225 12.5727946531
907 -0.85 -1.41743457051 3.70333058579 -0.877890272356 18.8012743459 15.1868756328 12.4979274138
908 0.425 -0.736544787473 -1.84201949221 0.380314162054 19.1757803019 16.1099790835 12.4105742185
909 0.425 1.82893765599 -0.588800296758 0.342608879988 17.8229453522 15.2031452836 12.2914983677
910 -0.85 0.220086519719 10.1312231117 -1.89451558101 21.7240971935 15.1167597196 12.4263481067
911 0.425 -1.35543714543 -1.77029907276 0.670623016084 22.4737032425 15.7259499302 12.1675367252
912 0.425 1.08450940465 -2.07468553059 0.17349439294 20.902199564 15.6572903502 12.6061151681
913 -0.85 -5.56768277672 0.389718933967 -1.67872653998 0.239253237767 18.3751698695 12.6008912906
914 0.425 0.919289510305 -1.25308261056 0.713612604268 0.415651355943 19.326927185 12.3497996962
915 0.425 2.14977994784 0.41681734041 0.848574826351 24.1450954063 18.0979029455 12.2493090132
916 -0.85 4.01470830203 -1.82794558415 -2.17867497057 2.78977237245 18.718118793 12.5948198651
917 0.425 -0.712427063123 1.48668665248 1.06262192131 2.93799952509 17.7901862675 12.2528034741
918 0.425 -1.54126875953 -0.411164895799 0.784099315533 3.57222810247 19.2916949395 12.3523766608
919 -0.85 2.93636776249 -1.66156860839 0.453214374655 5.81921333751 18.6561113514 12.3989782807
920 0.425 -1.44000663306 0.604693456426 -1.38732747274 6.39409158991 18.6118912114 13.2160246971
921 0.425 -1.493508496 0.841582662915 1.12789795475 6.38669507259 18.5319974372 11.5849970222
922 -0.85 0.404515096512 1.85159364355 -1.48864807281 9.17292272404 18.2367653777 12.3922549951
923 0.425 -1.2874423884 -0.422586075194 -0.00592726751182 10.0727460687 18.5268008225 12.7181424935
924 0.425 0.769598414688 -1.40251833036 0.597956993162 8.65433120725 19.0364337998 12.0896025114
925 -0.85 0.772080896004 -6.89940779045 -2.78120060696 12.2421055207 18.8718105825 12.6221178756
926 0.425 0.352383780379 1.1508782604 1.69106271369 11.8971591586 18.5839264228 11.7287310667
927 0.425 -1.64782184516 1.67587438205 0.0402759127795 13.0607353207 18.3442629947 12.8491510577
928 -0.85 0.477464596744 3.01955122926 1.01163793675 15.4239182258 18.2287018882 12.3329381939
929 0.425 -1.41842531758 -0.97774095774 -0.546853699695 16.2999264121 18.5899945067 12.6524418306
930 0.425 0.675741954821 -1.08770013351 0.187893873929 14.7761553621 18.9813036051 12.2146199754
931 -0.85 0.908501381277 2.19202067319 -1.79732682614 18.4814238482 18.2821215145 12.5817717653
932 0.425 -1.46807260492 -0.379439259107 1.03132124853 19.3114046998 18.3553982619 12.0288092198
933 0.425 0.738836166033 -1.49032413255 0.434556694342 18.007171452 19.1624802236 12.5894190149
934 -0.85 -0.455179477555 -0.799760582358 2.56517495349 21.7122690314 18.6342417387 12.0168225161
935 0.425 0.9104546302 1.10543181878 -0.944992966427 21.188515763 17.9457388366 12.5184713375
936 0.425 -0.603489490001 -0.499156955854 -1.31441695733 22.1992152056 19.2200194247 12.6647061464
937 -0.85 -1.58023105537 1.88823815041 1.57981074102 0.105644069813 21.4022871625 12.1801036452
938 0.425 1.75940506998 -0.459202633632 -0.912522990673 24.0009735571 21.5266593131 12.5876672648
939 0.425 -0.76366340338 -1.43858298973 -0.754251759274 0.693382373114 22.1710535245 12.4322290901
940 -0.85 0.527284705227 4.29626948832 -1.19893093835 3.07947927924 21.3397740105 12.5340303939
941 0.425 -1.28323958056 -1.22883330274 0.159332312571 3.92479420126 21.8520031977 12.3821448618
942 0.425 1.47274709743 -1.6433327255 0.377255527528 2.29572651951 21.9082227918 12.2838247443
943 -0.85 1.18970891341 1.20975491865 3.23634814896 6.06192370018 21.5416931954 12.0774757357
944 0.425 -1.89919497251 -0.525280282707 -0.596851387452 6.99396970678 21.8826582344 12.2001067119
945 0.425 0.813490056606 -0.539115759637 -1.7268314695 5.54410659304 21.6756485702 12.9224175524
946 -0.85 -3.21403331156 0.765090013839 1.73688353632 9.64513943877 21.606837858 12.2573550103
947 0.425 1.02222160053 -1.98996370541 -0.351720352594 9.27083826736 22.532936669 12.3047353623
948 0.425 1.57739330637 1.04071608978 -0.41702793655 8.98402229387 20.9602254729 12.6379096275
949 -0.85 0.836204841258 5.69416191636 1.0752069518 12.4864815431 21.3282965399 12.3499451253
950 0.425 -0.590863205935 -1.35746925181 0.758420421426 12.666239644 22.0569612469 11.6890820211
951 0.425 0.439685510469 -1.05119128633 -1.74266161633 12.047278813 21.7147422131 13.1609728536
952 -0.85 1.00476559093 -0.210899083558 -3.8781074997 15.4410007714 21.6880507637 12.7801635395
953 0.425 -1.00923507891 1.46085412445 1.45079973677 15.8844067871 20.9713387382 12.2419068626
954 0.425 -0.155594674208 -0.907065481579 1.46047109696 15.1745924416 22.4406104981 12.1779295979
955 -0.85 0.900724213597 -1.27723764294 -3.96127055339 18.4766453336 21.7915843417 12.7529078415
956 0.425 -1.10930505101 1.53176288009 1.26007070308 19.194249808 21.1263621406 12.5466834155
957 0.425 0.318328657893 -0.231004061906 2.05194570302 18.1291048584 22.1820535177 11.9004087429
958 -0.85 0.859523988871 0.904560511828 -2.44013195062 21.6247293872 21.5215306528 12.7326124426
959 0.425 -0.85647521206 -1.39535901131 0.436132833119 22.08008403 22.4073049245 12.6428273591
960 0.425 0.449826513317 0.548526657354 1.60018255386 21.3951865828 21.1711644227 11.8245601983
961 -0.85 0.614531459115 2.81301944691 0.906990903258 0.0475683253279 24.459271262 15.3274045437
962 0.425 -1.05895542716 -1.18522266956 -1.15975798304 0.696138089602 0.0810613287041 15.9610098412
963 0.425 0.423210137564 -1.39129928624 0.154036271299 24.0562935851 0.259667409297 15.2115856151
964 -0.85 -1.54342113185 2.15630976435 0.123193213123 3.29778715846 24.4745233207 15.5556163751
965 0.425 -0.348680044759 -1.38402112713 -0.391472607616 3.63252017438 0.595089518951 15.7569046142
966 0.425 1.71034611234 -0.583522807162 0.384781726161 2.36969266716 24.5303871603 15.1874790106
967 -0.85 -1.42604682454 -1.71095442484 3.26391990249 6.25729752288 0.0810419482107 15.1281166762
968 0.425 -0.499334710622 0.415628423742 -1.67549775362 6.9771030102 24.6826656164 15.7933475864
969 0.425 1.51093786005 -0.00960895998481 -1.29580596201 5.36559946693 0.0362924353972 15.5785357373
970 -0.85 2.0596542718 0.43009028009 -0.152497107181 8.96960083602 24.6987500213 15.6695076525
971 0.425 -1.11873909272 0.898949673259 0.29390734696 9.76693570344 24.1055374122 15.5583267991
972 0.425 -0.514627904422 -1.53603331748 0.652379509494 9.16346346054 0.79571256654 15.2721655484
973 -0.85 2.37251976217 1.86271559241 -0.52219087154 12.0243793067 24.7640771695 15.5759384947
974 0.425 -1.40210950308 0.686706848915 0.788525791599 12.5761281188 24.1038032859 15.0664123232
975 0.425 -1.17374891 -1.42098074172 -0.51664437448 12.5994925746 0.73211954467 15.8576491822
976 -0.85 0.827321662413 -2.83858150631 0.693624086198 15.3520108322 0.351368101137 15.4472015746
977 0.425 -1.61245274423 1.12723419591 -0.197577208758 16.3232758932 0.119758368675 15.3923710575
978 0.425 0.660537992481 1.84361956041 -0.437114644583 14.8247132745 24.3288735302 15.6604273679
979 -0.85 -1.41995508865 0.436606089997 1.71509785274 18.8104617927 24.5504145757 15.2961349472
980 0.425 0.130970166417 -0.936389994396 -0.0655751216597 18.8251250473 0.744091005991 15.1847912749
981 0.425 1.53892519945 0.66070246669 -1.18176418861 18.16441316 24.3054944183 16.019073778
982 -0.85 -1.05568754252 -2.68656388819 1.50215478111 22.0281301252 0.165392419937 15.3854400666
983 0.425 0.7232208877 1.26234534385 0.647345596363 21.4199193444 24.4254359384 14.8036051102
984 0.425 0.51069767294 -0.0457689877722 -1.63300706797 21.6519505304 0.209171641674 16.3109548232
985 -0.85 -2.3722158709 -2.96037136816 1.71013859815 0.312661953348 3.23798361511 15.3229377655
986 0.425 1.03733514507 1.5751769873 0.215838087603 24.533085696 2.49925886125 14.9788703702
987 0.425 0.889482849759 -0.0573596161623 -1.79075659995 24.7542523506 3.56275752364 16.1981918643
988 -0.85 1.0280608011 1.91978973078 -0.732726489035 3.10784995281 2.74908350634 15.6579367048
989 0.425 -1.26874400283 -0.87004892314 1.04108502232 3.714417094 3.06817846676 14.9297471814
990 0.425 0.499589687217 -1.34676642889 -0.471289574635 2.47773295318 3.4827380269 15.9123161138
991 -0.85 0.0402297711862 4.64260786454 1.0489081108 6.2119925865 2.73707769445 15.3723614948
992 0.425 -1.40994211501 -1.6854232992 -0.493207757033 7.00935031859 3.29377328336 15.6054193007
993 0.425 1.23275582223 -1.20076908887 -0.220855555969 5.37865709491 3.26914902219 15.5222192045
994 -0.85 -2.36995437269 0.875685445199 -3.44070507609 9.47725021044 2.98128940369 15.8203719202
995 0.425 0.0575953522844 0.116315125709 1.7879498111 9.73703421784 2.72700629662 14.8887831464
996 0.425 2.19595827039 -1.30411447313 0.735204579355 8.68571557172 3.59170429969 15.7908449335
997 -0.85 -0.204685143935 -3.01092017737 -2.1776425333 12.3654776664 3.47782008677 15.5648706445
998 0.425 0.410421495869 1.99274369321 -0.501843061016 11.9742137625 2.75590433159 16.1356205656
999 0.425 -0.4618547828 1.11633539235 1.49690931578 12.8603085711 3.06627558165 14.7995087899
1000 -0.85 0.325574923453 -9.61290124851 -0.829267138575 15.3896908851 3.46653194896 15.540425729
1001 0.425 -1.07743772761 1.31981292214 -0.709745010777 15.9462369711 2.95549550686 16.1954856358
1002 0.425 0.609634815774 1.32479962476 1.22590539383 15.1640721438 2.87797254419 14.7640886352
1003 -0.85 0.234168691254 1.72757346038 0.442750364438 18.6375772683 2.73895655533 15.3720016017
1004 0.425 -1.73977231847 -0.956055002118 -0.430133587199 19.3774975502 3.29975152441 15.7435285208
1005 0.425 1.16130542783 -0.791776682332 -0.120532134203 17.7849251815 3.26129192026 15.3844698776
1006 -0.85 -0.334634353441 3.50224206128 1.6373869299 21.8631499976 2.79933802908 15.3235560499
1007 0.425 -1.01625878511 -1.30474962255 -1.04933043651 22.3525606006 3.59642906454 15.6772910005
1008 0.425 1.42532231429 -0.632336298747 -0.712690833997 20.8842894018 2.90423290638 15.4991529496
1009 -0.85 -1.14745469603 4.07342274742 1.99272825257 0.130711954557 5.88281942941 15.3254752723
1010 0.425 -0.793551039647 -1.79142679659 -0.767524646757 0.642980244991 6.73474341676 15.4341582558
1011 0.425 1.85275927521 -0.7257545431 -0.890955820709 24.0263078005 5.98243715383 15.7403664719
1012 -0.85 -5.3153649507 0.493315504324 -1.91878220407 3.32879697259 6.13129774547 15.8017945585
1013 0.425 0.628115580972 1.01403114105 1.4573618743 3.21909693707 5.52857428312 15.0114176847
1014 0.425 1.59856521577 -1.55996785481 0.299634983703 2.75210609034 6.9401279714 15.6867877567
1015 -0.85 5.97488989351 -0.647850164958 -2.08391326287 5.86248257805 6.09176671874 15.6500518467
1016 0.425 -2.23950344686 0.945607403397 0.131955793827 6.76027500692 5.79003493213 15.9708819515
1017 0.425 -1.05690428966 -0.82957310654 1.41140053508 5.97724241502 6.71819834912 14.8790662018
1018 -0.85 -2.22382913507 0.46895097764 -4.30079518573 9.47231930082 6.14536453295 15.8398073488
1019 0.425 0.143012687089 -0.942826627636 2.08488634563 9.78803670945 6.77086325209 15.1263095263
1020 0.425 2.0231189677 0.840516279053 1.31014607697 8.63964398973 5.68377221496 15.5338831249
1021 -0.85 -1.31989968284 -0.513598098296 -6.35609830912 12.6283664126 6.39164748738 15.7434502663
1022 0.425 1.33231853383 0.97580476884 0.65080723794 12.0349159152 5.62558825464 15.9903814947
1023 0.425 0.633309329743 -0.0936711566392 2.52932163917 12.5367176722 6.58276425797 14.766168239
1024 -0.85 0.951923967294 10.5148179373 -1.21254197443 15.5428458286 5.83671260083 15.6197268164
1025 0.425 -1.08518086829 -1.80468382183 1.48386285887 16.0444537136 6.25867931134 14.8645189659
1026 0.425 0.393015564052 -1.80514969621 -0.305994042964 14.9127004578 6.50460808783 16.0157542176
1027 -0.85 0.822474080407 3.51152116579 0.73407749535 18.5513917381 5.83076218085 15.4027956802
1028 0.425 -1.81797608089 -1.66614629276 -0.358670957225 19.4313217588 6.26755449613 15.5897205434
1029 0.425 0.938774163742 -2.0344593021 -0.0179962984614 17.8172865031 6.50168332302 15.5074837764
1030 -0.85 1.00673106711 3.0616729169 1.25653107112 21.6269139137 5.8338634329 15.4064561695
1031 0.425 -1.79376877683 -1.08775253191 -0.507320932353 22.5381795467 6.23379359149 15.5047215593
1032 0.425 1.06406982863 -1.69857129142 -0.344922410525 20.9349065396 6.53234297561 15.5888222711
1033 -0.85 -0.740014111427 -1.3378665989 4.44429148778 24.7894958509 9.43926731254 15.1413326213
1034 0.425 1.22207740242 0.640310139609 -1.50669664464 23.9899123298 9.18745636866 15.6865506638
1035 0.425 -0.877976035748 0.930310008717 -1.75455561371 0.820591819248 9.2732763188 15.6721167149
1036 -0.85 1.35360865477 -3.22842549966 0.598255331399 2.81673815364 9.56058591283 15.5023913244
1037 0.425 0.204218976637 1.51100507033 -1.20742579139 2.93170683779 8.82663777334 16.171799722
1038 0.425 -1.26457977433 0.648538546096 1.23954138015 3.55155500857 9.51277631383 14.8258089536
1039 -0.85 1.13540378033 1.33158288983 -3.61979039039 6.07653224999 9.09781860528 15.8033585475
1040 0.425 -0.168347933249 -1.14836989472 0.79156181311 5.94685275119 10.0807932884 15.6731691764
1041 0.425 -1.13422353598 0.487826936861 1.69243696661 6.57661499882 8.72138810627 15.0234722761
1042 -0.85 -3.01624049505 -0.611968313156 -0.531955589212 9.66496692281 9.42211864708 15.505847332
1043 0.425 1.29777903865 0.658908519102 1.39733661604 9.17147354627 9.11624899495 14.691652444
1044 0.425 1.2636828677 -0.112083574201 -0.932798299644 9.06355953092 9.36163235797 16.302500224
1045 -0.85 -1.88106156454 -0.157032833996 -3.74555266539 12.4992153097 9.3311620168 15.8705850254
1046 0.425 1.43774938783 0.409412094298 1.17252580876 11.589047514 9.08825045941 15.5350349823
1047 0.425 -0.661980619152 -0.333553165387 2.00740079909 13.1117371763 9.4805875238 15.0943799923
1048 -0.85 4.22304168912 -0.375430361939 -1.71291379031 15.1354027961 9.24212352426 15.6089366903
1049 0.425 -1.11788371894 -0.310157870451 1.97171084679 15.4273679289 9.51974358881 14.6936833191
1050 0.425 -1.81046516213 0.380983671871 -0.30852481672 15.937229275 9.13813288693 16.1973799906
1051 -0.85 -1.87489768749 -8.99444407182 -1.75708320266 18.6643932914 9.61182125002 15.7162614669
1052 0.425 1.81767814553 1.48022609664 0.89107640335 17.7645480465 9.22554018613 15.5136022769
1053 0.425 -0.702263774759 1.85667059084 1.42129785477 19.3710586621 9.06263856385 15.2701362562
1054 -0.85 3.03106446076 -2.34773709333 -3.81481154494 21.3818586255 9.35871525359 15.7085343972
1055 0.425 -0.423106106148 1.63594171841 1.22501232317 21.5224490548 8.60159885219 15.0705576277
1056 0.425 -2.14296101506 -0.466527376241 0.467291491807 22.1956923197 9.93968589422 15.7209079751
1057 -0.85 -2.39787202517 0.31531369651 -0.708449367352 0.323927028887 12.3904190148 15.707671603
1058 0.425 0.594674289323 -0.62514164324 1.2856839487 0.224095452993 12.8267891373 14.8134568384
1059 0.425 1.93353631154 0.470937351339 -0.380169703357 24.2519775181 11.9827918479 15.9788715586
1060 -0.85 -5.74327992832 0.775591734735 2.59478086539 3.44022736607 12.2678305357 15.3778337932
1061 0.425 1.82808660599 0.122055400252 0.502102470188 2.57999384675 12.2021694791 14.8721736402
1062 0.425 0.88138275536 -0.576619040486 -2.20659948051 3.27977878719 12.7299999852 16.2499925666
1063 -0.85 6.34812424486 1.02762150212 0.172149179933 5.92487304933 12.1319359009 15.4756112776
1064 0.425 -0.963453492835 -1.20746171882 -1.61123136929 6.06509530859 12.7463688008 16.2520230253
1065 0.425 -1.72635549167 -0.3522520151 1.25203893674 6.61003164208 12.3216952983 14.7723656971
1066 -0.85 1.15437711307 -0.766318723355 -1.80413254589 9.10441791506 12.4493748381 15.8278075402
1067 0.425 -0.424402627802 -0.402263520893 1.35146148289 9.23074484371 13.1449170191 15.1205113829
1068 0.425 -0.647798249131 0.940605644291 0.722533122169 9.56483724124 11.6057081428 15.5516810769
1069 -0.85 0.682159220649 4.38230381254 -0.183410779615 12.2884560811 12.0320254301 15.5173401281
1070 0.425 -1.82468146383 -1.41471717193 -0.0866513831882 13.2308702713 12.3544475246 15.6062488437
1071 0.425 0.65865677995 -1.84407449834 0.226205184794 11.6806736476 12.8135270454 15.3764110282
1072 -0.85 -1.5860080496 2.77421449328 -0.669361495395 15.6453950501 12.0447321688 15.5281612771
1073 0.425 -0.724575971127 -1.59686560377 0.5432700403 16.1738199897 12.8710528798 15.333311493
1074 0.425 2.15683735972 -0.98285093567 -0.0222687319706 14.6807849601 12.2842149514 15.6385272299
1075 -0.85 -0.655742122937 8.63279143108 -1.82585999401 18.5908916298 12.0152082135 15.500573275
1076 0.425 -1.16338599851 -1.61057460456 0.715878151503 19.4188431701 12.5730362517 15.4428723288
1077 0.425 1.59382495798 -1.82496128905 0.404570399942 17.7902652 12.6117555348 15.5565543962
1078 -0.85 2.96168382995 1.99438117429 -2.82718616658 21.4645119508 12.1626033283 15.6906205891
1079 0.425 0.163030823525 -0.96578171313 1.30121806065 21.1725119924 12.8854581045 15.0643440771
1080 0.425 -2.38329487067 -0.0820075673272 0.130656705273 22.4629760568 12.1519385672 15.7450353338
1081 -0.85 -0.652480635261 0.272272854559 3.6963590405 24.7902825976 15.4919094783 15.1153077522
1082 0.425 1.68304217164 0.0208214772992 -1.52471160857 23.9907340905 15.4457484284 15.7141371226
1083 0.425 -1.11651863678 -0.142678346939 -1.42428226579 0.818983311899 15.5623420932 15.6705551252
1084 -0.85 -1.09872930968 2.87855641484 1.10437299199 3.07833622938 15.1163824567 15.4772783907
1085 0.425 -0.917813219896 -1.49491460494 -0.333215212928 3.92472529912 15.6487451325 15.4624191665
1086 0.425 1.59935221397 -1.01382432371 -0.509972677221 2.29693847151 15.7348724108 15.5603024428
1087 -0.85 2.69310667846 1.97501476983 0.299893729962 5.88994861297 15.2896396892 15.4118825384
1088 0.425 -0.870111647313 -0.62296414926 -0.985659076086 6.18735495664 15.5195073783 16.3385516189
1089 0.425 -1.43432544083 -1.17031354835 0.81655060249 6.52269643039 15.6908529325 14.7495658427
1090 -0.85 -1.78072549028 1.87995202592 1.94716388036 9.35444694692 15.208624998 15.2544716957
1091 0.425 0.353870324441 -1.75485978157 -0.0685288912476 9.31850029134 16.1759785936 15.0035929768
1092 0.425 0.416005332481 0.107283415092 -1.59677776271 9.22705276175 15.1153964083 16.2419353275
1093 -0.85 4.60853747854 -0.0409939899318 -0.262760400299 12.0203562815 15.5274427314 15.5571450214
1094 0.425 -1.42025942977 1.32651329288 0.0183969417257 12.5579569701 14.6886019319 15.6428006415
1095 0.425 -1.8901395437 -1.20343665673 0.408919086685 12.6216867484 16.2839553367 15.3000543371
1096 -0.85 -0.196123140831 3.15250831744 -0.463868364398 15.467229898 15.1166666641 15.5113878896
1097 0.425 -1.10855397487 -1.30049344023 0.12329611954 16.3290704709 15.6233616919 15.5336645178
1098 0.425 1.39365840709 -1.64628608389 0.156514217579 14.7036996311 15.7599716439 15.4549475926
1099 -0.85 -4.32527847346 -0.328297141157 0.64030853946 18.9779601088 15.5077515548 15.4276530611
1100 0.425 1.9741920732 0.325046604207 0.762920509529 18.2751421701 15.1861938428 14.7931037286
1101 0.425 1.32673796131 -0.435547219107 -1.08419450115 18.5468977212 15.8060546024 16.2792432103
1102 -0.85 3.42724441098 2.24287892037 2.42486729011 21.5768677092 15.2415843871 15.2426911972
1103 0.425 -2.010051898 -0.653464120751 -1.09322610975 22.5128696344 15.3121501256 15.5875478995
1104 0.425 -0.0927392794715 -1.87298049107 -0.947876310869 21.0102626564 15.9462654872 15.6697609033
1105 -0.85 -3.78717962606 -1.39085320255 -4.504026484 0.0958730300993 18.6306697471 15.8715046954
1106 0.425 1.75770459357 -0.784279821853 1.53208286089 24.4564084865 19.3456373736 15.3277239671
1107 0.425 0.656093255024 1.63256246541 1.09196894969 0.24771848336 17.8236928794 15.3007713375
1108 -0.85 4.49978045332 -0.0481270045544 1.0795779665 2.74664148253 18.4709067555 15.4186323016
1109 0.425 -2.18184857602 0.9564416891 -0.535844434798 3.52555411229 17.8986031829 15.6750869924
1110 0.425 -1.59681689802 -1.47868235092 -0.382193125293 3.02780440519 19.4304900617 15.406280706
1111 -0.85 -1.63923347919 -5.53209553009 -0.499707350608 6.39197135106 18.8633682482 15.7047734754
1112 0.425 -0.222505013577 1.54755959909 1.46784559484 6.77981187725 18.3100831331 14.9675756863
1113 0.425 1.71172168943 0.900403661089 -0.155300166555 5.42821677169 18.6265486187 15.8276508383
1114 -0.85 0.808728170149 -0.8106706581 3.47305667327 9.26815496992 18.5377845823 15.1214988166
1115 0.425 0.0563868895086 1.30870878417 -1.23575099895 9.11883925524 17.8520627835 15.8338861442
1116 0.425 -0.763646021555 -0.710326046914 -1.29691395091 9.51300577483 19.4101526342 15.5446150392
1117 -0.85 0.151584333513 -3.03503917378 3.51280458607 12.4544268356 18.9109764181 15.2798196264
1118 0.425 -1.37320387496 2.04256440234 -0.65087869208 13.1695318142 18.2721512575 15.5636022126
1119 0.425 1.04583519665 0.982541360893 -1.23542871043 11.5760413501 18.6168723243 15.656578161
1120 -0.85 0.261236904324 -7.34573016612 -2.4145118906 15.476124067 18.869132238 15.7741273213
1121 0.425 1.4426770587 2.04649087411 0.721670275827 14.7335636399 18.2590018016 15.4978120389
1122 0.425 -1.3649363656 0.972476202069 1.25856744707 16.2903122931 18.6718659604 15.2280606398
1123 -0.85 -0.317979696005 2.57997912313 -1.18693043568 18.5201585158 18.2393595736 15.6082212098
1124 0.425 -1.34776973236 -0.658265071671 0.744718052566 19.4351251223 18.5967575326 15.420849706
1125 0.425 1.39811808633 -0.996053089878 0.610029982043 17.8447163619 18.9638828938 15.4709290842
1126 -0.85 1.44870275861 -1.43915982186 -3.159786491 21.5165692683 18.8022670746 15.7712733072
1127 0.425 -0.292926969237 1.83879526563 0.642861771626 21.5229475566 17.80481922 15.7001229921
1128 0.425 -0.939665529093 -0.363702482726 1.71100302132 22.0604831752 19.1929137053 15.0286037007
1129 -0.85 -4.25459416656 2.07929662957 -2.7442294992 0.156047743793 21.4744119839 15.7700132564
1130 0.425 0.209313452999 -0.968767670034 1.95355299605 0.60646634196 21.7575975538 14.9232935319
1131 0.425 1.949818111 -0.793968889402 0.55157075834 24.0374859142 21.8679904623 15.8066932117
1132 -0.85 4.48667652094 1.24984213593 0.385621914776 2.74900611235 21.5585595537 15.4296729
1133 0.425 -1.89841586194 0.723508497007 -0.730285415166 3.5064358166 21.0478289814 15.8364403989
1134 0.425 -0.783598262789 -1.5431354348 0.243011673975 3.04455807104 22.4936114649 15.2338867011
1135 -0.85 -1.554049355 5.68434149737 1.0105119986 6.30848591283 21.3605911581 15.3544649363
1136 0.425 0.860291985731 -1.38425749267 0.549175022166 5.92102389944 22.117277711 14.8278683911
1137 0.425 0.0928728933434 -0.966756786614 -1.98760715171 6.37049018773 21.6221311309 16.3176666727
1138 -0.85 1.00886335058 1.62048654698 1.89079625181 9.20204367292 21.4491437289 15.2250023651
1139 0.425 0.884105507617 -0.781965552006 -1.4723286844 8.58629400593 21.8044950345 15.9282683671
1140 0.425 -1.19722941006 -0.716364995919 -0.360827654086 10.1116623211 21.8463612366 15.3467292678
1141 -0.85 1.133535924 -2.75829989467 -2.49762142022 12.2752727737 22.0530501565 15.589144355
1142 0.425 -0.835341125191 0.414686215927 1.2951615448 12.741724238 21.8026138993 14.7407871278
1143 0.425 0.019825398106 1.66633218936 -0.422140537346 12.1830029883 21.2443359442 16.1700685172
1144 -0.85 0.329643819632 7.07960499067 1.14911004811 15.5102847743 21.3157060124 15.4810167301
1145 0.425 -1.62505782073 -1.58431305042 -0.439967617015 16.3102760994 21.9121447911 15.5464379457
1146 0.425 1.12482945135 -1.49045510697 -0.248384799218 14.6794391263 21.8721491964 15.4725453242
1147 -0.85 -0.855711593504 2.00872622511 1.14924823237 18.5982522161 21.3151042667 15.5004793309
1148 0.425 -0.65113831355 -1.00758614902 -0.15688172644 19.4173603798 21.888736674 15.4968807097
1149 0.425 1.69112253285 -1.3334930797 -0.441414862297 17.7843874041 21.8961590592 15.5026399594
1150 -0.85 1.89565172694 -0.895210452913 -3.42583027752 21.4167627965 21.8831728712 15.6853979391
1151 0.425 -1.57008394469 -0.402810133221 1.33812287708 22.090933306 22.3172599383 15.0878464227
1152 0.425 -0.777083038745 1.63989465836 0.678993529906 21.5923038975 20.8995671905 15.7267556382
1153 -0.85 1.45128767545 2.28868960879 -4.28490148475 24.6345214187 24.6416353571 18.9093307114
1154 0.425 -1.07184853966 -1.93005546561 0.829632342475 0.349074460468 0.699086927975 18.9051782114
1155 0.425 -0.294362279454 -0.217278864561 1.89625580309 24.6164041208 24.259277715 17.9854910773
1156 -0.85 -3.28780979279 1.4600806429 0.0129776548359 3.46180408236 24.671146134 18.6253475286
1157 0.425 1.12207825182 -1.25782251564 -1.10246005504 3.01480615317 0.47115570856 19.2888131526
1158 0.425 1.49063235408 -0.0972701147774 0.984074428286 2.82338976447 24.4576981574 17.8858393187
1159 -0.85 0.763672149436 3.15177493257 -1.16513612978 6.20482164418 24.4171832674 18.6397002645
1160 0.425 -1.05177309305 -1.47901098869 0.282984329404 7.00029521287 0.216792196793 18.7274282864
1161 0.425 0.851458243005 -1.44845647746 0.599317584829 5.39488314294 0.166024535795 18.4328714492
1162 -0.85 0.419369587233 1.49622961644 -2.48055342041 9.19889259212 24.5197406107 18.8436800706
1163 0.425 -1.36331317966 -1.08722288261 0.136944104427 9.9230025931 0.390597497851 19.0037457321
1164 0.425 0.863902221377 -0.613282333958 1.29646203016 8.77810481478 24.6896618914 17.9525741973
1165 -0.85 1.65069588158 2.91450018707 0.652588346136 12.2443746832 24.4479808043 18.6033550936
1166 0.425 -1.79060672078 -0.964008368204 -0.368766867812 13.2206857027 24.6484155038 18.6848903438
1167 0.425 0.314863800122 -1.88886231207 -0.00793773981662 11.7349396141 0.503603691844 18.5117545626
1168 -0.85 -1.01947615601 7.285161531 -0.456409225701 15.4697068131 24.4180186837 18.5636598454
1169 0.425 -1.13693926414 -0.737222975833 0.0899065807547 16.3184047896 0.140361857502 18.4807464811
1170 0.425 1.87480535636 -1.20302332435 -0.426860750373 14.7118883972 0.241619458787 18.7555936735
1171 -0.85 0.866877778979 -2.54516743847 2.07435706634 18.4697183055 0.234502453641 18.323986795
1172 0.425 -1.69897341234 0.0829069880273 -1.18718477245 19.3000714858 0.380998887848 18.8616276262
1173 0.425 0.514558769265 1.5448276995 -0.53630291385 18.0302102087 24.1844986585 18.6143855788
1174 -0.85 -0.610908766529 3.71693357025 -1.52387017507 21.6736423284 24.4168960423 18.6261656401
1175 0.425 -1.13692289093 -1.60296834676 0.652265002253 22.5226696292 0.129905892439 18.4997583277
1176 0.425 1.37815007479 -1.44183412046 -0.0224566242965 20.9036880425 0.253198065284 18.6740760322
1177 -0.85 1.89183464118 -0.833226902133 -1.3942768705 24.4722825479 3.21904387592 18.7630271058
1178 0.425 -1.30597628096 -0.819120306409 0.179426306612 0.514687651079 3.75446766955 18.702361828
1179 0.425 -0.577559320055 1.60995754901 0.944691884442 24.613029801 2.32648845452 18.3346110662
1180 -0.85 1.48821331727 -0.647616093714 0.966877947856 2.71971454892 3.13671631579 18.5532785076
1181 0.425 -1.03071634835 0.223259671999 0.873315727963 3.38459555414 3.03000096045 17.8139880678
1182 0.425 -0.62425574948 0.17527402064 -1.89933863378 3.19568989694 3.13328272376 19.4327334246
1183 -0.85 2.20355404094 0.133197129363 -1.41156124014 5.82891454579 3.09038896425 18.7017409635
1184 0.425 -1.34336043421 -0.380455204782 -0.317937998149 6.59170295525 3.28578557218 19.3181655579
1185 0.425 -0.930321340074 0.0890608503345 1.51690217549 6.17938249896 2.92382546357 17.7800934786
1186 -0.85 -2.61866703764 0.805803981324 -0.386624358731 9.57319499791 2.82888062567 18.6026053752
1187 0.425 0.379833339479 -1.3046310572 0.0631535208217 9.73728757578 3.81326271502 18.5388025496
1188 0.425 2.35061020026 0.0365797182938 0.206049471858 8.58951742631 2.65785665931 18.6585920752
1189 -0.85 1.59974940905 -2.91922567308 3.54228028306 12.3519040497 3.35679835777 18.3173528825
1190 0.425 -0.367774391567 2.26455316567 -0.343272057512 12.3263889922 2.36341277716 18.2053736765
1191 0.425 -0.828123278003 0.187511170041 -2.23403966822 12.5217069581 3.57978886507 19.2772734409
1192 -0.85 -1.48567783753 0.924874925179 2.28376730908 15.6685515685 2.81225684669 18.4077963151
1193 0.425 -0.509527787785 -0.918340518389 -1.49129796912 16.1488154345 3.51764870913 18.9291159981
1194 0.425 1.83058545107 -0.0259076404205 -0.873404458219 14.682632997 2.97009444418 18.4630876868
1195 -0.85 -3.04406334314 -0.139166826975 2.34764133655 18.7794354567 3.03561594862 18.265626525
1196 0.425 0.130872613405 1.12505345694 -1.75613401615 18.7490287599 2.39926662276 19.0364314554
1197 0.425 1.25285382944 -0.831893202119 -0.829823265525 18.2715357834 3.86511742862 18.4979420196
1198 -0.85 5.50704917581 -1.32717642331 0.633787346063 21.3397028395 3.23282493131 18.5737035408
1199 0.425 -1.52558106024 0.220478604607 -1.77283823694 21.9209989656 3.29717740367 19.3848501648
1200 0.425 -1.51671680944 0.932341305302 0.99954515547 21.8392981949 2.76999766502 17.8414462944
1201 -0.85 2.53949621958 -0.735565170365 0.956844574155 24.4729673662 6.29040472247 18.4182731375
1202 0.425 -0.692158183547 0.950140494604 -1.34725048757 24.5415250624 5.7067499973 19.2273789875
1203 0.425 -1.82338065078 -0.413283470846 0.339893263109 0.585507571397 6.60284528023 18.154347875
1204 -0.85 -3.52988032104 0.330955602087 -4.8361073577 3.27560501617 6.0042819388 18.8810788658
1205 0.425 1.79006959218 0.39979876858 1.25884639558 2.68006233137 5.60459774796 18.1842383312
1206 0.425 1.09146445367 -1.50662650725 0.67575894833 3.34433265246 6.99112031325 18.734682803
1207 -0.85 3.00180489619 -6.57140091593 0.606203656801 5.93560140072 6.47217666678 18.5354922272
1208 0.425 -0.685247857343 2.17088827828 0.446930983613 5.86626646657 5.51877019967 18.2418699394
1209 0.425 -2.16528842915 0.738981865724 -0.796951046188 6.79813213271 6.60905313355 19.0226378334
1210 -0.85 -1.68213004568 1.85602508867 1.34498060693 9.41958809081 5.83462137393 18.5814215677
1211 0.425 -0.595143915629 -1.56760620887 -0.139693607363 9.98256860396 6.63712777592 18.3838318689
1212 0.425 1.89221563374 -0.600407691404 -0.402796137201 8.49784330522 6.12825085015 18.8347465634
1213 -0.85 0.268690615845 -0.580274070242 6.8087620892 12.3274255517 6.20974375498 18.2221296271
1214 0.425 -1.22916865173 0.825308095022 -1.8124474675 12.9605345263 5.5801046668 18.6723883499
1215 0.425 0.739318238214 -0.80343875137 -1.97122983006 11.912039922 6.81015157823 18.905482023
1216 -0.85 -0.12605402686 2.74034195219 0.510563985862 15.5092509237 5.81599503871 18.6245483221
1217 0.425 -1.49984767581 -1.34968717858 0.103183371439 16.3110057909 6.40952074027 18.5543938705
1218 0.425 1.25073946674 -1.23117226798 -0.32849778494 14.6797432854 6.37448422101 18.6210578074
1219 -0.85 -1.39694366076 3.06576183714 -0.852525890637 18.6423948571 5.81868718254 18.6308418764
1220 0.425 -0.879024010716 -1.64615010804 0.642016777339 19.38761446 6.47461161303 18.5107745726
1221 0.425 1.72565253032 -1.22404421114 0.253460616618 17.7699906829 6.30670120443 18.658383551
1222 -0.85 3.01652402676 1.0317070822 -2.16440711083 21.3877493962 6.15953561165 18.8213824828
1223 0.425 -1.09883480418 0.593818012307 1.39517668494 21.6804597838 5.51721229369 18.1130417055
1224 0.425 -1.13880940924 -1.24117512564 0.30364544736 22.0317908201 6.92325209466 18.8655758117
1225 -0.85 5.50176337468 -0.579867904608 -0.460836412496 24.4476155631 9.26250815054 18.7502250973
1226 0.425 -1.20029107035 0.3780269818 1.8777250261 24.6855753645 9.10977388649 17.7910313473
1227 0.425 -2.07447063621 -0.132049430533 -0.720268238586 0.466809072429 9.52771796297 19.2587435554
1228 -0.85 -3.80557431864 1.37426415587 -0.939724148087 3.41864906279 9.10030666816 18.6820570412
1229 0.425 1.25136342283 -0.496720977438 1.40432742987 3.18810983324 9.47649526176 17.7846501779
1230 0.425 2.11634649376 -0.49929871163 -0.822288245561 2.69324110397 9.32319807008 19.3332927809
1231 -0.85 1.79433728463 6.83008553214 0.808691697321 6.26870554446 8.92280875591 18.5660246627
1232 0.425 -2.0379065824 -1.6929613829 -0.261645103043 6.96901436691 9.63324181459 18.635721828
1233 0.425 1.08496894302 -1.34408100072 0.0344906123382 5.36228008862 9.3439494295 18.5982535093
1234 -0.85 0.329832538451 3.47528552163 0.148220861217 9.30096518239 8.91510203777 18.5992018198
1235 0.425 -1.30390838 -1.65004682928 -0.264250503854 10.1160126943 9.49450032517 18.5985307462
1236 0.425 1.07608306662 -1.81146725971 -0.0357408312531 8.48302212328 9.49039763707 18.602267434
1237 -0.85 -1.06543560288 3.49064733848 3.16390962959 12.518182542 8.94632529143 18.5046317805
1238 0.425 -0.598068488598 -1.88432578567 -0.440863098495 13.043763984 9.78643573725 18.370527869
1239 0.425 1.94819306297 -1.16002161686 -0.964752769932 11.638053474 9.16723897132 18.9248403505
1240 -0.85 -3.25848337393 0.827043096493 -0.818837762025 15.8636944647 9.17401593574 18.6015368458
1241 0.425 1.22533742667 -1.6150925683 -0.291043362884 15.5683790756 10.0887451316 18.8773349454
1242 0.425 1.36510600479 0.643721668742 0.388101323665 15.0679264597 8.6372389327 18.3211282087
1243 -0.85 1.31116261002 -1.15400951492 -4.6035041536 18.5978416217 9.29887809505 18.9848923132
1244 0.425 1.05677449278 0.0347122369756 1.46669836867 17.8124428469 9.51200948781 18.4037477128
1245 0.425 -1.56326117014 0.962458346256 1.22873866858 19.3897155314 9.08911241714 18.411359974
1246 -0.85 -3.02174087634 -0.608772663933 3.34427585384 21.9208501918 9.3451919203 18.2880210053
1247 0.425 0.134892725308 -1.01421676757 -1.69381543149 21.8103948207 10.0179643489 19.0195824469
1248 0.425 0.888039421074 1.54921755415 -0.61750940085 21.3687549875 8.53684373079 18.4923965477
1249 -0.85 0.956427495869 2.7947975005 -1.38912910147 24.6527939331 12.0726758737 18.7390586215
1250 0.425 -1.19451221295 -0.306760926005 1.01510628602 0.521296358892 12.1361353149 17.9980574889
1251 0.425 0.30258014434 -1.64577379089 -0.451397808815 24.425909708 12.9911888114 19.0628838896
1252 -0.85 -3.25796654746 -1.49713907913 -1.22534774818 3.40731632465 12.6053683601 18.707370961
1253 0.425 1.10364778486 0.398467309274 1.65910550984 3.09855350874 12.4781492136 17.7647755627
1254 0.425 1.5824759434 1.29051147738 -0.856428025499 2.79413016661 12.1164824263 19.3278534763
1255 -0.85 2.20499591857 2.58086229251 0.761248944247 6.13835852483 12.0345178301 18.4962159839
1256 0.425 -0.832094854285 -1.14583358979 -1.51768823188 6.14416006607 12.3745205725 19.4366253361
1257 0.425 -0.776997979528 -1.62995605025 0.938064736124 6.3174814091 12.7909615975 17.86715868
1258 -0.85 -1.24183783443 0.111103969025 -1.98583307902 9.48718741408 12.3973288758 18.9363060319
1259 0.425 0.272964532505 1.364288451 0.911912248639 9.35799813159 11.6041753788 18.3411397258
1260 0.425 0.753885757189 -1.59248051286 0.685736772924 9.05481445433 13.1984957453 18.5225542423
1261 -0.85 -2.59898210506 0.666648053789 0.133140841536 12.7744219779 12.3108027599 18.6002116536
1262 0.425 1.06901419945 -1.48040575188 -0.17708018896 12.3906642893 13.191919622 18.876559956
1263 0.425 1.54534968945 0.83042643272 0.177871455282 12.0349137328 11.6972776181 18.3232283904
1264 -0.85 -3.00409676952 -2.50913483253 0.763668520088 15.8682487867 12.5033517177 18.5568808211
1265 0.425 1.37988842113 1.30597910878 0.554001491714 15.3864713758 11.833895537 17.9914392052
1266 0.425 1.50272173128 -0.0384640977416 -1.34307829968 15.2452798376 12.8627527453 19.2516799736
1267 -0.85 -0.864711563714 2.71570228252 1.39649947935 18.6727032336 12.0462204722 18.4669500263
1268 0.425 -0.777336339339 -1.59457119252 -0.24723852277 19.3021601551 12.8217739012 18.4189277897
1269 0.425 1.18115085141 -0.757848536804 -1.11812661257 17.8251366112 12.3320056266 18.914122184
1270 -0.85 3.79984082679 0.00349839072086 2.9018689686 21.3877991215 12.4866827968 18.3922388048
1271 0.425 -1.81052139752 0.865219738392 -0.117150512001 22.0951396566 11.8319581394 18.1257612954
1272 0.425 -1.18983597071 -0.437193078866 -1.71710415983 21.6170612218 12.8813590638 19.2819998998
1273 -0.85 1.67593332286 -1.17273837209 -1.28879651201 24.4419928033 15.564341158 18.7258533768
1274 0.425 -0.311967695647 0.280602005393 1.97764699481 24.7427522008 15.64311763 17.7754096253
1275 0.425 -0.731288249149 0.979026258567 -0.668203909394 0.415254995903 15.292541212 19.2987369978
1276 -0.85 1.63400565862 -4.31230873099 -1.91191702638 2.7654868589 15.6737549867 18.6778342664
1277 0.425 -0.808385642386 0.826884704365 1.59980683452 3.08031495958 15.4092573021 17.7662809139
1278 0.425 -1.73521417132 0.911594847529 -0.255258810273 3.45419818152 15.4169877112 19.3558848197
1279 -0.85 0.489151231906 -0.650149807415 2.55560467787 6.2263383145 15.5033971328 18.2160172365
1280 0.425 0.934311072979 0.389249129462 -1.01393742463 5.37618653077 15.4185688012 18.7356819084
1281 0.425 -1.47677932585 0.281838622243 -1.37170066683 6.99747515473 15.578034066 18.8483008551
1282 -0.85 -1.54559991945 -5.56104615354 1.50994024288 9.46042668709 15.7106810777 18.3206708544
1283 0.425 0.387022171118 2.14613364832 -0.436044511806 9.5601459556 14.7213971464 18.427341578
1284 0.425 1.38182354918 0.561198097421 -1.57224671149 8.87942735731 16.0679217758 19.0519875676
1285 -0.85 -0.196079795696 -1.12393876848 -4.46128869344 12.4488143555 15.4922246181 18.9817128661
1286 0.425 0.290623035102 1.68938323291 1.37440558244 12.3564589918 14.68773505 18.3949656512
1287 0.425 -0.139456594665 -0.749487522704 1.58149982568 12.3947266527 16.3200403318 18.4233214827
1288 -0.85 -1.46739422058 4.73118745418 -0.703137297986 15.655845318 15.1489828908 18.6254408318
1289 0.425 0.618726095682 -1.49103876149 -0.744743927431 15.2516774794 15.65771449 19.385602519
1290 0.425 0.295180238315 -1.76791786314 1.51732475806 15.5924772026 15.6933026192 17.7889566492
1291 -0.85 -0.184067342012 2.77587540333 -0.511629221206 18.6033217553 15.1151274709 18.6031799859
1292 0.425 -1.02020347141 -1.33996410579 0.334212500899 19.414705376 15.6995890002 18.6113416889
1293 0.425 1.33820905808 -1.53925911758 0.299905013181 17.7819728688 15.6852835289 18.5854783252
1294 -0.85 1.2924176155 0.651244021638 -2.96782432051 21.5554100432 15.4123807404 18.9457811732
1295 0.425 -0.448672657904 -1.23911989862 1.21704791889 21.6020261704 16.3319500864 18.5556216838
1296 0.425 -1.02068871851 0.715636578614 1.36591572529 21.9425637864 14.7556691732 18.2985971429
1297 -0.85 -3.93526889586 -0.537741457512 3.80790988846 0.34900542169 18.6253022948 18.4396783873
1298 0.425 1.25158623296 -0.532361227103 -1.80102845949 0.104984349059 18.9646779858 19.3481293375
1299 0.425 2.4236512514 0.896919525171 0.184188986809 24.3460102293 18.2100197194 18.0121922752
1300 -0.85 2.75383565291 4.83576967509 0.250498721701 3.0390839134 18.2247988514 18.5394910049
1301 0.425 -1.92625282387 -1.39528800279 0.109524702193 3.93647512133 18.6628957175 18.5920783452
1302 0.425 0.309874542673 -1.39345331038 -0.653179857139 2.32444096527 18.9123054311 18.6684306498
1303 -0.85 -0.0328020463948 0.613113059567 -6.54317808461 6.28972987804 18.4539519272 18.9446251868
1304 0.425 -0.361877640769 0.457132716396 1.69091736725 6.58759161549 18.0829900678 18.0650395135
1305 0.425 1.28800720928 -1.57433250503 1.15038274127 5.72267850647 19.263058005 18.7903352997
1306 -0.85 -0.65397197508 5.0924852107 -0.452142284455 9.36611554718 18.2241640738 18.5497595681
1307 0.425 -0.859208189526 -1.3978948848 0.940135157901 9.88745807597 18.9639987519 18.1244927234
1308 0.425 0.94005294085 -0.774215399169 -0.413747361361 8.64642637685 18.6118371743 19.1257477084
1309 -0.85 0.571948447219 2.9411976795 -1.07795725473 12.3140528009 18.2458461772 18.7238392457
1310 0.425 -0.589513165075 -1.72117009267 -0.840525951599 12.7118351298 18.9726028044 19.2838386173
1311 0.425 0.124369559983 -0.709511285066 1.70110172256 12.1741120693 18.5815510184 17.792322137
1312 -0.85 2.54938860975 -0.70965881275 1.84283796335 15.1681097913 18.7566971015 18.4840564026
1313 0.425 -1.41320821007 -0.960139951281 -1.30778227733 15.7504515467 19.1127213458 19.2148984443
1314 0.425 -0.976323698683 1.63170362088 0.406993518061 15.5814386619 17.9305815527 18.1010451531
1315 -0.85 -1.29925387379 2.79471281137 0.630958108854 18.5808900682 18.2179086745 18.5577029609
1316 0.425 -0.853030392625 -1.49401996867 -0.497585781577 19.4218605268 18.7429756107 18.6883883579
1317 0.425 1.59165251182 -1.53956183103 -0.322776495521 17.797249405 18.8391157148 18.5539086812
1318 -0.85 2.67180102244 1.46521167877 1.18242015667 21.3920351433 18.3749239187 18.5485566851
1319 0.425 -1.71386904933 0.238031143121 0.462946342578 22.2768848097 18.2543863655 18.0985377537
1320 0.425 -0.374076089826 -1.53344853909 -1.19575702534 21.431080047 19.1706897158 19.1529055612
1321 -0.85 -5.40946707023 1.99501678334 0.920808239164 0.338290433819 21.5189622588 18.5694561191
1322 0.425 0.909545487245 -0.971823539948 -0.842724781014 0.0840116946235 22.1472536776 19.3047094689
1323 0.425 1.88582077806 -0.222724842816 0.674200402268 24.3776978716 21.4337840635 17.925834412
1324 -0.85 5.53645329372 2.04934895745 -0.424438910598 2.87775656595 21.3865008791 18.6217753813
1325 0.425 -2.38787166583 -0.169361756491 0.221060440797 3.87775131868 21.3861614795 18.617819143
1326 0.425 -0.202104717317 -2.20223383857 0.164852516392 2.54449211537 22.3273376414 18.5604054756
1327 -0.85 -1.09785488542 -0.69129059502 -3.37068862709 6.35190404312 21.647510876 18.9497399942
1328 0.425 -0.406688117459 -0.447575078731 1.83652500175 6.67378480777 22.3107499633 18.274083307
1329 0.425 1.63350359581 0.87546096614 1.26794205113 5.57431114912 21.1417391607 18.5761766988
1330 -0.85 -2.39064083916 -0.191816077834 2.01239112909 9.53858190609 21.6159393602 18.3098957206
1331 0.425 -0.197276419638 -0.589204520436 -1.90204757332 9.77779660309 22.1577528558 19.1156374517
1332 0.425 1.58098180108 0.399312443703 -0.142354091277 8.58362149082 21.326307784 18.3744668277
1333 -0.85 1.84527432383 -1.38222684728 4.12168778869 12.3231682287 21.6514232856 18.2259877118
1334 0.425 -0.441439027298 -0.755860309254 -1.56901024873 12.3597618845 22.5321290659 18.698241357
1335 0.425 -0.640995494983 1.42502014055 -1.61863815333 12.5170698869 20.9164476485 18.8757709312
1336 -0.85 -0.233150266599 -8.08570463929 0.0757366349066 15.6754719034 22.0070528287 18.7519084642
1337 0.425 0.654610519449 0.536254825272 1.31674971323 15.2317937621 21.9800474631 17.8561262978
1338 0.425 0.0592383922031 2.0105760191 -1.19868904073 15.5927343345 21.1128997082 19.1919652381
1339 -0.85 -2.62515737277 -0.318808090218 -0.381892814935 18.938982683 21.7133984989 18.7818219758
1340 0.425 0.782944366082 -0.36400631463 1.30415401705 18.7944059779 21.9193413071 17.8139943007
1341 0.425 1.58275679153 0.693439606572 -0.880159364712 18.0666113391 21.467260194 19.2041837235
1342 -0.85 -0.263309642401 -1.93429826778 4.13826929308 21.8768294588 21.713527455 18.25839151
1343 0.425 -0.123958305856 1.47822610382 -1.66078595913 22.0923102573 21.0725250408 18.9950659313
1344 0.425 1.33650189794 -0.476884238353 -0.954119749948 21.1308602839 22.3139475043 18.5465425587
1345 -0.85 0.104092588875 7.26667832612 2.74536211657 0.00276492569601 24.4369984687 21.5720537086
1346 0.425 -1.46201239592 -1.43876714591 -0.142524568872 0.80990715696 0.217550341957 21.6792274624
1347 0.425 1.43957212747 -1.27426610859 -0.910579530089 23.9873279173 0.145451189319 21.848718829
1348 -0.85 -0.57503759158 -0.0106530229806 -4.09858176052 3.22466040191 0.00679866195795 22.0640900608
1349 0.425 0.0239029354853 -1.1096067522 1.68664770545 3.35643054711 0.738178630886 21.3949673199
1350 0.425 0.582676226952 0.805594952572 1.15409829334 2.71890905098 24.0550227072 21.6409426192
1351 -0.85 0.374650967526 2.34671834381 0.329509395601 6.1605671643 24.4185926413 21.7334886277
1352 0.425 -1.15611046988 -0.893748159212 -0.149781654328 7.02902655625 0.10164809561 21.6219494639
1353 0.425 1.07686843681 -1.46923244721 0.0106684118523 5.41040627945 0.279759263103 21.7445619084
1354 -0.85 0.865159401014 -2.55884928121 3.59058198588 9.09873607512 0.246726319166 21.4837432869
1355 0.425 -0.107065597282 2.10299820286 -0.690089597742 9.00837396185 24.0511090891 21.4595298148
1356 0.425 -1.00874027374 0.240908001852 -1.74378228799 9.79288996303 0.502164591709 22.1567268984
1357 -0.85 2.29509586851 -2.28026464878 1.42228391769 12.1373712896 0.248905901461 21.5687749159
1358 0.425 -0.18518422552 2.11032658234 -0.348504476702 12.0423768482 24.0534362324 21.5641417108
1359 0.425 -1.79629688369 -0.0567858564516 -0.852161937513 13.0202518621 0.497657866139 21.9670833733
1360 -0.85 -3.46114027445 -0.613875811562 1.89494899022 15.8067636514 0.0462388967639 21.4721710366
1361 0.425 1.72427976636 0.959097421785 -0.30345595666 15.1070479042 24.1403359544 21.3621520315
1362 0.425 1.07651970564 -0.553601300118 -1.66449092928 15.5861884444 0.613425148852 22.2656769319
1363 -0.85 1.81639137049 1.4744209277 -2.24726523235 18.4854420001 24.4449046225 21.7945079231
1364 0.425 -1.6377934428 -0.50481669957 0.749651169695 19.397176635 24.6885555734 21.4637822934
1365 0.425 0.643504647616 -1.25261220374 0.0764778761991 17.9173813649 0.466539804103 21.8417097835
1366 -0.85 -0.477638494076 0.743289230297 4.15431120759 21.7373143233 24.7123220649 21.3270814687
1367 0.425 -0.0716810654487 1.01879379292 -1.88317142151 21.816451005 24.0630855576 22.083543375
1368 0.425 0.102350629184 -1.26798440116 -1.01389471969 21.5462346717 0.824592377493 21.6893751563
1369 -0.85 0.100857605981 2.98190880276 -0.136113050573 0.0273430064922 2.71611084891 21.6945695609
1370 0.425 -1.51896106024 -1.59625063585 -0.0177545401238 0.799378289797 3.35051732842 21.6559015821
1371 0.425 1.48138462539 -1.27871688562 -0.183190619404 23.9732787037 3.23337182267 21.749528857
1372 -0.85 -2.71752243201 1.43428617304 -0.967083306048 3.44628925007 2.95862715732 21.790804651
1373 0.425 0.894498688418 -0.603457354751 1.48479926416 3.21162172754 3.39910965874 20.924253099
1374 0.425 1.66700711387 -0.585194489064 -0.578574062786 2.64208902239 2.94226318393 22.3849422501
1375 -0.85 -1.85018344288 1.15632532801 1.85681806908 6.45012626682 2.88900633728 21.497351203
1376 0.425 -0.0409569714787 -0.424558395554 -1.88262009365 6.59113704275 3.20984921163 22.4339306623
1377 0.425 1.49673335636 -0.68964770042 0.380224296077 5.55873669043 3.20114445109 21.1687181348
1378 -0.85 -0.625036648841 1.41269162772 3.82896684488 9.30252315309 3.03439191452 21.3207412192
1379 0.425 -0.543446131669 -1.2771047536 -1.37836719757 9.88161769646 3.69684749829 21.7959331613
1380 0.425 0.871880533873 0.48857794597 -1.97374405967 8.71585915045 2.56876058719 21.9833256195
1381 -0.85 4.07893676493 -0.224089268634 0.158146577346 12.0255149245 3.18553617147 21.7243413555
1382 0.425 -1.59909467155 0.290040683911 1.40115827636 12.5001599582 2.90278659746 20.890812686
1383 0.425 -1.78436959609 0.0875550968463 -1.23243472722 12.6743251173 3.21167723107 22.4848459585
1384 -0.85 -1.63255019769 1.69252850443 -0.931226609985 15.5976513221 2.82390231422 21.9497644835
1385 0.425 -0.352019167327 -0.487360857171 1.4197208289 16.0371122035 2.98474068904 21.0660165424
1386 0.425 1.71220109055 -0.758406516368 -0.212473848274 14.8652364744 3.49135699674 22.0842189742
1387 -0.85 -0.734991807029 1.9180161962 -0.859549357627 18.5700264911 2.71707025191 21.7247872305
1388 0.425 -0.967673006722 -0.960819736525 0.244440918095 19.4269334047 3.224413202 21.63357898
1389 0.425 1.33483599644 -1.09260136265 0.0721893057275 17.8030401042 3.35851654608 21.7416337896
1390 -0.85 3.86979381182 0.13112886483 -1.41393545795 21.3186291669 3.11063422166 21.750903939
1391 0.425 -1.55929888252 0.0146794580757 1.45300310714 21.7821775124 3.07603821007 20.8655049781
1392 0.425 -1.97731898315 -0.200895600771 -0.625974487411 21.9991933207 3.11332756827 22.4835910829
1393 -0.85 2.21690038141 0.769192340121 -0.576022369956 24.5202139234 5.95706158923 21.8041570444
1394 0.425 -1.8415586765 0.338453949947 0.0199556415771 0.699167843439 5.75428753084 21.827334104
1395 0.425 -0.367832500867 -1.16326510006 0.705521386387 24.3806182332 6.88865087993 21.4685088517
1396 -0.85 -3.40012141387 -0.684166110389 5.62202735193 3.27289543606 6.3121857166 21.3749314793
1397 0.425 0.733937155814 1.83552092139 -1.17173769043 3.45248127611 5.45543318516 21.8583870599
1398 0.425 1.92378667414 -0.584412002346 -1.06590553469 2.57462328783 6.83238109824 21.8666814609
1399 -0.85 1.15540917271 -0.856604424346 -7.64842281834 6.01116252295 6.14395428017 22.0306770245
1400 0.425 -0.113126677553 1.43993115162 1.67760233559 5.99435577645 5.52633185681 21.2443785138
1401 0.425 -1.15463174175 -1.1114410006 0.774288203906 6.59448170061 6.92971386302 21.8249444617
1402 -0.85 2.69597026528 -0.319162033462 -1.48331181932 8.91906670166 6.17321150666 21.7481685461
1403 0.425 -1.31081323532 -1.06757966958 -0.138819349273 9.47395263622 6.97528642601 21.9690365969
1404 0.425 -1.33717573471 1.16915923623 0.530483868477 9.50698066212 5.45150206733 21.3827948569
1405 -0.85 1.39633963783 -0.271052482176 -2.72633064123 12.2098906557 6.13996604764 22.0292451545
1406 0.425 -1.45240218674 0.978349381629 1.00934108188 12.9120929079 5.53745938726 21.6498996738
1407 0.425 0.0654424954436 -0.769568614188 1.44269414032 12.0780164365 6.92257456511 21.4208551717
1408 -0.85 -0.841115348163 1.52111682885 -0.835596372294 15.4960739551 5.81533861533 21.7129697848
1409 0.425 -1.26750416196 -0.931672206521 -0.0303045692304 16.317994713 6.38489986127 21.7201480339
1410 0.425 1.66174151853 -0.746732452683 0.263259882166 14.6859313319 6.3997615234 21.6668821814
1411 -0.85 0.230569462952 1.63839960956 1.5510944896 18.5363754665 5.84479899784 21.566088922
1412 0.425 -1.22596365002 -0.897315478796 -0.211944114391 19.363767134 6.38288305344 21.4051732606
1413 0.425 1.05233739299 -0.823302526626 -0.921062234157 17.8998573995 6.37231794871 22.1287378173
1414 -0.85 1.58553026288 -2.87175630871 1.89496938693 21.4690722388 6.49192020422 21.6020052375
1415 0.425 -0.945003462993 0.715217639956 -1.92778316605 21.8850324191 6.36186309404 22.5020427639
1416 0.425 -1.04726156841 1.55953362931 0.405843475262 21.7458953421 5.74621670175 20.9959519986
1417 -0.85 3.08337491671 0.375834618511 -3.32308912701 24.6963258428 9.16562179282 22.0454593704
1418 0.425 -1.95176914608 -0.600213315155 0.713422472425 0.774266735723 9.59440599934 21.8324589824
1419 0.425 0.107602641391 0.0775154592896 1.67931105108 24.1294074215 9.13997220784 21.2220816473
1420 -0.85 -5.37554916985 -0.204850941144 0.293993384039 3.45777475698 9.44190692857 21.6972328915
1421 0.425 1.83738855094 1.0739537056 0.655432824482 3.16179752435 8.61290001006 21.2227328606
1422 0.425 2.19841339237 -0.575150994011 -0.556216004609 2.68042771867 9.84519306137 22.1800342478
1423 -0.85 3.56989973053 1.76905598662 1.85697310667 6.0599078085 9.01713792887 21.4797473346
1424 0.425 -0.0958541417329 -0.616499151461 -1.91325808159 5.69057970733 9.29522318261 22.3664663532
1425 0.425 -2.21110733774 -1.14537223349 0.128548600693 6.84951248417 9.58763888853 21.2537863122
1426 -0.85 -0.192571272288 3.36579229784 -1.18406850691 9.41007149015 8.9742631641 21.8729965051
1427 0.425 1.31241293146 -1.11947486994 0.765303226784 8.49009452403 9.16320563987 21.5295603464
1428 0.425 -1.05690123188 -1.79839254158 0.337549102153 9.99983398582 9.76253119603 21.6974431485
1429 -0.85 -0.256980938723 3.16076649987 0.0236250382115 12.3985001073 8.91711203221 21.6607245058
1430 0.425 -1.18975686674 -1.36388334427 0.0503657030806 13.2167655497 9.49113177338 21.6915185801
1431 0.425 1.62514618818 -1.45171640717 -0.127876361104 11.584734343 9.49175619441 21.7477569141
1432 -0.85 -1.15356381107 2.51937036988 1.04744859951 15.5414849964 8.94504777982 21.557045719
1433 0.425 -0.684885566638 -1.05894299532 -1.05175022868 16.112209086 9.35014865385 22.2713093733
1434 0.425 1.68212158613 -1.48592608105 0.327037569095 14.8463059176 9.60480356632 21.2716449077
1435 -0.85 0.944310044176 1.54747087812 3.3229189072 18.5542843384 8.95016403702 21.54614004
1436 0.425 -2.00271808433 -0.646184969791 -0.790820278496 19.421169392 9.33021276499 21.8687520993
1437 0.425 1.25548941607 -1.25190695531 -0.677848611324 17.8245462696 9.61962319799 21.6851078608
1438 -0.85 -2.78940228836 1.89157891373 -1.3173079896 22.0172028961 9.1472265407 21.8555332854
1439 0.425 1.72261097218 0.123060339248 -0.247644912374 21.0830105598 8.83170794647 22.0220804804
1440 0.425 0.101453755092 -1.42207212058 1.43577664919 21.9997865441 9.92106551283 21.2223862342
1441 -0.85 -0.281668723068 2.46322025351 1.87259398407 0.102106811747 12.063891823 21.542667542
1442 0.425 -0.61868338652 -0.908039353761 -1.66498910219 0.478726035993 12.4440227582 22.3874537306
1443 0.425 1.18363887002 -1.37304600236 0.395678867506 24.2191671523 12.6920854188 21.1698787274
1444 -0.85 -3.26605472118 -1.78073632817 0.753656918897 3.40152445748 12.6273182009 21.6254517129
1445 0.425 1.67072903154 0.254912428912 -1.06789654116 2.80560195985 12.7023963547 22.4249796487
1446 0.425 1.36627178633 1.4632507434 0.911572862782 3.09287358267 11.8702854444 21.0495686383
1447 -0.85 1.99858574382 2.66572511574 -1.12716940718 6.13642356151 12.0208798743 21.7193384789
1448 0.425 -1.54573468323 -1.20916279739 1.42244122695 6.85383944098 12.4591009106 21.1777832631
1449 0.425 0.242561453355 -1.49186112053 -0.485903859524 5.60973699751 12.720019215 22.202878258
1450 -0.85 -0.511309507299 -2.68380653652 -1.89503675781 9.32883981628 12.706760145 21.9306826574
1451 0.425 -0.561148540573 2.0814575738 0.104799981532 9.81168391424 11.8404951534 22.0589472817
1452 0.425 1.24425257079 0.443038614469 1.62548695616 8.75947626948 12.6527447016 21.1103700609
1453 -0.85 1.00367361034 1.11422739714 -0.503590071615 12.2066627484 12.0675158118 21.7149325718
1454 0.425 -0.128267264253 -0.874725784058 1.40314351167 12.236175761 12.6833628284 20.9276164303
1455 0.425 -0.790802048764 -0.595715034998 -0.85023091807 12.7571614906 12.4491213599 22.4574509978
1456 -0.85 -0.256882223921 0.34996699459 -3.55909961244 15.4454299633 12.2427225461 22.0470359111
1457 0.425 1.22706661989 -0.00314164195193 1.71311844828 14.7561800196 12.3013590819 21.3248852729
1458 0.425 -1.4497409757 -0.688943713295 1.13077998671 16.2983900171 12.655918372 21.728078816
1459 -0.85 -0.496944134173 1.39693784915 -2.2801974345 18.6032003265 12.1005515168 21.9418023445
1460 0.425 -1.08464340236 -0.604632572853 1.27015958288 19.3596509987 12.3692067132 21.34547019
1461 0.425 1.67223767842 -1.11587116598 0.770346471355 17.8371486748 12.73024177 21.8127274655
1462 -0.85 2.23188773839 0.642638276102 -4.38586499651 21.5308304077 12.1934663051 21.9772606931
1463 0.425 -1.40775947099 0.41212150038 1.71062450456 22.171103417 11.8338027277 21.2985134226
1464 0.425 -0.515927778363 -1.1911401432 1.00974541626 21.3980661753 13.1727309672 21.8242258843
1465 -0.85 -3.12761787111 -2.34849687681 0.679643698394 0.384428383428 15.517012184 21.6914318257
1466 0.425 1.54825174506 0.194298418857 0.954307884603 24.5759967934 15.8377646746 20.9655295509
1467 0.425 1.25039769927 1.10816800349 -1.43527509581 24.6395748232 15.1452231414 22.4430386233
1468 -0.85 -1.05742619893 -1.39543375001 2.44157302491 3.29842011141 15.5237355587 21.3710408952
1469 0.425 1.25477348142 1.47047660081 -0.946761539318 2.7088713564 14.7606622246 21.6359118539
1470 0.425 0.194767499347 -0.520285608282 -1.66978044662 3.29270853219 16.2156022168 22.0930472509
1471 -0.85 1.61660753097 -0.383344415248 -2.4229143701 6.05282747198 15.4760360141 22.0548436055
1472 0.425 -1.00086907781 1.44050045917 1.50616886838 6.53077425639 14.7389618055 21.5770426483
1473 0.425 -0.524480582794 -0.916608265195 1.39391125489 6.01639827163 16.2850021803 21.4681137462
1474 -0.85 2.36340748759 0.0797596751817 -3.87432232548 8.96613511717 15.5863974979 21.8709319232
1475 0.425 -1.99802721468 -0.217392413648 0.230179203393 9.86046745614 15.5851007331 22.3183391855
1476 0.425 -0.374157627135 0.50577808243 2.19976646226 9.07339742668 15.328501769 20.9107288913
1477 -0.85 -0.814818669728 2.29119062139 2.22444639463 12.4799261611 15.1412211071 21.5858180191
1478 0.425 -1.09807666809 -1.45236147134 -0.782716390348 13.109915561 15.7458323519 22.0732232623
1479 0.425 1.68653513688 -1.22744542965 -0.0186566042046 11.6101582779 15.612946541 21.4409587186
1480 -0.85 0.33829791937 3.26533368591 0.235807377064 15.4911474483 15.1278718237 21.6020701133
1481 0.425 -1.34993968581 -1.42497416947 0.173338222226 16.2898561592 15.7251805389 21.5293242102
1482 0.425 1.3282923574 -1.52409557078 -0.560981250786 14.7189963925 15.6469476374 21.9686056765
1483 -0.85 -3.31275230654 2.1375924571 -1.68519859551 18.7432735254 15.1918216825 21.8806843423
1484 0.425 -0.220888855943 -1.64676871996 0.376704839825 19.2340338946 16.0487871726 21.723300476
1485 0.425 2.09778365669 -0.70956990342 0.844914266223 17.8226925799 15.2593911449 21.4960151817
1486 -0.85 4.67554860196 0.94270663256 0.885415424908 21.3666873747 15.3075148829 21.7004283755
1487 0.425 -1.73977007303 -0.238327152446 0.731732978156 21.9474524355 15.4545532323 20.8997430813
1488 0.425 -1.40530542072 -0.774564000462 -1.33384387602 21.7858601898 15.7379318848 22.4998285432
1489 -0.85 -1.13493062125 3.96734069749 0.366954207545 24.7652523223 18.2334333712 21.5878861493
1490 0.425 -0.863655980124 -1.48588241971 -0.626123983484 0.801101680531 18.6516735123 21.9434649833
1491 0.425 1.53736472216 -1.56137565751 0.0857624225625 24.0336459972 18.9148931166 21.5686488675
1492 -0.85 0.0505227337662 3.805750227 0.802862351385 3.01217774648 18.2284167126 21.7485913811
1493 0.425 -0.590216941035 -1.63774848459 -1.40167086815 3.48675766681 18.8016426697 22.4165668101
1494 0.425 0.393121168494 -1.51689768367 0.824746275255 2.80106458671 18.7699406177 20.9348418087
1495 -0.85 0.773164503314 -1.29993368649 5.50614592059 5.96636879217 18.6596081094 21.3999810972
1496 0.425 -1.45307967783 1.29473917651 -0.404777384331 6.82197931493 18.1427558397 21.3717032407
1497 0.425 0.332033915214 -0.311330994699 -1.70243761436 5.8116518929 18.9976360509 22.3283156621
1498 -0.85 1.45580785687 -1.57068175805 2.27732287362 9.13169412077 18.6919534929 21.3662850076
1499 0.425 -1.44797169522 1.31271169929 -0.501063851336 9.79681965441 17.9562232171 21.4940122886
1500 0.425 -0.149977568865 -0.128862651043 -1.75288825524 8.97148622482 19.1518232901 22.2397027039
1501 -0.85 -1.12987223261 0.588513638459 -3.66475868545 12.5536941203 18.4801162238 22.031894573
1502 0.425 0.118617047651 -1.27073176936 0.823955621296 12.3508176875 19.4314485894 21.7999179454
1503 0.425 0.578679058458 0.760346881952 1.33821653285 12.2954881922 17.8884351868 21.2681874815
1504 -0.85 1.1176647508 2.07585654623 1.73594453897 15.4605722387 18.3932205973 21.3777644646
1505 0.425 -0.39903817338 0.184350281776 -1.17847081243 15.5577318429 18.0148456841 22.298306538
1506 0.425 -0.368001106967 -2.23169957211 0.0231585946956 15.4816959184 19.3919337186 21.4239289974
1507 -0.85 -1.50443760237 3.16582738792 0.547228599117 18.6987878091 18.2369139697 21.6190215254
1508 0.425 -0.759364719057 -1.87063481933 -0.174002822063 19.3397544215 18.9863175318 21.7850377153
1509 0.425 1.66427224376 -1.31461526973 -0.159229499824 17.7614577695 18.5767684985 21.6959407593
1510 -0.85 1.770183828 2.21877955769 -1.31912595971 21.5252888812 18.3283553489 21.9093638423
1511 0.425 -1.79385805391 -0.671619867151 0.588411827479 22.5088919592 18.3807988019 21.7367951844
1512 0.425 0.714100037927 -1.48256652861 1.01824596294 21.0658191596 19.0908458492 21.4538409733
1513 -0.85 -2.07930002601 -7.09557849789 1.88160624699 0.044177530439 21.9953501711 21.4571736582
1514 0.425 0.623305690949 0.441618411339 -1.99022861794 24.779983779 22.0706799801 22.4522665457
1515 0.425 0.681183740211 2.09441814854 -0.0495671585524 24.7758386906 21.0339698488 21.1905597961
1516 -0.85 3.64584664017 0.326415682148 1.98119167073 2.76670326522 21.6456838192 21.5153082322
1517 0.425 -1.04111369863 0.861929303674 -1.45869116972 3.07943483102 21.1224376645 22.3080362448
1518 0.425 -1.55419346838 -1.25389199228 -0.014846483569 3.45386190376 22.3318785163 21.276655523
1519 -0.85 -1.31749989178 3.17509833359 -1.54645824937 6.28407716781 21.3549845696 21.8484701743
1520 0.425 -1.18585278213 -1.67297527177 0.450081002967 6.95473812802 22.0351585488 21.5525267558
1521 0.425 2.00402827973 -0.977726489643 0.187273985286 5.36118470417 21.7098568816 21.69900307
1522 -0.85 1.26039243513 3.09731425437 -4.76362435035 9.21504765101 21.4164756512 21.9460590418
1523 0.425 -1.24538093298 -0.716941175526 1.51511065884 9.89070364186 21.3598972661 21.2110126889
1524 0.425 0.320846355273 -2.3378654448 0.555222567625 8.79424870713 22.3236270827 21.9429282693
1525 -0.85 1.66361232153 2.2378332403 -0.716203444739 12.1928020749 21.3759280507 21.6860572062
1526 0.425 -1.51984381171 -0.184343848742 0.357590120588 13.1901455161 21.4262547634 21.6333452081
1527 0.425 0.231854735416 -2.05902058601 0.11590867659 11.817052409 22.2978171859 21.7805975857
1528 -0.85 1.91730769957 -1.68334536593 -1.31828276098 15.188866493 21.8528080788 21.8673130057
1529 0.425 -0.327450525331 1.64065935077 1.27825002812 15.1748902711 21.1782206441 21.1292467955
1530 0.425 -1.8366864071 0.288962819088 -0.147196362527 16.1362432359 22.0689712771 22.1034401988
1531 -0.85 -2.15305960456 -0.686128456877 -1.8389513214 18.887192755 21.6307068637 21.9467119631
1532 0.425 2.06519830968 0.0154877475101 -0.0561695741053 17.9699118885 21.9379724514 22.2000673321
1533 0.425 0.397087150143 0.44226444946 1.49117701024 18.9428953565 21.5313206849 20.9532207049
1534 -0.85 0.243939613881 2.32642687667 -0.356488316737 21.720193152 21.3162129209 21.7211595026
1535 0.425 -0.827721464998 -1.21075509145 -0.332727063588 22.5034943664 21.9375435447 21.740977066
1536 0.425 0.955388787823 -1.08289055044 0.139960435059 20.8763124816 21.8462435343 21.6378634314
