ITEM: TIMESTEP
0
ITEM: NUMBER OF ATOMS
12288
ITEM: BOX BOUNDS pp pp pp
0.0000000000000000e+00 4.9600000000000001e+01
0.0000000000000000e+00 4.9600000000000001e+01
0.0000000000000000e+00 4.9600000000000001e+01
ITEM: ATOMS id q
1 -1.23388411427
2 0.549903747526
3 0.683980366739
4 -1.18268523073
5 0.647946219297
6 0.534739011432
7 -1.22414529275
8 0.539119751576
9 0.685025541169
10 -1.04079953252
11 0.526392358904
12 0.51440717362
13 -0.954060843584
14 0.484340826609
15 0.469720016975
16 -1.28768776444
17 0.697358417998
18 0.590329346444
19 -1.14814865247
20 0.531786039575
21 0.616362612891
22 -0.969696017542
23 0.546595060663
24 0.423100956879
25 -1.18471429275
26 0.550573133716
27 0.634141159032
28 -1.09182473391
29 0.5424690094
30 0.549355724513
31 -1.30298015048
32 0.634038598869
33 0.668941551612
34 -1.17948239053
35 0.673440634576
36 0.50604175595
37 -1.36659458471
38 0.689426530669
39 0.67716805404
40 -1.07195047233
41 0.487674406205
42 0.584276066123
43 -1.01178953578
44 0.461935453591
45 0.549854082191
46 -1.08400570745
47 0.552938474586
48 0.531067232863
49 -0.988346438978
50 0.485680404783
51 0.502666034195
52 -1.16950095632
53 0.527872129208
54 0.641628827109
55 -1.0614065645
56 0.567121432051
57 0.494285132453
58 -1.01826324187
59 0.469361888108
60 0.548901353764
61 -1.31384115055
62 0.662470243584
63 0.651370906965
64 -1.12077453633
65 0.612232967654
66 0.508541568681
67 -1.17143217384
68 0.57419428605
69 0.597237887792
70 -1.25219453167
71 0.609451636746
72 0.642742894921
73 -0.911606109415
74 0.460814191686
75 0.450791917728
76 -1.20656117048
77 0.530058530577
78 0.676502639899
79 -0.93240521042
80 0.545731382549
81 0.386673827871
82 -1.05572004779
83 0.517450660485
84 0.538269387301
85 -1.03832093267
86 0.594237346256
87 0.444083586417
88 -1.16994108646
89 0.682757204418
90 0.48718388204
91 -1.07600858109
92 0.514461657694
93 0.561546923401
94 -1.20584841393
95 0.564881249382
96 0.640967164544
97 -1.29076612677
98 0.600361881091
99 0.690404245675
100 -1.19741948064
101 0.542618359459
102 0.654801121176
103 -1.07071561642
104 0.537007568508
105 0.53370804791
106 -0.888345118645
107 0.440041002189
108 0.448304116457
109 -1.09054751286
110 0.568609906701
111 0.521937606157
112 -1.02483956237
113 0.488600145116
114 0.536239417255
115 -0.911227938957
116 0.492881363875
117 0.418346575083
118 -1.22970751902
119 0.56299555762
120 0.666711961404
121 -1.10681446133
122 0.538193985713
123 0.568620475612
124 -1.05874264424
125 0.50287980263
126 0.555862841611
127 -1.263637311
128 0.674812420789
129 0.588824890214
130 -0.98066869142
131 0.498950539821
132 0.481718151599
133 -1.18112304756
134 0.577087045145
135 0.604036002418
136 -1.04861612424
137 0.529307061186
138 0.519309063059
139 -1.10237386841
140 0.497581022318
141 0.604792846091
142 -0.975300375062
143 0.401447180757
144 0.573853194306
145 -1.23994871198
146 0.677165697384
147 0.562783014592
148 -1.15633137126
149 0.528096838692
150 0.628234532568
151 -0.922426581029
152 0.54721792191
153 0.375208659119
154 -1.17302095773
155 0.585724705105
156 0.587296252624
157 -1.22053014778
158 0.680730380203
159 0.53979976758
160 -1.23505647739
161 0.591149778554
162 0.643906698836
163 -1.06887837596
164 0.532692903712
165 0.53618547225
166 -1.03750125327
167 0.505135266288
168 0.532365986985
169 -1.19299887268
170 0.624687678963
171 0.568311193718
172 -1.14334213984
173 0.540865616285
174 0.602476523553
175 -1.35838872161
176 0.705308070894
177 0.653080650718
178 -1.15192124949
179 0.58268926384
180 0.569231985649
181 -1.15415253813
182 0.445244137422
183 0.708908400707
184 -1.25580925374
185 0.702936103047
186 0.552873150697
187 -1.0282276497
188 0.526670215518
189 0.50155743418
190 -1.08951660957
191 0.486757041061
192 0.602759568512
193 -1.22329702877
194 0.609775066991
195 0.613521961775
196 -1.08693683633
197 0.517424886181
198 0.569511950149
199 -1.37108076862
200 0.677295494133
201 0.693785274489
202 -1.10923909234
203 0.528033865716
204 0.58120522662
205 -1.01957851759
206 0.478636751238
207 0.540941766351
208 -1.12716556146
209 0.49459610569
210 0.632569455771
211 -1.01407616778
212 0.462143231625
213 0.551932936156
214 -0.947627331643
215 0.437379345484
216 0.510247986159
217 -0.901424747919
218 0.437775539695
219 0.463649208224
220 -1.19435065824
221 0.550964069844
222 0.6433865884
223 -1.16943502126
224 0.538962530085
225 0.630472491179
226 -1.08054680695
227 0.502219738304
228 0.578327068644
229 -1.19684544947
230 0.619006964426
231 0.57783848504
232 -1.00490638301
233 0.512763116598
234 0.492143266415
235 -1.07493821126
236 0.479112978977
237 0.595825232281
238 -0.955787618117
239 0.469796386733
240 0.485991231384
241 -1.44708374643
242 0.737531680151
243 0.709552066276
244 -1.20528898297
245 0.560105072349
246 0.645183910617
247 -1.05186162382
248 0.537778119308
249 0.514083504512
250 -1.20473716401
251 0.517894902472
252 0.686842261538
253 -1.197780799
254 0.622004264868
255 0.575776534128
256 -1.30108097251
257 0.691477861282
258 0.60960311123
259 -1.09468618834
260 0.516754399754
261 0.577931788588
262 -1.11409826309
263 0.589100429208
264 0.524997833879
265 -1.20501343952
266 0.544336945259
267 0.660676494257
268 -0.958812759796
269 0.537392234545
270 0.421420525251
271 -1.06059060752
272 0.505577069158
273 0.55501353836
274 -1.29586837537
275 0.676200736234
276 0.619667639133
277 -1.05743426592
278 0.611106318727
279 0.446327947196
280 -0.89674834007
281 0.445175836914
282 0.451572503156
283 -1.08128267917
284 0.532864406247
285 0.548418272927
286 -1.19053774986
287 0.581815135078
288 0.608722614784
289 -1.21930180383
290 0.579007535068
291 0.64029426876
292 -1.10193267982
293 0.586218248211
294 0.515714431606
295 -1.0483206388
296 0.59081683457
297 0.457503804232
298 -1.18019740142
299 0.584318652986
300 0.595878748435
301 -1.07426722254
302 0.493938807818
303 0.58032841472
304 -0.992083849889
305 0.540619217526
306 0.451464632362
307 -1.38607342936
308 0.658698980704
309 0.727374448659
310 -1.2435981595
311 0.671974704345
312 0.571623455151
313 -1.20320490235
314 0.614863867218
315 0.588341035134
316 -1.09017309909
317 0.545784853949
318 0.54438824514
319 -1.3225561466
320 0.579246953682
321 0.743309192918
322 -1.23993356549
323 0.61530004939
324 0.6246335161
325 -0.991539956141
326 0.49442428413
327 0.497115672012
328 -1.01379754764
329 0.498255414133
330 0.515542133511
331 -1.19806217987
332 0.592585821891
333 0.605476357977
334 -1.20221205698
335 0.624168244739
336 0.578043812243
337 -1.07953684016
338 0.595752850851
339 0.483783989305
340 -1.24951699937
341 0.651052826236
342 0.598464173131
343 -1.10423683981
344 0.61717733172
345 0.487059508088
346 -1.06245959974
347 0.654818511472
348 0.407641088264
349 -1.18708095334
350 0.529231066214
351 0.657849887124
352 -1.21134313805
353 0.56440254399
354 0.64694059406
355 -1.41479008762
356 0.685601543652
357 0.729188543973
358 -1.01206072403
359 0.547696027118
360 0.464364696914
361 -1.06440527066
362 0.468564924103
363 0.595840346553
364 -1.13361318396
365 0.648242855934
366 0.485370328026
367 -0.969505481622
368 0.465761432617
369 0.503744049004
370 -1.37239034692
371 0.683703679321
372 0.688686667594
373 -1.36760132268
374 0.708395012445
375 0.659206310238
376 -1.06980126363
377 0.477658217106
378 0.592143046522
379 -1.22303963499
380 0.578323459962
381 0.644716175028
382 -1.10880055479
383 0.51805941049
384 0.590741144299
385 -0.908492475319
386 0.448634459852
387 0.459858015468
388 -0.913568986062
389 0.481830226335
390 0.431738759727
391 -1.03301709464
392 0.456437977824
393 0.576579116814
394 -1.18494977232
395 0.516075040157
396 0.668874732165
397 -1.09250980232
398 0.594062735712
399 0.498447066608
400 -1.02715346141
401 0.567613872681
402 0.459539588726
403 -1.14366402065
404 0.608521139127
405 0.53514288152
406 -1.31295009964
407 0.658113154717
408 0.654836944919
409 -1.05041607658
410 0.504204186344
411 0.546211890234
412 -1.20433419488
413 0.618997409197
414 0.585336785679
415 -0.977375448199
416 0.551400691452
417 0.425974756747
418 -1.12835592396
419 0.586216490923
420 0.542139433036
421 -1.00581088124
422 0.580117016742
423 0.425693864494
424 -1.22614412907
425 0.604872200723
426 0.621271928345
427 -1.20473824784
428 0.564913012982
429 0.639825234862
430 -1.00912481731
431 0.546671358417
432 0.462453458889
433 -1.03756689584
434 0.555248588544
435 0.482318307291
436 -1.22440227225
437 0.54397549667
438 0.680426775582
439 -1.11475070152
440 0.493806461457
441 0.620944240068
442 -0.895960893001
443 0.476247151656
444 0.419713741345
445 -1.1282228928
446 0.444628409312
447 0.683594483492
448 -1.0572053907
449 0.503914124911
450 0.553291265793
451 -1.14577452508
452 0.572535243486
453 0.573239281594
454 -1.32429391166
455 0.580627578048
456 0.743666333611
457 -1.40832947746
458 0.633468534288
459 0.774860943171
460 -1.02481738952
461 0.528605875868
462 0.496211513657
463 -1.2015511696
464 0.620913390132
465 0.580637779469
466 -1.13464581876
467 0.550238104353
468 0.584407714404
469 -1.30906778347
470 0.690162697207
471 0.618905086264
472 -1.03805015593
473 0.659225031679
474 0.378825124252
475 -1.00629359569
476 0.49809188659
477 0.508201709104
478 -1.14223018149
479 0.612775610803
480 0.529454570688
481 -1.05133901656
482 0.51613285265
483 0.535206163911
484 -1.14944719427
485 0.499890918961
486 0.64955627531
487 -1.14649560637
488 0.569597730048
489 0.576897876323
490 -1.06362327327
491 0.588262913988
492 0.475360359283
493 -1.29098078463
494 0.745496183994
495 0.545484600636
496 -1.16017558035
497 0.668918730198
498 0.491256850152
499 -1.01254093108
500 0.539375656559
501 0.473165274523
502 -0.869581276837
503 0.397028498504
504 0.472552778333
505 -1.22143217391
506 0.554044509618
507 0.667387664293
508 -0.924941916979
509 0.486017763173
510 0.438924153805
511 -1.32182947607
512 0.626535645932
513 0.695293830138
514 -1.17463258693
515 0.59341171036
516 0.581220876569
517 -0.892945918355
518 0.420878983575
519 0.472066934781
520 -1.13167421877
521 0.635025511586
522 0.496648707189
523 -1.11052173207
524 0.602443832622
525 0.508077899448
526 -1.28055016411
527 0.679946894711
528 0.600603269398
529 -1.13339591931
530 0.480003373835
531 0.653392545476
532 -1.12075971645
533 0.610439665509
534 0.510320050938
535 -1.06385371512
536 0.511615325712
537 0.552238389412
538 -1.26036668786
539 0.656662484144
540 0.603704203711
541 -1.08050602955
542 0.556800030043
543 0.523705999504
544 -1.02238655561
545 0.425487290016
546 0.596899265591
547 -0.928616545554
548 0.510969929477
549 0.417646616077
550 -1.07092350817
551 0.526673170352
552 0.544250337817
553 -1.22523971257
554 0.590473604764
555 0.634766107809
556 -1.17184429495
557 0.566673619612
558 0.605170675334
559 -1.15272515548
560 0.569910723129
561 0.582814432353
562 -1.00494806663
563 0.525436841453
564 0.47951122518
565 -1.27437498475
566 0.782456770231
567 0.49191821452
568 -1.0246875573
569 0.471479706582
570 0.553207850714
571 -1.13696028159
572 0.53332280266
573 0.603637478928
574 -1.00528721161
575 0.530488419684
576 0.474798791927
577 -1.26264183363
578 0.561098990531
579 0.701542843097
580 -1.13486724929
581 0.582227102203
582 0.552640147085
583 -1.03669909221
584 0.480153424465
585 0.556545667742
586 -1.0545509274
587 0.507978436225
588 0.546572491175
589 -1.20423156163
590 0.614974280228
591 0.589257281398
592 -0.985130500701
593 0.481782642221
594 0.50334785848
595 -1.08261986573
596 0.657540593949
597 0.425079271785
598 -1.09765180139
599 0.62645826436
600 0.471193537025
601 -0.861297817166
602 0.419205401454
603 0.442092415712
604 -1.25813073544
605 0.636175457811
606 0.621955277626
607 -1.12487420932
608 0.594827494952
609 0.530046714366
610 -1.35379857746
611 0.688418730244
612 0.665379847217
613 -1.10286422748
614 0.444594772109
615 0.658269455373
616 -1.20268498466
617 0.658317523419
618 0.544367461242
619 -1.12358639488
620 0.560765494
621 0.562820900877
622 -1.08700289106
623 0.519017605953
624 0.567985285106
625 -0.992626205971
626 0.520227003813
627 0.472399202158
628 -1.23896813453
629 0.7792387658
630 0.459729368729
631 -1.02322170896
632 0.586312364696
633 0.436909344261
634 -1.09942710477
635 0.502865827448
636 0.596561277325
637 -1.08257619225
638 0.490253448441
639 0.592322743814
640 -1.06130247266
641 0.542475442354
642 0.518827030304
643 -1.01730443722
644 0.542270733873
645 0.475033703343
646 -1.17359428505
647 0.579000063046
648 0.594594222003
649 -1.12691675594
650 0.615229870897
651 0.511686885043
652 -1.23994861467
653 0.567554676205
654 0.672393938469
655 -1.10196630659
656 0.537415604537
657 0.56455070205
658 -1.07461001598
659 0.49094095213
660 0.583669063848
661 -1.09772861468
662 0.555111188249
663 0.542617426433
664 -1.11162017261
665 0.586212325386
666 0.525407847222
667 -1.32830093372
668 0.705983844451
669 0.622317089265
670 -1.08962900588
671 0.541057576633
672 0.548571429242
673 -1.19281888806
674 0.571518529981
675 0.621300358083
676 -1.12202510342
677 0.540253074761
678 0.581772028663
679 -1.0641063019
680 0.615997159802
681 0.448109142098
682 -1.05608951274
683 0.522193395456
684 0.53389611728
685 -0.956141238309
686 0.507326326457
687 0.448814911852
688 -1.06430726356
689 0.538817666582
690 0.525489596982
691 -1.16891983932
692 0.671288741112
693 0.49763109821
694 -1.0678340376
695 0.536703469763
696 0.531130567841
697 -1.1046569268
698 0.534739910603
699 0.569917016194
700 -1.41428081606
701 0.759837553491
702 0.654443262568
703 -1.35694584104
704 0.632192634854
705 0.724753206183
706 -1.18734317319
707 0.59473844904
708 0.592604724153
709 -1.05082120565
710 0.422061350767
711 0.628759854887
712 -1.16675255879
713 0.647737959469
714 0.519014599323
715 -1.3191238624
716 0.671956197626
717 0.647167664774
718 -0.98158949109
719 0.563671586331
720 0.417917904759
721 -1.35354512194
722 0.644160609076
723 0.709384512863
724 -1.03906872038
725 0.531445828241
726 0.507622892135
727 -1.21320056297
728 0.455361640185
729 0.757838922789
730 -1.06199370518
731 0.636214975406
732 0.425778729778
733 -1.09399914797
734 0.578312945643
735 0.515686202323
736 -1.04398365745
737 0.502558278054
738 0.541425379396
739 -1.34325781007
740 0.771910990476
741 0.571346819597
742 -1.04712033567
743 0.560440735017
744 0.486679600654
745 -1.11722820594
746 0.456093522049
747 0.661134683896
748 -1.06460845304
749 0.502196227701
750 0.562412225344
751 -1.01772084056
752 0.460134953151
753 0.557585887414
754 -1.02414477994
755 0.51059756276
756 0.513547217176
757 -0.980953869262
758 0.507572965626
759 0.473380903636
760 -1.16318638928
761 0.483455725409
762 0.679730663869
763 -1.10947195039
764 0.613626113826
765 0.495845836568
766 -1.20642363187
767 0.59203291718
768 0.614390714693
769 -1.24331002546
770 0.555992416348
771 0.687317609116
772 -1.18913733536
773 0.571846611162
774 0.6172907242
775 -1.05483745854
776 0.545320739328
777 0.509516719207
778 -0.948196701919
779 0.444637870364
780 0.503558831555
781 -1.1642891016
782 0.638011350971
783 0.526277750624
784 -1.20666558421
785 0.577328353231
786 0.629337230982
787 -1.38320541955
788 0.694163744257
789 0.689041675296
790 -1.10214540433
791 0.584828802914
792 0.517316601414
793 -0.964475739443
794 0.497644199984
795 0.466831539459
796 -1.04662781596
797 0.519364189833
798 0.52726362613
799 -1.13628254222
800 0.54430193323
801 0.591980608991
802 -1.27720664495
803 0.643346295896
804 0.633860349052
805 -1.07135424342
806 0.540341901122
807 0.531012342295
808 -1.13799593769
809 0.638137650034
810 0.499858287656
811 -1.20355816996
812 0.54718447696
813 0.656373692998
814 -1.23590534871
815 0.629231725321
816 0.606673623392
817 -1.24430262346
818 0.564192299995
819 0.680110323463
820 -1.14278555697
821 0.520120286906
822 0.622665270064
823 -1.13045670805
824 0.618446091263
825 0.512010616787
826 -1.12012378811
827 0.464299772393
828 0.655824015717
829 -1.11179001642
830 0.495006189342
831 0.616783827078
832 -1.4303964946
833 0.815841663693
834 0.614554830905
835 -1.03647428473
836 0.571909361185
837 0.464564923548
838 -1.03890504211
839 0.566590817366
840 0.472314224746
841 -1.18422220399
842 0.651771537194
843 0.532450666793
844 -1.19908423834
845 0.645074692604
846 0.554009545732
847 -1.15867809554
848 0.585569734966
849 0.573108360577
850 -1.21647216484
851 0.643274515979
852 0.573197648859
853 -1.1368604644
854 0.616593666609
855 0.520266797789
856 -1.14794066628
857 0.538316811566
858 0.609623854714
859 -1.41055373861
860 0.692663796984
861 0.717889941629
862 -1.12636433938
863 0.515593426798
864 0.61077091258
865 -1.14292017118
866 0.681652490241
867 0.461267680936
868 -1.0707718805
869 0.510960274122
870 0.559811606374
871 -1.30123414545
872 0.631397625949
873 0.669836519499
874 -1.17292246742
875 0.565528811441
876 0.607393655976
877 -1.11457809207
878 0.569351172763
879 0.545226919304
880 -1.1771023114
881 0.61039004359
882 0.566712267815
883 -1.21781426546
884 0.683970170095
885 0.533844095366
886 -0.943167826854
887 0.442452637611
888 0.500715189243
889 -1.06124069724
890 0.502035857136
891 0.559204840101
892 -1.13293542792
893 0.536623027727
894 0.596312400194
895 -1.44191852911
896 0.683580695044
897 0.75833783407
898 -1.22232157774
899 0.576579133836
900 0.645742443907
901 -1.14393716055
902 0.589779685566
903 0.554157474986
904 -0.96624340068
905 0.493103035696
906 0.473140364984
907 -1.14412125812
908 0.533196804885
909 0.610924453231
910 -1.24826095614
911 0.56524871073
912 0.683012245406
913 -0.992463702689
914 0.511676874176
915 0.480786828513
916 -1.04993501438
917 0.49894677319
918 0.550988241189
919 -1.32091156434
920 0.704655286425
921 0.616256277917
922 -0.975327382226
923 0.41938279307
924 0.555944589156
925 -0.986758999584
926 0.458067318745
927 0.528691680839
928 -0.989463910864
929 0.525605200123
930 0.463858710742
931 -1.17178099865
932 0.555150742466
933 0.616630256184
934 -1.05067190278
935 0.591721415637
936 0.45895048714
937 -1.09955236185
938 0.503864488402
939 0.595687873452
940 -1.12468831385
941 0.596246037488
942 0.52844227636
943 -1.028460224
944 0.592814379549
945 0.43564584445
946 -1.19251699437
947 0.592129770141
948 0.600387224227
949 -1.2343687265
950 0.600575740612
951 0.633792985887
952 -1.12740619677
953 0.569379315457
954 0.558026881312
955 -1.18778969786
956 0.648292339485
957 0.539497358374
958 -1.09984466319
959 0.521615946975
960 0.578228716213
961 -1.28470056297
962 0.535801415861
963 0.748899147109
964 -1.214592819
965 0.60642463804
966 0.608168180964
967 -1.11757336944
968 0.616069734013
969 0.501503635432
970 -1.08111315265
971 0.590844174185
972 0.490268978462
973 -0.929303224702
974 0.445432734986
975 0.483870489716
976 -1.09462802346
977 0.621407517086
978 0.473220506373
979 -0.994904165123
980 0.52903976089
981 0.465864404233
982 -1.09912386698
983 0.606098330752
984 0.493025536232
985 -1.19059912338
986 0.539029492771
987 0.65156963061
988 -1.10412951734
989 0.537197040279
990 0.566932477065
991 -1.09807945688
992 0.583325796597
993 0.51475366028
994 -1.04033144431
995 0.583300701841
996 0.457030742473
997 -1.05268511891
998 0.573009564703
999 0.479675554209
1000 -0.927527443243
1001 0.510215082713
1002 0.417312360531
1003 -1.25955155725
1004 0.627026895165
1005 0.632524662084
1006 -0.972727848153
1007 0.477443720854
1008 0.4952841273
1009 -1.43837623375
1010 0.712450921285
1011 0.725925312466
1012 -1.04440034008
1013 0.560875496866
1014 0.483524843217
1015 -1.04366779901
1016 0.55896420838
1017 0.484703590634
1018 -1.1236413052
1019 0.588294533533
1020 0.535346771662
1021 -1.0636466086
1022 0.52649210352
1023 0.537154505075
1024 -1.38368399803
1025 0.757382096211
1026 0.626301901817
1027 -1.43814760384
1028 0.743321616777
1029 0.694825987059
1030 -1.15864948488
1031 0.574045039053
1032 0.584604445824
1033 -0.972657628863
1034 0.466602666912
1035 0.506054961951
1036 -0.919441819113
1037 0.429023572976
1038 0.490418246137
1039 -1.21746596231
1040 0.635887594965
1041 0.581578367345
1042 -1.22817363986
1043 0.707016694324
1044 0.521156945538
1045 -1.22652136646
1046 0.566112158811
1047 0.660409207645
1048 -1.16084035346
1049 0.533797848145
1050 0.627042505319
1051 -1.15950813252
1052 0.533717270614
1053 0.625790861908
1054 -1.06047863422
1055 0.518245121467
1056 0.542233512754
1057 -1.06645594648
1058 0.514102397605
1059 0.552353548877
1060 -1.27576981541
1061 0.691470190497
1062 0.58429962491
1063 -1.14558302551
1064 0.470609850537
1065 0.674973174975
1066 -0.987231505481
1067 0.447771448744
1068 0.539460056737
1069 -1.33255923237
1070 0.657079289687
1071 0.675479942684
1072 -1.19197405814
1073 0.584650620548
1074 0.607323437588
1075 -1.44328297083
1076 0.631508143747
1077 0.81177482708
1078 -0.836742157557
1079 0.379360342081
1080 0.457381815476
1081 -1.04505160873
1082 0.492088873224
1083 0.55296273551
1084 -0.972100944417
1085 0.489917353986
1086 0.482183590431
1087 -1.3200640058
1088 0.624672380673
1089 0.69539162513
1090 -1.33700624949
1091 0.621770316763
1092 0.715235932728
1093 -1.08800746525
1094 0.591843710425
1095 0.496163754827
1096 -1.2091493114
1097 0.614304343491
1098 0.59484496791
1099 -1.06930781902
1100 0.620285100262
1101 0.449022718753
1102 -1.36849478098
1103 0.624899144254
1104 0.743595636728
1105 -1.2415935916
1106 0.664050833156
1107 0.577542758445
1108 -1.16357145824
1109 0.658765358708
1110 0.504806099528
1111 -1.14058155623
1112 0.582223508149
1113 0.558358048083
1114 -0.965840323834
1115 0.492482039278
1116 0.473358284556
1117 -1.30285145372
1118 0.664104344188
1119 0.638747109535
1120 -1.33504060444
1121 0.677343352443
1122 0.657697252002
1123 -1.04476247772
1124 0.49270017691
1125 0.552062300814
1126 -0.991884828784
1127 0.527858510763
1128 0.464026318021
1129 -1.0440298974
1130 0.494997295209
1131 0.549032602194
1132 -1.15869331856
1133 0.595817642598
1134 0.562875675966
1135 -0.920677611156
1136 0.499966529824
1137 0.420711081332
1138 -1.15575202101
1139 0.498358045684
1140 0.657393975326
1141 -1.33030060971
1142 0.630690451217
1143 0.699610158494
1144 -1.16811513262
1145 0.609202284627
1146 0.558912847992
1147 -1.02017178426
1148 0.542400578804
1149 0.477771205461
1150 -1.25293307711
1151 0.656645937958
1152 0.596287139149
1153 -1.01225115193
1154 0.534042128761
1155 0.478209023173
1156 -1.11459463351
1157 0.5511119577
1158 0.563482675807
1159 -1.01960788247
1160 0.435302020936
1161 0.584305861539
1162 -1.16706864241
1163 0.611819791394
1164 0.555248851017
1165 -1.05431934975
1166 0.49691504156
1167 0.557404308187
1168 -0.851560207992
1169 0.469117393224
1170 0.382442814768
1171 -0.971214030122
1172 0.505890221108
1173 0.465323809014
1174 -0.780948274473
1175 0.396229785992
1176 0.384718488482
1177 -0.959198823972
1178 0.469160357064
1179 0.490038466907
1180 -1.02489191194
1181 0.487666500006
1182 0.53722541193
1183 -1.14475889372
1184 0.678314197792
1185 0.466444695931
1186 -0.958271256659
1187 0.373595269489
1188 0.58467598717
1189 -1.1534424448
1190 0.523682250639
1191 0.629760194162
1192 -1.15845877877
1193 0.52841592727
1194 0.630042851503
1195 -1.16492767606
1196 0.626819586333
1197 0.538108089732
1198 -0.897011163663
1199 0.4859891609
1200 0.411022002762
1201 -1.06051466799
1202 0.558675840163
1203 0.501838827825
1204 -0.879079776467
1205 0.484238947612
1206 0.394840828854
1207 -1.30198577177
1208 0.738013334683
1209 0.563972437084
1210 -1.23467963973
1211 0.64086104302
1212 0.593818596713
1213 -1.13353436621
1214 0.597936949021
1215 0.535597417185
1216 -1.20314604595
1217 0.605296681834
1218 0.597849364114
1219 -1.00018399546
1220 0.493233203706
1221 0.506950791749
1222 -1.04090638129
1223 0.473007850981
1224 0.567898530307
1225 -1.06880411255
1226 0.510194987195
1227 0.558609125359
1228 -1.03730489625
1229 0.541196709957
1230 0.496108186297
1231 -1.03442989227
1232 0.483235969883
1233 0.551193922392
1234 -1.10251427075
1235 0.450932274264
1236 0.651581996485
1237 -1.13385107681
1238 0.556632969029
1239 0.577218107779
1240 -1.07853084684
1241 0.406961573733
1242 0.67156927311
1243 -1.05247464943
1244 0.453864176752
1245 0.598610472677
1246 -1.09366385183
1247 0.516948080232
1248 0.576715771598
1249 -0.913759008855
1250 0.474717517668
1251 0.439041491187
1252 -1.10554738017
1253 0.51369672127
1254 0.591850658896
1255 -1.13523787934
1256 0.588860451086
1257 0.546377428258
1258 -1.10281952611
1259 0.524966510861
1260 0.577853015251
1261 -1.16189541987
1262 0.559624185032
1263 0.602271234838
1264 -1.2228498377
1265 0.668627223031
1266 0.554222614673
1267 -1.22098704265
1268 0.619086627095
1269 0.601900415556
1270 -1.16967440541
1271 0.544368563248
1272 0.625305842164
1273 -1.24593279297
1274 0.647031484856
1275 0.598901308109
1276 -1.11042573174
1277 0.535479263685
1278 0.574946468054
1279 -1.2921284049
1280 0.627627056138
1281 0.664501348767
1282 -1.26299375046
1283 0.585828591999
1284 0.677165158463
1285 -1.18578673063
1286 0.660490459861
1287 0.525296270767
1288 -1.08249454928
1289 0.531211212247
1290 0.551283337031
1291 -1.19306850965
1292 0.644182286401
1293 0.54888622325
1294 -1.38470000694
1295 0.693155083238
1296 0.691544923702
1297 -1.08486852219
1298 0.618188394626
1299 0.466680127568
1300 -1.0866281319
1301 0.59396091741
1302 0.492667214494
1303 -0.976064816936
1304 0.567180419972
1305 0.408884396963
1306 -0.881527241805
1307 0.469492906593
1308 0.412034335212
1309 -1.27597275589
1310 0.640833662488
1311 0.6351390934
1312 -1.2221325512
1313 0.537494031482
1314 0.684638519716
1315 -1.1831561209
1316 0.639950206955
1317 0.543205913947
1318 -1.34896991943
1319 0.648718089502
1320 0.700251829929
1321 -1.18203048608
1322 0.576781153603
1323 0.605249332477
1324 -1.03916145114
1325 0.624130653526
1326 0.415030797618
1327 -1.06541083916
1328 0.493835087622
1329 0.571575751537
1330 -0.982141557496
1331 0.559648711742
1332 0.422492845754
1333 -1.22473722414
1334 0.656599457943
1335 0.568137766196
1336 -0.949150779335
1337 0.495747287023
1338 0.453403492312
1339 -1.15594520175
1340 0.572763222092
1341 0.583181979654
1342 -1.04325267925
1343 0.557331824671
1344 0.485920854575
1345 -1.11047315152
1346 0.595720202938
1347 0.514752948582
1348 -1.0175384217
1349 0.474343178921
1350 0.543195242781
1351 -1.3660371753
1352 0.61399253076
1353 0.752044644536
1354 -1.26768409459
1355 0.579783963118
1356 0.687900131468
1357 -1.01719427029
1358 0.489178532623
1359 0.528015737667
1360 -1.0702052609
1361 0.493631360451
1362 0.576573900447
1363 -0.86804165226
1364 0.442510109088
1365 0.425531543172
1366 -0.866511468359
1367 0.391466570961
1368 0.475044897398
1369 -1.0263273089
1370 0.520533174889
1371 0.505794134012
1372 -1.05239673422
1373 0.478008893999
1374 0.574387840221
1375 -1.20176318428
1376 0.562893007526
1377 0.638870176749
1378 -1.09583304666
1379 0.616343423099
1380 0.479489623556
1381 -1.09645053907
1382 0.558444942105
1383 0.538005596968
1384 -1.03788042799
1385 0.450896289482
1386 0.586984138508
1387 -1.1909198936
1388 0.624146608774
1389 0.56677328483
1390 -1.19059527083
1391 0.595934142984
1392 0.59466112785
1393 -1.15012241295
1394 0.597475731499
1395 0.552646681453
1396 -0.970496159381
1397 0.439294269996
1398 0.531201889385
1399 -0.919455158459
1400 0.460598403675
1401 0.458856754784
1402 -0.988274159552
1403 0.477052968065
1404 0.511221191487
1405 -1.12465253331
1406 0.55091587387
1407 0.573736659438
1408 -1.10614332908
1409 0.533578290662
1410 0.572565038418
1411 -1.19773952104
1412 0.683450583405
1413 0.514288937637
1414 -1.06819757287
1415 0.591164812026
1416 0.477032760841
1417 -1.14130736912
1418 0.513664594664
1419 0.62764277446
1420 -1.141881063
1421 0.58021285112
1422 0.561668211881
1423 -1.08794238558
1424 0.560083565662
1425 0.527858819921
1426 -0.997457794676
1427 0.474521398763
1428 0.522936395913
1429 -1.31716191368
1430 0.68650985713
1431 0.630652056545
1432 -1.06850176919
1433 0.44092444702
1434 0.627577322171
1435 -1.22192475201
1436 0.63590180152
1437 0.586022950487
1438 -1.09121776049
1439 0.604492590449
1440 0.486725170043
1441 -1.23220025971
1442 0.615842216251
1443 0.616358043459
1444 -1.20603133446
1445 0.610003965089
1446 0.596027369374
1447 -1.05029978561
1448 0.64366814124
1449 0.406631644369
1450 -1.0925202333
1451 0.50797507438
1452 0.584545158923
1453 -1.08082701135
1454 0.50017420305
1455 0.580652808303
1456 -0.852276171301
1457 0.423742909261
1458 0.42853326204
1459 -1.38753324078
1460 0.711706747039
1461 0.675826493736
1462 -1.10378238838
1463 0.565823572921
1464 0.537958815462
1465 -1.06851937792
1466 0.548904137422
1467 0.519615240499
1468 -0.99697106301
1469 0.474182454639
1470 0.522788608371
1471 -1.27307587273
1472 0.626105870269
1473 0.646970002465
1474 -1.33417467637
1475 0.697048440606
1476 0.637126235768
1477 -0.955935224804
1478 0.450738217055
1479 0.505197007749
1480 -1.42302065009
1481 0.729552638467
1482 0.69346801162
1483 -1.25662421749
1484 0.648882240652
1485 0.607741976838
1486 -1.01659510615
1487 0.517729892596
1488 0.498865213552
1489 -1.02130468767
1490 0.589322071732
1491 0.431982615934
1492 -1.09238316433
1493 0.544733396547
1494 0.547649767783
1495 -1.09648144284
1496 0.543248116864
1497 0.553233325971
1498 -1.0140244291
1499 0.479416300726
1500 0.534608128377
1501 -1.19638441423
1502 0.618424131792
1503 0.577960282434
1504 -1.21116462176
1505 0.660990469653
1506 0.550174152108
1507 -1.23532484329
1508 0.537148539833
1509 0.698176303454
1510 -1.28561041522
1511 0.597506614318
1512 0.688103800906
1513 -0.971217993035
1514 0.540781423776
1515 0.430436569259
1516 -1.08700695519
1517 0.561538670156
1518 0.525468285033
1519 -1.09388010049
1520 0.58974608523
1521 0.50413401526
1522 -0.979202347879
1523 0.48562860038
1524 0.493573747499
1525 -1.09744114768
1526 0.541064013664
1527 0.556377134021
1528 -1.13347555485
1529 0.483446642426
1530 0.650028912429
1531 -1.03775451158
1532 0.54476578884
1533 0.492988722741
1534 -1.08967832185
1535 0.531958718632
1536 0.557719603216
1537 -1.23388411427
1538 0.549903747526
1539 0.683980366739
1540 -1.18268523073
1541 0.647946219297
1542 0.534739011432
1543 -1.22414529275
1544 0.539119751576
1545 0.685025541169
1546 -1.04079953252
1547 0.526392358904
1548 0.51440717362
1549 -0.954060843584
1550 0.484340826609
1551 0.469720016975
1552 -1.28768776444
1553 0.697358417998
1554 0.590329346444
1555 -1.14814865247
1556 0.531786039575
1557 0.616362612891
1558 -0.969696017542
1559 0.546595060663
1560 0.423100956879
1561 -1.18471429275
1562 0.550573133716
1563 0.634141159032
1564 -1.09182473391
1565 0.5424690094
1566 0.549355724513
1567 -1.30298015048
1568 0.634038598869
1569 0.668941551612
1570 -1.17948239053
1571 0.673440634576
1572 0.50604175595
1573 -1.36659458471
1574 0.689426530669
1575 0.67716805404
1576 -1.07195047233
1577 0.487674406205
1578 0.584276066123
1579 -1.01178953578
1580 0.461935453591
1581 0.549854082191
1582 -1.08400570745
1583 0.552938474586
1584 0.531067232863
1585 -0.988346438978
1586 0.485680404783
1587 0.502666034195
1588 -1.16950095632
1589 0.527872129208
1590 0.641628827109
1591 -1.0614065645
1592 0.567121432051
1593 0.494285132453
1594 -1.01826324187
1595 0.469361888108
1596 0.548901353764
1597 -1.31384115055
1598 0.662470243584
1599 0.651370906965
1600 -1.12077453633
1601 0.612232967654
1602 0.508541568681
1603 -1.17143217384
1604 0.57419428605
1605 0.597237887792
1606 -1.25219453167
1607 0.609451636746
1608 0.642742894921
1609 -0.911606109415
1610 0.460814191686
1611 0.450791917728
1612 -1.20656117048
1613 0.530058530577
1614 0.676502639899
1615 -0.93240521042
1616 0.545731382549
1617 0.386673827871
1618 -1.05572004779
1619 0.517450660485
1620 0.538269387301
1621 -1.03832093267
1622 0.594237346256
1623 0.444083586417
1624 -1.16994108646
1625 0.682757204418
1626 0.48718388204
1627 -1.07600858109
1628 0.514461657694
1629 0.561546923401
1630 -1.20584841393
1631 0.564881249382
1632 0.640967164544
1633 -1.29076612677
1634 0.600361881091
1635 0.690404245675
1636 -1.19741948064
1637 0.542618359459
1638 0.654801121176
1639 -1.07071561642
1640 0.537007568508
1641 0.53370804791
1642 -0.888345118645
1643 0.440041002189
1644 0.448304116457
1645 -1.09054751286
1646 0.568609906701
1647 0.521937606157
1648 -1.02483956237
1649 0.488600145116
1650 0.536239417255
1651 -0.911227938957
1652 0.492881363875
1653 0.418346575083
1654 -1.22970751902
1655 0.56299555762
1656 0.666711961404
1657 -1.10681446133
1658 0.538193985713
1659 0.568620475612
1660 -1.05874264424
1661 0.50287980263
1662 0.555862841611
1663 -1.263637311
1664 0.674812420789
1665 0.588824890214
1666 -0.98066869142
1667 0.498950539821
1668 0.481718151599
1669 -1.18112304756
1670 0.577087045145
1671 0.604036002418
1672 -1.04861612424
1673 0.529307061186
1674 0.519309063059
1675 -1.10237386841
1676 0.497581022318
1677 0.604792846091
1678 -0.975300375062
1679 0.401447180757
1680 0.573853194306
1681 -1.23994871198
1682 0.677165697384
1683 0.562783014592
1684 -1.15633137126
1685 0.528096838692
1686 0.628234532568
1687 -0.922426581029
1688 0.54721792191
1689 0.375208659119
1690 -1.17302095773
1691 0.585724705105
1692 0.587296252624
1693 -1.22053014778
1694 0.680730380203
1695 0.53979976758
1696 -1.23505647739
1697 0.591149778554
1698 0.643906698836
1699 -1.06887837596
1700 0.532692903712
1701 0.53618547225
1702 -1.03750125327
1703 0.505135266288
1704 0.532365986985
1705 -1.19299887268
1706 0.624687678963
1707 0.568311193718
1708 -1.14334213984
1709 0.540865616285
1710 0.602476523553
1711 -1.35838872161
1712 0.705308070894
1713 0.653080650718
1714 -1.15192124949
1715 0.58268926384
1716 0.569231985649
1717 -1.15415253813
1718 0.445244137422
1719 0.708908400707
1720 -1.25580925374
1721 0.702936103047
1722 0.552873150697
1723 -1.0282276497
1724 0.526670215518
1725 0.50155743418
1726 -1.08951660957
1727 0.486757041061
1728 0.602759568512
1729 -1.22329702877
1730 0.609775066991
1731 0.613521961775
1732 -1.08693683633
1733 0.517424886181
1734 0.569511950149
1735 -1.37108076862
1736 0.677295494133
1737 0.693785274489
1738 -1.10923909234
1739 0.528033865716
1740 0.58120522662
1741 -1.01957851759
1742 0.478636751238
1743 0.540941766351
1744 -1.12716556146
1745 0.49459610569
1746 0.632569455771
1747 -1.01407616778
1748 0.462143231625
1749 0.551932936156
1750 -0.947627331643
1751 0.437379345484
1752 0.510247986159
1753 -0.901424747919
1754 0.437775539695
1755 0.463649208224
1756 -1.19435065824
1757 0.550964069844
1758 0.6433865884
1759 -1.16943502126
1760 0.538962530085
1761 0.630472491179
1762 -1.08054680695
1763 0.502219738304
1764 0.578327068644
1765 -1.19684544947
1766 0.619006964426
1767 0.57783848504
1768 -1.00490638301
1769 0.512763116598
1770 0.492143266415
1771 -1.07493821126
1772 0.479112978977
1773 0.595825232281
1774 -0.955787618117
1775 0.469796386733
1776 0.485991231384
1777 -1.44708374643
1778 0.737531680151
1779 0.709552066276
1780 -1.20528898297
1781 0.560105072349
1782 0.645183910617
1783 -1.05186162382
1784 0.537778119308
1785 0.514083504512
1786 -1.20473716401
1787 0.517894902472
1788 0.686842261538
1789 -1.197780799
1790 0.622004264868
1791 0.575776534128
1792 -1.30108097251
1793 0.691477861282
1794 0.60960311123
1795 -1.09468618834
1796 0.516754399754
1797 0.577931788588
1798 -1.11409826309
1799 0.589100429208
1800 0.524997833879
1801 -1.20501343952
1802 0.544336945259
1803 0.660676494257
1804 -0.958812759796
1805 0.537392234545
1806 0.421420525251
1807 -1.06059060752
1808 0.505577069158
1809 0.55501353836
1810 -1.29586837537
1811 0.676200736234
1812 0.619667639133
1813 -1.05743426592
1814 0.611106318727
1815 0.446327947196
1816 -0.89674834007
1817 0.445175836914
1818 0.451572503156
1819 -1.08128267917
1820 0.532864406247
1821 0.548418272927
1822 -1.19053774986
1823 0.581815135078
1824 0.608722614784
1825 -1.21930180383
1826 0.579007535068
1827 0.64029426876
1828 -1.10193267982
1829 0.586218248211
1830 0.515714431606
1831 -1.0483206388
1832 0.59081683457
1833 0.457503804232
1834 -1.18019740142
1835 0.584318652986
1836 0.595878748435
1837 -1.07426722254
1838 0.493938807818
1839 0.58032841472
1840 -0.992083849889
1841 0.540619217526
1842 0.451464632362
1843 -1.38607342936
1844 0.658698980704
1845 0.727374448659
1846 -1.2435981595
1847 0.671974704345
1848 0.571623455151
1849 -1.20320490235
1850 0.614863867218
1851 0.588341035134
1852 -1.09017309909
1853 0.545784853949
1854 0.54438824514
1855 -1.3225561466
1856 0.579246953682
1857 0.743309192918
1858 -1.23993356549
1859 0.61530004939
1860 0.6246335161
1861 -0.991539956141
1862 0.49442428413
1863 0.497115672012
1864 -1.01379754764
1865 0.498255414133
1866 0.515542133511
1867 -1.19806217987
1868 0.592585821891
1869 0.605476357977
1870 -1.20221205698
1871 0.624168244739
1872 0.578043812243
1873 -1.07953684016
1874 0.595752850851
1875 0.483783989305
1876 -1.24951699937
1877 0.651052826235
1878 0.598464173131
1879 -1.10423683981
1880 0.61717733172
1881 0.487059508088
1882 -1.06245959974
1883 0.654818511472
1884 0.407641088264
1885 -1.18708095334
1886 0.529231066214
1887 0.657849887124
1888 -1.21134313805
1889 0.56440254399
1890 0.64694059406
1891 -1.41479008762
1892 0.685601543652
1893 0.729188543973
1894 -1.01206072403
1895 0.547696027118
1896 0.464364696914
1897 -1.06440527066
1898 0.468564924103
1899 0.595840346553
1900 -1.13361318396
1901 0.648242855934
1902 0.485370328026
1903 -0.969505481622
1904 0.465761432617
1905 0.503744049004
1906 -1.37239034692
1907 0.683703679321
1908 0.688686667594
1909 -1.36760132268
1910 0.708395012445
1911 0.659206310238
1912 -1.06980126363
1913 0.477658217106
1914 0.592143046522
1915 -1.22303963499
1916 0.578323459962
1917 0.644716175028
1918 -1.10880055479
1919 0.51805941049
1920 0.590741144299
1921 -0.908492475319
1922 0.448634459852
1923 0.459858015468
1924 -0.913568986062
1925 0.481830226335
1926 0.431738759727
1927 -1.03301709464
1928 0.456437977824
1929 0.576579116814
1930 -1.18494977232
1931 0.516075040157
1932 0.668874732165
1933 -1.09250980232
1934 0.594062735712
1935 0.498447066608
1936 -1.02715346141
1937 0.567613872681
1938 0.459539588726
1939 -1.14366402065
1940 0.608521139127
1941 0.53514288152
1942 -1.31295009964
1943 0.658113154717
1944 0.654836944919
1945 -1.05041607658
1946 0.504204186344
1947 0.546211890234
1948 -1.20433419488
1949 0.618997409197
1950 0.585336785679
1951 -0.977375448199
1952 0.551400691452
1953 0.425974756747
1954 -1.12835592396
1955 0.586216490923
1956 0.542139433036
1957 -1.00581088124
1958 0.580117016742
1959 0.425693864494
1960 -1.22614412907
1961 0.604872200723
1962 0.621271928345
1963 -1.20473824784
1964 0.564913012982
1965 0.639825234862
1966 -1.00912481731
1967 0.546671358417
1968 0.462453458889
1969 -1.03756689584
1970 0.555248588544
1971 0.482318307291
1972 -1.22440227225
1973 0.54397549667
1974 0.680426775582
1975 -1.11475070152
1976 0.493806461457
1977 0.620944240068
1978 -0.895960893001
1979 0.476247151656
1980 0.419713741345
1981 -1.1282228928
1982 0.444628409312
1983 0.683594483492
1984 -1.0572053907
1985 0.503914124911
1986 0.553291265793
1987 -1.14577452508
1988 0.572535243486
1989 0.573239281594
1990 -1.32429391166
1991 0.580627578048
1992 0.743666333611
1993 -1.40832947746
1994 0.633468534288
1995 0.774860943171
1996 -1.02481738952
1997 0.528605875868
1998 0.496211513657
1999 -1.2015511696
2000 0.620913390132
2001 0.580637779469
2002 -1.13464581876
2003 0.550238104353
2004 0.584407714404
2005 -1.30906778347
2006 0.690162697207
2007 0.618905086264
2008 -1.03805015593
2009 0.659225031679
2010 0.378825124252
2011 -1.00629359569
2012 0.49809188659
2013 0.508201709104
2014 -1.14223018149
2015 0.612775610803
2016 0.529454570688
2017 -1.05133901656
2018 0.51613285265
2019 0.535206163911
2020 -1.14944719427
2021 0.499890918961
2022 0.64955627531
2023 -1.14649560637
2024 0.569597730048
2025 0.576897876323
2026 -1.06362327327
2027 0.588262913988
2028 0.475360359283
2029 -1.29098078463
2030 0.745496183994
2031 0.545484600636
2032 -1.16017558035
2033 0.668918730198
2034 0.491256850152
2035 -1.01254093108
2036 0.539375656559
2037 0.473165274523
2038 -0.869581276837
2039 0.397028498504
2040 0.472552778333
2041 -1.22143217391
2042 0.554044509618
2043 0.667387664293
2044 -0.924941916979
2045 0.486017763173
2046 0.438924153805
2047 -1.32182947607
2048 0.626535645932
2049 0.695293830138
2050 -1.17463258693
2051 0.59341171036
2052 0.581220876569
2053 -0.892945918355
2054 0.420878983575
2055 0.472066934781
2056 -1.13167421877
2057 0.635025511586
2058 0.496648707189
2059 -1.11052173207
2060 0.602443832622
2061 0.508077899448
2062 -1.28055016411
2063 0.679946894711
2064 0.600603269398
2065 -1.13339591931
2066 0.480003373835
2067 0.653392545476
2068 -1.12075971645
2069 0.610439665509
2070 0.510320050938
2071 -1.06385371512
2072 0.511615325712
2073 0.552238389412
2074 -1.26036668786
2075 0.656662484144
2076 0.603704203711
2077 -1.08050602955
2078 0.556800030043
2079 0.523705999504
2080 -1.02238655561
2081 0.425487290016
2082 0.596899265591
2083 -0.928616545554
2084 0.510969929477
2085 0.417646616077
2086 -1.07092350817
2087 0.526673170352
2088 0.544250337817
2089 -1.22523971257
2090 0.590473604764
2091 0.634766107809
2092 -1.17184429495
2093 0.566673619612
2094 0.605170675334
2095 -1.15272515548
2096 0.569910723129
2097 0.582814432353
2098 -1.00494806663
2099 0.525436841453
2100 0.47951122518
2101 -1.27437498475
2102 0.782456770231
2103 0.49191821452
2104 -1.0246875573
2105 0.471479706582
2106 0.553207850714
2107 -1.13696028159
2108 0.53332280266
2109 0.603637478928
2110 -1.00528721161
2111 0.530488419684
2112 0.474798791927
2113 -1.26264183363
2114 0.561098990531
2115 0.701542843097
2116 -1.13486724929
2117 0.582227102203
2118 0.552640147085
2119 -1.03669909221
2120 0.480153424465
2121 0.556545667742
2122 -1.0545509274
2123 0.507978436225
2124 0.546572491175
2125 -1.20423156163
2126 0.614974280228
2127 0.589257281398
2128 -0.985130500701
2129 0.481782642221
2130 0.50334785848
2131 -1.08261986573
2132 0.657540593949
2133 0.425079271785
2134 -1.09765180139
2135 0.62645826436
2136 0.471193537025
2137 -0.861297817166
2138 0.419205401454
2139 0.442092415712
2140 -1.25813073544
2141 0.636175457811
2142 0.621955277626
2143 -1.12487420932
2144 0.594827494952
2145 0.530046714366
2146 -1.35379857746
2147 0.688418730244
2148 0.665379847217
2149 -1.10286422748
2150 0.444594772109
2151 0.658269455373
2152 -1.20268498466
2153 0.658317523419
2154 0.544367461242
2155 -1.12358639488
2156 0.560765494
2157 0.562820900877
2158 -1.08700289106
2159 0.519017605953
2160 0.567985285106
2161 -0.992626205971
2162 0.520227003813
2163 0.472399202158
2164 -1.23896813453
2165 0.7792387658
2166 0.459729368729
2167 -1.02322170896
2168 0.586312364696
2169 0.436909344261
2170 -1.09942710477
2171 0.502865827448
2172 0.596561277325
2173 -1.08257619225
2174 0.490253448441
2175 0.592322743814
2176 -1.06130247266
2177 0.542475442354
2178 0.518827030304
2179 -1.01730443722
2180 0.542270733873
2181 0.475033703343
2182 -1.17359428505
2183 0.579000063046
2184 0.594594222003
2185 -1.12691675594
2186 0.615229870897
2187 0.511686885043
2188 -1.23994861467
2189 0.567554676205
2190 0.672393938469
2191 -1.10196630659
2192 0.537415604537
2193 0.56455070205
2194 -1.07461001598
2195 0.49094095213
2196 0.583669063848
2197 -1.09772861468
2198 0.555111188249
2199 0.542617426433
2200 -1.11162017261
2201 0.586212325386
2202 0.525407847222
2203 -1.32830093372
2204 0.705983844451
2205 0.622317089265
2206 -1.08962900588
2207 0.541057576633
2208 0.548571429242
2209 -1.19281888806
2210 0.571518529981
2211 0.621300358083
2212 -1.12202510342
2213 0.540253074761
2214 0.581772028663
2215 -1.0641063019
2216 0.615997159802
2217 0.448109142098
2218 -1.05608951274
2219 0.522193395456
2220 0.53389611728
2221 -0.956141238309
2222 0.507326326457
2223 0.448814911852
2224 -1.06430726356
2225 0.538817666582
2226 0.525489596982
2227 -1.16891983932
2228 0.671288741112
2229 0.49763109821
2230 -1.0678340376
2231 0.536703469763
2232 0.531130567841
2233 -1.1046569268
2234 0.534739910603
2235 0.569917016194
2236 -1.41428081606
2237 0.759837553491
2238 0.654443262568
2239 -1.35694584104
2240 0.632192634854
2241 0.724753206183
2242 -1.18734317319
2243 0.59473844904
2244 0.592604724153
2245 -1.05082120565
2246 0.422061350767
2247 0.628759854887
2248 -1.16675255879
2249 0.647737959469
2250 0.519014599323
2251 -1.3191238624
2252 0.671956197626
2253 0.647167664774
2254 -0.98158949109
2255 0.563671586331
2256 0.417917904759
2257 -1.35354512194
2258 0.644160609076
2259 0.709384512863
2260 -1.03906872038
2261 0.531445828241
2262 0.507622892135
2263 -1.21320056297
2264 0.455361640185
2265 0.757838922789
2266 -1.06199370518
2267 0.636214975406
2268 0.425778729778
2269 -1.09399914797
2270 0.578312945643
2271 0.515686202323
2272 -1.04398365745
2273 0.502558278054
2274 0.541425379396
2275 -1.34325781007
2276 0.771910990476
2277 0.571346819597
2278 -1.04712033567
2279 0.560440735017
2280 0.486679600654
2281 -1.11722820594
2282 0.456093522049
2283 0.661134683896
2284 -1.06460845304
2285 0.502196227701
2286 0.562412225344
2287 -1.01772084056
2288 0.460134953151
2289 0.557585887414
2290 -1.02414477994
2291 0.51059756276
2292 0.513547217176
2293 -0.980953869262
2294 0.507572965626
2295 0.473380903636
2296 -1.16318638928
2297 0.483455725409
2298 0.679730663869
2299 -1.10947195039
2300 0.613626113826
2301 0.495845836568
2302 -1.20642363187
2303 0.59203291718
2304 0.614390714693
2305 -1.24331002546
2306 0.555992416348
2307 0.687317609116
2308 -1.18913733536
2309 0.571846611162
2310 0.6172907242
2311 -1.05483745854
2312 0.545320739328
2313 0.509516719207
2314 -0.948196701919
2315 0.444637870364
2316 0.503558831555
2317 -1.1642891016
2318 0.638011350971
2319 0.526277750624
2320 -1.20666558421
2321 0.577328353231
2322 0.629337230982
2323 -1.38320541955
2324 0.694163744257
2325 0.689041675296
2326 -1.10214540433
2327 0.584828802914
2328 0.517316601414
2329 -0.964475739443
2330 0.497644199984
2331 0.466831539459
2332 -1.04662781596
2333 0.519364189833
2334 0.52726362613
2335 -1.13628254222
2336 0.54430193323
2337 0.591980608991
2338 -1.27720664495
2339 0.643346295896
2340 0.633860349052
2341 -1.07135424342
2342 0.540341901122
2343 0.531012342295
2344 -1.13799593769
2345 0.638137650034
2346 0.499858287656
2347 -1.20355816996
2348 0.54718447696
2349 0.656373692998
2350 -1.23590534871
2351 0.629231725321
2352 0.606673623392
2353 -1.24430262346
2354 0.564192299995
2355 0.680110323463
2356 -1.14278555697
2357 0.520120286906
2358 0.622665270064
2359 -1.13045670805
2360 0.618446091263
2361 0.512010616787
2362 -1.12012378811
2363 0.464299772393
2364 0.655824015717
2365 -1.11179001642
2366 0.495006189342
2367 0.616783827078
2368 -1.4303964946
2369 0.815841663693
2370 0.614554830905
2371 -1.03647428473
2372 0.571909361185
2373 0.464564923548
2374 -1.03890504211
2375 0.566590817366
2376 0.472314224746
2377 -1.18422220399
2378 0.651771537194
2379 0.532450666793
2380 -1.19908423834
2381 0.645074692604
2382 0.554009545732
2383 -1.15867809554
2384 0.585569734966
2385 0.573108360577
2386 -1.21647216484
2387 0.643274515979
2388 0.573197648859
2389 -1.1368604644
2390 0.616593666609
2391 0.520266797789
2392 -1.14794066628
2393 0.538316811566
2394 0.609623854714
2395 -1.41055373861
2396 0.692663796984
2397 0.717889941629
2398 -1.12636433938
2399 0.515593426798
2400 0.61077091258
2401 -1.14292017118
2402 0.681652490241
2403 0.461267680936
2404 -1.0707718805
2405 0.510960274122
2406 0.559811606374
2407 -1.30123414545
2408 0.631397625949
2409 0.669836519499
2410 -1.17292246742
2411 0.565528811441
2412 0.607393655976
2413 -1.11457809207
2414 0.569351172763
2415 0.545226919304
2416 -1.1771023114
2417 0.61039004359
2418 0.566712267815
2419 -1.21781426546
2420 0.683970170095
2421 0.533844095366
2422 -0.943167826854
2423 0.442452637611
2424 0.500715189243
2425 -1.06124069724
2426 0.502035857136
2427 0.559204840101
2428 -1.13293542792
2429 0.536623027727
2430 0.596312400194
2431 -1.44191852911
2432 0.683580695044
2433 0.75833783407
2434 -1.22232157774
2435 0.576579133836
2436 0.645742443907
2437 -1.14393716055
2438 0.589779685566
2439 0.554157474986
2440 -0.96624340068
2441 0.493103035696
2442 0.473140364984
2443 -1.14412125812
2444 0.533196804885
2445 0.610924453231
2446 -1.24826095614
2447 0.56524871073
2448 0.683012245406
2449 -0.992463702689
2450 0.511676874176
2451 0.480786828513
2452 -1.04993501438
2453 0.49894677319
2454 0.550988241189
2455 -1.32091156434
2456 0.704655286425
2457 0.616256277917
2458 -0.975327382226
2459 0.41938279307
2460 0.555944589156
2461 -0.986758999584
2462 0.458067318745
2463 0.528691680839
2464 -0.989463910864
2465 0.525605200123
2466 0.463858710742
2467 -1.17178099865
2468 0.555150742466
2469 0.616630256184
2470 -1.05067190278
2471 0.591721415637
2472 0.45895048714
2473 -1.09955236185
2474 0.503864488402
2475 0.595687873452
2476 -1.12468831385
2477 0.596246037488
2478 0.52844227636
2479 -1.028460224
2480 0.592814379549
2481 0.43564584445
2482 -1.19251699437
2483 0.592129770141
2484 0.600387224227
2485 -1.2343687265
2486 0.600575740612
2487 0.633792985887
2488 -1.12740619677
2489 0.569379315457
2490 0.558026881312
2491 -1.18778969786
2492 0.648292339485
2493 0.539497358374
2494 -1.09984466319
2495 0.521615946975
2496 0.578228716213
2497 -1.28470056297
2498 0.535801415862
2499 0.748899147109
2500 -1.214592819
2501 0.60642463804
2502 0.608168180964
2503 -1.11757336944
2504 0.616069734013
2505 0.501503635432
2506 -1.08111315265
2507 0.590844174185
2508 0.490268978462
2509 -0.929303224702
2510 0.445432734986
2511 0.483870489716
2512 -1.09462802346
2513 0.621407517086
2514 0.473220506373
2515 -0.994904165123
2516 0.52903976089
2517 0.465864404233
2518 -1.09912386698
2519 0.606098330752
2520 0.493025536232
2521 -1.19059912338
2522 0.539029492771
2523 0.65156963061
2524 -1.10412951734
2525 0.537197040279
2526 0.566932477065
2527 -1.09807945688
2528 0.583325796597
2529 0.51475366028
2530 -1.04033144431
2531 0.583300701841
2532 0.457030742473
2533 -1.05268511891
2534 0.573009564703
2535 0.479675554209
2536 -0.927527443243
2537 0.510215082713
2538 0.417312360531
2539 -1.25955155725
2540 0.627026895165
2541 0.632524662084
2542 -0.972727848153
2543 0.477443720854
2544 0.4952841273
2545 -1.43837623375
2546 0.712450921285
2547 0.725925312466
2548 -1.04440034008
2549 0.560875496866
2550 0.483524843217
2551 -1.04366779901
2552 0.55896420838
2553 0.484703590634
2554 -1.1236413052
2555 0.588294533533
2556 0.535346771662
2557 -1.0636466086
2558 0.52649210352
2559 0.537154505075
2560 -1.38368399803
2561 0.757382096211
2562 0.626301901817
2563 -1.43814760384
2564 0.743321616777
2565 0.694825987059
2566 -1.15864948488
2567 0.574045039053
2568 0.584604445824
2569 -0.972657628863
2570 0.466602666912
2571 0.506054961951
2572 -0.919441819113
2573 0.429023572976
2574 0.490418246137
2575 -1.21746596231
2576 0.635887594965
2577 0.581578367345
2578 -1.22817363986
2579 0.707016694324
2580 0.521156945538
2581 -1.22652136646
2582 0.566112158811
2583 0.660409207645
2584 -1.16084035346
2585 0.533797848145
2586 0.627042505319
2587 -1.15950813252
2588 0.533717270614
2589 0.625790861908
2590 -1.06047863422
2591 0.518245121467
2592 0.542233512754
2593 -1.06645594648
2594 0.514102397605
2595 0.552353548877
2596 -1.27576981541
2597 0.691470190497
2598 0.58429962491
2599 -1.14558302551
2600 0.470609850537
2601 0.674973174975
2602 -0.987231505481
2603 0.447771448744
2604 0.539460056737
2605 -1.33255923237
2606 0.657079289687
2607 0.675479942684
2608 -1.19197405814
2609 0.584650620548
2610 0.607323437588
2611 -1.44328297083
2612 0.631508143747
2613 0.81177482708
2614 -0.836742157557
2615 0.379360342081
2616 0.457381815476
2617 -1.04505160873
2618 0.492088873224
2619 0.55296273551
2620 -0.972100944417
2621 0.489917353986
2622 0.482183590431
2623 -1.3200640058
2624 0.624672380673
2625 0.69539162513
2626 -1.33700624949
2627 0.621770316763
2628 0.715235932728
2629 -1.08800746525
2630 0.591843710425
2631 0.496163754827
2632 -1.2091493114
2633 0.614304343491
2634 0.59484496791
2635 -1.06930781902
2636 0.620285100262
2637 0.449022718753
2638 -1.36849478098
2639 0.624899144254
2640 0.743595636728
2641 -1.2415935916
2642 0.664050833156
2643 0.577542758445
2644 -1.16357145824
2645 0.658765358708
2646 0.504806099528
2647 -1.14058155623
2648 0.582223508149
2649 0.558358048083
2650 -0.965840323834
2651 0.492482039278
2652 0.473358284556
2653 -1.30285145372
2654 0.664104344188
2655 0.638747109535
2656 -1.33504060444
2657 0.677343352443
2658 0.657697252002
2659 -1.04476247772
2660 0.49270017691
2661 0.552062300814
2662 -0.991884828784
2663 0.527858510763
2664 0.464026318021
2665 -1.0440298974
2666 0.494997295209
2667 0.549032602194
2668 -1.15869331856
2669 0.595817642598
2670 0.562875675966
2671 -0.920677611156
2672 0.499966529824
2673 0.420711081332
2674 -1.15575202101
2675 0.498358045684
2676 0.657393975326
2677 -1.33030060971
2678 0.630690451217
2679 0.699610158494
2680 -1.16811513262
2681 0.609202284627
2682 0.558912847992
2683 -1.02017178426
2684 0.542400578804
2685 0.477771205461
2686 -1.25293307711
2687 0.656645937958
2688 0.596287139149
2689 -1.01225115193
2690 0.534042128761
2691 0.478209023173
2692 -1.11459463351
2693 0.5511119577
2694 0.563482675807
2695 -1.01960788247
2696 0.435302020936
2697 0.584305861539
2698 -1.16706864241
2699 0.611819791394
2700 0.555248851017
2701 -1.05431934975
2702 0.49691504156
2703 0.557404308187
2704 -0.851560207992
2705 0.469117393224
2706 0.382442814768
2707 -0.971214030122
2708 0.505890221108
2709 0.465323809014
2710 -0.780948274473
2711 0.396229785992
2712 0.384718488482
2713 -0.959198823972
2714 0.469160357064
2715 0.490038466907
2716 -1.02489191194
2717 0.487666500006
2718 0.53722541193
2719 -1.14475889372
2720 0.678314197792
2721 0.466444695931
2722 -0.958271256659
2723 0.373595269489
2724 0.58467598717
2725 -1.1534424448
2726 0.523682250639
2727 0.629760194162
2728 -1.15845877877
2729 0.52841592727
2730 0.630042851503
2731 -1.16492767606
2732 0.626819586333
2733 0.538108089732
2734 -0.897011163663
2735 0.4859891609
2736 0.411022002762
2737 -1.06051466799
2738 0.558675840163
2739 0.501838827825
2740 -0.879079776467
2741 0.484238947612
2742 0.394840828854
2743 -1.30198577177
2744 0.738013334683
2745 0.563972437084
2746 -1.23467963973
2747 0.64086104302
2748 0.593818596713
2749 -1.13353436621
2750 0.597936949021
2751 0.535597417185
2752 -1.20314604595
2753 0.605296681834
2754 0.597849364114
2755 -1.00018399546
2756 0.493233203706
2757 0.506950791749
2758 -1.04090638129
2759 0.473007850981
2760 0.567898530307
2761 -1.06880411255
2762 0.510194987195
2763 0.558609125359
2764 -1.03730489625
2765 0.541196709957
2766 0.496108186297
2767 -1.03442989227
2768 0.483235969883
2769 0.551193922392
2770 -1.10251427075
2771 0.450932274264
2772 0.651581996485
2773 -1.13385107681
2774 0.556632969029
2775 0.577218107779
2776 -1.07853084684
2777 0.406961573733
2778 0.67156927311
2779 -1.05247464943
2780 0.453864176752
2781 0.598610472677
2782 -1.09366385183
2783 0.516948080232
2784 0.576715771598
2785 -0.913759008855
2786 0.474717517668
2787 0.439041491187
2788 -1.10554738017
2789 0.51369672127
2790 0.591850658896
2791 -1.13523787934
2792 0.588860451086
2793 0.546377428258
2794 -1.10281952611
2795 0.524966510861
2796 0.577853015251
2797 -1.16189541987
2798 0.559624185032
2799 0.602271234838
2800 -1.2228498377
2801 0.668627223031
2802 0.554222614673
2803 -1.22098704265
2804 0.619086627095
2805 0.601900415556
2806 -1.16967440541
2807 0.544368563248
2808 0.625305842164
2809 -1.24593279297
2810 0.647031484856
2811 0.598901308109
2812 -1.11042573174
2813 0.535479263685
2814 0.574946468054
2815 -1.2921284049
2816 0.627627056138
2817 0.664501348767
2818 -1.26299375046
2819 0.585828591999
2820 0.677165158463
2821 -1.18578673063
2822 0.660490459861
2823 0.525296270767
2824 -1.08249454928
2825 0.531211212247
2826 0.551283337031
2827 -1.19306850965
2828 0.644182286401
2829 0.54888622325
2830 -1.38470000694
2831 0.693155083238
2832 0.691544923702
2833 -1.08486852219
2834 0.618188394626
2835 0.466680127568
2836 -1.0866281319
2837 0.59396091741
2838 0.492667214494
2839 -0.976064816936
2840 0.567180419972
2841 0.408884396963
2842 -0.881527241805
2843 0.469492906593
2844 0.412034335212
2845 -1.27597275589
2846 0.640833662488
2847 0.6351390934
2848 -1.2221325512
2849 0.537494031482
2850 0.684638519716
2851 -1.1831561209
2852 0.639950206955
2853 0.543205913947
2854 -1.34896991943
2855 0.648718089502
2856 0.700251829929
2857 -1.18203048608
2858 0.576781153603
2859 0.605249332477
2860 -1.03916145114
2861 0.624130653526
2862 0.415030797618
2863 -1.06541083916
2864 0.493835087622
2865 0.571575751537
2866 -0.982141557496
2867 0.559648711742
2868 0.422492845754
2869 -1.22473722414
2870 0.656599457943
2871 0.568137766196
2872 -0.949150779335
2873 0.495747287023
2874 0.453403492312
2875 -1.15594520175
2876 0.572763222092
2877 0.583181979654
2878 -1.04325267925
2879 0.557331824671
2880 0.485920854575
2881 -1.11047315152
2882 0.595720202938
2883 0.514752948582
2884 -1.0175384217
2885 0.474343178921
2886 0.543195242781
2887 -1.3660371753
2888 0.61399253076
2889 0.752044644536
2890 -1.26768409459
2891 0.579783963118
2892 0.687900131468
2893 -1.01719427029
2894 0.489178532623
2895 0.528015737667
2896 -1.0702052609
2897 0.493631360451
2898 0.576573900447
2899 -0.86804165226
2900 0.442510109088
2901 0.425531543172
2902 -0.866511468359
2903 0.39146657096
2904 0.475044897398
2905 -1.0263273089
2906 0.520533174889
2907 0.505794134012
2908 -1.05239673422
2909 0.478008893999
2910 0.574387840221
2911 -1.20176318428
2912 0.562893007526
2913 0.638870176749
2914 -1.09583304666
2915 0.616343423099
2916 0.479489623556
2917 -1.09645053907
2918 0.558444942105
2919 0.538005596968
2920 -1.03788042799
2921 0.450896289482
2922 0.586984138508
2923 -1.1909198936
2924 0.624146608774
2925 0.56677328483
2926 -1.19059527083
2927 0.595934142984
2928 0.59466112785
2929 -1.15012241295
2930 0.597475731499
2931 0.552646681453
2932 -0.970496159381
2933 0.439294269996
2934 0.531201889385
2935 -0.919455158459
2936 0.460598403675
2937 0.458856754784
2938 -0.988274159552
2939 0.477052968065
2940 0.511221191487
2941 -1.12465253331
2942 0.55091587387
2943 0.573736659438
2944 -1.10614332908
2945 0.533578290662
2946 0.572565038418
2947 -1.19773952104
2948 0.683450583405
2949 0.514288937637
2950 -1.06819757287
2951 0.591164812026
2952 0.477032760841
2953 -1.14130736912
2954 0.513664594664
2955 0.62764277446
2956 -1.141881063
2957 0.58021285112
2958 0.561668211881
2959 -1.08794238558
2960 0.560083565662
2961 0.527858819921
2962 -0.997457794676
2963 0.474521398763
2964 0.522936395913
2965 -1.31716191368
2966 0.68650985713
2967 0.630652056545
2968 -1.06850176919
2969 0.44092444702
2970 0.627577322171
2971 -1.22192475201
2972 0.63590180152
2973 0.586022950487
2974 -1.09121776049
2975 0.604492590449
2976 0.486725170043
2977 -1.23220025971
2978 0.615842216251
2979 0.616358043459
2980 -1.20603133446
2981 0.610003965089
2982 0.596027369374
2983 -1.05029978561
2984 0.64366814124
2985 0.406631644369
2986 -1.0925202333
2987 0.50797507438
2988 0.584545158923
2989 -1.08082701135
2990 0.50017420305
2991 0.580652808303
2992 -0.852276171301
2993 0.423742909261
2994 0.42853326204
2995 -1.38753324078
2996 0.711706747039
2997 0.675826493736
2998 -1.10378238838
2999 0.565823572921
3000 0.537958815462
3001 -1.06851937792
3002 0.548904137422
3003 0.519615240499
3004 -0.99697106301
3005 0.474182454639
3006 0.522788608371
3007 -1.27307587273
3008 0.626105870269
3009 0.646970002465
3010 -1.33417467637
3011 0.697048440606
3012 0.637126235768
3013 -0.955935224804
3014 0.450738217055
3015 0.505197007749
3016 -1.42302065009
3017 0.729552638467
3018 0.69346801162
3019 -1.25662421749
3020 0.648882240652
3021 0.607741976838
3022 -1.01659510615
3023 0.517729892596
3024 0.498865213552
3025 -1.02130468767
3026 0.589322071732
3027 0.431982615934
3028 -1.09238316433
3029 0.544733396547
3030 0.547649767783
3031 -1.09648144284
3032 0.543248116864
3033 0.553233325971
3034 -1.0140244291
3035 0.479416300726
3036 0.534608128377
3037 -1.19638441423
3038 0.618424131792
3039 0.577960282434
3040 -1.21116462176
3041 0.660990469653
3042 0.550174152108
3043 -1.23532484329
3044 0.537148539833
3045 0.698176303454
3046 -1.28561041522
3047 0.597506614318
3048 0.688103800906
3049 -0.971217993035
3050 0.540781423776
3051 0.430436569259
3052 -1.08700695519
3053 0.561538670156
3054 0.525468285033
3055 -1.09388010049
3056 0.58974608523
3057 0.50413401526
3058 -0.979202347879
3059 0.48562860038
3060 0.493573747499
3061 -1.09744114768
3062 0.541064013664
3063 0.556377134021
3064 -1.13347555485
3065 0.483446642426
3066 0.650028912429
3067 -1.03775451158
3068 0.54476578884
3069 0.492988722741
3070 -1.08967832185
3071 0.531958718632
3072 0.557719603216
3073 -1.23388411427
3074 0.549903747526
3075 0.683980366739
3076 -1.18268523073
3077 0.647946219297
3078 0.534739011432
3079 -1.22414529275
3080 0.539119751576
3081 0.685025541169
3082 -1.04079953252
3083 0.526392358904
3084 0.51440717362
3085 -0.954060843584
3086 0.484340826609
3087 0.469720016975
3088 -1.28768776444
3089 0.697358417998
3090 0.590329346444
3091 -1.14814865247
3092 0.531786039575
3093 0.616362612891
3094 -0.969696017542
3095 0.546595060663
3096 0.423100956879
3097 -1.18471429275
3098 0.550573133716
3099 0.634141159032
3100 -1.09182473391
3101 0.5424690094
3102 0.549355724513
3103 -1.30298015048
3104 0.634038598869
3105 0.668941551612
3106 -1.17948239053
3107 0.673440634576
3108 0.50604175595
3109 -1.36659458471
3110 0.689426530669
3111 0.67716805404
3112 -1.07195047233
3113 0.487674406205
3114 0.584276066123
3115 -1.01178953578
3116 0.461935453591
3117 0.549854082191
3118 -1.08400570745
3119 0.552938474586
3120 0.531067232863
3121 -0.988346438978
3122 0.485680404783
3123 0.502666034195
3124 -1.16950095632
3125 0.527872129208
3126 0.641628827109
3127 -1.0614065645
3128 0.567121432051
3129 0.494285132453
3130 -1.01826324187
3131 0.469361888108
3132 0.548901353764
3133 -1.31384115055
3134 0.662470243584
3135 0.651370906965
3136 -1.12077453633
3137 0.612232967654
3138 0.508541568681
3139 -1.17143217384
3140 0.57419428605
3141 0.597237887792
3142 -1.25219453167
3143 0.609451636746
3144 0.642742894921
3145 -0.911606109415
3146 0.460814191686
3147 0.450791917728
3148 -1.20656117048
3149 0.530058530577
3150 0.676502639899
3151 -0.93240521042
3152 0.545731382549
3153 0.386673827871
3154 -1.05572004779
3155 0.517450660485
3156 0.538269387301
3157 -1.03832093267
3158 0.594237346256
3159 0.444083586417
3160 -1.16994108646
3161 0.682757204418
3162 0.48718388204
3163 -1.07600858109
3164 0.514461657694
3165 0.561546923401
3166 -1.20584841393
3167 0.564881249382
3168 0.640967164544
3169 -1.29076612677
3170 0.600361881091
3171 0.690404245675
3172 -1.19741948063
3173 0.542618359459
3174 0.654801121176
3175 -1.07071561642
3176 0.537007568508
3177 0.53370804791
3178 -0.888345118645
3179 0.440041002189
3180 0.448304116457
3181 -1.09054751286
3182 0.568609906701
3183 0.521937606157
3184 -1.02483956237
3185 0.488600145116
3186 0.536239417255
3187 -0.911227938957
3188 0.492881363875
3189 0.418346575083
3190 -1.22970751902
3191 0.56299555762
3192 0.666711961404
3193 -1.10681446133
3194 0.538193985713
3195 0.568620475612
3196 -1.05874264424
3197 0.50287980263
3198 0.555862841611
3199 -1.263637311
3200 0.674812420789
3201 0.588824890214
3202 -0.98066869142
3203 0.498950539821
3204 0.481718151599
3205 -1.18112304756
3206 0.577087045145
3207 0.604036002418
3208 -1.04861612424
3209 0.529307061186
3210 0.519309063059
3211 -1.10237386841
3212 0.497581022318
3213 0.604792846091
3214 -0.975300375062
3215 0.401447180757
3216 0.573853194306
3217 -1.23994871198
3218 0.677165697384
3219 0.562783014592
3220 -1.15633137126
3221 0.528096838692
3222 0.628234532568
3223 -0.922426581029
3224 0.54721792191
3225 0.375208659119
3226 -1.17302095773
3227 0.585724705105
3228 0.587296252624
3229 -1.22053014778
3230 0.680730380203
3231 0.53979976758
3232 -1.23505647739
3233 0.591149778554
3234 0.643906698836
3235 -1.06887837596
3236 0.532692903712
3237 0.53618547225
3238 -1.03750125327
3239 0.505135266288
3240 0.532365986985
3241 -1.19299887268
3242 0.624687678963
3243 0.568311193718
3244 -1.14334213984
3245 0.540865616285
3246 0.602476523553
3247 -1.35838872161
3248 0.705308070894
3249 0.653080650718
3250 -1.15192124949
3251 0.58268926384
3252 0.569231985649
3253 -1.15415253813
3254 0.445244137422
3255 0.708908400707
3256 -1.25580925374
3257 0.702936103047
3258 0.552873150697
3259 -1.0282276497
3260 0.526670215518
3261 0.50155743418
3262 -1.08951660957
3263 0.486757041061
3264 0.602759568512
3265 -1.22329702877
3266 0.609775066991
3267 0.613521961775
3268 -1.08693683633
3269 0.517424886181
3270 0.569511950149
3271 -1.37108076862
3272 0.677295494133
3273 0.693785274489
3274 -1.10923909234
3275 0.528033865716
3276 0.58120522662
3277 -1.01957851759
3278 0.478636751238
3279 0.540941766351
3280 -1.12716556146
3281 0.49459610569
3282 0.632569455771
3283 -1.01407616778
3284 0.462143231625
3285 0.551932936156
3286 -0.947627331643
3287 0.437379345484
3288 0.510247986159
3289 -0.901424747919
3290 0.437775539695
3291 0.463649208224
3292 -1.19435065824
3293 0.550964069844
3294 0.6433865884
3295 -1.16943502126
3296 0.538962530085
3297 0.630472491179
3298 -1.08054680695
3299 0.502219738304
3300 0.578327068644
3301 -1.19684544947
3302 0.619006964426
3303 0.57783848504
3304 -1.00490638301
3305 0.512763116598
3306 0.492143266415
3307 -1.07493821126
3308 0.479112978977
3309 0.595825232281
3310 -0.955787618117
3311 0.469796386733
3312 0.485991231384
3313 -1.44708374643
3314 0.737531680151
3315 0.709552066276
3316 -1.20528898297
3317 0.560105072349
3318 0.645183910617
3319 -1.05186162382
3320 0.537778119308
3321 0.514083504512
3322 -1.20473716401
3323 0.517894902472
3324 0.686842261538
3325 -1.197780799
3326 0.622004264868
3327 0.575776534128
3328 -1.30108097251
3329 0.691477861282
3330 0.60960311123
3331 -1.09468618834
3332 0.516754399754
3333 0.577931788588
3334 -1.11409826309
3335 0.589100429208
3336 0.524997833879
3337 -1.20501343952
3338 0.544336945259
3339 0.660676494257
3340 -0.958812759796
3341 0.537392234545
3342 0.421420525251
3343 -1.06059060752
3344 0.505577069158
3345 0.55501353836
3346 -1.29586837537
3347 0.676200736234
3348 0.619667639133
3349 -1.05743426592
3350 0.611106318727
3351 0.446327947196
3352 -0.89674834007
3353 0.445175836914
3354 0.451572503156
3355 -1.08128267917
3356 0.532864406247
3357 0.548418272927
3358 -1.19053774986
3359 0.581815135078
3360 0.608722614784
3361 -1.21930180383
3362 0.579007535068
3363 0.64029426876
3364 -1.10193267982
3365 0.586218248211
3366 0.515714431606
3367 -1.0483206388
3368 0.59081683457
3369 0.457503804232
3370 -1.18019740142
3371 0.584318652986
3372 0.595878748435
3373 -1.07426722254
3374 0.493938807818
3375 0.58032841472
3376 -0.992083849889
3377 0.540619217526
3378 0.451464632362
3379 -1.38607342936
3380 0.658698980704
3381 0.727374448659
3382 -1.2435981595
3383 0.671974704345
3384 0.571623455151
3385 -1.20320490235
3386 0.614863867218
3387 0.588341035134
3388 -1.09017309909
3389 0.545784853949
3390 0.54438824514
3391 -1.3225561466
3392 0.579246953682
3393 0.743309192918
3394 -1.23993356549
3395 0.61530004939
3396 0.6246335161
3397 -0.991539956141
3398 0.49442428413
3399 0.497115672012
3400 -1.01379754764
3401 0.498255414133
3402 0.515542133511
3403 -1.19806217987
3404 0.592585821891
3405 0.605476357977
3406 -1.20221205698
3407 0.624168244739
3408 0.578043812243
3409 -1.07953684016
3410 0.595752850851
3411 0.483783989305
3412 -1.24951699937
3413 0.651052826235
3414 0.598464173131
3415 -1.10423683981
3416 0.61717733172
3417 0.487059508088
3418 -1.06245959974
3419 0.654818511472
3420 0.407641088264
3421 -1.18708095334
3422 0.529231066214
3423 0.657849887124
3424 -1.21134313805
3425 0.56440254399
3426 0.64694059406
3427 -1.41479008762
3428 0.685601543652
3429 0.729188543973
3430 -1.01206072403
3431 0.547696027118
3432 0.464364696914
3433 -1.06440527066
3434 0.468564924103
3435 0.595840346553
3436 -1.13361318396
3437 0.648242855934
3438 0.485370328026
3439 -0.969505481622
3440 0.465761432617
3441 0.503744049004
3442 -1.37239034692
3443 0.683703679321
3444 0.688686667594
3445 -1.36760132268
3446 0.708395012445
3447 0.659206310238
3448 -1.06980126363
3449 0.477658217106
3450 0.592143046522
3451 -1.22303963499
3452 0.578323459962
3453 0.644716175028
3454 -1.10880055479
3455 0.51805941049
3456 0.590741144299
3457 -0.908492475319
3458 0.448634459852
3459 0.459858015468
3460 -0.913568986062
3461 0.481830226335
3462 0.431738759727
3463 -1.03301709464
3464 0.456437977824
3465 0.576579116814
3466 -1.18494977232
3467 0.516075040157
3468 0.668874732165
3469 -1.09250980232
3470 0.594062735712
3471 0.498447066608
3472 -1.02715346141
3473 0.567613872681
3474 0.459539588726
3475 -1.14366402065
3476 0.608521139127
3477 0.53514288152
3478 -1.31295009964
3479 0.658113154717
3480 0.654836944919
3481 -1.05041607658
3482 0.504204186344
3483 0.546211890234
3484 -1.20433419488
3485 0.618997409197
3486 0.585336785679
3487 -0.977375448199
3488 0.551400691452
3489 0.425974756747
3490 -1.12835592396
3491 0.586216490923
3492 0.542139433036
3493 -1.00581088124
3494 0.580117016742
3495 0.425693864494
3496 -1.22614412907
3497 0.604872200723
3498 0.621271928345
3499 -1.20473824784
3500 0.564913012982
3501 0.639825234862
3502 -1.00912481731
3503 0.546671358417
3504 0.462453458889
3505 -1.03756689584
3506 0.555248588544
3507 0.482318307291
3508 -1.22440227225
3509 0.54397549667
3510 0.680426775582
3511 -1.11475070152
3512 0.493806461457
3513 0.620944240068
3514 -0.895960893001
3515 0.476247151656
3516 0.419713741345
3517 -1.1282228928
3518 0.444628409312
3519 0.683594483492
3520 -1.0572053907
3521 0.503914124911
3522 0.553291265793
3523 -1.14577452508
3524 0.572535243486
3525 0.573239281594
3526 -1.32429391166
3527 0.580627578048
3528 0.743666333611
3529 -1.40832947746
3530 0.633468534288
3531 0.774860943171
3532 -1.02481738952
3533 0.528605875868
3534 0.496211513657
3535 -1.2015511696
3536 0.620913390132
3537 0.580637779469
3538 -1.13464581876
3539 0.550238104353
3540 0.584407714404
3541 -1.30906778347
3542 0.690162697207
3543 0.618905086264
3544 -1.03805015593
3545 0.659225031679
3546 0.378825124252
3547 -1.00629359569
3548 0.49809188659
3549 0.508201709104
3550 -1.14223018149
3551 0.612775610803
3552 0.529454570688
3553 -1.05133901656
3554 0.51613285265
3555 0.535206163911
3556 -1.14944719427
3557 0.499890918961
3558 0.64955627531
3559 -1.14649560637
3560 0.569597730048
3561 0.576897876323
3562 -1.06362327327
3563 0.588262913988
3564 0.475360359283
3565 -1.29098078463
3566 0.745496183994
3567 0.545484600636
3568 -1.16017558035
3569 0.668918730198
3570 0.491256850152
3571 -1.01254093108
3572 0.539375656559
3573 0.473165274523
3574 -0.869581276837
3575 0.397028498504
3576 0.472552778333
3577 -1.22143217391
3578 0.554044509618
3579 0.667387664293
3580 -0.924941916979
3581 0.486017763173
3582 0.438924153805
3583 -1.32182947607
3584 0.626535645932
3585 0.695293830138
3586 -1.17463258693
3587 0.59341171036
3588 0.581220876569
3589 -0.892945918355
3590 0.420878983575
3591 0.472066934781
3592 -1.13167421877
3593 0.635025511586
3594 0.496648707189
3595 -1.11052173207
3596 0.602443832622
3597 0.508077899448
3598 -1.28055016411
3599 0.679946894711
3600 0.600603269398
3601 -1.13339591931
3602 0.480003373835
3603 0.653392545476
3604 -1.12075971645
3605 0.610439665509
3606 0.510320050938
3607 -1.06385371512
3608 0.511615325712
3609 0.552238389412
3610 -1.26036668786
3611 0.656662484144
3612 0.603704203711
3613 -1.08050602955
3614 0.556800030043
3615 0.523705999504
3616 -1.02238655561
3617 0.425487290016
3618 0.596899265591
3619 -0.928616545554
3620 0.510969929477
3621 0.417646616077
3622 -1.07092350817
3623 0.526673170352
3624 0.544250337817
3625 -1.22523971257
3626 0.590473604764
3627 0.634766107809
3628 -1.17184429495
3629 0.566673619612
3630 0.605170675334
3631 -1.15272515548
3632 0.569910723129
3633 0.582814432353
3634 -1.00494806663
3635 0.525436841453
3636 0.47951122518
3637 -1.27437498475
3638 0.782456770231
3639 0.49191821452
3640 -1.0246875573
3641 0.471479706582
3642 0.553207850714
3643 -1.13696028159
3644 0.53332280266
3645 0.603637478928
3646 -1.00528721161
3647 0.530488419684
3648 0.474798791927
3649 -1.26264183363
3650 0.561098990531
3651 0.701542843097
3652 -1.13486724929
3653 0.582227102203
3654 0.552640147085
3655 -1.03669909221
3656 0.480153424465
3657 0.556545667742
3658 -1.0545509274
3659 0.507978436225
3660 0.546572491175
3661 -1.20423156163
3662 0.614974280228
3663 0.589257281398
3664 -0.985130500701
3665 0.481782642221
3666 0.50334785848
3667 -1.08261986573
3668 0.657540593949
3669 0.425079271785
3670 -1.09765180139
3671 0.62645826436
3672 0.471193537025
3673 -0.861297817166
3674 0.419205401454
3675 0.442092415712
3676 -1.25813073544
3677 0.636175457811
3678 0.621955277626
3679 -1.12487420932
3680 0.594827494952
3681 0.530046714366
3682 -1.35379857746
3683 0.688418730244
3684 0.665379847217
3685 -1.10286422748
3686 0.444594772109
3687 0.658269455373
3688 -1.20268498466
3689 0.658317523419
3690 0.544367461242
3691 -1.12358639488
3692 0.560765494
3693 0.562820900877
3694 -1.08700289106
3695 0.519017605953
3696 0.567985285106
3697 -0.992626205971
3698 0.520227003813
3699 0.472399202158
3700 -1.23896813453
3701 0.7792387658
3702 0.459729368729
3703 -1.02322170896
3704 0.586312364696
3705 0.436909344261
3706 -1.09942710477
3707 0.502865827448
3708 0.596561277325
3709 -1.08257619225
3710 0.490253448441
3711 0.592322743814
3712 -1.06130247266
3713 0.542475442354
3714 0.518827030304
3715 -1.01730443722
3716 0.542270733873
3717 0.475033703343
3718 -1.17359428505
3719 0.579000063046
3720 0.594594222003
3721 -1.12691675594
3722 0.615229870897
3723 0.511686885043
3724 -1.23994861467
3725 0.567554676205
3726 0.672393938469
3727 -1.10196630659
3728 0.537415604537
3729 0.56455070205
3730 -1.07461001598
3731 0.49094095213
3732 0.583669063848
3733 -1.09772861468
3734 0.555111188249
3735 0.542617426433
3736 -1.11162017261
3737 0.586212325386
3738 0.525407847222
3739 -1.32830093372
3740 0.705983844451
3741 0.622317089265
3742 -1.08962900588
3743 0.541057576633
3744 0.548571429242
3745 -1.19281888806
3746 0.571518529981
3747 0.621300358083
3748 -1.12202510342
3749 0.540253074761
3750 0.581772028663
3751 -1.0641063019
3752 0.615997159802
3753 0.448109142098
3754 -1.05608951274
3755 0.522193395456
3756 0.53389611728
3757 -0.956141238309
3758 0.507326326457
3759 0.448814911852
3760 -1.06430726356
3761 0.538817666582
3762 0.525489596982
3763 -1.16891983932
3764 0.671288741112
3765 0.49763109821
3766 -1.0678340376
3767 0.536703469763
3768 0.531130567841
3769 -1.1046569268
3770 0.534739910603
3771 0.569917016194
3772 -1.41428081606
3773 0.759837553491
3774 0.654443262568
3775 -1.35694584104
3776 0.632192634854
3777 0.724753206183
3778 -1.18734317319
3779 0.59473844904
3780 0.592604724153
3781 -1.05082120565
3782 0.422061350767
3783 0.628759854887
3784 -1.16675255879
3785 0.647737959469
3786 0.519014599323
3787 -1.3191238624
3788 0.671956197626
3789 0.647167664774
3790 -0.98158949109
3791 0.563671586331
3792 0.417917904759
3793 -1.35354512194
3794 0.644160609076
3795 0.709384512863
3796 -1.03906872038
3797 0.531445828241
3798 0.507622892135
3799 -1.21320056297
3800 0.455361640185
3801 0.757838922789
3802 -1.06199370518
3803 0.636214975406
3804 0.425778729778
3805 -1.09399914797
3806 0.578312945643
3807 0.515686202324
3808 -1.04398365745
3809 0.502558278054
3810 0.541425379396
3811 -1.34325781007
3812 0.771910990476
3813 0.571346819597
3814 -1.04712033567
3815 0.560440735017
3816 0.486679600654
3817 -1.11722820594
3818 0.456093522049
3819 0.661134683896
3820 -1.06460845304
3821 0.502196227701
3822 0.562412225344
3823 -1.01772084056
3824 0.460134953151
3825 0.557585887414
3826 -1.02414477994
3827 0.51059756276
3828 0.513547217176
3829 -0.980953869262
3830 0.507572965626
3831 0.473380903636
3832 -1.16318638928
3833 0.483455725409
3834 0.679730663869
3835 -1.10947195039
3836 0.613626113826
3837 0.495845836568
3838 -1.20642363187
3839 0.59203291718
3840 0.614390714693
3841 -1.24331002546
3842 0.555992416348
3843 0.687317609116
3844 -1.18913733536
3845 0.571846611162
3846 0.6172907242
3847 -1.05483745854
3848 0.545320739328
3849 0.509516719207
3850 -0.948196701919
3851 0.444637870364
3852 0.503558831555
3853 -1.1642891016
3854 0.638011350971
3855 0.526277750624
3856 -1.20666558421
3857 0.577328353231
3858 0.629337230982
3859 -1.38320541955
3860 0.694163744257
3861 0.689041675296
3862 -1.10214540433
3863 0.584828802914
3864 0.517316601414
3865 -0.964475739443
3866 0.497644199984
3867 0.466831539459
3868 -1.04662781596
3869 0.519364189833
3870 0.52726362613
3871 -1.13628254222
3872 0.54430193323
3873 0.591980608991
3874 -1.27720664495
3875 0.643346295896
3876 0.633860349052
3877 -1.07135424342
3878 0.540341901122
3879 0.531012342295
3880 -1.13799593769
3881 0.638137650034
3882 0.499858287656
3883 -1.20355816996
3884 0.54718447696
3885 0.656373692998
3886 -1.23590534871
3887 0.629231725321
3888 0.606673623392
3889 -1.24430262346
3890 0.564192299995
3891 0.680110323463
3892 -1.14278555697
3893 0.520120286906
3894 0.622665270064
3895 -1.13045670805
3896 0.618446091263
3897 0.512010616787
3898 -1.12012378811
3899 0.464299772393
3900 0.655824015717
3901 -1.11179001642
3902 0.495006189342
3903 0.616783827078
3904 -1.4303964946
3905 0.815841663693
3906 0.614554830905
3907 -1.03647428473
3908 0.571909361185
3909 0.464564923548
3910 -1.03890504211
3911 0.566590817366
3912 0.472314224746
3913 -1.18422220399
3914 0.651771537194
3915 0.532450666793
3916 -1.19908423834
3917 0.645074692604
3918 0.554009545732
3919 -1.15867809554
3920 0.585569734966
3921 0.573108360577
3922 -1.21647216484
3923 0.643274515979
3924 0.573197648859
3925 -1.1368604644
3926 0.616593666609
3927 0.520266797789
3928 -1.14794066628
3929 0.538316811566
3930 0.609623854714
3931 -1.41055373861
3932 0.692663796984
3933 0.717889941629
3934 -1.12636433938
3935 0.515593426798
3936 0.61077091258
3937 -1.14292017118
3938 0.681652490241
3939 0.461267680936
3940 -1.0707718805
3941 0.510960274122
3942 0.559811606374
3943 -1.30123414545
3944 0.631397625949
3945 0.669836519499
3946 -1.17292246742
3947 0.565528811441
3948 0.607393655976
3949 -1.11457809207
3950 0.569351172763
3951 0.545226919304
3952 -1.1771023114
3953 0.61039004359
3954 0.566712267815
3955 -1.21781426546
3956 0.683970170095
3957 0.533844095366
3958 -0.943167826854
3959 0.442452637611
3960 0.500715189243
3961 -1.06124069724
3962 0.502035857136
3963 0.559204840101
3964 -1.13293542792
3965 0.536623027727
3966 0.596312400194
3967 -1.44191852911
3968 0.683580695044
3969 0.75833783407
3970 -1.22232157774
3971 0.576579133836
3972 0.645742443907
3973 -1.14393716055
3974 0.589779685566
3975 0.554157474986
3976 -0.96624340068
3977 0.493103035696
3978 0.473140364984
3979 -1.14412125812
3980 0.533196804885
3981 0.610924453231
3982 -1.24826095614
3983 0.56524871073
3984 0.683012245406
3985 -0.992463702689
3986 0.511676874176
3987 0.480786828513
3988 -1.04993501438
3989 0.49894677319
3990 0.550988241189
3991 -1.32091156434
3992 0.704655286425
3993 0.616256277917
3994 -0.975327382226
3995 0.41938279307
3996 0.555944589156
3997 -0.986758999584
3998 0.458067318745
3999 0.528691680839
4000 -0.989463910864
4001 0.525605200123
4002 0.463858710742
4003 -1.17178099865
4004 0.555150742466
4005 0.616630256184
4006 -1.05067190278
4007 0.591721415637
4008 0.45895048714
4009 -1.09955236185
4010 0.503864488402
4011 0.595687873452
4012 -1.12468831385
4013 0.596246037488
4014 0.52844227636
4015 -1.028460224
4016 0.592814379549
4017 0.43564584445
4018 -1.19251699437
4019 0.592129770141
4020 0.600387224227
4021 -1.2343687265
4022 0.600575740612
4023 0.633792985887
4024 -1.12740619677
4025 0.569379315457
4026 0.558026881312
4027 -1.18778969786
4028 0.648292339485
4029 0.539497358374
4030 -1.09984466319
4031 0.521615946975
4032 0.578228716213
4033 -1.28470056297
4034 0.535801415861
4035 0.748899147109
4036 -1.214592819
4037 0.60642463804
4038 0.608168180964
4039 -1.11757336944
4040 0.616069734013
4041 0.501503635432
4042 -1.08111315265
4043 0.590844174185
4044 0.490268978462
4045 -0.929303224702
4046 0.445432734986
4047 0.483870489716
4048 -1.09462802346
4049 0.621407517086
4050 0.473220506373
4051 -0.994904165123
4052 0.52903976089
4053 0.465864404233
4054 -1.09912386698
4055 0.606098330752
4056 0.493025536232
4057 -1.19059912338
4058 0.539029492771
4059 0.65156963061
4060 -1.10412951734
4061 0.537197040279
4062 0.566932477065
4063 -1.09807945688
4064 0.583325796597
4065 0.51475366028
4066 -1.04033144431
4067 0.583300701841
4068 0.457030742473
4069 -1.05268511891
4070 0.573009564703
4071 0.479675554209
4072 -0.927527443243
4073 0.510215082713
4074 0.417312360531
4075 -1.25955155725
4076 0.627026895165
4077 0.632524662084
4078 -0.972727848153
4079 0.477443720854
4080 0.4952841273
4081 -1.43837623375
4082 0.712450921285
4083 0.725925312466
4084 -1.04440034008
4085 0.560875496866
4086 0.483524843217
4087 -1.04366779901
4088 0.55896420838
4089 0.484703590634
4090 -1.1236413052
4091 0.588294533533
4092 0.535346771662
4093 -1.0636466086
4094 0.52649210352
4095 0.537154505075
4096 -1.38368399803
4097 0.757382096211
4098 0.626301901817
4099 -1.43814760384
4100 0.743321616777
4101 0.694825987059
4102 -1.15864948488
4103 0.574045039053
4104 0.584604445824
4105 -0.972657628863
4106 0.466602666912
4107 0.506054961951
4108 -0.919441819113
4109 0.429023572976
4110 0.490418246137
4111 -1.21746596231
4112 0.635887594965
4113 0.581578367345
4114 -1.22817363986
4115 0.707016694324
4116 0.521156945538
4117 -1.22652136646
4118 0.566112158811
4119 0.660409207645
4120 -1.16084035346
4121 0.533797848145
4122 0.627042505319
4123 -1.15950813252
4124 0.533717270614
4125 0.625790861908
4126 -1.06047863422
4127 0.518245121467
4128 0.542233512754
4129 -1.06645594648
4130 0.514102397605
4131 0.552353548877
4132 -1.27576981541
4133 0.691470190497
4134 0.58429962491
4135 -1.14558302551
4136 0.470609850537
4137 0.674973174975
4138 -0.987231505481
4139 0.447771448744
4140 0.539460056737
4141 -1.33255923237
4142 0.657079289687
4143 0.675479942684
4144 -1.19197405814
4145 0.584650620548
4146 0.607323437588
4147 -1.44328297083
4148 0.631508143747
4149 0.81177482708
4150 -0.836742157557
4151 0.379360342081
4152 0.457381815476
4153 -1.04505160873
4154 0.492088873224
4155 0.55296273551
4156 -0.972100944417
4157 0.489917353986
4158 0.482183590431
4159 -1.3200640058
4160 0.624672380673
4161 0.69539162513
4162 -1.33700624949
4163 0.621770316763
4164 0.715235932728
4165 -1.08800746525
4166 0.591843710425
4167 0.496163754827
4168 -1.2091493114
4169 0.614304343491
4170 0.59484496791
4171 -1.06930781902
4172 0.620285100262
4173 0.449022718753
4174 -1.36849478098
4175 0.624899144254
4176 0.743595636728
4177 -1.2415935916
4178 0.664050833156
4179 0.577542758445
4180 -1.16357145824
4181 0.658765358708
4182 0.504806099528
4183 -1.14058155623
4184 0.582223508149
4185 0.558358048083
4186 -0.965840323834
4187 0.492482039278
4188 0.473358284556
4189 -1.30285145372
4190 0.664104344188
4191 0.638747109535
4192 -1.33504060444
4193 0.677343352443
4194 0.657697252002
4195 -1.04476247772
4196 0.49270017691
4197 0.552062300814
4198 -0.991884828784
4199 0.527858510763
4200 0.464026318021
4201 -1.0440298974
4202 0.494997295209
4203 0.549032602194
4204 -1.15869331856
4205 0.595817642598
4206 0.562875675966
4207 -0.920677611156
4208 0.499966529824
4209 0.420711081332
4210 -1.15575202101
4211 0.498358045684
4212 0.657393975326
4213 -1.33030060971
4214 0.630690451217
4215 0.699610158494
4216 -1.16811513262
4217 0.609202284627
4218 0.558912847992
4219 -1.02017178426
4220 0.542400578804
4221 0.477771205461
4222 -1.25293307711
4223 0.656645937958
4224 0.596287139149
4225 -1.01225115193
4226 0.534042128761
4227 0.478209023173
4228 -1.11459463351
4229 0.5511119577
4230 0.563482675807
4231 -1.01960788247
4232 0.435302020936
4233 0.584305861539
4234 -1.16706864241
4235 0.611819791394
4236 0.555248851017
4237 -1.05431934975
4238 0.49691504156
4239 0.557404308187
4240 -0.851560207992
4241 0.469117393224
4242 0.382442814768
4243 -0.971214030122
4244 0.505890221108
4245 0.465323809014
4246 -0.780948274473
4247 0.396229785992
4248 0.384718488482
4249 -0.959198823972
4250 0.469160357064
4251 0.490038466907
4252 -1.02489191194
4253 0.487666500006
4254 0.53722541193
4255 -1.14475889372
4256 0.678314197792
4257 0.466444695931
4258 -0.958271256659
4259 0.373595269489
4260 0.58467598717
4261 -1.1534424448
4262 0.523682250639
4263 0.629760194162
4264 -1.15845877877
4265 0.52841592727
4266 0.630042851503
4267 -1.16492767606
4268 0.626819586333
4269 0.538108089732
4270 -0.897011163663
4271 0.4859891609
4272 0.411022002762
4273 -1.06051466799
4274 0.558675840163
4275 0.501838827825
4276 -0.879079776467
4277 0.484238947612
4278 0.394840828854
4279 -1.30198577177
4280 0.738013334683
4281 0.563972437084
4282 -1.23467963973
4283 0.64086104302
4284 0.593818596713
4285 -1.13353436621
4286 0.597936949021
4287 0.535597417185
4288 -1.20314604595
4289 0.605296681834
4290 0.597849364114
4291 -1.00018399546
4292 0.493233203706
4293 0.506950791749
4294 -1.04090638129
4295 0.473007850981
4296 0.567898530307
4297 -1.06880411255
4298 0.510194987195
4299 0.558609125359
4300 -1.03730489625
4301 0.541196709957
4302 0.496108186297
4303 -1.03442989227
4304 0.483235969883
4305 0.551193922392
4306 -1.10251427075
4307 0.450932274264
4308 0.651581996485
4309 -1.13385107681
4310 0.556632969029
4311 0.577218107779
4312 -1.07853084684
4313 0.406961573733
4314 0.67156927311
4315 -1.05247464943
4316 0.453864176752
4317 0.598610472677
4318 -1.09366385183
4319 0.516948080232
4320 0.576715771598
4321 -0.913759008855
4322 0.474717517668
4323 0.439041491187
4324 -1.10554738017
4325 0.51369672127
4326 0.591850658896
4327 -1.13523787934
4328 0.588860451086
4329 0.546377428258
4330 -1.10281952611
4331 0.524966510861
4332 0.577853015251
4333 -1.16189541987
4334 0.559624185032
4335 0.602271234838
4336 -1.2228498377
4337 0.668627223031
4338 0.554222614673
4339 -1.22098704265
4340 0.619086627095
4341 0.601900415556
4342 -1.16967440541
4343 0.544368563248
4344 0.625305842164
4345 -1.24593279297
4346 0.647031484856
4347 0.598901308109
4348 -1.11042573174
4349 0.535479263685
4350 0.574946468054
4351 -1.2921284049
4352 0.627627056138
4353 0.664501348767
4354 -1.26299375046
4355 0.585828591999
4356 0.677165158463
4357 -1.18578673063
4358 0.660490459861
4359 0.525296270767
4360 -1.08249454928
4361 0.531211212247
4362 0.551283337031
4363 -1.19306850965
4364 0.644182286401
4365 0.54888622325
4366 -1.38470000694
4367 0.693155083238
4368 0.691544923702
4369 -1.08486852219
4370 0.618188394626
4371 0.466680127568
4372 -1.0866281319
4373 0.59396091741
4374 0.492667214494
4375 -0.976064816936
4376 0.567180419972
4377 0.408884396963
4378 -0.881527241805
4379 0.469492906593
4380 0.412034335212
4381 -1.27597275589
4382 0.640833662488
4383 0.6351390934
4384 -1.2221325512
4385 0.537494031482
4386 0.684638519716
4387 -1.1831561209
4388 0.639950206955
4389 0.543205913947
4390 -1.34896991943
4391 0.648718089502
4392 0.700251829929
4393 -1.18203048608
4394 0.576781153603
4395 0.605249332477
4396 -1.03916145114
4397 0.624130653526
4398 0.415030797618
4399 -1.06541083916
4400 0.493835087622
4401 0.571575751537
4402 -0.982141557496
4403 0.559648711742
4404 0.422492845754
4405 -1.22473722414
4406 0.656599457943
4407 0.568137766196
4408 -0.949150779335
4409 0.495747287023
4410 0.453403492312
4411 -1.15594520175
4412 0.572763222092
4413 0.583181979654
4414 -1.04325267925
4415 0.557331824671
4416 0.485920854575
4417 -1.11047315152
4418 0.595720202938
4419 0.514752948582
4420 -1.0175384217
4421 0.474343178921
4422 0.543195242781
4423 -1.3660371753
4424 0.61399253076
4425 0.752044644536
4426 -1.26768409459
4427 0.579783963118
4428 0.687900131468
4429 -1.01719427029
4430 0.489178532623
4431 0.528015737667
4432 -1.0702052609
4433 0.493631360451
4434 0.576573900447
4435 -0.86804165226
4436 0.442510109088
4437 0.425531543172
4438 -0.866511468359
4439 0.391466570961
4440 0.475044897398
4441 -1.0263273089
4442 0.520533174889
4443 0.505794134012
4444 -1.05239673422
4445 0.478008893999
4446 0.574387840221
4447 -1.20176318428
4448 0.562893007526
4449 0.638870176749
4450 -1.09583304666
4451 0.616343423099
4452 0.479489623556
4453 -1.09645053907
4454 0.558444942105
4455 0.538005596968
4456 -1.03788042799
4457 0.450896289482
4458 0.586984138508
4459 -1.1909198936
4460 0.624146608774
4461 0.56677328483
4462 -1.19059527083
4463 0.595934142984
4464 0.59466112785
4465 -1.15012241295
4466 0.597475731499
4467 0.552646681453
4468 -0.970496159381
4469 0.439294269996
4470 0.531201889385
4471 -0.919455158459
4472 0.460598403675
4473 0.458856754784
4474 -0.988274159552
4475 0.477052968065
4476 0.511221191487
4477 -1.12465253331
4478 0.55091587387
4479 0.573736659438
4480 -1.10614332908
4481 0.533578290662
4482 0.572565038418
4483 -1.19773952104
4484 0.683450583405
4485 0.514288937637
4486 -1.06819757287
4487 0.591164812026
4488 0.477032760841
4489 -1.14130736912
4490 0.513664594664
4491 0.62764277446
4492 -1.141881063
4493 0.58021285112
4494 0.561668211881
4495 -1.08794238558
4496 0.560083565662
4497 0.527858819921
4498 -0.997457794676
4499 0.474521398763
4500 0.522936395913
4501 -1.31716191368
4502 0.68650985713
4503 0.630652056545
4504 -1.06850176919
4505 0.44092444702
4506 0.627577322171
4507 -1.22192475201
4508 0.63590180152
4509 0.586022950487
4510 -1.09121776049
4511 0.604492590449
4512 0.486725170043
4513 -1.23220025971
4514 0.615842216251
4515 0.616358043459
4516 -1.20603133446
4517 0.610003965089
4518 0.596027369374
4519 -1.05029978561
4520 0.64366814124
4521 0.406631644369
4522 -1.0925202333
4523 0.50797507438
4524 0.584545158923
4525 -1.08082701135
4526 0.50017420305
4527 0.580652808303
4528 -0.852276171301
4529 0.423742909261
4530 0.42853326204
4531 -1.38753324078
4532 0.711706747039
4533 0.675826493736
4534 -1.10378238838
4535 0.565823572921
4536 0.537958815462
4537 -1.06851937792
4538 0.548904137422
4539 0.519615240499
4540 -0.99697106301
4541 0.474182454639
4542 0.522788608371
4543 -1.27307587273
4544 0.626105870269
4545 0.646970002465
4546 -1.33417467637
4547 0.697048440606
4548 0.637126235768
4549 -0.955935224804
4550 0.450738217055
4551 0.505197007749
4552 -1.42302065009
4553 0.729552638467
4554 0.69346801162
4555 -1.25662421749
4556 0.648882240652
4557 0.607741976838
4558 -1.01659510615
4559 0.517729892596
4560 0.498865213552
4561 -1.02130468767
4562 0.589322071732
4563 0.431982615934
4564 -1.09238316433
4565 0.544733396547
4566 0.547649767783
4567 -1.09648144284
4568 0.543248116864
4569 0.553233325971
4570 -1.0140244291
4571 0.479416300726
4572 0.534608128377
4573 -1.19638441423
4574 0.618424131792
4575 0.577960282434
4576 -1.21116462176
4577 0.660990469653
4578 0.550174152108
4579 -1.23532484329
4580 0.537148539833
4581 0.698176303454
4582 -1.28561041522
4583 0.597506614318
4584 0.688103800906
4585 -0.971217993035
4586 0.540781423776
4587 0.430436569259
4588 -1.08700695519
4589 0.561538670156
4590 0.525468285033
4591 -1.09388010049
4592 0.58974608523
4593 0.50413401526
4594 -0.979202347879
4595 0.48562860038
4596 0.493573747499
4597 -1.09744114768
4598 0.541064013664
4599 0.556377134021
4600 -1.13347555485
4601 0.483446642426
4602 0.650028912429
4603 -1.03775451158
4604 0.54476578884
4605 0.492988722741
4606 -1.08967832185
4607 0.531958718632
4608 0.557719603216
4609 -1.23388411427
4610 0.549903747526
4611 0.683980366739
4612 -1.18268523073
4613 0.647946219297
4614 0.534739011432
4615 -1.22414529275
4616 0.539119751576
4617 0.685025541169
4618 -1.04079953252
4619 0.526392358904
4620 0.51440717362
4621 -0.954060843584
4622 0.484340826609
4623 0.469720016975
4624 -1.28768776444
4625 0.697358417998
4626 0.590329346444
4627 -1.14814865247
4628 0.531786039575
4629 0.616362612891
4630 -0.969696017542
4631 0.546595060663
4632 0.423100956879
4633 -1.18471429275
4634 0.550573133716
4635 0.634141159032
4636 -1.09182473391
4637 0.5424690094
4638 0.549355724513
4639 -1.30298015048
4640 0.634038598869
4641 0.668941551612
4642 -1.17948239053
4643 0.673440634576
4644 0.50604175595
4645 -1.36659458471
4646 0.689426530669
4647 0.67716805404
4648 -1.07195047233
4649 0.487674406205
4650 0.584276066123
4651 -1.01178953578
4652 0.461935453591
4653 0.549854082191
4654 -1.08400570745
4655 0.552938474586
4656 0.531067232863
4657 -0.988346438978
4658 0.485680404783
4659 0.502666034195
4660 -1.16950095632
4661 0.527872129208
4662 0.641628827109
4663 -1.0614065645
4664 0.567121432051
4665 0.494285132453
4666 -1.01826324187
4667 0.469361888108
4668 0.548901353764
4669 -1.31384115055
4670 0.662470243584
4671 0.651370906965
4672 -1.12077453633
4673 0.612232967654
4674 0.508541568681
4675 -1.17143217384
4676 0.57419428605
4677 0.597237887792
4678 -1.25219453167
4679 0.609451636746
4680 0.642742894921
4681 -0.911606109415
4682 0.460814191686
4683 0.450791917728
4684 -1.20656117048
4685 0.530058530577
4686 0.676502639899
4687 -0.93240521042
4688 0.545731382549
4689 0.386673827871
4690 -1.05572004779
4691 0.517450660485
4692 0.538269387301
4693 -1.03832093267
4694 0.594237346256
4695 0.444083586417
4696 -1.16994108646
4697 0.682757204418
4698 0.48718388204
4699 -1.07600858109
4700 0.514461657694
4701 0.561546923401
4702 -1.20584841393
4703 0.564881249382
4704 0.640967164544
4705 -1.29076612677
4706 0.600361881091
4707 0.690404245675
4708 -1.19741948063
4709 0.542618359459
4710 0.654801121176
4711 -1.07071561642
4712 0.537007568508
4713 0.53370804791
4714 -0.888345118645
4715 0.440041002189
4716 0.448304116457
4717 -1.09054751286
4718 0.568609906701
4719 0.521937606157
4720 -1.02483956237
4721 0.488600145116
4722 0.536239417255
4723 -0.911227938957
4724 0.492881363875
4725 0.418346575083
4726 -1.22970751902
4727 0.56299555762
4728 0.666711961404
4729 -1.10681446133
4730 0.538193985713
4731 0.568620475612
4732 -1.05874264424
4733 0.50287980263
4734 0.555862841611
4735 -1.263637311
4736 0.674812420789
4737 0.588824890214
4738 -0.98066869142
4739 0.498950539821
4740 0.481718151599
4741 -1.18112304756
4742 0.577087045145
4743 0.604036002418
4744 -1.04861612424
4745 0.529307061186
4746 0.519309063059
4747 -1.10237386841
4748 0.497581022318
4749 0.604792846091
4750 -0.975300375062
4751 0.401447180757
4752 0.573853194306
4753 -1.23994871198
4754 0.677165697384
4755 0.562783014592
4756 -1.15633137126
4757 0.528096838692
4758 0.628234532568
4759 -0.922426581029
4760 0.54721792191
4761 0.375208659119
4762 -1.17302095773
4763 0.585724705105
4764 0.587296252624
4765 -1.22053014778
4766 0.680730380203
4767 0.53979976758
4768 -1.23505647739
4769 0.591149778554
4770 0.643906698836
4771 -1.06887837596
4772 0.532692903712
4773 0.53618547225
4774 -1.03750125327
4775 0.505135266288
4776 0.532365986985
4777 -1.19299887268
4778 0.624687678963
4779 0.568311193718
4780 -1.14334213984
4781 0.540865616285
4782 0.602476523553
4783 -1.35838872161
4784 0.705308070894
4785 0.653080650718
4786 -1.15192124949
4787 0.58268926384
4788 0.569231985649
4789 -1.15415253813
4790 0.445244137422
4791 0.708908400707
4792 -1.25580925374
4793 0.702936103047
4794 0.552873150697
4795 -1.0282276497
4796 0.526670215518
4797 0.50155743418
4798 -1.08951660957
4799 0.486757041061
4800 0.602759568512
4801 -1.22329702877
4802 0.609775066991
4803 0.613521961775
4804 -1.08693683633
4805 0.517424886181
4806 0.569511950149
4807 -1.37108076862
4808 0.677295494133
4809 0.693785274489
4810 -1.10923909234
4811 0.528033865716
4812 0.58120522662
4813 -1.01957851759
4814 0.478636751238
4815 0.540941766351
4816 -1.12716556146
4817 0.49459610569
4818 0.632569455771
4819 -1.01407616778
4820 0.462143231625
4821 0.551932936156
4822 -0.947627331643
4823 0.437379345484
4824 0.510247986159
4825 -0.901424747919
4826 0.437775539695
4827 0.463649208224
4828 -1.19435065824
4829 0.550964069844
4830 0.6433865884
4831 -1.16943502126
4832 0.538962530085
4833 0.630472491179
4834 -1.08054680695
4835 0.502219738304
4836 0.578327068644
4837 -1.19684544947
4838 0.619006964426
4839 0.57783848504
4840 -1.00490638301
4841 0.512763116598
4842 0.492143266415
4843 -1.07493821126
4844 0.479112978977
4845 0.595825232281
4846 -0.955787618117
4847 0.469796386733
4848 0.485991231384
4849 -1.44708374643
4850 0.737531680151
4851 0.709552066276
4852 -1.20528898297
4853 0.560105072349
4854 0.645183910617
4855 -1.05186162382
4856 0.537778119308
4857 0.514083504512
4858 -1.20473716401
4859 0.517894902472
4860 0.686842261538
4861 -1.197780799
4862 0.622004264868
4863 0.575776534128
4864 -1.30108097251
4865 0.691477861282
4866 0.60960311123
4867 -1.09468618834
4868 0.516754399754
4869 0.577931788588
4870 -1.11409826309
4871 0.589100429208
4872 0.524997833879
4873 -1.20501343952
4874 0.544336945259
4875 0.660676494257
4876 -0.958812759796
4877 0.537392234545
4878 0.421420525251
4879 -1.06059060752
4880 0.505577069158
4881 0.55501353836
4882 -1.29586837537
4883 0.676200736234
4884 0.619667639133
4885 -1.05743426592
4886 0.611106318727
4887 0.446327947196
4888 -0.89674834007
4889 0.445175836914
4890 0.451572503156
4891 -1.08128267917
4892 0.532864406247
4893 0.548418272927
4894 -1.19053774986
4895 0.581815135078
4896 0.608722614784
4897 -1.21930180383
4898 0.579007535068
4899 0.64029426876
4900 -1.10193267982
4901 0.586218248211
4902 0.515714431606
4903 -1.0483206388
4904 0.59081683457
4905 0.457503804232
4906 -1.18019740142
4907 0.584318652986
4908 0.595878748435
4909 -1.07426722254
4910 0.493938807818
4911 0.58032841472
4912 -0.992083849889
4913 0.540619217526
4914 0.451464632362
4915 -1.38607342936
4916 0.658698980704
4917 0.727374448659
4918 -1.2435981595
4919 0.671974704345
4920 0.571623455151
4921 -1.20320490235
4922 0.614863867218
4923 0.588341035134
4924 -1.09017309909
4925 0.545784853949
4926 0.54438824514
4927 -1.3225561466
4928 0.579246953682
4929 0.743309192918
4930 -1.23993356549
4931 0.61530004939
4932 0.6246335161
4933 -0.991539956141
4934 0.49442428413
4935 0.497115672012
4936 -1.01379754764
4937 0.498255414133
4938 0.515542133511
4939 -1.19806217987
4940 0.592585821891
4941 0.605476357977
4942 -1.20221205698
4943 0.624168244739
4944 0.578043812243
4945 -1.07953684016
4946 0.595752850851
4947 0.483783989305
4948 -1.24951699937
4949 0.651052826235
4950 0.598464173131
4951 -1.10423683981
4952 0.61717733172
4953 0.487059508088
4954 -1.06245959974
4955 0.654818511472
4956 0.407641088264
4957 -1.18708095334
4958 0.529231066214
4959 0.657849887124
4960 -1.21134313805
4961 0.56440254399
4962 0.64694059406
4963 -1.41479008762
4964 0.685601543652
4965 0.729188543973
4966 -1.01206072403
4967 0.547696027118
4968 0.464364696914
4969 -1.06440527066
4970 0.468564924103
4971 0.595840346553
4972 -1.13361318396
4973 0.648242855934
4974 0.485370328026
4975 -0.969505481622
4976 0.465761432617
4977 0.503744049004
4978 -1.37239034692
4979 0.683703679321
4980 0.688686667594
4981 -1.36760132268
4982 0.708395012445
4983 0.659206310238
4984 -1.06980126363
4985 0.477658217106
4986 0.592143046522
4987 -1.22303963499
4988 0.578323459962
4989 0.644716175028
4990 -1.10880055479
4991 0.51805941049
4992 0.590741144299
4993 -0.908492475319
4994 0.448634459852
4995 0.459858015468
4996 -0.913568986062
4997 0.481830226335
4998 0.431738759727
4999 -1.03301709464
5000 0.456437977824
5001 0.576579116814
5002 -1.18494977232
5003 0.516075040157
5004 0.668874732165
5005 -1.09250980232
5006 0.594062735712
5007 0.498447066608
5008 -1.02715346141
5009 0.567613872681
5010 0.459539588726
5011 -1.14366402065
5012 0.608521139127
5013 0.53514288152
5014 -1.31295009964
5015 0.658113154717
5016 0.654836944919
5017 -1.05041607658
5018 0.504204186344
5019 0.546211890234
5020 -1.20433419488
5021 0.618997409197
5022 0.585336785679
5023 -0.977375448199
5024 0.551400691452
5025 0.425974756747
5026 -1.12835592396
5027 0.586216490923
5028 0.542139433036
5029 -1.00581088124
5030 0.580117016742
5031 0.425693864494
5032 -1.22614412907
5033 0.604872200723
5034 0.621271928345
5035 -1.20473824784
5036 0.564913012982
5037 0.639825234862
5038 -1.00912481731
5039 0.546671358417
5040 0.462453458889
5041 -1.03756689584
5042 0.555248588544
5043 0.482318307291
5044 -1.22440227225
5045 0.54397549667
5046 0.680426775582
5047 -1.11475070152
5048 0.493806461457
5049 0.620944240068
5050 -0.895960893001
5051 0.476247151656
5052 0.419713741345
5053 -1.1282228928
5054 0.444628409312
5055 0.683594483492
5056 -1.0572053907
5057 0.503914124911
5058 0.553291265793
5059 -1.14577452508
5060 0.572535243486
5061 0.573239281594
5062 -1.32429391166
5063 0.580627578048
5064 0.743666333611
5065 -1.40832947746
5066 0.633468534288
5067 0.774860943171
5068 -1.02481738952
5069 0.528605875868
5070 0.496211513657
5071 -1.2015511696
5072 0.620913390132
5073 0.580637779469
5074 -1.13464581876
5075 0.550238104353
5076 0.584407714404
5077 -1.30906778347
5078 0.690162697207
5079 0.618905086264
5080 -1.03805015593
5081 0.659225031679
5082 0.378825124252
5083 -1.00629359569
5084 0.49809188659
5085 0.508201709104
5086 -1.14223018149
5087 0.612775610803
5088 0.529454570688
5089 -1.05133901656
5090 0.51613285265
5091 0.535206163911
5092 -1.14944719427
5093 0.499890918961
5094 0.64955627531
5095 -1.14649560637
5096 0.569597730048
5097 0.576897876323
5098 -1.06362327327
5099 0.588262913988
5100 0.475360359283
5101 -1.29098078463
5102 0.745496183994
5103 0.545484600636
5104 -1.16017558035
5105 0.668918730198
5106 0.491256850152
5107 -1.01254093108
5108 0.539375656559
5109 0.473165274523
5110 -0.869581276837
5111 0.397028498504
5112 0.472552778333
5113 -1.22143217391
5114 0.554044509618
5115 0.667387664293
5116 -0.924941916979
5117 0.486017763173
5118 0.438924153805
5119 -1.32182947607
5120 0.626535645932
5121 0.695293830138
5122 -1.17463258693
5123 0.59341171036
5124 0.581220876569
5125 -0.892945918355
5126 0.420878983575
5127 0.472066934781
5128 -1.13167421877
5129 0.635025511586
5130 0.496648707189
5131 -1.11052173207
5132 0.602443832622
5133 0.508077899448
5134 -1.28055016411
5135 0.679946894711
5136 0.600603269398
5137 -1.13339591931
5138 0.480003373835
5139 0.653392545476
5140 -1.12075971645
5141 0.610439665509
5142 0.510320050938
5143 -1.06385371512
5144 0.511615325712
5145 0.552238389412
5146 -1.26036668786
5147 0.656662484144
5148 0.603704203711
5149 -1.08050602955
5150 0.556800030043
5151 0.523705999504
5152 -1.02238655561
5153 0.425487290016
5154 0.596899265591
5155 -0.928616545554
5156 0.510969929477
5157 0.417646616077
5158 -1.07092350817
5159 0.526673170352
5160 0.544250337817
5161 -1.22523971257
5162 0.590473604764
5163 0.634766107809
5164 -1.17184429495
5165 0.566673619612
5166 0.605170675334
5167 -1.15272515548
5168 0.569910723129
5169 0.582814432353
5170 -1.00494806663
5171 0.525436841453
5172 0.47951122518
5173 -1.27437498475
5174 0.782456770231
5175 0.49191821452
5176 -1.0246875573
5177 0.471479706582
5178 0.553207850714
5179 -1.13696028159
5180 0.53332280266
5181 0.603637478928
5182 -1.00528721161
5183 0.530488419684
5184 0.474798791927
5185 -1.26264183363
5186 0.561098990531
5187 0.701542843097
5188 -1.13486724929
5189 0.582227102203
5190 0.552640147085
5191 -1.03669909221
5192 0.480153424465
5193 0.556545667742
5194 -1.0545509274
5195 0.507978436225
5196 0.546572491175
5197 -1.20423156163
5198 0.614974280228
5199 0.589257281398
5200 -0.985130500701
5201 0.481782642221
5202 0.50334785848
5203 -1.08261986573
5204 0.657540593949
5205 0.425079271785
5206 -1.09765180139
5207 0.62645826436
5208 0.471193537025
5209 -0.861297817166
5210 0.419205401454
5211 0.442092415712
5212 -1.25813073544
5213 0.636175457811
5214 0.621955277626
5215 -1.12487420932
5216 0.594827494952
5217 0.530046714366
5218 -1.35379857746
5219 0.688418730244
5220 0.665379847217
5221 -1.10286422748
5222 0.444594772109
5223 0.658269455373
5224 -1.20268498466
5225 0.658317523419
5226 0.544367461242
5227 -1.12358639488
5228 0.560765494
5229 0.562820900877
5230 -1.08700289106
5231 0.519017605953
5232 0.567985285106
5233 -0.992626205971
5234 0.520227003813
5235 0.472399202158
5236 -1.23896813453
5237 0.7792387658
5238 0.459729368729
5239 -1.02322170896
5240 0.586312364696
5241 0.436909344261
5242 -1.09942710477
5243 0.502865827448
5244 0.596561277325
5245 -1.08257619225
5246 0.490253448441
5247 0.592322743814
5248 -1.06130247266
5249 0.542475442354
5250 0.518827030304
5251 -1.01730443722
5252 0.542270733873
5253 0.475033703343
5254 -1.17359428505
5255 0.579000063046
5256 0.594594222003
5257 -1.12691675594
5258 0.615229870897
5259 0.511686885043
5260 -1.23994861467
5261 0.567554676205
5262 0.672393938469
5263 -1.10196630659
5264 0.537415604537
5265 0.56455070205
5266 -1.07461001598
5267 0.49094095213
5268 0.583669063848
5269 -1.09772861468
5270 0.555111188249
5271 0.542617426433
5272 -1.11162017261
5273 0.586212325386
5274 0.525407847222
5275 -1.32830093372
5276 0.705983844451
5277 0.622317089265
5278 -1.08962900588
5279 0.541057576633
5280 0.548571429242
5281 -1.19281888806
5282 0.571518529981
5283 0.621300358083
5284 -1.12202510342
5285 0.540253074761
5286 0.581772028663
5287 -1.0641063019
5288 0.615997159802
5289 0.448109142098
5290 -1.05608951274
5291 0.522193395456
5292 0.53389611728
5293 -0.956141238309
5294 0.507326326457
5295 0.448814911852
5296 -1.06430726356
5297 0.538817666582
5298 0.525489596982
5299 -1.16891983932
5300 0.671288741112
5301 0.49763109821
5302 -1.0678340376
5303 0.536703469763
5304 0.531130567841
5305 -1.1046569268
5306 0.534739910603
5307 0.569917016194
5308 -1.41428081606
5309 0.759837553491
5310 0.654443262568
5311 -1.35694584104
5312 0.632192634854
5313 0.724753206183
5314 -1.18734317319
5315 0.59473844904
5316 0.592604724153
5317 -1.05082120565
5318 0.422061350767
5319 0.628759854887
5320 -1.16675255879
5321 0.647737959469
5322 0.519014599323
5323 -1.3191238624
5324 0.671956197626
5325 0.647167664774
5326 -0.98158949109
5327 0.563671586331
5328 0.417917904759
5329 -1.35354512194
5330 0.644160609076
5331 0.709384512863
5332 -1.03906872038
5333 0.531445828241
5334 0.507622892135
5335 -1.21320056297
5336 0.455361640185
5337 0.757838922789
5338 -1.06199370518
5339 0.636214975406
5340 0.425778729778
5341 -1.09399914797
5342 0.578312945643
5343 0.515686202323
5344 -1.04398365745
5345 0.502558278054
5346 0.541425379396
5347 -1.34325781007
5348 0.771910990476
5349 0.571346819597
5350 -1.04712033567
5351 0.560440735017
5352 0.486679600654
5353 -1.11722820594
5354 0.456093522049
5355 0.661134683896
5356 -1.06460845304
5357 0.502196227701
5358 0.562412225344
5359 -1.01772084056
5360 0.460134953151
5361 0.557585887414
5362 -1.02414477994
5363 0.51059756276
5364 0.513547217176
5365 -0.980953869262
5366 0.507572965626
5367 0.473380903636
5368 -1.16318638928
5369 0.483455725409
5370 0.679730663869
5371 -1.10947195039
5372 0.613626113826
5373 0.495845836568
5374 -1.20642363187
5375 0.59203291718
5376 0.614390714693
5377 -1.24331002546
5378 0.555992416348
5379 0.687317609116
5380 -1.18913733536
5381 0.571846611162
5382 0.6172907242
5383 -1.05483745854
5384 0.545320739328
5385 0.509516719207
5386 -0.948196701919
5387 0.444637870364
5388 0.503558831555
5389 -1.1642891016
5390 0.638011350971
5391 0.526277750624
5392 -1.20666558421
5393 0.577328353231
5394 0.629337230982
5395 -1.38320541955
5396 0.694163744257
5397 0.689041675296
5398 -1.10214540433
5399 0.584828802914
5400 0.517316601414
5401 -0.964475739443
5402 0.497644199984
5403 0.466831539459
5404 -1.04662781596
5405 0.519364189833
5406 0.52726362613
5407 -1.13628254222
5408 0.54430193323
5409 0.591980608991
5410 -1.27720664495
5411 0.643346295896
5412 0.633860349052
5413 -1.07135424342
5414 0.540341901122
5415 0.531012342295
5416 -1.13799593769
5417 0.638137650034
5418 0.499858287656
5419 -1.20355816996
5420 0.54718447696
5421 0.656373692998
5422 -1.23590534871
5423 0.629231725321
5424 0.606673623392
5425 -1.24430262346
5426 0.564192299995
5427 0.680110323463
5428 -1.14278555697
5429 0.520120286906
5430 0.622665270064
5431 -1.13045670805
5432 0.618446091263
5433 0.512010616787
5434 -1.12012378811
5435 0.464299772393
5436 0.655824015717
5437 -1.11179001642
5438 0.495006189342
5439 0.616783827078
5440 -1.4303964946
5441 0.815841663693
5442 0.614554830905
5443 -1.03647428473
5444 0.571909361185
5445 0.464564923548
5446 -1.03890504211
5447 0.566590817366
5448 0.472314224746
5449 -1.18422220399
5450 0.651771537194
5451 0.532450666793
5452 -1.19908423834
5453 0.645074692604
5454 0.554009545732
5455 -1.15867809554
5456 0.585569734966
5457 0.573108360577
5458 -1.21647216484
5459 0.643274515979
5460 0.573197648859
5461 -1.1368604644
5462 0.616593666609
5463 0.520266797789
5464 -1.14794066628
5465 0.538316811566
5466 0.609623854714
5467 -1.41055373861
5468 0.692663796984
5469 0.717889941629
5470 -1.12636433938
5471 0.515593426798
5472 0.61077091258
5473 -1.14292017118
5474 0.681652490241
5475 0.461267680936
5476 -1.0707718805
5477 0.510960274122
5478 0.559811606374
5479 -1.30123414545
5480 0.631397625949
5481 0.669836519499
5482 -1.17292246742
5483 0.565528811441
5484 0.607393655976
5485 -1.11457809207
5486 0.569351172763
5487 0.545226919304
5488 -1.1771023114
5489 0.61039004359
5490 0.566712267815
5491 -1.21781426546
5492 0.683970170095
5493 0.533844095366
5494 -0.943167826854
5495 0.442452637611
5496 0.500715189243
5497 -1.06124069724
5498 0.502035857136
5499 0.559204840101
5500 -1.13293542792
5501 0.536623027727
5502 0.596312400194
5503 -1.44191852911
5504 0.683580695044
5505 0.75833783407
5506 -1.22232157774
5507 0.576579133836
5508 0.645742443907
5509 -1.14393716055
5510 0.589779685566
5511 0.554157474986
5512 -0.96624340068
5513 0.493103035696
5514 0.473140364984
5515 -1.14412125812
5516 0.533196804885
5517 0.610924453231
5518 -1.24826095614
5519 0.56524871073
5520 0.683012245406
5521 -0.992463702689
5522 0.511676874176
5523 0.480786828513
5524 -1.04993501438
5525 0.49894677319
5526 0.550988241189
5527 -1.32091156434
5528 0.704655286425
5529 0.616256277917
5530 -0.975327382226
5531 0.41938279307
5532 0.555944589156
5533 -0.986758999584
5534 0.458067318745
5535 0.528691680839
5536 -0.989463910864
5537 0.525605200123
5538 0.463858710742
5539 -1.17178099865
5540 0.555150742466
5541 0.616630256184
5542 -1.05067190278
5543 0.591721415637
5544 0.45895048714
5545 -1.09955236185
5546 0.503864488402
5547 0.595687873452
5548 -1.12468831385
5549 0.596246037488
5550 0.52844227636
5551 -1.028460224
5552 0.592814379549
5553 0.43564584445
5554 -1.19251699437
5555 0.592129770141
5556 0.600387224227
5557 -1.2343687265
5558 0.600575740612
5559 0.633792985887
5560 -1.12740619677
5561 0.569379315457
5562 0.558026881312
5563 -1.18778969786
5564 0.648292339485
5565 0.539497358374
5566 -1.09984466319
5567 0.521615946975
5568 0.578228716213
5569 -1.28470056297
5570 0.535801415862
5571 0.748899147109
5572 -1.214592819
5573 0.60642463804
5574 0.608168180964
5575 -1.11757336944
5576 0.616069734013
5577 0.501503635432
5578 -1.08111315265
5579 0.590844174185
5580 0.490268978462
5581 -0.929303224702
5582 0.445432734986
5583 0.483870489716
5584 -1.09462802346
5585 0.621407517086
5586 0.473220506373
5587 -0.994904165123
5588 0.52903976089
5589 0.465864404233
5590 -1.09912386698
5591 0.606098330752
5592 0.493025536232
5593 -1.19059912338
5594 0.539029492771
5595 0.65156963061
5596 -1.10412951734
5597 0.537197040279
5598 0.566932477065
5599 -1.09807945688
5600 0.583325796597
5601 0.51475366028
5602 -1.04033144431
5603 0.583300701841
5604 0.457030742473
5605 -1.05268511891
5606 0.573009564703
5607 0.479675554209
5608 -0.927527443243
5609 0.510215082713
5610 0.417312360531
5611 -1.25955155725
5612 0.627026895165
5613 0.632524662084
5614 -0.972727848153
5615 0.477443720854
5616 0.4952841273
5617 -1.43837623375
5618 0.712450921285
5619 0.725925312466
5620 -1.04440034008
5621 0.560875496866
5622 0.483524843217
5623 -1.04366779901
5624 0.55896420838
5625 0.484703590634
5626 -1.1236413052
5627 0.588294533533
5628 0.535346771662
5629 -1.0636466086
5630 0.52649210352
5631 0.537154505075
5632 -1.38368399803
5633 0.757382096211
5634 0.626301901817
5635 -1.43814760384
5636 0.743321616777
5637 0.694825987059
5638 -1.15864948488
5639 0.574045039053
5640 0.584604445824
5641 -0.972657628863
5642 0.466602666912
5643 0.506054961951
5644 -0.919441819113
5645 0.429023572976
5646 0.490418246137
5647 -1.21746596231
5648 0.635887594965
5649 0.581578367345
5650 -1.22817363986
5651 0.707016694324
5652 0.521156945538
5653 -1.22652136646
5654 0.566112158811
5655 0.660409207645
5656 -1.16084035346
5657 0.533797848145
5658 0.627042505319
5659 -1.15950813252
5660 0.533717270614
5661 0.625790861908
5662 -1.06047863422
5663 0.518245121467
5664 0.542233512754
5665 -1.06645594648
5666 0.514102397605
5667 0.552353548877
5668 -1.27576981541
5669 0.691470190497
5670 0.58429962491
5671 -1.14558302551
5672 0.470609850537
5673 0.674973174975
5674 -0.987231505481
5675 0.447771448744
5676 0.539460056737
5677 -1.33255923237
5678 0.657079289687
5679 0.675479942684
5680 -1.19197405814
5681 0.584650620548
5682 0.607323437588
5683 -1.44328297083
5684 0.631508143747
5685 0.81177482708
5686 -0.836742157557
5687 0.379360342081
5688 0.457381815476
5689 -1.04505160873
5690 0.492088873224
5691 0.55296273551
5692 -0.972100944417
5693 0.489917353986
5694 0.482183590431
5695 -1.3200640058
5696 0.624672380673
5697 0.69539162513
5698 -1.33700624949
5699 0.621770316763
5700 0.715235932728
5701 -1.08800746525
5702 0.591843710425
5703 0.496163754827
5704 -1.2091493114
5705 0.614304343491
5706 0.59484496791
5707 -1.06930781902
5708 0.620285100262
5709 0.449022718753
5710 -1.36849478098
5711 0.624899144254
5712 0.743595636728
5713 -1.2415935916
5714 0.664050833156
5715 0.577542758445
5716 -1.16357145824
5717 0.658765358708
5718 0.504806099528
5719 -1.14058155623
5720 0.582223508149
5721 0.558358048083
5722 -0.965840323834
5723 0.492482039278
5724 0.473358284556
5725 -1.30285145372
5726 0.664104344188
5727 0.638747109535
5728 -1.33504060444
5729 0.677343352443
5730 0.657697252002
5731 -1.04476247772
5732 0.49270017691
5733 0.552062300814
5734 -0.991884828784
5735 0.527858510763
5736 0.464026318021
5737 -1.0440298974
5738 0.494997295209
5739 0.549032602194
5740 -1.15869331856
5741 0.595817642598
5742 0.562875675966
5743 -0.920677611156
5744 0.499966529824
5745 0.420711081332
5746 -1.15575202101
5747 0.498358045684
5748 0.657393975326
5749 -1.33030060971
5750 0.630690451217
5751 0.699610158494
5752 -1.16811513262
5753 0.609202284627
5754 0.558912847992
5755 -1.02017178426
5756 0.542400578804
5757 0.477771205461
5758 -1.25293307711
5759 0.656645937958
5760 0.596287139149
5761 -1.01225115193
5762 0.534042128761
5763 0.478209023173
5764 -1.11459463351
5765 0.5511119577
5766 0.563482675807
5767 -1.01960788247
5768 0.435302020936
5769 0.584305861539
5770 -1.16706864241
5771 0.611819791394
5772 0.555248851017
5773 -1.05431934975
5774 0.49691504156
5775 0.557404308187
5776 -0.851560207992
5777 0.469117393224
5778 0.382442814768
5779 -0.971214030122
5780 0.505890221108
5781 0.465323809014
5782 -0.780948274473
5783 0.396229785992
5784 0.384718488482
5785 -0.959198823972
5786 0.469160357064
5787 0.490038466907
5788 -1.02489191194
5789 0.487666500006
5790 0.53722541193
5791 -1.14475889372
5792 0.678314197792
5793 0.466444695931
5794 -0.958271256659
5795 0.373595269489
5796 0.58467598717
5797 -1.1534424448
5798 0.523682250639
5799 0.629760194162
5800 -1.15845877877
5801 0.52841592727
5802 0.630042851503
5803 -1.16492767606
5804 0.626819586333
5805 0.538108089732
5806 -0.897011163663
5807 0.4859891609
5808 0.411022002762
5809 -1.06051466799
5810 0.558675840163
5811 0.501838827825
5812 -0.879079776467
5813 0.484238947612
5814 0.394840828854
5815 -1.30198577177
5816 0.738013334683
5817 0.563972437084
5818 -1.23467963973
5819 0.64086104302
5820 0.593818596713
5821 -1.13353436621
5822 0.597936949021
5823 0.535597417185
5824 -1.20314604595
5825 0.605296681834
5826 0.597849364114
5827 -1.00018399546
5828 0.493233203706
5829 0.506950791749
5830 -1.04090638129
5831 0.473007850981
5832 0.567898530307
5833 -1.06880411255
5834 0.510194987195
5835 0.558609125359
5836 -1.03730489625
5837 0.541196709957
5838 0.496108186297
5839 -1.03442989227
5840 0.483235969883
5841 0.551193922392
5842 -1.10251427075
5843 0.450932274264
5844 0.651581996485
5845 -1.13385107681
5846 0.556632969029
5847 0.577218107779
5848 -1.07853084684
5849 0.406961573733
5850 0.67156927311
5851 -1.05247464943
5852 0.453864176752
5853 0.598610472677
5854 -1.09366385183
5855 0.516948080232
5856 0.576715771598
5857 -0.913759008855
5858 0.474717517668
5859 0.439041491187
5860 -1.10554738017
5861 0.51369672127
5862 0.591850658896
5863 -1.13523787934
5864 0.588860451086
5865 0.546377428258
5866 -1.10281952611
5867 0.524966510861
5868 0.577853015251
5869 -1.16189541987
5870 0.559624185032
5871 0.602271234838
5872 -1.2228498377
5873 0.668627223031
5874 0.554222614673
5875 -1.22098704265
5876 0.619086627095
5877 0.601900415556
5878 -1.16967440541
5879 0.544368563248
5880 0.625305842164
5881 -1.24593279297
5882 0.647031484856
5883 0.598901308109
5884 -1.11042573174
5885 0.535479263685
5886 0.574946468054
5887 -1.2921284049
5888 0.627627056138
5889 0.664501348767
5890 -1.26299375046
5891 0.585828591999
5892 0.677165158463
5893 -1.18578673063
5894 0.660490459861
5895 0.525296270767
5896 -1.08249454928
5897 0.531211212247
5898 0.551283337031
5899 -1.19306850965
5900 0.644182286401
5901 0.54888622325
5902 -1.38470000694
5903 0.693155083238
5904 0.691544923702
5905 -1.08486852219
5906 0.618188394626
5907 0.466680127568
5908 -1.0866281319
5909 0.59396091741
5910 0.492667214494
5911 -0.976064816936
5912 0.567180419972
5913 0.408884396963
5914 -0.881527241805
5915 0.469492906593
5916 0.412034335212
5917 -1.27597275589
5918 0.640833662488
5919 0.6351390934
5920 -1.2221325512
5921 0.537494031482
5922 0.684638519716
5923 -1.1831561209
5924 0.639950206955
5925 0.543205913947
5926 -1.34896991943
5927 0.648718089502
5928 0.700251829929
5929 -1.18203048608
5930 0.576781153603
5931 0.605249332477
5932 -1.03916145114
5933 0.624130653526
5934 0.415030797618
5935 -1.06541083916
5936 0.493835087622
5937 0.571575751537
5938 -0.982141557496
5939 0.559648711742
5940 0.422492845754
5941 -1.22473722414
5942 0.656599457943
5943 0.568137766196
5944 -0.949150779335
5945 0.495747287023
5946 0.453403492312
5947 -1.15594520175
5948 0.572763222092
5949 0.583181979654
5950 -1.04325267925
5951 0.557331824671
5952 0.485920854575
5953 -1.11047315152
5954 0.595720202938
5955 0.514752948582
5956 -1.0175384217
5957 0.474343178921
5958 0.543195242781
5959 -1.3660371753
5960 0.61399253076
5961 0.752044644536
5962 -1.26768409459
5963 0.579783963118
5964 0.687900131468
5965 -1.01719427029
5966 0.489178532623
5967 0.528015737667
5968 -1.0702052609
5969 0.493631360451
5970 0.576573900447
5971 -0.86804165226
5972 0.442510109088
5973 0.425531543172
5974 -0.866511468359
5975 0.391466570961
5976 0.475044897398
5977 -1.0263273089
5978 0.520533174889
5979 0.505794134012
5980 -1.05239673422
5981 0.478008893999
5982 0.574387840221
5983 -1.20176318428
5984 0.562893007526
5985 0.638870176749
5986 -1.09583304666
5987 0.616343423099
5988 0.479489623556
5989 -1.09645053907
5990 0.558444942105
5991 0.538005596968
5992 -1.03788042799
5993 0.450896289482
5994 0.586984138508
5995 -1.1909198936
5996 0.624146608774
5997 0.56677328483
5998 -1.19059527083
5999 0.595934142984
6000 0.59466112785
6001 -1.15012241295
6002 0.597475731499
6003 0.552646681453
6004 -0.970496159381
6005 0.439294269996
6006 0.531201889385
6007 -0.919455158459
6008 0.460598403675
6009 0.458856754784
6010 -0.988274159552
6011 0.477052968065
6012 0.511221191487
6013 -1.12465253331
6014 0.55091587387
6015 0.573736659438
6016 -1.10614332908
6017 0.533578290662
6018 0.572565038418
6019 -1.19773952104
6020 0.683450583405
6021 0.514288937637
6022 -1.06819757287
6023 0.591164812026
6024 0.477032760841
6025 -1.14130736912
6026 0.513664594664
6027 0.62764277446
6028 -1.141881063
6029 0.58021285112
6030 0.561668211881
6031 -1.08794238558
6032 0.560083565662
6033 0.527858819921
6034 -0.997457794676
6035 0.474521398763
6036 0.522936395913
6037 -1.31716191368
6038 0.68650985713
6039 0.630652056545
6040 -1.06850176919
6041 0.44092444702
6042 0.627577322171
6043 -1.22192475201
6044 0.63590180152
6045 0.586022950487
6046 -1.09121776049
6047 0.604492590449
6048 0.486725170043
6049 -1.23220025971
6050 0.615842216251
6051 0.616358043459
6052 -1.20603133446
6053 0.610003965089
6054 0.596027369374
6055 -1.05029978561
6056 0.64366814124
6057 0.406631644369
6058 -1.0925202333
6059 0.50797507438
6060 0.584545158923
6061 -1.08082701135
6062 0.50017420305
6063 0.580652808303
6064 -0.852276171301
6065 0.423742909261
6066 0.42853326204
6067 -1.38753324078
6068 0.711706747039
6069 0.675826493736
6070 -1.10378238838
6071 0.565823572921
6072 0.537958815462
6073 -1.06851937792
6074 0.548904137422
6075 0.519615240499
6076 -0.99697106301
6077 0.474182454639
6078 0.522788608371
6079 -1.27307587273
6080 0.626105870269
6081 0.646970002465
6082 -1.33417467637
6083 0.697048440606
6084 0.637126235768
6085 -0.955935224804
6086 0.450738217055
6087 0.505197007749
6088 -1.42302065009
6089 0.729552638467
6090 0.69346801162
6091 -1.25662421749
6092 0.648882240652
6093 0.607741976838
6094 -1.01659510615
6095 0.517729892596
6096 0.498865213552
6097 -1.02130468767
6098 0.589322071732
6099 0.431982615934
6100 -1.09238316433
6101 0.544733396547
6102 0.547649767783
6103 -1.09648144284
6104 0.543248116864
6105 0.553233325971
6106 -1.0140244291
6107 0.479416300726
6108 0.534608128377
6109 -1.19638441423
6110 0.618424131792
6111 0.577960282434
6112 -1.21116462176
6113 0.660990469653
6114 0.550174152108
6115 -1.23532484329
6116 0.537148539833
6117 0.698176303454
6118 -1.28561041522
6119 0.597506614318
6120 0.688103800906
6121 -0.971217993035
6122 0.540781423776
6123 0.430436569259
6124 -1.08700695519
6125 0.561538670156
6126 0.525468285033
6127 -1.09388010049
6128 0.58974608523
6129 0.50413401526
6130 -0.979202347879
6131 0.48562860038
6132 0.493573747499
6133 -1.09744114768
6134 0.541064013664
6135 0.556377134021
6136 -1.13347555485
6137 0.483446642426
6138 0.650028912429
6139 -1.03775451158
6140 0.54476578884
6141 0.492988722741
6142 -1.08967832185
6143 0.531958718632
6144 0.557719603216
6145 -1.23388411427
6146 0.549903747526
6147 0.683980366739
6148 -1.18268523073
6149 0.647946219297
6150 0.534739011432
6151 -1.22414529275
6152 0.539119751576
6153 0.685025541169
6154 -1.04079953252
6155 0.526392358904
6156 0.51440717362
6157 -0.954060843584
6158 0.484340826609
6159 0.469720016975
6160 -1.28768776444
6161 0.697358417998
6162 0.590329346444
6163 -1.14814865247
6164 0.531786039575
6165 0.616362612891
6166 -0.969696017542
6167 0.546595060663
6168 0.423100956879
6169 -1.18471429275
6170 0.550573133716
6171 0.634141159032
6172 -1.09182473391
6173 0.5424690094
6174 0.549355724513
6175 -1.30298015048
6176 0.634038598869
6177 0.668941551612
6178 -1.17948239053
6179 0.673440634576
6180 0.50604175595
6181 -1.36659458471
6182 0.689426530669
6183 0.67716805404
6184 -1.07195047233
6185 0.487674406205
6186 0.584276066123
6187 -1.01178953578
6188 0.461935453591
6189 0.549854082191
6190 -1.08400570745
6191 0.552938474586
6192 0.531067232863
6193 -0.988346438978
6194 0.485680404783
6195 0.502666034195
6196 -1.16950095632
6197 0.527872129208
6198 0.641628827109
6199 -1.0614065645
6200 0.567121432051
6201 0.494285132453
6202 -1.01826324187
6203 0.469361888108
6204 0.548901353764
6205 -1.31384115055
6206 0.662470243584
6207 0.651370906965
6208 -1.12077453633
6209 0.612232967654
6210 0.508541568681
6211 -1.17143217384
6212 0.57419428605
6213 0.597237887792
6214 -1.25219453167
6215 0.609451636746
6216 0.642742894921
6217 -0.911606109414
6218 0.460814191686
6219 0.450791917728
6220 -1.20656117048
6221 0.530058530577
6222 0.676502639899
6223 -0.93240521042
6224 0.545731382549
6225 0.386673827871
6226 -1.05572004779
6227 0.517450660485
6228 0.538269387301
6229 -1.03832093267
6230 0.594237346256
6231 0.444083586417
6232 -1.16994108646
6233 0.682757204418
6234 0.48718388204
6235 -1.07600858109
6236 0.514461657694
6237 0.561546923401
6238 -1.20584841393
6239 0.564881249382
6240 0.640967164544
6241 -1.29076612677
6242 0.600361881091
6243 0.690404245675
6244 -1.19741948064
6245 0.542618359459
6246 0.654801121176
6247 -1.07071561642
6248 0.537007568508
6249 0.53370804791
6250 -0.888345118645
6251 0.440041002189
6252 0.448304116457
6253 -1.09054751286
6254 0.568609906701
6255 0.521937606157
6256 -1.02483956237
6257 0.488600145116
6258 0.536239417255
6259 -0.911227938957
6260 0.492881363875
6261 0.418346575083
6262 -1.22970751902
6263 0.56299555762
6264 0.666711961404
6265 -1.10681446133
6266 0.538193985713
6267 0.568620475612
6268 -1.05874264424
6269 0.50287980263
6270 0.555862841611
6271 -1.263637311
6272 0.674812420789
6273 0.588824890214
6274 -0.98066869142
6275 0.498950539821
6276 0.481718151599
6277 -1.18112304756
6278 0.577087045145
6279 0.604036002418
6280 -1.04861612424
6281 0.529307061186
6282 0.519309063059
6283 -1.10237386841
6284 0.497581022318
6285 0.604792846091
6286 -0.975300375062
6287 0.401447180757
6288 0.573853194306
6289 -1.23994871198
6290 0.677165697384
6291 0.562783014592
6292 -1.15633137126
6293 0.528096838692
6294 0.628234532568
6295 -0.922426581029
6296 0.54721792191
6297 0.375208659119
6298 -1.17302095773
6299 0.585724705105
6300 0.587296252624
6301 -1.22053014778
6302 0.680730380203
6303 0.53979976758
6304 -1.23505647739
6305 0.591149778554
6306 0.643906698836
6307 -1.06887837596
6308 0.532692903712
6309 0.53618547225
6310 -1.03750125327
6311 0.505135266288
6312 0.532365986985
6313 -1.19299887268
6314 0.624687678963
6315 0.568311193718
6316 -1.14334213984
6317 0.540865616285
6318 0.602476523553
6319 -1.35838872161
6320 0.705308070894
6321 0.653080650718
6322 -1.15192124949
6323 0.58268926384
6324 0.569231985649
6325 -1.15415253813
6326 0.445244137422
6327 0.708908400707
6328 -1.25580925374
6329 0.702936103047
6330 0.552873150697
6331 -1.0282276497
6332 0.526670215518
6333 0.50155743418
6334 -1.08951660957
6335 0.486757041061
6336 0.602759568512
6337 -1.22329702877
6338 0.609775066991
6339 0.613521961775
6340 -1.08693683633
6341 0.517424886181
6342 0.569511950149
6343 -1.37108076862
6344 0.677295494133
6345 0.693785274489
6346 -1.10923909234
6347 0.528033865716
6348 0.58120522662
6349 -1.01957851759
6350 0.478636751238
6351 0.540941766351
6352 -1.12716556146
6353 0.49459610569
6354 0.632569455771
6355 -1.01407616778
6356 0.462143231625
6357 0.551932936156
6358 -0.947627331643
6359 0.437379345484
6360 0.510247986159
6361 -0.901424747919
6362 0.437775539695
6363 0.463649208224
6364 -1.19435065824
6365 0.550964069844
6366 0.6433865884
6367 -1.16943502126
6368 0.538962530085
6369 0.630472491179
6370 -1.08054680695
6371 0.502219738304
6372 0.578327068644
6373 -1.19684544947
6374 0.619006964426
6375 0.57783848504
6376 -1.00490638301
6377 0.512763116598
6378 0.492143266415
6379 -1.07493821126
6380 0.479112978977
6381 0.595825232281
6382 -0.955787618117
6383 0.469796386733
6384 0.485991231384
6385 -1.44708374643
6386 0.737531680151
6387 0.709552066276
6388 -1.20528898297
6389 0.560105072349
6390 0.645183910617
6391 -1.05186162382
6392 0.537778119308
6393 0.514083504512
6394 -1.20473716401
6395 0.517894902472
6396 0.686842261538
6397 -1.197780799
6398 0.622004264868
6399 0.575776534128
6400 -1.30108097251
6401 0.691477861282
6402 0.60960311123
6403 -1.09468618834
6404 0.516754399754
6405 0.577931788588
6406 -1.11409826309
6407 0.589100429208
6408 0.524997833879
6409 -1.20501343952
6410 0.544336945259
6411 0.660676494257
6412 -0.958812759796
6413 0.537392234545
6414 0.421420525251
6415 -1.06059060752
6416 0.505577069158
6417 0.55501353836
6418 -1.29586837537
6419 0.676200736234
6420 0.619667639133
6421 -1.05743426592
6422 0.611106318727
6423 0.446327947196
6424 -0.89674834007
6425 0.445175836914
6426 0.451572503156
6427 -1.08128267917
6428 0.532864406247
6429 0.548418272927
6430 -1.19053774986
6431 0.581815135078
6432 0.608722614784
6433 -1.21930180383
6434 0.579007535068
6435 0.64029426876
6436 -1.10193267982
6437 0.586218248211
6438 0.515714431606
6439 -1.0483206388
6440 0.59081683457
6441 0.457503804232
6442 -1.18019740142
6443 0.584318652986
6444 0.595878748435
6445 -1.07426722254
6446 0.493938807818
6447 0.58032841472
6448 -0.992083849889
6449 0.540619217526
6450 0.451464632362
6451 -1.38607342936
6452 0.658698980704
6453 0.727374448659
6454 -1.2435981595
6455 0.671974704345
6456 0.571623455151
6457 -1.20320490235
6458 0.614863867218
6459 0.588341035134
6460 -1.09017309909
6461 0.545784853949
6462 0.54438824514
6463 -1.3225561466
6464 0.579246953682
6465 0.743309192918
6466 -1.23993356549
6467 0.61530004939
6468 0.6246335161
6469 -0.991539956141
6470 0.49442428413
6471 0.497115672012
6472 -1.01379754764
6473 0.498255414133
6474 0.515542133511
6475 -1.19806217987
6476 0.592585821891
6477 0.605476357977
6478 -1.20221205698
6479 0.624168244739
6480 0.578043812243
6481 -1.07953684016
6482 0.595752850851
6483 0.483783989305
6484 -1.24951699937
6485 0.651052826235
6486 0.598464173131
6487 -1.10423683981
6488 0.61717733172
6489 0.487059508088
6490 -1.06245959974
6491 0.654818511472
6492 0.407641088264
6493 -1.18708095334
6494 0.529231066214
6495 0.657849887124
6496 -1.21134313805
6497 0.56440254399
6498 0.64694059406
6499 -1.41479008762
6500 0.685601543652
6501 0.729188543973
6502 -1.01206072403
6503 0.547696027118
6504 0.464364696914
6505 -1.06440527066
6506 0.468564924103
6507 0.595840346553
6508 -1.13361318396
6509 0.648242855934
6510 0.485370328026
6511 -0.969505481622
6512 0.465761432617
6513 0.503744049004
6514 -1.37239034692
6515 0.683703679321
6516 0.688686667594
6517 -1.36760132268
6518 0.708395012445
6519 0.659206310238
6520 -1.06980126363
6521 0.477658217106
6522 0.592143046522
6523 -1.22303963499
6524 0.578323459962
6525 0.644716175028
6526 -1.10880055479
6527 0.51805941049
6528 0.590741144299
6529 -0.908492475319
6530 0.448634459852
6531 0.459858015468
6532 -0.913568986062
6533 0.481830226335
6534 0.431738759727
6535 -1.03301709464
6536 0.456437977824
6537 0.576579116814
6538 -1.18494977232
6539 0.516075040157
6540 0.668874732165
6541 -1.09250980232
6542 0.594062735712
6543 0.498447066608
6544 -1.02715346141
6545 0.567613872681
6546 0.459539588726
6547 -1.14366402065
6548 0.608521139127
6549 0.53514288152
6550 -1.31295009964
6551 0.658113154717
6552 0.654836944919
6553 -1.05041607658
6554 0.504204186344
6555 0.546211890234
6556 -1.20433419488
6557 0.618997409197
6558 0.585336785679
6559 -0.977375448199
6560 0.551400691452
6561 0.425974756747
6562 -1.12835592396
6563 0.586216490923
6564 0.542139433036
6565 -1.00581088124
6566 0.580117016742
6567 0.425693864494
6568 -1.22614412907
6569 0.604872200723
6570 0.621271928345
6571 -1.20473824784
6572 0.564913012982
6573 0.639825234862
6574 -1.00912481731
6575 0.546671358417
6576 0.462453458889
6577 -1.03756689584
6578 0.555248588544
6579 0.482318307291
6580 -1.22440227225
6581 0.54397549667
6582 0.680426775582
6583 -1.11475070152
6584 0.493806461457
6585 0.620944240068
6586 -0.895960893001
6587 0.476247151656
6588 0.419713741345
6589 -1.1282228928
6590 0.444628409312
6591 0.683594483492
6592 -1.0572053907
6593 0.503914124911
6594 0.553291265793
6595 -1.14577452508
6596 0.572535243486
6597 0.573239281594
6598 -1.32429391166
6599 0.580627578048
6600 0.743666333611
6601 -1.40832947746
6602 0.633468534288
6603 0.774860943171
6604 -1.02481738952
6605 0.528605875868
6606 0.496211513657
6607 -1.2015511696
6608 0.620913390132
6609 0.580637779469
6610 -1.13464581876
6611 0.550238104353
6612 0.584407714404
6613 -1.30906778347
6614 0.690162697207
6615 0.618905086264
6616 -1.03805015593
6617 0.659225031679
6618 0.378825124252
6619 -1.00629359569
6620 0.49809188659
6621 0.508201709104
6622 -1.14223018149
6623 0.612775610803
6624 0.529454570688
6625 -1.05133901656
6626 0.51613285265
6627 0.535206163911
6628 -1.14944719427
6629 0.499890918961
6630 0.64955627531
6631 -1.14649560637
6632 0.569597730048
6633 0.576897876323
6634 -1.06362327327
6635 0.588262913988
6636 0.475360359283
6637 -1.29098078463
6638 0.745496183994
6639 0.545484600636
6640 -1.16017558035
6641 0.668918730198
6642 0.491256850152
6643 -1.01254093108
6644 0.539375656559
6645 0.473165274523
6646 -0.869581276837
6647 0.397028498504
6648 0.472552778333
6649 -1.22143217391
6650 0.554044509618
6651 0.667387664293
6652 -0.924941916979
6653 0.486017763173
6654 0.438924153805
6655 -1.32182947607
6656 0.626535645932
6657 0.695293830138
6658 -1.17463258693
6659 0.59341171036
6660 0.581220876569
6661 -0.892945918355
6662 0.420878983575
6663 0.472066934781
6664 -1.13167421877
6665 0.635025511586
6666 0.496648707189
6667 -1.11052173207
6668 0.602443832622
6669 0.508077899448
6670 -1.28055016411
6671 0.679946894711
6672 0.600603269398
6673 -1.13339591931
6674 0.480003373835
6675 0.653392545476
6676 -1.12075971645
6677 0.610439665509
6678 0.510320050938
6679 -1.06385371512
6680 0.511615325712
6681 0.552238389412
6682 -1.26036668786
6683 0.656662484144
6684 0.603704203711
6685 -1.08050602955
6686 0.556800030043
6687 0.523705999504
6688 -1.02238655561
6689 0.425487290016
6690 0.596899265591
6691 -0.928616545554
6692 0.510969929477
6693 0.417646616077
6694 -1.07092350817
6695 0.526673170352
6696 0.544250337817
6697 -1.22523971257
6698 0.590473604764
6699 0.634766107809
6700 -1.17184429495
6701 0.566673619612
6702 0.605170675334
6703 -1.15272515548
6704 0.569910723129
6705 0.582814432353
6706 -1.00494806663
6707 0.525436841453
6708 0.47951122518
6709 -1.27437498475
6710 0.782456770231
6711 0.49191821452
6712 -1.0246875573
6713 0.471479706582
6714 0.553207850714
6715 -1.13696028159
6716 0.53332280266
6717 0.603637478928
6718 -1.00528721161
6719 0.530488419684
6720 0.474798791927
6721 -1.26264183363
6722 0.561098990531
6723 0.701542843097
6724 -1.13486724929
6725 0.582227102203
6726 0.552640147085
6727 -1.03669909221
6728 0.480153424465
6729 0.556545667742
6730 -1.0545509274
6731 0.507978436225
6732 0.546572491175
6733 -1.20423156163
6734 0.614974280228
6735 0.589257281398
6736 -0.985130500701
6737 0.481782642221
6738 0.50334785848
6739 -1.08261986573
6740 0.657540593949
6741 0.425079271785
6742 -1.09765180139
6743 0.62645826436
6744 0.471193537025
6745 -0.861297817166
6746 0.419205401454
6747 0.442092415712
6748 -1.25813073544
6749 0.636175457811
6750 0.621955277626
6751 -1.12487420932
6752 0.594827494952
6753 0.530046714366
6754 -1.35379857746
6755 0.688418730244
6756 0.665379847217
6757 -1.10286422748
6758 0.444594772109
6759 0.658269455373
6760 -1.20268498466
6761 0.658317523419
6762 0.544367461242
6763 -1.12358639488
6764 0.560765494
6765 0.562820900877
6766 -1.08700289106
6767 0.519017605953
6768 0.567985285106
6769 -0.992626205971
6770 0.520227003813
6771 0.472399202158
6772 -1.23896813453
6773 0.7792387658
6774 0.459729368729
6775 -1.02322170896
6776 0.586312364696
6777 0.436909344261
6778 -1.09942710477
6779 0.502865827448
6780 0.596561277325
6781 -1.08257619225
6782 0.490253448441
6783 0.592322743814
6784 -1.06130247266
6785 0.542475442354
6786 0.518827030304
6787 -1.01730443722
6788 0.542270733873
6789 0.475033703343
6790 -1.17359428505
6791 0.579000063046
6792 0.594594222003
6793 -1.12691675594
6794 0.615229870897
6795 0.511686885043
6796 -1.23994861467
6797 0.567554676205
6798 0.672393938469
6799 -1.10196630659
6800 0.537415604537
6801 0.56455070205
6802 -1.07461001598
6803 0.49094095213
6804 0.583669063848
6805 -1.09772861468
6806 0.555111188249
6807 0.542617426433
6808 -1.11162017261
6809 0.586212325386
6810 0.525407847222
6811 -1.32830093372
6812 0.705983844451
6813 0.622317089265
6814 -1.08962900588
6815 0.541057576633
6816 0.548571429242
6817 -1.19281888806
6818 0.571518529981
6819 0.621300358083
6820 -1.12202510342
6821 0.540253074761
6822 0.581772028663
6823 -1.0641063019
6824 0.615997159802
6825 0.448109142098
6826 -1.05608951274
6827 0.522193395456
6828 0.53389611728
6829 -0.956141238309
6830 0.507326326457
6831 0.448814911852
6832 -1.06430726356
6833 0.538817666582
6834 0.525489596982
6835 -1.16891983932
6836 0.671288741112
6837 0.49763109821
6838 -1.0678340376
6839 0.536703469763
6840 0.531130567841
6841 -1.1046569268
6842 0.534739910603
6843 0.569917016194
6844 -1.41428081606
6845 0.759837553491
6846 0.654443262568
6847 -1.35694584104
6848 0.632192634854
6849 0.724753206183
6850 -1.18734317319
6851 0.59473844904
6852 0.592604724153
6853 -1.05082120565
6854 0.422061350767
6855 0.628759854887
6856 -1.16675255879
6857 0.647737959469
6858 0.519014599323
6859 -1.3191238624
6860 0.671956197626
6861 0.647167664774
6862 -0.98158949109
6863 0.563671586331
6864 0.417917904759
6865 -1.35354512194
6866 0.644160609076
6867 0.709384512863
6868 -1.03906872038
6869 0.531445828241
6870 0.507622892135
6871 -1.21320056297
6872 0.455361640185
6873 0.757838922789
6874 -1.06199370518
6875 0.636214975406
6876 0.425778729778
6877 -1.09399914797
6878 0.578312945643
6879 0.515686202324
6880 -1.04398365745
6881 0.502558278054
6882 0.541425379396
6883 -1.34325781007
6884 0.771910990476
6885 0.571346819597
6886 -1.04712033567
6887 0.560440735017
6888 0.486679600654
6889 -1.11722820594
6890 0.456093522049
6891 0.661134683896
6892 -1.06460845304
6893 0.502196227701
6894 0.562412225344
6895 -1.01772084056
6896 0.460134953151
6897 0.557585887414
6898 -1.02414477994
6899 0.51059756276
6900 0.513547217176
6901 -0.980953869262
6902 0.507572965626
6903 0.473380903636
6904 -1.16318638928
6905 0.483455725409
6906 0.679730663869
6907 -1.10947195039
6908 0.613626113826
6909 0.495845836568
6910 -1.20642363187
6911 0.59203291718
6912 0.614390714693
6913 -1.24331002546
6914 0.555992416348
6915 0.687317609116
6916 -1.18913733536
6917 0.571846611162
6918 0.6172907242
6919 -1.05483745854
6920 0.545320739328
6921 0.509516719207
6922 -0.948196701919
6923 0.444637870364
6924 0.503558831555
6925 -1.1642891016
6926 0.638011350971
6927 0.526277750624
6928 -1.20666558421
6929 0.577328353231
6930 0.629337230982
6931 -1.38320541955
6932 0.694163744257
6933 0.689041675296
6934 -1.10214540433
6935 0.584828802914
6936 0.517316601414
6937 -0.964475739443
6938 0.497644199984
6939 0.466831539459
6940 -1.04662781596
6941 0.519364189833
6942 0.52726362613
6943 -1.13628254222
6944 0.54430193323
6945 0.591980608991
6946 -1.27720664495
6947 0.643346295896
6948 0.633860349052
6949 -1.07135424342
6950 0.540341901122
6951 0.531012342295
6952 -1.13799593769
6953 0.638137650034
6954 0.499858287656
6955 -1.20355816996
6956 0.54718447696
6957 0.656373692998
6958 -1.23590534871
6959 0.629231725321
6960 0.606673623392
6961 -1.24430262346
6962 0.564192299995
6963 0.680110323463
6964 -1.14278555697
6965 0.520120286906
6966 0.622665270064
6967 -1.13045670805
6968 0.618446091263
6969 0.512010616787
6970 -1.12012378811
6971 0.464299772393
6972 0.655824015717
6973 -1.11179001642
6974 0.495006189342
6975 0.616783827078
6976 -1.4303964946
6977 0.815841663693
6978 0.614554830905
6979 -1.03647428473
6980 0.571909361185
6981 0.464564923548
6982 -1.03890504211
6983 0.566590817366
6984 0.472314224746
6985 -1.18422220399
6986 0.651771537194
6987 0.532450666793
6988 -1.19908423834
6989 0.645074692604
6990 0.554009545732
6991 -1.15867809554
6992 0.585569734966
6993 0.573108360577
6994 -1.21647216484
6995 0.643274515979
6996 0.573197648859
6997 -1.1368604644
6998 0.616593666609
6999 0.520266797789
7000 -1.14794066628
7001 0.538316811566
7002 0.609623854714
7003 -1.41055373861
7004 0.692663796984
7005 0.717889941629
7006 -1.12636433938
7007 0.515593426798
7008 0.61077091258
7009 -1.14292017118
7010 0.681652490241
7011 0.461267680936
7012 -1.0707718805
7013 0.510960274122
7014 0.559811606374
7015 -1.30123414545
7016 0.631397625949
7017 0.669836519499
7018 -1.17292246742
7019 0.565528811441
7020 0.607393655976
7021 -1.11457809207
7022 0.569351172763
7023 0.545226919304
7024 -1.1771023114
7025 0.61039004359
7026 0.566712267815
7027 -1.21781426546
7028 0.683970170095
7029 0.533844095366
7030 -0.943167826854
7031 0.442452637611
7032 0.500715189243
7033 -1.06124069724
7034 0.502035857136
7035 0.559204840101
7036 -1.13293542792
7037 0.536623027727
7038 0.596312400194
7039 -1.44191852911
7040 0.683580695044
7041 0.75833783407
7042 -1.22232157774
7043 0.576579133836
7044 0.645742443907
7045 -1.14393716055
7046 0.589779685566
7047 0.554157474986
7048 -0.96624340068
7049 0.493103035696
7050 0.473140364984
7051 -1.14412125812
7052 0.533196804885
7053 0.610924453231
7054 -1.24826095614
7055 0.56524871073
7056 0.683012245406
7057 -0.992463702689
7058 0.511676874176
7059 0.480786828513
7060 -1.04993501438
7061 0.49894677319
7062 0.550988241189
7063 -1.32091156434
7064 0.704655286425
7065 0.616256277917
7066 -0.975327382226
7067 0.41938279307
7068 0.555944589156
7069 -0.986758999584
7070 0.458067318745
7071 0.528691680839
7072 -0.989463910864
7073 0.525605200123
7074 0.463858710742
7075 -1.17178099865
7076 0.555150742466
7077 0.616630256184
7078 -1.05067190278
7079 0.591721415637
7080 0.45895048714
7081 -1.09955236185
7082 0.503864488402
7083 0.595687873452
7084 -1.12468831385
7085 0.596246037488
7086 0.52844227636
7087 -1.028460224
7088 0.592814379549
7089 0.43564584445
7090 -1.19251699437
7091 0.592129770141
7092 0.600387224227
7093 -1.2343687265
7094 0.600575740612
7095 0.633792985887
7096 -1.12740619677
7097 0.569379315457
7098 0.558026881312
7099 -1.18778969786
7100 0.648292339485
7101 0.539497358374
7102 -1.09984466319
7103 0.521615946975
7104 0.578228716213
7105 -1.28470056297
7106 0.535801415861
7107 0.748899147109
7108 -1.214592819
7109 0.60642463804
7110 0.608168180964
7111 -1.11757336944
7112 0.616069734013
7113 0.501503635432
7114 -1.08111315265
7115 0.590844174185
7116 0.490268978462
7117 -0.929303224702
7118 0.445432734986
7119 0.483870489716
7120 -1.09462802346
7121 0.621407517086
7122 0.473220506373
7123 -0.994904165123
7124 0.52903976089
7125 0.465864404233
7126 -1.09912386698
7127 0.606098330752
7128 0.493025536232
7129 -1.19059912338
7130 0.539029492771
7131 0.65156963061
7132 -1.10412951734
7133 0.537197040279
7134 0.566932477065
7135 -1.09807945688
7136 0.583325796597
7137 0.51475366028
7138 -1.04033144431
7139 0.583300701841
7140 0.457030742473
7141 -1.05268511891
7142 0.573009564703
7143 0.479675554209
7144 -0.927527443243
7145 0.510215082713
7146 0.417312360531
7147 -1.25955155725
7148 0.627026895165
7149 0.632524662084
7150 -0.972727848153
7151 0.477443720854
7152 0.4952841273
7153 -1.43837623375
7154 0.712450921285
7155 0.725925312466
7156 -1.04440034008
7157 0.560875496866
7158 0.483524843217
7159 -1.04366779901
7160 0.55896420838
7161 0.484703590634
7162 -1.1236413052
7163 0.588294533533
7164 0.535346771662
7165 -1.0636466086
7166 0.52649210352
7167 0.537154505075
7168 -1.38368399803
7169 0.757382096211
7170 0.626301901817
7171 -1.43814760384
7172 0.743321616777
7173 0.694825987059
7174 -1.15864948488
7175 0.574045039053
7176 0.584604445824
7177 -0.972657628863
7178 0.466602666912
7179 0.506054961951
7180 -0.919441819113
7181 0.429023572976
7182 0.490418246137
7183 -1.21746596231
7184 0.635887594965
7185 0.581578367345
7186 -1.22817363986
7187 0.707016694324
7188 0.521156945538
7189 -1.22652136646
7190 0.566112158811
7191 0.660409207645
7192 -1.16084035346
7193 0.533797848145
7194 0.627042505319
7195 -1.15950813252
7196 0.533717270614
7197 0.625790861908
7198 -1.06047863422
7199 0.518245121467
7200 0.542233512754
7201 -1.06645594648
7202 0.514102397605
7203 0.552353548877
7204 -1.27576981541
7205 0.691470190497
7206 0.58429962491
7207 -1.14558302551
7208 0.470609850537
7209 0.674973174975
7210 -0.987231505481
7211 0.447771448744
7212 0.539460056737
7213 -1.33255923237
7214 0.657079289687
7215 0.675479942684
7216 -1.19197405814
7217 0.584650620548
7218 0.607323437588
7219 -1.44328297083
7220 0.631508143747
7221 0.81177482708
7222 -0.836742157557
7223 0.379360342081
7224 0.457381815476
7225 -1.04505160873
7226 0.492088873224
7227 0.55296273551
7228 -0.972100944417
7229 0.489917353986
7230 0.482183590431
7231 -1.3200640058
7232 0.624672380673
7233 0.69539162513
7234 -1.33700624949
7235 0.621770316763
7236 0.715235932728
7237 -1.08800746525
7238 0.591843710425
7239 0.496163754827
7240 -1.2091493114
7241 0.614304343491
7242 0.59484496791
7243 -1.06930781902
7244 0.620285100262
7245 0.449022718753
7246 -1.36849478098
7247 0.624899144254
7248 0.743595636728
7249 -1.2415935916
7250 0.664050833156
7251 0.577542758445
7252 -1.16357145824
7253 0.658765358708
7254 0.504806099528
7255 -1.14058155623
7256 0.582223508149
7257 0.558358048083
7258 -0.965840323834
7259 0.492482039278
7260 0.473358284556
7261 -1.30285145372
7262 0.664104344188
7263 0.638747109535
7264 -1.33504060444
7265 0.677343352443
7266 0.657697252002
7267 -1.04476247772
7268 0.49270017691
7269 0.552062300814
7270 -0.991884828784
7271 0.527858510763
7272 0.464026318021
7273 -1.0440298974
7274 0.494997295209
7275 0.549032602194
7276 -1.15869331856
7277 0.595817642598
7278 0.562875675966
7279 -0.920677611156
7280 0.499966529824
7281 0.420711081332
7282 -1.15575202101
7283 0.498358045684
7284 0.657393975326
7285 -1.33030060971
7286 0.630690451217
7287 0.699610158494
7288 -1.16811513262
7289 0.609202284627
7290 0.558912847992
7291 -1.02017178426
7292 0.542400578804
7293 0.477771205461
7294 -1.25293307711
7295 0.656645937958
7296 0.596287139149
7297 -1.01225115193
7298 0.534042128761
7299 0.478209023173
7300 -1.11459463351
7301 0.5511119577
7302 0.563482675807
7303 -1.01960788247
7304 0.435302020936
7305 0.584305861539
7306 -1.16706864241
7307 0.611819791394
7308 0.555248851017
7309 -1.05431934975
7310 0.49691504156
7311 0.557404308187
7312 -0.851560207992
7313 0.469117393224
7314 0.382442814768
7315 -0.971214030122
7316 0.505890221108
7317 0.465323809014
7318 -0.780948274473
7319 0.396229785992
7320 0.384718488482
7321 -0.959198823972
7322 0.469160357064
7323 0.490038466907
7324 -1.02489191194
7325 0.487666500006
7326 0.53722541193
7327 -1.14475889372
7328 0.678314197792
7329 0.466444695931
7330 -0.958271256659
7331 0.373595269489
7332 0.58467598717
7333 -1.1534424448
7334 0.523682250639
7335 0.629760194162
7336 -1.15845877877
7337 0.52841592727
7338 0.630042851503
7339 -1.16492767606
7340 0.626819586333
7341 0.538108089732
7342 -0.897011163663
7343 0.4859891609
7344 0.411022002762
7345 -1.06051466799
7346 0.558675840163
7347 0.501838827825
7348 -0.879079776467
7349 0.484238947612
7350 0.394840828854
7351 -1.30198577177
7352 0.738013334683
7353 0.563972437084
7354 -1.23467963973
7355 0.64086104302
7356 0.593818596713
7357 -1.13353436621
7358 0.597936949021
7359 0.535597417185
7360 -1.20314604595
7361 0.605296681834
7362 0.597849364114
7363 -1.00018399546
7364 0.493233203706
7365 0.506950791749
7366 -1.04090638129
7367 0.473007850981
7368 0.567898530307
7369 -1.06880411255
7370 0.510194987195
7371 0.558609125359
7372 -1.03730489625
7373 0.541196709957
7374 0.496108186297
7375 -1.03442989227
7376 0.483235969883
7377 0.551193922392
7378 -1.10251427075
7379 0.450932274264
7380 0.651581996485
7381 -1.13385107681
7382 0.556632969029
7383 0.577218107779
7384 -1.07853084684
7385 0.406961573733
7386 0.67156927311
7387 -1.05247464943
7388 0.453864176752
7389 0.598610472677
7390 -1.09366385183
7391 0.516948080232
7392 0.576715771598
7393 -0.913759008855
7394 0.474717517668
7395 0.439041491187
7396 -1.10554738017
7397 0.51369672127
7398 0.591850658896
7399 -1.13523787934
7400 0.588860451086
7401 0.546377428258
7402 -1.10281952611
7403 0.524966510861
7404 0.577853015251
7405 -1.16189541987
7406 0.559624185032
7407 0.602271234838
7408 -1.2228498377
7409 0.668627223031
7410 0.554222614673
7411 -1.22098704265
7412 0.619086627095
7413 0.601900415556
7414 -1.16967440541
7415 0.544368563248
7416 0.625305842164
7417 -1.24593279297
7418 0.647031484856
7419 0.598901308109
7420 -1.11042573174
7421 0.535479263685
7422 0.574946468054
7423 -1.2921284049
7424 0.627627056138
7425 0.664501348767
7426 -1.26299375046
7427 0.585828591999
7428 0.677165158463
7429 -1.18578673063
7430 0.660490459861
7431 0.525296270767
7432 -1.08249454928
7433 0.531211212247
7434 0.551283337031
7435 -1.19306850965
7436 0.644182286401
7437 0.54888622325
7438 -1.38470000694
7439 0.693155083238
7440 0.691544923702
7441 -1.08486852219
7442 0.618188394626
7443 0.466680127568
7444 -1.0866281319
7445 0.59396091741
7446 0.492667214494
7447 -0.976064816936
7448 0.567180419972
7449 0.408884396963
7450 -0.881527241805
7451 0.469492906593
7452 0.412034335212
7453 -1.27597275589
7454 0.640833662488
7455 0.6351390934
7456 -1.2221325512
7457 0.537494031482
7458 0.684638519716
7459 -1.1831561209
7460 0.639950206955
7461 0.543205913947
7462 -1.34896991943
7463 0.648718089502
7464 0.700251829929
7465 -1.18203048608
7466 0.576781153603
7467 0.605249332477
7468 -1.03916145114
7469 0.624130653526
7470 0.415030797618
7471 -1.06541083916
7472 0.493835087622
7473 0.571575751537
7474 -0.982141557496
7475 0.559648711742
7476 0.422492845754
7477 -1.22473722414
7478 0.656599457943
7479 0.568137766196
7480 -0.949150779335
7481 0.495747287023
7482 0.453403492312
7483 -1.15594520175
7484 0.572763222092
7485 0.583181979654
7486 -1.04325267925
7487 0.557331824671
7488 0.485920854575
7489 -1.11047315152
7490 0.595720202938
7491 0.514752948582
7492 -1.0175384217
7493 0.474343178921
7494 0.543195242781
7495 -1.3660371753
7496 0.61399253076
7497 0.752044644536
7498 -1.26768409459
7499 0.579783963118
7500 0.687900131468
7501 -1.01719427029
7502 0.489178532623
7503 0.528015737667
7504 -1.0702052609
7505 0.493631360451
7506 0.576573900447
7507 -0.86804165226
7508 0.442510109088
7509 0.425531543172
7510 -0.866511468359
7511 0.391466570961
7512 0.475044897398
7513 -1.0263273089
7514 0.520533174889
7515 0.505794134012
7516 -1.05239673422
7517 0.478008893999
7518 0.574387840221
7519 -1.20176318428
7520 0.562893007526
7521 0.638870176749
7522 -1.09583304666
7523 0.616343423099
7524 0.479489623556
7525 -1.09645053907
7526 0.558444942105
7527 0.538005596968
7528 -1.03788042799
7529 0.450896289482
7530 0.586984138508
7531 -1.1909198936
7532 0.624146608774
7533 0.56677328483
7534 -1.19059527083
7535 0.595934142984
7536 0.59466112785
7537 -1.15012241295
7538 0.597475731499
7539 0.552646681453
7540 -0.970496159381
7541 0.439294269996
7542 0.531201889385
7543 -0.919455158459
7544 0.460598403675
7545 0.458856754784
7546 -0.988274159552
7547 0.477052968065
7548 0.511221191487
7549 -1.12465253331
7550 0.55091587387
7551 0.573736659438
7552 -1.10614332908
7553 0.533578290662
7554 0.572565038418
7555 -1.19773952104
7556 0.683450583405
7557 0.514288937637
7558 -1.06819757287
7559 0.591164812026
7560 0.477032760841
7561 -1.14130736912
7562 0.513664594664
7563 0.62764277446
7564 -1.141881063
7565 0.58021285112
7566 0.561668211881
7567 -1.08794238558
7568 0.560083565662
7569 0.527858819921
7570 -0.997457794676
7571 0.474521398763
7572 0.522936395913
7573 -1.31716191368
7574 0.68650985713
7575 0.630652056545
7576 -1.06850176919
7577 0.44092444702
7578 0.627577322171
7579 -1.22192475201
7580 0.63590180152
7581 0.586022950487
7582 -1.09121776049
7583 0.604492590449
7584 0.486725170043
7585 -1.23220025971
7586 0.615842216251
7587 0.616358043459
7588 -1.20603133446
7589 0.610003965089
7590 0.596027369374
7591 -1.05029978561
7592 0.64366814124
7593 0.406631644369
7594 -1.0925202333
7595 0.50797507438
7596 0.584545158923
7597 -1.08082701135
7598 0.50017420305
7599 0.580652808303
7600 -0.852276171301
7601 0.423742909261
7602 0.42853326204
7603 -1.38753324078
7604 0.711706747039
7605 0.675826493736
7606 -1.10378238838
7607 0.565823572921
7608 0.537958815462
7609 -1.06851937792
7610 0.548904137422
7611 0.519615240499
7612 -0.99697106301
7613 0.474182454639
7614 0.522788608371
7615 -1.27307587273
7616 0.626105870269
7617 0.646970002465
7618 -1.33417467637
7619 0.697048440606
7620 0.637126235768
7621 -0.955935224804
7622 0.450738217055
7623 0.505197007749
7624 -1.42302065009
7625 0.729552638467
7626 0.69346801162
7627 -1.25662421749
7628 0.648882240652
7629 0.607741976838
7630 -1.01659510615
7631 0.517729892596
7632 0.498865213552
7633 -1.02130468767
7634 0.589322071732
7635 0.431982615934
7636 -1.09238316433
7637 0.544733396547
7638 0.547649767783
7639 -1.09648144284
7640 0.543248116864
7641 0.553233325971
7642 -1.0140244291
7643 0.479416300726
7644 0.534608128377
7645 -1.19638441423
7646 0.618424131792
7647 0.577960282434
7648 -1.21116462176
7649 0.660990469653
7650 0.550174152108
7651 -1.23532484329
7652 0.537148539833
7653 0.698176303454
7654 -1.28561041522
7655 0.597506614318
7656 0.688103800906
7657 -0.971217993035
7658 0.540781423776
7659 0.430436569259
7660 -1.08700695519
7661 0.561538670156
7662 0.525468285033
7663 -1.09388010049
7664 0.58974608523
7665 0.50413401526
7666 -0.979202347879
7667 0.48562860038
7668 0.493573747499
7669 -1.09744114768
7670 0.541064013664
7671 0.556377134021
7672 -1.13347555485
7673 0.483446642426
7674 0.650028912429
7675 -1.03775451158
7676 0.54476578884
7677 0.492988722741
7678 -1.08967832185
7679 0.531958718632
7680 0.557719603216
7681 -1.23388411427
7682 0.549903747526
7683 0.683980366739
7684 -1.18268523073
7685 0.647946219297
7686 0.534739011432
7687 -1.22414529275
7688 0.539119751576
7689 0.685025541169
7690 -1.04079953252
7691 0.526392358904
7692 0.51440717362
7693 -0.954060843584
7694 0.484340826609
7695 0.469720016975
7696 -1.28768776444
7697 0.697358417998
7698 0.590329346444
7699 -1.14814865247
7700 0.531786039575
7701 0.616362612891
7702 -0.969696017542
7703 0.546595060663
7704 0.423100956879
7705 -1.18471429275
7706 0.550573133716
7707 0.634141159032
7708 -1.09182473391
7709 0.5424690094
7710 0.549355724513
7711 -1.30298015048
7712 0.634038598869
7713 0.668941551612
7714 -1.17948239053
7715 0.673440634576
7716 0.50604175595
7717 -1.36659458471
7718 0.689426530669
7719 0.67716805404
7720 -1.07195047233
7721 0.487674406205
7722 0.584276066123
7723 -1.01178953578
7724 0.461935453591
7725 0.549854082191
7726 -1.08400570745
7727 0.552938474586
7728 0.531067232863
7729 -0.988346438978
7730 0.485680404783
7731 0.502666034195
7732 -1.16950095632
7733 0.527872129208
7734 0.641628827109
7735 -1.0614065645
7736 0.567121432051
7737 0.494285132453
7738 -1.01826324187
7739 0.469361888108
7740 0.548901353764
7741 -1.31384115055
7742 0.662470243584
7743 0.651370906965
7744 -1.12077453633
7745 0.612232967654
7746 0.508541568681
7747 -1.17143217384
7748 0.57419428605
7749 0.597237887792
7750 -1.25219453167
7751 0.609451636746
7752 0.642742894921
7753 -0.911606109415
7754 0.460814191686
7755 0.450791917728
7756 -1.20656117048
7757 0.530058530577
7758 0.676502639899
7759 -0.93240521042
7760 0.545731382549
7761 0.386673827871
7762 -1.05572004779
7763 0.517450660485
7764 0.538269387301
7765 -1.03832093267
7766 0.594237346256
7767 0.444083586417
7768 -1.16994108646
7769 0.682757204418
7770 0.48718388204
7771 -1.07600858109
7772 0.514461657694
7773 0.561546923401
7774 -1.20584841393
7775 0.564881249382
7776 0.640967164544
7777 -1.29076612677
7778 0.600361881091
7779 0.690404245675
7780 -1.19741948064
7781 0.542618359459
7782 0.654801121176
7783 -1.07071561642
7784 0.537007568508
7785 0.53370804791
7786 -0.888345118645
7787 0.440041002189
7788 0.448304116457
7789 -1.09054751286
7790 0.568609906701
7791 0.521937606157
7792 -1.02483956237
7793 0.488600145116
7794 0.536239417255
7795 -0.911227938957
7796 0.492881363875
7797 0.418346575083
7798 -1.22970751902
7799 0.56299555762
7800 0.666711961404
7801 -1.10681446133
7802 0.538193985713
7803 0.568620475612
7804 -1.05874264424
7805 0.50287980263
7806 0.555862841611
7807 -1.263637311
7808 0.674812420789
7809 0.588824890214
7810 -0.98066869142
7811 0.498950539821
7812 0.481718151599
7813 -1.18112304756
7814 0.577087045145
7815 0.604036002418
7816 -1.04861612424
7817 0.529307061186
7818 0.519309063059
7819 -1.10237386841
7820 0.497581022318
7821 0.604792846091
7822 -0.975300375062
7823 0.401447180757
7824 0.573853194306
7825 -1.23994871198
7826 0.677165697384
7827 0.562783014592
7828 -1.15633137126
7829 0.528096838692
7830 0.628234532568
7831 -0.922426581029
7832 0.54721792191
7833 0.375208659119
7834 -1.17302095773
7835 0.585724705105
7836 0.587296252624
7837 -1.22053014778
7838 0.680730380203
7839 0.53979976758
7840 -1.23505647739
7841 0.591149778554
7842 0.643906698836
7843 -1.06887837596
7844 0.532692903712
7845 0.53618547225
7846 -1.03750125327
7847 0.505135266288
7848 0.532365986985
7849 -1.19299887268
7850 0.624687678963
7851 0.568311193718
7852 -1.14334213984
7853 0.540865616285
7854 0.602476523553
7855 -1.35838872161
7856 0.705308070894
7857 0.653080650718
7858 -1.15192124949
7859 0.58268926384
7860 0.569231985649
7861 -1.15415253813
7862 0.445244137422
7863 0.708908400707
7864 -1.25580925374
7865 0.702936103047
7866 0.552873150697
7867 -1.0282276497
7868 0.526670215518
7869 0.50155743418
7870 -1.08951660957
7871 0.486757041061
7872 0.602759568512
7873 -1.22329702877
7874 0.609775066991
7875 0.613521961775
7876 -1.08693683633
7877 0.517424886181
7878 0.569511950149
7879 -1.37108076862
7880 0.677295494133
7881 0.693785274489
7882 -1.10923909234
7883 0.528033865716
7884 0.58120522662
7885 -1.01957851759
7886 0.478636751238
7887 0.540941766351
7888 -1.12716556146
7889 0.49459610569
7890 0.632569455771
7891 -1.01407616778
7892 0.462143231625
7893 0.551932936156
7894 -0.947627331643
7895 0.437379345484
7896 0.510247986159
7897 -0.901424747919
7898 0.437775539695
7899 0.463649208224
7900 -1.19435065824
7901 0.550964069844
7902 0.6433865884
7903 -1.16943502126
7904 0.538962530085
7905 0.630472491179
7906 -1.08054680695
7907 0.502219738304
7908 0.578327068644
7909 -1.19684544947
7910 0.619006964426
7911 0.57783848504
7912 -1.00490638301
7913 0.512763116598
7914 0.492143266415
7915 -1.07493821126
7916 0.479112978977
7917 0.595825232281
7918 -0.955787618117
7919 0.469796386733
7920 0.485991231384
7921 -1.44708374643
7922 0.737531680151
7923 0.709552066276
7924 -1.20528898297
7925 0.560105072349
7926 0.645183910617
7927 -1.05186162382
7928 0.537778119308
7929 0.514083504512
7930 -1.20473716401
7931 0.517894902472
7932 0.686842261538
7933 -1.197780799
7934 0.622004264868
7935 0.575776534128
7936 -1.30108097251
7937 0.691477861282
7938 0.60960311123
7939 -1.09468618834
7940 0.516754399754
7941 0.577931788588
7942 -1.11409826309
7943 0.589100429208
7944 0.524997833879
7945 -1.20501343952
7946 0.544336945259
7947 0.660676494257
7948 -0.958812759796
7949 0.537392234545
7950 0.421420525251
7951 -1.06059060752
7952 0.505577069158
7953 0.55501353836
7954 -1.29586837537
7955 0.676200736234
7956 0.619667639133
7957 -1.05743426592
7958 0.611106318727
7959 0.446327947196
7960 -0.89674834007
7961 0.445175836914
7962 0.451572503156
7963 -1.08128267917
7964 0.532864406247
7965 0.548418272927
7966 -1.19053774986
7967 0.581815135078
7968 0.608722614784
7969 -1.21930180383
7970 0.579007535068
7971 0.64029426876
7972 -1.10193267982
7973 0.586218248211
7974 0.515714431606
7975 -1.0483206388
7976 0.59081683457
7977 0.457503804232
7978 -1.18019740142
7979 0.584318652986
7980 0.595878748435
7981 -1.07426722254
7982 0.493938807818
7983 0.58032841472
7984 -0.992083849889
7985 0.540619217526
7986 0.451464632362
7987 -1.38607342936
7988 0.658698980704
7989 0.727374448659
7990 -1.2435981595
7991 0.671974704345
7992 0.571623455151
7993 -1.20320490235
7994 0.614863867218
7995 0.588341035134
7996 -1.09017309909
7997 0.545784853949
7998 0.54438824514
7999 -1.3225561466
8000 0.579246953682
8001 0.743309192918
8002 -1.23993356549
8003 0.61530004939
8004 0.6246335161
8005 -0.991539956141
8006 0.49442428413
8007 0.497115672012
8008 -1.01379754764
8009 0.498255414133
8010 0.515542133511
8011 -1.19806217987
8012 0.592585821891
8013 0.605476357977
8014 -1.20221205698
8015 0.624168244739
8016 0.578043812243
8017 -1.07953684016
8018 0.595752850851
8019 0.483783989305
8020 -1.24951699937
8021 0.651052826235
8022 0.598464173131
8023 -1.10423683981
8024 0.61717733172
8025 0.487059508088
8026 -1.06245959974
8027 0.654818511472
8028 0.407641088264
8029 -1.18708095334
8030 0.529231066214
8031 0.657849887124
8032 -1.21134313805
8033 0.56440254399
8034 0.64694059406
8035 -1.41479008762
8036 0.685601543652
8037 0.729188543973
8038 -1.01206072403
8039 0.547696027118
8040 0.464364696914
8041 -1.06440527066
8042 0.468564924103
8043 0.595840346553
8044 -1.13361318396
8045 0.648242855934
8046 0.485370328026
8047 -0.969505481622
8048 0.465761432617
8049 0.503744049004
8050 -1.37239034692
8051 0.683703679321
8052 0.688686667594
8053 -1.36760132268
8054 0.708395012445
8055 0.659206310238
8056 -1.06980126363
8057 0.477658217106
8058 0.592143046522
8059 -1.22303963499
8060 0.578323459962
8061 0.644716175028
8062 -1.10880055479
8063 0.51805941049
8064 0.590741144299
8065 -0.908492475319
8066 0.448634459852
8067 0.459858015468
8068 -0.913568986062
8069 0.481830226335
8070 0.431738759727
8071 -1.03301709464
8072 0.456437977824
8073 0.576579116814
8074 -1.18494977232
8075 0.516075040157
8076 0.668874732165
8077 -1.09250980232
8078 0.594062735712
8079 0.498447066608
8080 -1.02715346141
8081 0.567613872681
8082 0.459539588726
8083 -1.14366402065
8084 0.608521139127
8085 0.53514288152
8086 -1.31295009964
8087 0.658113154717
8088 0.654836944919
8089 -1.05041607658
8090 0.504204186344
8091 0.546211890234
8092 -1.20433419488
8093 0.618997409197
8094 0.585336785679
8095 -0.977375448199
8096 0.551400691452
8097 0.425974756747
8098 -1.12835592396
8099 0.586216490923
8100 0.542139433036
8101 -1.00581088124
8102 0.580117016742
8103 0.425693864494
8104 -1.22614412907
8105 0.604872200723
8106 0.621271928345
8107 -1.20473824784
8108 0.564913012982
8109 0.639825234862
8110 -1.00912481731
8111 0.546671358417
8112 0.462453458889
8113 -1.03756689584
8114 0.555248588544
8115 0.482318307291
8116 -1.22440227225
8117 0.54397549667
8118 0.680426775582
8119 -1.11475070152
8120 0.493806461457
8121 0.620944240068
8122 -0.895960893001
8123 0.476247151656
8124 0.419713741345
8125 -1.1282228928
8126 0.444628409312
8127 0.683594483492
8128 -1.0572053907
8129 0.503914124911
8130 0.553291265793
8131 -1.14577452508
8132 0.572535243486
8133 0.573239281594
8134 -1.32429391166
8135 0.580627578048
8136 0.743666333611
8137 -1.40832947746
8138 0.633468534288
8139 0.774860943171
8140 -1.02481738952
8141 0.528605875868
8142 0.496211513657
8143 -1.2015511696
8144 0.620913390132
8145 0.580637779469
8146 -1.13464581876
8147 0.550238104353
8148 0.584407714404
8149 -1.30906778347
8150 0.690162697207
8151 0.618905086264
8152 -1.03805015593
8153 0.659225031679
8154 0.378825124252
8155 -1.00629359569
8156 0.49809188659
8157 0.508201709104
8158 -1.14223018149
8159 0.612775610803
8160 0.529454570688
8161 -1.05133901656
8162 0.51613285265
8163 0.535206163911
8164 -1.14944719427
8165 0.499890918961
8166 0.64955627531
8167 -1.14649560637
8168 0.569597730048
8169 0.576897876323
8170 -1.06362327327
8171 0.588262913988
8172 0.475360359283
8173 -1.29098078463
8174 0.745496183994
8175 0.545484600636
8176 -1.16017558035
8177 0.668918730198
8178 0.491256850152
8179 -1.01254093108
8180 0.539375656559
8181 0.473165274523
8182 -0.869581276837
8183 0.397028498504
8184 0.472552778333
8185 -1.22143217391
8186 0.554044509618
8187 0.667387664293
8188 -0.924941916979
8189 0.486017763173
8190 0.438924153805
8191 -1.32182947607
8192 0.626535645932
8193 0.695293830138
8194 -1.17463258693
8195 0.59341171036
8196 0.581220876569
8197 -0.892945918355
8198 0.420878983575
8199 0.472066934781
8200 -1.13167421877
8201 0.635025511586
8202 0.496648707189
8203 -1.11052173207
8204 0.602443832622
8205 0.508077899448
8206 -1.28055016411
8207 0.679946894711
8208 0.600603269398
8209 -1.13339591931
8210 0.480003373835
8211 0.653392545476
8212 -1.12075971645
8213 0.610439665509
8214 0.510320050938
8215 -1.06385371512
8216 0.511615325712
8217 0.552238389412
8218 -1.26036668786
8219 0.656662484144
8220 0.603704203711
8221 -1.08050602955
8222 0.556800030043
8223 0.523705999504
8224 -1.02238655561
8225 0.425487290016
8226 0.596899265591
8227 -0.928616545554
8228 0.510969929477
8229 0.417646616077
8230 -1.07092350817
8231 0.526673170352
8232 0.544250337817
8233 -1.22523971257
8234 0.590473604764
8235 0.634766107809
8236 -1.17184429495
8237 0.566673619612
8238 0.605170675334
8239 -1.15272515548
8240 0.569910723129
8241 0.582814432353
8242 -1.00494806663
8243 0.525436841453
8244 0.47951122518
8245 -1.27437498475
8246 0.782456770231
8247 0.49191821452
8248 -1.0246875573
8249 0.471479706582
8250 0.553207850714
8251 -1.13696028159
8252 0.53332280266
8253 0.603637478928
8254 -1.00528721161
8255 0.530488419684
8256 0.474798791927
8257 -1.26264183363
8258 0.561098990531
8259 0.701542843097
8260 -1.13486724929
8261 0.582227102203
8262 0.552640147085
8263 -1.03669909221
8264 0.480153424465
8265 0.556545667742
8266 -1.0545509274
8267 0.507978436225
8268 0.546572491175
8269 -1.20423156163
8270 0.614974280228
8271 0.589257281398
8272 -0.985130500701
8273 0.481782642221
8274 0.50334785848
8275 -1.08261986573
8276 0.657540593949
8277 0.425079271785
8278 -1.09765180139
8279 0.62645826436
8280 0.471193537025
8281 -0.861297817166
8282 0.419205401454
8283 0.442092415712
8284 -1.25813073544
8285 0.636175457811
8286 0.621955277626
8287 -1.12487420932
8288 0.594827494952
8289 0.530046714366
8290 -1.35379857746
8291 0.688418730244
8292 0.665379847217
8293 -1.10286422748
8294 0.444594772109
8295 0.658269455373
8296 -1.20268498466
8297 0.658317523419
8298 0.544367461242
8299 -1.12358639488
8300 0.560765494
8301 0.562820900877
8302 -1.08700289106
8303 0.519017605953
8304 0.567985285106
8305 -0.992626205971
8306 0.520227003813
8307 0.472399202158
8308 -1.23896813453
8309 0.7792387658
8310 0.459729368729
8311 -1.02322170896
8312 0.586312364696
8313 0.436909344261
8314 -1.09942710477
8315 0.502865827448
8316 0.596561277325
8317 -1.08257619225
8318 0.490253448441
8319 0.592322743814
8320 -1.06130247266
8321 0.542475442354
8322 0.518827030304
8323 -1.01730443722
8324 0.542270733873
8325 0.475033703343
8326 -1.17359428505
8327 0.579000063046
8328 0.594594222003
8329 -1.12691675594
8330 0.615229870897
8331 0.511686885043
8332 -1.23994861467
8333 0.567554676205
8334 0.672393938469
8335 -1.10196630659
8336 0.537415604537
8337 0.56455070205
8338 -1.07461001598
8339 0.49094095213
8340 0.583669063848
8341 -1.09772861468
8342 0.555111188249
8343 0.542617426433
8344 -1.11162017261
8345 0.586212325386
8346 0.525407847222
8347 -1.32830093372
8348 0.705983844451
8349 0.622317089265
8350 -1.08962900588
8351 0.541057576633
8352 0.548571429242
8353 -1.19281888806
8354 0.571518529981
8355 0.621300358083
8356 -1.12202510342
8357 0.540253074761
8358 0.581772028663
8359 -1.0641063019
8360 0.615997159802
8361 0.448109142098
8362 -1.05608951274
8363 0.522193395456
8364 0.53389611728
8365 -0.956141238309
8366 0.507326326457
8367 0.448814911852
8368 -1.06430726356
8369 0.538817666582
8370 0.525489596982
8371 -1.16891983932
8372 0.671288741112
8373 0.49763109821
8374 -1.0678340376
8375 0.536703469763
8376 0.531130567841
8377 -1.1046569268
8378 0.534739910603
8379 0.569917016194
8380 -1.41428081606
8381 0.759837553491
8382 0.654443262568
8383 -1.35694584104
8384 0.632192634854
8385 0.724753206183
8386 -1.18734317319
8387 0.59473844904
8388 0.592604724153
8389 -1.05082120565
8390 0.422061350767
8391 0.628759854887
8392 -1.16675255879
8393 0.647737959469
8394 0.519014599323
8395 -1.3191238624
8396 0.671956197626
8397 0.647167664774
8398 -0.98158949109
8399 0.563671586331
8400 0.417917904759
8401 -1.35354512194
8402 0.644160609076
8403 0.709384512863
8404 -1.03906872038
8405 0.531445828241
8406 0.507622892135
8407 -1.21320056297
8408 0.455361640185
8409 0.757838922789
8410 -1.06199370518
8411 0.636214975406
8412 0.425778729778
8413 -1.09399914797
8414 0.578312945643
8415 0.515686202323
8416 -1.04398365745
8417 0.502558278054
8418 0.541425379396
8419 -1.34325781007
8420 0.771910990476
8421 0.571346819597
8422 -1.04712033567
8423 0.560440735017
8424 0.486679600654
8425 -1.11722820594
8426 0.456093522049
8427 0.661134683896
8428 -1.06460845304
8429 0.502196227701
8430 0.562412225344
8431 -1.01772084056
8432 0.460134953151
8433 0.557585887414
8434 -1.02414477994
8435 0.51059756276
8436 0.513547217176
8437 -0.980953869262
8438 0.507572965626
8439 0.473380903636
8440 -1.16318638928
8441 0.483455725409
8442 0.679730663869
8443 -1.10947195039
8444 0.613626113826
8445 0.495845836568
8446 -1.20642363187
8447 0.59203291718
8448 0.614390714693
8449 -1.24331002546
8450 0.555992416348
8451 0.687317609116
8452 -1.18913733536
8453 0.571846611162
8454 0.6172907242
8455 -1.05483745854
8456 0.545320739328
8457 0.509516719207
8458 -0.948196701919
8459 0.444637870364
8460 0.503558831555
8461 -1.1642891016
8462 0.638011350971
8463 0.526277750624
8464 -1.20666558421
8465 0.577328353231
8466 0.629337230982
8467 -1.38320541955
8468 0.694163744257
8469 0.689041675296
8470 -1.10214540433
8471 0.584828802914
8472 0.517316601414
8473 -0.964475739443
8474 0.497644199984
8475 0.466831539459
8476 -1.04662781596
8477 0.519364189833
8478 0.52726362613
8479 -1.13628254222
8480 0.54430193323
8481 0.591980608991
8482 -1.27720664495
8483 0.643346295896
8484 0.633860349052
8485 -1.07135424342
8486 0.540341901122
8487 0.531012342295
8488 -1.13799593769
8489 0.638137650034
8490 0.499858287656
8491 -1.20355816996
8492 0.54718447696
8493 0.656373692998
8494 -1.23590534871
8495 0.629231725321
8496 0.606673623392
8497 -1.24430262346
8498 0.564192299995
8499 0.680110323463
8500 -1.14278555697
8501 0.520120286906
8502 0.622665270064
8503 -1.13045670805
8504 0.618446091263
8505 0.512010616787
8506 -1.12012378811
8507 0.464299772393
8508 0.655824015717
8509 -1.11179001642
8510 0.495006189342
8511 0.616783827078
8512 -1.4303964946
8513 0.815841663693
8514 0.614554830905
8515 -1.03647428473
8516 0.571909361185
8517 0.464564923548
8518 -1.03890504211
8519 0.566590817366
8520 0.472314224746
8521 -1.18422220399
8522 0.651771537194
8523 0.532450666793
8524 -1.19908423834
8525 0.645074692604
8526 0.554009545732
8527 -1.15867809554
8528 0.585569734966
8529 0.573108360577
8530 -1.21647216484
8531 0.643274515979
8532 0.573197648859
8533 -1.1368604644
8534 0.616593666609
8535 0.520266797789
8536 -1.14794066628
8537 0.538316811566
8538 0.609623854714
8539 -1.41055373861
8540 0.692663796984
8541 0.717889941629
8542 -1.12636433938
8543 0.515593426798
8544 0.61077091258
8545 -1.14292017118
8546 0.681652490241
8547 0.461267680936
8548 -1.0707718805
8549 0.510960274122
8550 0.559811606374
8551 -1.30123414545
8552 0.631397625949
8553 0.669836519499
8554 -1.17292246742
8555 0.565528811441
8556 0.607393655976
8557 -1.11457809207
8558 0.569351172763
8559 0.545226919304
8560 -1.1771023114
8561 0.61039004359
8562 0.566712267815
8563 -1.21781426546
8564 0.683970170095
8565 0.533844095366
8566 -0.943167826854
8567 0.442452637611
8568 0.500715189243
8569 -1.06124069724
8570 0.502035857136
8571 0.559204840101
8572 -1.13293542792
8573 0.536623027727
8574 0.596312400194
8575 -1.44191852911
8576 0.683580695044
8577 0.75833783407
8578 -1.22232157774
8579 0.576579133836
8580 0.645742443907
8581 -1.14393716055
8582 0.589779685566
8583 0.554157474986
8584 -0.96624340068
8585 0.493103035696
8586 0.473140364984
8587 -1.14412125812
8588 0.533196804885
8589 0.610924453231
8590 -1.24826095614
8591 0.56524871073
8592 0.683012245406
8593 -0.992463702689
8594 0.511676874176
8595 0.480786828513
8596 -1.04993501438
8597 0.49894677319
8598 0.550988241189
8599 -1.32091156434
8600 0.704655286425
8601 0.616256277917
8602 -0.975327382226
8603 0.41938279307
8604 0.555944589156
8605 -0.986758999584
8606 0.458067318745
8607 0.528691680839
8608 -0.989463910864
8609 0.525605200123
8610 0.463858710742
8611 -1.17178099865
8612 0.555150742466
8613 0.616630256184
8614 -1.05067190278
8615 0.591721415637
8616 0.45895048714
8617 -1.09955236185
8618 0.503864488402
8619 0.595687873452
8620 -1.12468831385
8621 0.596246037488
8622 0.52844227636
8623 -1.028460224
8624 0.592814379549
8625 0.43564584445
8626 -1.19251699437
8627 0.592129770141
8628 0.600387224227
8629 -1.2343687265
8630 0.600575740612
8631 0.633792985887
8632 -1.12740619677
8633 0.569379315457
8634 0.558026881312
8635 -1.18778969786
8636 0.648292339485
8637 0.539497358374
8638 -1.09984466319
8639 0.521615946975
8640 0.578228716213
8641 -1.28470056297
8642 0.535801415862
8643 0.748899147109
8644 -1.214592819
8645 0.60642463804
8646 0.608168180964
8647 -1.11757336944
8648 0.616069734013
8649 0.501503635432
8650 -1.08111315265
8651 0.590844174185
8652 0.490268978462
8653 -0.929303224702
8654 0.445432734986
8655 0.483870489716
8656 -1.09462802346
8657 0.621407517086
8658 0.473220506373
8659 -0.994904165123
8660 0.52903976089
8661 0.465864404233
8662 -1.09912386698
8663 0.606098330752
8664 0.493025536232
8665 -1.19059912338
8666 0.539029492771
8667 0.65156963061
8668 -1.10412951734
8669 0.537197040279
8670 0.566932477065
8671 -1.09807945688
8672 0.583325796597
8673 0.51475366028
8674 -1.04033144431
8675 0.583300701841
8676 0.457030742473
8677 -1.05268511891
8678 0.573009564703
8679 0.479675554209
8680 -0.927527443243
8681 0.510215082713
8682 0.417312360531
8683 -1.25955155725
8684 0.627026895165
8685 0.632524662084
8686 -0.972727848153
8687 0.477443720854
8688 0.4952841273
8689 -1.43837623375
8690 0.712450921285
8691 0.725925312466
8692 -1.04440034008
8693 0.560875496866
8694 0.483524843217
8695 -1.04366779901
8696 0.55896420838
8697 0.484703590634
8698 -1.1236413052
8699 0.588294533533
8700 0.535346771662
8701 -1.0636466086
8702 0.52649210352
8703 0.537154505075
8704 -1.38368399803
8705 0.757382096211
8706 0.626301901817
8707 -1.43814760384
8708 0.743321616777
8709 0.694825987059
8710 -1.15864948488
8711 0.574045039053
8712 0.584604445824
8713 -0.972657628863
8714 0.466602666912
8715 0.506054961951
8716 -0.919441819113
8717 0.429023572976
8718 0.490418246137
8719 -1.21746596231
8720 0.635887594965
8721 0.581578367345
8722 -1.22817363986
8723 0.707016694324
8724 0.521156945538
8725 -1.22652136646
8726 0.566112158811
8727 0.660409207645
8728 -1.16084035346
8729 0.533797848145
8730 0.627042505319
8731 -1.15950813252
8732 0.533717270614
8733 0.625790861908
8734 -1.06047863422
8735 0.518245121467
8736 0.542233512754
8737 -1.06645594648
8738 0.514102397605
8739 0.552353548877
8740 -1.27576981541
8741 0.691470190497
8742 0.58429962491
8743 -1.14558302551
8744 0.470609850537
8745 0.674973174975
8746 -0.987231505481
8747 0.447771448744
8748 0.539460056737
8749 -1.33255923237
8750 0.657079289687
8751 0.675479942684
8752 -1.19197405814
8753 0.584650620548
8754 0.607323437588
8755 -1.44328297083
8756 0.631508143747
8757 0.81177482708
8758 -0.836742157557
8759 0.379360342081
8760 0.457381815476
8761 -1.04505160873
8762 0.492088873224
8763 0.55296273551
8764 -0.972100944417
8765 0.489917353986
8766 0.482183590431
8767 -1.3200640058
8768 0.624672380673
8769 0.69539162513
8770 -1.33700624949
8771 0.621770316763
8772 0.715235932728
8773 -1.08800746525
8774 0.591843710425
8775 0.496163754827
8776 -1.2091493114
8777 0.614304343491
8778 0.59484496791
8779 -1.06930781902
8780 0.620285100262
8781 0.449022718753
8782 -1.36849478098
8783 0.624899144254
8784 0.743595636728
8785 -1.2415935916
8786 0.664050833156
8787 0.577542758445
8788 -1.16357145824
8789 0.658765358708
8790 0.504806099528
8791 -1.14058155623
8792 0.582223508149
8793 0.558358048083
8794 -0.965840323834
8795 0.492482039278
8796 0.473358284556
8797 -1.30285145372
8798 0.664104344188
8799 0.638747109535
8800 -1.33504060444
8801 0.677343352443
8802 0.657697252002
8803 -1.04476247772
8804 0.49270017691
8805 0.552062300814
8806 -0.991884828784
8807 0.527858510763
8808 0.464026318021
8809 -1.0440298974
8810 0.494997295209
8811 0.549032602194
8812 -1.15869331856
8813 0.595817642598
8814 0.562875675966
8815 -0.920677611156
8816 0.499966529824
8817 0.420711081332
8818 -1.15575202101
8819 0.498358045684
8820 0.657393975326
8821 -1.33030060971
8822 0.630690451217
8823 0.699610158494
8824 -1.16811513262
8825 0.609202284627
8826 0.558912847992
8827 -1.02017178426
8828 0.542400578804
8829 0.477771205461
8830 -1.25293307711
8831 0.656645937958
8832 0.596287139149
8833 -1.01225115193
8834 0.534042128761
8835 0.478209023173
8836 -1.11459463351
8837 0.5511119577
8838 0.563482675807
8839 -1.01960788247
8840 0.435302020936
8841 0.584305861539
8842 -1.16706864241
8843 0.611819791394
8844 0.555248851017
8845 -1.05431934975
8846 0.49691504156
8847 0.557404308187
8848 -0.851560207992
8849 0.469117393224
8850 0.382442814768
8851 -0.971214030122
8852 0.505890221108
8853 0.465323809014
8854 -0.780948274473
8855 0.396229785992
8856 0.384718488482
8857 -0.959198823972
8858 0.469160357064
8859 0.490038466907
8860 -1.02489191194
8861 0.487666500006
8862 0.53722541193
8863 -1.14475889372
8864 0.678314197792
8865 0.466444695931
8866 -0.958271256659
8867 0.373595269489
8868 0.58467598717
8869 -1.1534424448
8870 0.523682250639
8871 0.629760194162
8872 -1.15845877877
8873 0.52841592727
8874 0.630042851503
8875 -1.16492767606
8876 0.626819586333
8877 0.538108089732
8878 -0.897011163663
8879 0.4859891609
8880 0.411022002762
8881 -1.06051466799
8882 0.558675840163
8883 0.501838827825
8884 -0.879079776467
8885 0.484238947612
8886 0.394840828854
8887 -1.30198577177
8888 0.738013334683
8889 0.563972437084
8890 -1.23467963973
8891 0.64086104302
8892 0.593818596713
8893 -1.13353436621
8894 0.597936949021
8895 0.535597417185
8896 -1.20314604595
8897 0.605296681834
8898 0.597849364114
8899 -1.00018399546
8900 0.493233203706
8901 0.506950791749
8902 -1.04090638129
8903 0.473007850981
8904 0.567898530307
8905 -1.06880411255
8906 0.510194987195
8907 0.558609125359
8908 -1.03730489625
8909 0.541196709957
8910 0.496108186297
8911 -1.03442989227
8912 0.483235969883
8913 0.551193922392
8914 -1.10251427075
8915 0.450932274264
8916 0.651581996485
8917 -1.13385107681
8918 0.556632969029
8919 0.577218107779
8920 -1.07853084684
8921 0.406961573733
8922 0.67156927311
8923 -1.05247464943
8924 0.453864176752
8925 0.598610472677
8926 -1.09366385183
8927 0.516948080232
8928 0.576715771598
8929 -0.913759008855
8930 0.474717517668
8931 0.439041491187
8932 -1.10554738017
8933 0.51369672127
8934 0.591850658896
8935 -1.13523787934
8936 0.588860451086
8937 0.546377428258
8938 -1.10281952611
8939 0.524966510861
8940 0.577853015251
8941 -1.16189541987
8942 0.559624185032
8943 0.602271234838
8944 -1.2228498377
8945 0.668627223031
8946 0.554222614673
8947 -1.22098704265
8948 0.619086627095
8949 0.601900415556
8950 -1.16967440541
8951 0.544368563248
8952 0.625305842164
8953 -1.24593279297
8954 0.647031484856
8955 0.598901308109
8956 -1.11042573174
8957 0.535479263685
8958 0.574946468054
8959 -1.2921284049
8960 0.627627056138
8961 0.664501348767
8962 -1.26299375046
8963 0.585828591999
8964 0.677165158463
8965 -1.18578673063
8966 0.660490459861
8967 0.525296270767
8968 -1.08249454928
8969 0.531211212247
8970 0.551283337031
8971 -1.19306850965
8972 0.644182286401
8973 0.54888622325
8974 -1.38470000694
8975 0.693155083238
8976 0.691544923702
8977 -1.08486852219
8978 0.618188394626
8979 0.466680127568
8980 -1.0866281319
8981 0.59396091741
8982 0.492667214494
8983 -0.976064816936
8984 0.567180419972
8985 0.408884396963
8986 -0.881527241805
8987 0.469492906593
8988 0.412034335212
8989 -1.27597275589
8990 0.640833662488
8991 0.6351390934
8992 -1.2221325512
8993 0.537494031482
8994 0.684638519716
8995 -1.1831561209
8996 0.639950206955
8997 0.543205913947
8998 -1.34896991943
8999 0.648718089502
9000 0.700251829929
9001 -1.18203048608
9002 0.576781153603
9003 0.605249332477
9004 -1.03916145114
9005 0.624130653526
9006 0.415030797618
9007 -1.06541083916
9008 0.493835087622
9009 0.571575751537
9010 -0.982141557496
9011 0.559648711742
9012 0.422492845754
9013 -1.22473722414
9014 0.656599457943
9015 0.568137766196
9016 -0.949150779335
9017 0.495747287023
9018 0.453403492312
9019 -1.15594520175
9020 0.572763222092
9021 0.583181979654
9022 -1.04325267925
9023 0.557331824671
9024 0.485920854575
9025 -1.11047315152
9026 0.595720202938
9027 0.514752948582
9028 -1.0175384217
9029 0.474343178921
9030 0.543195242781
9031 -1.3660371753
9032 0.61399253076
9033 0.752044644536
9034 -1.26768409459
9035 0.579783963118
9036 0.687900131468
9037 -1.01719427029
9038 0.489178532623
9039 0.528015737667
9040 -1.0702052609
9041 0.493631360451
9042 0.576573900447
9043 -0.86804165226
9044 0.442510109088
9045 0.425531543172
9046 -0.866511468359
9047 0.39146657096
9048 0.475044897398
9049 -1.0263273089
9050 0.520533174889
9051 0.505794134012
9052 -1.05239673422
9053 0.478008893999
9054 0.574387840221
9055 -1.20176318428
9056 0.562893007526
9057 0.638870176749
9058 -1.09583304666
9059 0.616343423099
9060 0.479489623556
9061 -1.09645053907
9062 0.558444942105
9063 0.538005596968
9064 -1.03788042799
9065 0.450896289482
9066 0.586984138508
9067 -1.1909198936
9068 0.624146608774
9069 0.56677328483
9070 -1.19059527083
9071 0.595934142984
9072 0.59466112785
9073 -1.15012241295
9074 0.597475731499
9075 0.552646681453
9076 -0.970496159381
9077 0.439294269996
9078 0.531201889385
9079 -0.919455158459
9080 0.460598403675
9081 0.458856754784
9082 -0.988274159552
9083 0.477052968065
9084 0.511221191487
9085 -1.12465253331
9086 0.55091587387
9087 0.573736659438
9088 -1.10614332908
9089 0.533578290662
9090 0.572565038418
9091 -1.19773952104
9092 0.683450583405
9093 0.514288937637
9094 -1.06819757287
9095 0.591164812026
9096 0.477032760841
9097 -1.14130736912
9098 0.513664594664
9099 0.62764277446
9100 -1.141881063
9101 0.58021285112
9102 0.561668211881
9103 -1.08794238558
9104 0.560083565662
9105 0.527858819921
9106 -0.997457794676
9107 0.474521398763
9108 0.522936395913
9109 -1.31716191368
9110 0.68650985713
9111 0.630652056545
9112 -1.06850176919
9113 0.44092444702
9114 0.627577322171
9115 -1.22192475201
9116 0.63590180152
9117 0.586022950487
9118 -1.09121776049
9119 0.604492590449
9120 0.486725170043
9121 -1.23220025971
9122 0.615842216251
9123 0.616358043459
9124 -1.20603133446
9125 0.610003965089
9126 0.596027369374
9127 -1.05029978561
9128 0.64366814124
9129 0.406631644369
9130 -1.0925202333
9131 0.50797507438
9132 0.584545158923
9133 -1.08082701135
9134 0.50017420305
9135 0.580652808303
9136 -0.852276171301
9137 0.423742909261
9138 0.42853326204
9139 -1.38753324078
9140 0.711706747039
9141 0.675826493736
9142 -1.10378238838
9143 0.565823572921
9144 0.537958815462
9145 -1.06851937792
9146 0.548904137422
9147 0.519615240499
9148 -0.99697106301
9149 0.474182454639
9150 0.522788608371
9151 -1.27307587273
9152 0.626105870269
9153 0.646970002465
9154 -1.33417467637
9155 0.697048440606
9156 0.637126235768
9157 -0.955935224804
9158 0.450738217055
9159 0.505197007749
9160 -1.42302065009
9161 0.729552638467
9162 0.69346801162
9163 -1.25662421749
9164 0.648882240652
9165 0.607741976838
9166 -1.01659510615
9167 0.517729892596
9168 0.498865213552
9169 -1.02130468767
9170 0.589322071732
9171 0.431982615934
9172 -1.09238316433
9173 0.544733396547
9174 0.547649767783
9175 -1.09648144284
9176 0.543248116864
9177 0.553233325971
9178 -1.0140244291
9179 0.479416300726
9180 0.534608128377
9181 -1.19638441423
9182 0.618424131792
9183 0.577960282434
9184 -1.21116462176
9185 0.660990469653
9186 0.550174152108
9187 -1.23532484329
9188 0.537148539833
9189 0.698176303454
9190 -1.28561041522
9191 0.597506614318
9192 0.688103800906
9193 -0.971217993035
9194 0.540781423776
9195 0.430436569259
9196 -1.08700695519
9197 0.561538670156
9198 0.525468285033
9199 -1.09388010049
9200 0.58974608523
9201 0.50413401526
9202 -0.979202347879
9203 0.48562860038
9204 0.493573747499
9205 -1.09744114768
9206 0.541064013664
9207 0.556377134021
9208 -1.13347555485
9209 0.483446642426
9210 0.650028912429
9211 -1.03775451158
9212 0.54476578884
9213 0.492988722741
9214 -1.08967832185
9215 0.531958718632
9216 0.557719603216
9217 -1.23388411427
9218 0.549903747526
9219 0.683980366739
9220 -1.18268523073
9221 0.647946219297
9222 0.534739011432
9223 -1.22414529275
9224 0.539119751576
9225 0.685025541169
9226 -1.04079953252
9227 0.526392358904
9228 0.51440717362
9229 -0.954060843584
9230 0.484340826609
9231 0.469720016975
9232 -1.28768776444
9233 0.697358417998
9234 0.590329346444
9235 -1.14814865247
9236 0.531786039575
9237 0.616362612891
9238 -0.969696017542
9239 0.546595060663
9240 0.423100956879
9241 -1.18471429275
9242 0.550573133716
9243 0.634141159032
9244 -1.09182473391
9245 0.5424690094
9246 0.549355724513
9247 -1.30298015048
9248 0.634038598869
9249 0.668941551612
9250 -1.17948239053
9251 0.673440634576
9252 0.50604175595
9253 -1.36659458471
9254 0.689426530669
9255 0.67716805404
9256 -1.07195047233
9257 0.487674406205
9258 0.584276066123
9259 -1.01178953578
9260 0.461935453591
9261 0.549854082191
9262 -1.08400570745
9263 0.552938474586
9264 0.531067232863
9265 -0.988346438978
9266 0.485680404783
9267 0.502666034195
9268 -1.16950095632
9269 0.527872129208
9270 0.641628827109
9271 -1.0614065645
9272 0.567121432051
9273 0.494285132453
9274 -1.01826324187
9275 0.469361888108
9276 0.548901353764
9277 -1.31384115055
9278 0.662470243584
9279 0.651370906965
9280 -1.12077453633
9281 0.612232967654
9282 0.508541568681
9283 -1.17143217384
9284 0.57419428605
9285 0.597237887792
9286 -1.25219453167
9287 0.609451636746
9288 0.642742894921
9289 -0.911606109415
9290 0.460814191686
9291 0.450791917728
9292 -1.20656117048
9293 0.530058530577
9294 0.676502639899
9295 -0.93240521042
9296 0.545731382549
9297 0.386673827871
9298 -1.05572004779
9299 0.517450660485
9300 0.538269387301
9301 -1.03832093267
9302 0.594237346256
9303 0.444083586417
9304 -1.16994108646
9305 0.682757204418
9306 0.48718388204
9307 -1.07600858109
9308 0.514461657694
9309 0.561546923401
9310 -1.20584841393
9311 0.564881249382
9312 0.640967164544
9313 -1.29076612677
9314 0.600361881091
9315 0.690404245675
9316 -1.19741948063
9317 0.542618359459
9318 0.654801121176
9319 -1.07071561642
9320 0.537007568508
9321 0.53370804791
9322 -0.888345118645
9323 0.440041002189
9324 0.448304116457
9325 -1.09054751286
9326 0.568609906701
9327 0.521937606157
9328 -1.02483956237
9329 0.488600145116
9330 0.536239417255
9331 -0.911227938957
9332 0.492881363875
9333 0.418346575083
9334 -1.22970751902
9335 0.56299555762
9336 0.666711961404
9337 -1.10681446133
9338 0.538193985713
9339 0.568620475612
9340 -1.05874264424
9341 0.50287980263
9342 0.555862841611
9343 -1.263637311
9344 0.674812420789
9345 0.588824890214
9346 -0.98066869142
9347 0.498950539821
9348 0.481718151599
9349 -1.18112304756
9350 0.577087045145
9351 0.604036002418
9352 -1.04861612424
9353 0.529307061186
9354 0.519309063059
9355 -1.10237386841
9356 0.497581022318
9357 0.604792846091
9358 -0.975300375062
9359 0.401447180757
9360 0.573853194306
9361 -1.23994871198
9362 0.677165697384
9363 0.562783014592
9364 -1.15633137126
9365 0.528096838692
9366 0.628234532568
9367 -0.922426581029
9368 0.54721792191
9369 0.375208659119
9370 -1.17302095773
9371 0.585724705105
9372 0.587296252624
9373 -1.22053014778
9374 0.680730380203
9375 0.53979976758
9376 -1.23505647739
9377 0.591149778554
9378 0.643906698836
9379 -1.06887837596
9380 0.532692903712
9381 0.53618547225
9382 -1.03750125327
9383 0.505135266288
9384 0.532365986985
9385 -1.19299887268
9386 0.624687678963
9387 0.568311193718
9388 -1.14334213984
9389 0.540865616285
9390 0.602476523553
9391 -1.35838872161
9392 0.705308070894
9393 0.653080650718
9394 -1.15192124949
9395 0.58268926384
9396 0.569231985649
9397 -1.15415253813
9398 0.445244137422
9399 0.708908400707
9400 -1.25580925374
9401 0.702936103047
9402 0.552873150697
9403 -1.0282276497
9404 0.526670215518
9405 0.50155743418
9406 -1.08951660957
9407 0.486757041061
9408 0.602759568512
9409 -1.22329702877
9410 0.609775066991
9411 0.613521961775
9412 -1.08693683633
9413 0.517424886181
9414 0.569511950149
9415 -1.37108076862
9416 0.677295494133
9417 0.693785274489
9418 -1.10923909234
9419 0.528033865716
9420 0.58120522662
9421 -1.01957851759
9422 0.478636751238
9423 0.540941766351
9424 -1.12716556146
9425 0.49459610569
9426 0.632569455771
9427 -1.01407616778
9428 0.462143231625
9429 0.551932936156
9430 -0.947627331643
9431 0.437379345484
9432 0.510247986159
9433 -0.901424747919
9434 0.437775539695
9435 0.463649208224
9436 -1.19435065824
9437 0.550964069844
9438 0.6433865884
9439 -1.16943502126
9440 0.538962530085
9441 0.630472491179
9442 -1.08054680695
9443 0.502219738304
9444 0.578327068644
9445 -1.19684544947
9446 0.619006964426
9447 0.57783848504
9448 -1.00490638301
9449 0.512763116598
9450 0.492143266415
9451 -1.07493821126
9452 0.479112978977
9453 0.595825232281
9454 -0.955787618117
9455 0.469796386733
9456 0.485991231384
9457 -1.44708374643
9458 0.737531680151
9459 0.709552066276
9460 -1.20528898297
9461 0.560105072349
9462 0.645183910617
9463 -1.05186162382
9464 0.537778119308
9465 0.514083504512
9466 -1.20473716401
9467 0.517894902472
9468 0.686842261538
9469 -1.197780799
9470 0.622004264868
9471 0.575776534128
9472 -1.30108097251
9473 0.691477861282
9474 0.60960311123
9475 -1.09468618834
9476 0.516754399754
9477 0.577931788588
9478 -1.11409826309
9479 0.589100429208
9480 0.524997833879
9481 -1.20501343952
9482 0.544336945259
9483 0.660676494257
9484 -0.958812759796
9485 0.537392234545
9486 0.421420525251
9487 -1.06059060752
9488 0.505577069158
9489 0.55501353836
9490 -1.29586837537
9491 0.676200736234
9492 0.619667639133
9493 -1.05743426592
9494 0.611106318727
9495 0.446327947196
9496 -0.89674834007
9497 0.445175836914
9498 0.451572503156
9499 -1.08128267917
9500 0.532864406247
9501 0.548418272927
9502 -1.19053774986
9503 0.581815135078
9504 0.608722614784
9505 -1.21930180383
9506 0.579007535068
9507 0.64029426876
9508 -1.10193267982
9509 0.586218248211
9510 0.515714431606
9511 -1.0483206388
9512 0.59081683457
9513 0.457503804232
9514 -1.18019740142
9515 0.584318652986
9516 0.595878748435
9517 -1.07426722254
9518 0.493938807818
9519 0.58032841472
9520 -0.992083849889
9521 0.540619217526
9522 0.451464632362
9523 -1.38607342936
9524 0.658698980704
9525 0.727374448659
9526 -1.2435981595
9527 0.671974704345
9528 0.571623455151
9529 -1.20320490235
9530 0.614863867218
9531 0.588341035134
9532 -1.09017309909
9533 0.545784853949
9534 0.54438824514
9535 -1.3225561466
9536 0.579246953682
9537 0.743309192918
9538 -1.23993356549
9539 0.61530004939
9540 0.6246335161
9541 -0.991539956141
9542 0.49442428413
9543 0.497115672012
9544 -1.01379754764
9545 0.498255414133
9546 0.515542133511
9547 -1.19806217987
9548 0.592585821891
9549 0.605476357977
9550 -1.20221205698
9551 0.624168244739
9552 0.578043812243
9553 -1.07953684016
9554 0.595752850851
9555 0.483783989305
9556 -1.24951699937
9557 0.651052826235
9558 0.598464173131
9559 -1.10423683981
9560 0.61717733172
9561 0.487059508088
9562 -1.06245959974
9563 0.654818511472
9564 0.407641088264
9565 -1.18708095334
9566 0.529231066214
9567 0.657849887124
9568 -1.21134313805
9569 0.56440254399
9570 0.64694059406
9571 -1.41479008762
9572 0.685601543652
9573 0.729188543973
9574 -1.01206072403
9575 0.547696027118
9576 0.464364696914
9577 -1.06440527066
9578 0.468564924103
9579 0.595840346553
9580 -1.13361318396
9581 0.648242855934
9582 0.485370328026
9583 -0.969505481622
9584 0.465761432617
9585 0.503744049004
9586 -1.37239034692
9587 0.683703679321
9588 0.688686667594
9589 -1.36760132268
9590 0.708395012445
9591 0.659206310238
9592 -1.06980126363
9593 0.477658217106
9594 0.592143046522
9595 -1.22303963499
9596 0.578323459962
9597 0.644716175028
9598 -1.10880055479
9599 0.51805941049
9600 0.590741144299
9601 -0.908492475319
9602 0.448634459852
9603 0.459858015468
9604 -0.913568986062
9605 0.481830226335
9606 0.431738759727
9607 -1.03301709464
9608 0.456437977824
9609 0.576579116814
9610 -1.18494977232
9611 0.516075040157
9612 0.668874732165
9613 -1.09250980232
9614 0.594062735712
9615 0.498447066608
9616 -1.02715346141
9617 0.567613872681
9618 0.459539588726
9619 -1.14366402065
9620 0.608521139127
9621 0.53514288152
9622 -1.31295009964
9623 0.658113154717
9624 0.654836944919
9625 -1.05041607658
9626 0.504204186344
9627 0.546211890234
9628 -1.20433419488
9629 0.618997409197
9630 0.585336785679
9631 -0.977375448199
9632 0.551400691452
9633 0.425974756747
9634 -1.12835592396
9635 0.586216490923
9636 0.542139433036
9637 -1.00581088124
9638 0.580117016742
9639 0.425693864494
9640 -1.22614412907
9641 0.604872200723
9642 0.621271928345
9643 -1.20473824784
9644 0.564913012982
9645 0.639825234862
9646 -1.00912481731
9647 0.546671358417
9648 0.462453458889
9649 -1.03756689584
9650 0.555248588544
9651 0.482318307291
9652 -1.22440227225
9653 0.54397549667
9654 0.680426775582
9655 -1.11475070152
9656 0.493806461457
9657 0.620944240068
9658 -0.895960893001
9659 0.476247151656
9660 0.419713741345
9661 -1.1282228928
9662 0.444628409312
9663 0.683594483492
9664 -1.0572053907
9665 0.503914124911
9666 0.553291265793
9667 -1.14577452508
9668 0.572535243486
9669 0.573239281594
9670 -1.32429391166
9671 0.580627578048
9672 0.743666333611
9673 -1.40832947746
9674 0.633468534288
9675 0.774860943171
9676 -1.02481738952
9677 0.528605875868
9678 0.496211513657
9679 -1.2015511696
9680 0.620913390132
9681 0.580637779469
9682 -1.13464581876
9683 0.550238104353
9684 0.584407714404
9685 -1.30906778347
9686 0.690162697207
9687 0.618905086264
9688 -1.03805015593
9689 0.659225031679
9690 0.378825124252
9691 -1.00629359569
9692 0.49809188659
9693 0.508201709104
9694 -1.14223018149
9695 0.612775610803
9696 0.529454570688
9697 -1.05133901656
9698 0.51613285265
9699 0.535206163911
9700 -1.14944719427
9701 0.499890918961
9702 0.64955627531
9703 -1.14649560637
9704 0.569597730048
9705 0.576897876323
9706 -1.06362327327
9707 0.588262913988
9708 0.475360359283
9709 -1.29098078463
9710 0.745496183994
9711 0.545484600636
9712 -1.16017558035
9713 0.668918730198
9714 0.491256850152
9715 -1.01254093108
9716 0.539375656559
9717 0.473165274523
9718 -0.869581276837
9719 0.397028498504
9720 0.472552778333
9721 -1.22143217391
9722 0.554044509618
9723 0.667387664293
9724 -0.924941916979
9725 0.486017763173
9726 0.438924153805
9727 -1.32182947607
9728 0.626535645932
9729 0.695293830138
9730 -1.17463258693
9731 0.59341171036
9732 0.581220876569
9733 -0.892945918355
9734 0.420878983575
9735 0.472066934781
9736 -1.13167421877
9737 0.635025511586
9738 0.496648707189
9739 -1.11052173207
9740 0.602443832622
9741 0.508077899448
9742 -1.28055016411
9743 0.679946894711
9744 0.600603269398
9745 -1.13339591931
9746 0.480003373835
9747 0.653392545476
9748 -1.12075971645
9749 0.610439665509
9750 0.510320050938
9751 -1.06385371512
9752 0.511615325712
9753 0.552238389412
9754 -1.26036668786
9755 0.656662484144
9756 0.603704203711
9757 -1.08050602955
9758 0.556800030043
9759 0.523705999504
9760 -1.02238655561
9761 0.425487290016
9762 0.596899265591
9763 -0.928616545554
9764 0.510969929477
9765 0.417646616077
9766 -1.07092350817
9767 0.526673170352
9768 0.544250337817
9769 -1.22523971257
9770 0.590473604764
9771 0.634766107809
9772 -1.17184429495
9773 0.566673619612
9774 0.605170675334
9775 -1.15272515548
9776 0.569910723129
9777 0.582814432353
9778 -1.00494806663
9779 0.525436841453
9780 0.47951122518
9781 -1.27437498475
9782 0.782456770231
9783 0.49191821452
9784 -1.0246875573
9785 0.471479706582
9786 0.553207850714
9787 -1.13696028159
9788 0.53332280266
9789 0.603637478928
9790 -1.00528721161
9791 0.530488419684
9792 0.474798791927
9793 -1.26264183363
9794 0.561098990531
9795 0.701542843097
9796 -1.13486724929
9797 0.582227102203
9798 0.552640147085
9799 -1.03669909221
9800 0.480153424465
9801 0.556545667742
9802 -1.0545509274
9803 0.507978436225
9804 0.546572491175
9805 -1.20423156163
9806 0.614974280228
9807 0.589257281398
9808 -0.985130500701
9809 0.481782642221
9810 0.50334785848
9811 -1.08261986573
9812 0.657540593949
9813 0.425079271785
9814 -1.09765180139
9815 0.62645826436
9816 0.471193537025
9817 -0.861297817166
9818 0.419205401454
9819 0.442092415712
9820 -1.25813073544
9821 0.636175457811
9822 0.621955277626
9823 -1.12487420932
9824 0.594827494952
9825 0.530046714366
9826 -1.35379857746
9827 0.688418730244
9828 0.665379847217
9829 -1.10286422748
9830 0.444594772109
9831 0.658269455373
9832 -1.20268498466
9833 0.658317523419
9834 0.544367461242
9835 -1.12358639488
9836 0.560765494
9837 0.562820900877
9838 -1.08700289106
9839 0.519017605953
9840 0.567985285106
9841 -0.992626205971
9842 0.520227003813
9843 0.472399202158
9844 -1.23896813453
9845 0.7792387658
9846 0.459729368729
9847 -1.02322170896
9848 0.586312364696
9849 0.436909344261
9850 -1.09942710477
9851 0.502865827448
9852 0.596561277325
9853 -1.08257619225
9854 0.490253448441
9855 0.592322743814
9856 -1.06130247266
9857 0.542475442354
9858 0.518827030304
9859 -1.01730443722
9860 0.542270733873
9861 0.475033703343
9862 -1.17359428505
9863 0.579000063046
9864 0.594594222003
9865 -1.12691675594
9866 0.615229870897
9867 0.511686885043
9868 -1.23994861467
9869 0.567554676205
9870 0.672393938469
9871 -1.10196630659
9872 0.537415604537
9873 0.56455070205
9874 -1.07461001598
9875 0.49094095213
9876 0.583669063848
9877 -1.09772861468
9878 0.555111188249
9879 0.542617426433
9880 -1.11162017261
9881 0.586212325386
9882 0.525407847222
9883 -1.32830093372
9884 0.705983844451
9885 0.622317089265
9886 -1.08962900588
9887 0.541057576633
9888 0.548571429242
9889 -1.19281888806
9890 0.571518529981
9891 0.621300358083
9892 -1.12202510342
9893 0.540253074761
9894 0.581772028663
9895 -1.0641063019
9896 0.615997159802
9897 0.448109142098
9898 -1.05608951274
9899 0.522193395456
9900 0.53389611728
9901 -0.956141238309
9902 0.507326326457
9903 0.448814911852
9904 -1.06430726356
9905 0.538817666582
9906 0.525489596982
9907 -1.16891983932
9908 0.671288741112
9909 0.49763109821
9910 -1.0678340376
9911 0.536703469763
9912 0.531130567841
9913 -1.1046569268
9914 0.534739910603
9915 0.569917016194
9916 -1.41428081606
9917 0.759837553491
9918 0.654443262568
9919 -1.35694584104
9920 0.632192634854
9921 0.724753206183
9922 -1.18734317319
9923 0.59473844904
9924 0.592604724153
9925 -1.05082120565
9926 0.422061350767
9927 0.628759854887
9928 -1.16675255879
9929 0.647737959469
9930 0.519014599323
9931 -1.3191238624
9932 0.671956197626
9933 0.647167664774
9934 -0.98158949109
9935 0.563671586331
9936 0.417917904759
9937 -1.35354512194
9938 0.644160609076
9939 0.709384512863
9940 -1.03906872038
9941 0.531445828241
9942 0.507622892135
9943 -1.21320056297
9944 0.455361640185
9945 0.757838922789
9946 -1.06199370518
9947 0.636214975406
9948 0.425778729778
9949 -1.09399914797
9950 0.578312945643
9951 0.515686202324
9952 -1.04398365745
9953 0.502558278054
9954 0.541425379396
9955 -1.34325781007
9956 0.771910990476
9957 0.571346819597
9958 -1.04712033567
9959 0.560440735017
9960 0.486679600654
9961 -1.11722820594
9962 0.456093522049
9963 0.661134683896
9964 -1.06460845304
9965 0.502196227701
9966 0.562412225344
9967 -1.01772084056
9968 0.460134953151
9969 0.557585887414
9970 -1.02414477994
9971 0.51059756276
9972 0.513547217176
9973 -0.980953869262
9974 0.507572965626
9975 0.473380903636
9976 -1.16318638928
9977 0.483455725409
9978 0.679730663869
9979 -1.10947195039
9980 0.613626113826
9981 0.495845836568
9982 -1.20642363187
9983 0.59203291718
9984 0.614390714693
9985 -1.24331002546
9986 0.555992416348
9987 0.687317609116
9988 -1.18913733536
9989 0.571846611162
9990 0.6172907242
9991 -1.05483745854
9992 0.545320739328
9993 0.509516719207
9994 -0.948196701919
9995 0.444637870364
9996 0.503558831555
9997 -1.1642891016
9998 0.638011350971
9999 0.526277750624
10000 -1.20666558421
10001 0.577328353231
10002 0.629337230982
10003 -1.38320541955
10004 0.694163744257
10005 0.689041675296
10006 -1.10214540433
10007 0.584828802914
10008 0.517316601414
10009 -0.964475739443
10010 0.497644199984
10011 0.466831539459
10012 -1.04662781596
10013 0.519364189833
10014 0.52726362613
10015 -1.13628254222
10016 0.54430193323
10017 0.591980608991
10018 -1.27720664495
10019 0.643346295896
10020 0.633860349052
10021 -1.07135424342
10022 0.540341901122
10023 0.531012342295
10024 -1.13799593769
10025 0.638137650034
10026 0.499858287656
10027 -1.20355816996
10028 0.54718447696
10029 0.656373692998
10030 -1.23590534871
10031 0.629231725321
10032 0.606673623392
10033 -1.24430262346
10034 0.564192299995
10035 0.680110323463
10036 -1.14278555697
10037 0.520120286906
10038 0.622665270064
10039 -1.13045670805
10040 0.618446091263
10041 0.512010616787
10042 -1.12012378811
10043 0.464299772393
10044 0.655824015717
10045 -1.11179001642
10046 0.495006189342
10047 0.616783827078
10048 -1.4303964946
10049 0.815841663693
10050 0.614554830905
10051 -1.03647428473
10052 0.571909361185
10053 0.464564923548
10054 -1.03890504211
10055 0.566590817366
10056 0.472314224746
10057 -1.18422220399
10058 0.651771537194
10059 0.532450666793
10060 -1.19908423834
10061 0.645074692604
10062 0.554009545732
10063 -1.15867809554
10064 0.585569734966
10065 0.573108360577
10066 -1.21647216484
10067 0.643274515979
10068 0.573197648859
10069 -1.1368604644
10070 0.616593666609
10071 0.520266797789
10072 -1.14794066628
10073 0.538316811566
10074 0.609623854714
10075 -1.41055373861
10076 0.692663796984
10077 0.717889941629
10078 -1.12636433938
10079 0.515593426798
10080 0.61077091258
10081 -1.14292017118
10082 0.681652490241
10083 0.461267680936
10084 -1.0707718805
10085 0.510960274122
10086 0.559811606374
10087 -1.30123414545
10088 0.631397625949
10089 0.669836519499
10090 -1.17292246742
10091 0.565528811441
10092 0.607393655976
10093 -1.11457809207
10094 0.569351172763
10095 0.545226919304
10096 -1.1771023114
10097 0.61039004359
10098 0.566712267815
10099 -1.21781426546
10100 0.683970170095
10101 0.533844095366
10102 -0.943167826854
10103 0.442452637611
10104 0.500715189243
10105 -1.06124069724
10106 0.502035857136
10107 0.559204840101
10108 -1.13293542792
10109 0.536623027727
10110 0.596312400194
10111 -1.44191852911
10112 0.683580695044
10113 0.75833783407
10114 -1.22232157774
10115 0.576579133836
10116 0.645742443907
10117 -1.14393716055
10118 0.589779685566
10119 0.554157474986
10120 -0.96624340068
10121 0.493103035696
10122 0.473140364984
10123 -1.14412125812
10124 0.533196804885
10125 0.610924453231
10126 -1.24826095614
10127 0.56524871073
10128 0.683012245406
10129 -0.992463702689
10130 0.511676874176
10131 0.480786828513
10132 -1.04993501438
10133 0.49894677319
10134 0.550988241189
10135 -1.32091156434
10136 0.704655286425
10137 0.616256277917
10138 -0.975327382226
10139 0.41938279307
10140 0.555944589156
10141 -0.986758999584
10142 0.458067318745
10143 0.528691680839
10144 -0.989463910864
10145 0.525605200123
10146 0.463858710742
10147 -1.17178099865
10148 0.555150742466
10149 0.616630256184
10150 -1.05067190278
10151 0.591721415637
10152 0.45895048714
10153 -1.09955236185
10154 0.503864488402
10155 0.595687873452
10156 -1.12468831385
10157 0.596246037488
10158 0.52844227636
10159 -1.028460224
10160 0.592814379549
10161 0.43564584445
10162 -1.19251699437
10163 0.592129770141
10164 0.600387224227
10165 -1.2343687265
10166 0.600575740612
10167 0.633792985887
10168 -1.12740619677
10169 0.569379315457
10170 0.558026881312
10171 -1.18778969786
10172 0.648292339485
10173 0.539497358374
10174 -1.09984466319
10175 0.521615946975
10176 0.578228716213
10177 -1.28470056297
10178 0.535801415861
10179 0.748899147109
10180 -1.214592819
10181 0.60642463804
10182 0.608168180964
10183 -1.11757336944
10184 0.616069734013
10185 0.501503635432
10186 -1.08111315265
10187 0.590844174185
10188 0.490268978462
10189 -0.929303224702
10190 0.445432734986
10191 0.483870489716
10192 -1.09462802346
10193 0.621407517086
10194 0.473220506373
10195 -0.994904165123
10196 0.52903976089
10197 0.465864404233
10198 -1.09912386698
10199 0.606098330752
10200 0.493025536232
10201 -1.19059912338
10202 0.539029492771
10203 0.65156963061
10204 -1.10412951734
10205 0.537197040279
10206 0.566932477065
10207 -1.09807945688
10208 0.583325796597
10209 0.51475366028
10210 -1.04033144431
10211 0.583300701841
10212 0.457030742473
10213 -1.05268511891
10214 0.573009564703
10215 0.479675554209
10216 -0.927527443243
10217 0.510215082713
10218 0.417312360531
10219 -1.25955155725
10220 0.627026895165
10221 0.632524662084
10222 -0.972727848153
10223 0.477443720854
10224 0.4952841273
10225 -1.43837623375
10226 0.712450921285
10227 0.725925312466
10228 -1.04440034008
10229 0.560875496866
10230 0.483524843217
10231 -1.04366779901
10232 0.55896420838
10233 0.484703590634
10234 -1.1236413052
10235 0.588294533533
10236 0.535346771662
10237 -1.0636466086
10238 0.52649210352
10239 0.537154505075
10240 -1.38368399803
10241 0.757382096211
10242 0.626301901817
10243 -1.43814760384
10244 0.743321616777
10245 0.694825987059
10246 -1.15864948488
10247 0.574045039053
10248 0.584604445824
10249 -0.972657628863
10250 0.466602666912
10251 0.506054961951
10252 -0.919441819113
10253 0.429023572976
10254 0.490418246137
10255 -1.21746596231
10256 0.635887594965
10257 0.581578367345
10258 -1.22817363986
10259 0.707016694324
10260 0.521156945538
10261 -1.22652136646
10262 0.566112158811
10263 0.660409207645
10264 -1.16084035346
10265 0.533797848145
10266 0.627042505319
10267 -1.15950813252
10268 0.533717270614
10269 0.625790861908
10270 -1.06047863422
10271 0.518245121467
10272 0.542233512754
10273 -1.06645594648
10274 0.514102397605
10275 0.552353548877
10276 -1.27576981541
10277 0.691470190497
10278 0.58429962491
10279 -1.14558302551
10280 0.470609850537
10281 0.674973174975
10282 -0.987231505481
10283 0.447771448744
10284 0.539460056737
10285 -1.33255923237
10286 0.657079289687
10287 0.675479942684
10288 -1.19197405814
10289 0.584650620548
10290 0.607323437588
10291 -1.44328297083
10292 0.631508143747
10293 0.81177482708
10294 -0.836742157557
10295 0.379360342081
10296 0.457381815476
10297 -1.04505160873
10298 0.492088873224
10299 0.55296273551
10300 -0.972100944417
10301 0.489917353986
10302 0.482183590431
10303 -1.3200640058
10304 0.624672380673
10305 0.69539162513
10306 -1.33700624949
10307 0.621770316763
10308 0.715235932728
10309 -1.08800746525
10310 0.591843710425
10311 0.496163754827
10312 -1.2091493114
10313 0.614304343491
10314 0.59484496791
10315 -1.06930781902
10316 0.620285100262
10317 0.449022718753
10318 -1.36849478098
10319 0.624899144254
10320 0.743595636728
10321 -1.2415935916
10322 0.664050833156
10323 0.577542758445
10324 -1.16357145824
10325 0.658765358708
10326 0.504806099528
10327 -1.14058155623
10328 0.582223508149
10329 0.558358048083
10330 -0.965840323834
10331 0.492482039278
10332 0.473358284556
10333 -1.30285145372
10334 0.664104344188
10335 0.638747109535
10336 -1.33504060444
10337 0.677343352443
10338 0.657697252002
10339 -1.04476247772
10340 0.49270017691
10341 0.552062300814
10342 -0.991884828784
10343 0.527858510763
10344 0.464026318021
10345 -1.0440298974
10346 0.494997295209
10347 0.549032602194
10348 -1.15869331856
10349 0.595817642598
10350 0.562875675966
10351 -0.920677611156
10352 0.499966529824
10353 0.420711081332
10354 -1.15575202101
10355 0.498358045684
10356 0.657393975326
10357 -1.33030060971
10358 0.630690451217
10359 0.699610158494
10360 -1.16811513262
10361 0.609202284627
10362 0.558912847992
10363 -1.02017178426
10364 0.542400578804
10365 0.477771205461
10366 -1.25293307711
10367 0.656645937958
10368 0.596287139149
10369 -1.01225115193
10370 0.534042128761
10371 0.478209023173
10372 -1.11459463351
10373 0.5511119577
10374 0.563482675807
10375 -1.01960788247
10376 0.435302020936
10377 0.584305861539
10378 -1.16706864241
10379 0.611819791394
10380 0.555248851017
10381 -1.05431934975
10382 0.49691504156
10383 0.557404308187
10384 -0.851560207992
10385 0.469117393224
10386 0.382442814768
10387 -0.971214030122
10388 0.505890221108
10389 0.465323809014
10390 -0.780948274473
10391 0.396229785992
10392 0.384718488482
10393 -0.959198823972
10394 0.469160357064
10395 0.490038466907
10396 -1.02489191194
10397 0.487666500006
10398 0.53722541193
10399 -1.14475889372
10400 0.678314197792
10401 0.466444695931
10402 -0.958271256659
10403 0.373595269489
10404 0.58467598717
10405 -1.1534424448
10406 0.523682250639
10407 0.629760194162
10408 -1.15845877877
10409 0.52841592727
10410 0.630042851503
10411 -1.16492767606
10412 0.626819586333
10413 0.538108089732
10414 -0.897011163663
10415 0.4859891609
10416 0.411022002762
10417 -1.06051466799
10418 0.558675840163
10419 0.501838827825
10420 -0.879079776467
10421 0.484238947612
10422 0.394840828854
10423 -1.30198577177
10424 0.738013334683
10425 0.563972437084
10426 -1.23467963973
10427 0.64086104302
10428 0.593818596713
10429 -1.13353436621
10430 0.597936949021
10431 0.535597417185
10432 -1.20314604595
10433 0.605296681834
10434 0.597849364114
10435 -1.00018399546
10436 0.493233203706
10437 0.506950791749
10438 -1.04090638129
10439 0.473007850981
10440 0.567898530307
10441 -1.06880411255
10442 0.510194987195
10443 0.558609125359
10444 -1.03730489625
10445 0.541196709957
10446 0.496108186297
10447 -1.03442989227
10448 0.483235969883
10449 0.551193922392
10450 -1.10251427075
10451 0.450932274264
10452 0.651581996485
10453 -1.13385107681
10454 0.556632969029
10455 0.577218107779
10456 -1.07853084684
10457 0.406961573733
10458 0.67156927311
10459 -1.05247464943
10460 0.453864176752
10461 0.598610472677
10462 -1.09366385183
10463 0.516948080232
10464 0.576715771598
10465 -0.913759008855
10466 0.474717517668
10467 0.439041491187
10468 -1.10554738017
10469 0.51369672127
10470 0.591850658896
10471 -1.13523787934
10472 0.588860451086
10473 0.546377428258
10474 -1.10281952611
10475 0.524966510861
10476 0.577853015251
10477 -1.16189541987
10478 0.559624185032
10479 0.602271234838
10480 -1.2228498377
10481 0.668627223031
10482 0.554222614673
10483 -1.22098704265
10484 0.619086627095
10485 0.601900415556
10486 -1.16967440541
10487 0.544368563248
10488 0.625305842164
10489 -1.24593279297
10490 0.647031484856
10491 0.598901308109
10492 -1.11042573174
10493 0.535479263685
10494 0.574946468054
10495 -1.2921284049
10496 0.627627056138
10497 0.664501348767
10498 -1.26299375046
10499 0.585828591999
10500 0.677165158463
10501 -1.18578673063
10502 0.660490459861
10503 0.525296270767
10504 -1.08249454928
10505 0.531211212247
10506 0.551283337031
10507 -1.19306850965
10508 0.644182286401
10509 0.54888622325
10510 -1.38470000694
10511 0.693155083238
10512 0.691544923702
10513 -1.08486852219
10514 0.618188394626
10515 0.466680127568
10516 -1.0866281319
10517 0.59396091741
10518 0.492667214494
10519 -0.976064816936
10520 0.567180419972
10521 0.408884396963
10522 -0.881527241805
10523 0.469492906593
10524 0.412034335212
10525 -1.27597275589
10526 0.640833662488
10527 0.6351390934
10528 -1.2221325512
10529 0.537494031482
10530 0.684638519716
10531 -1.1831561209
10532 0.639950206955
10533 0.543205913947
10534 -1.34896991943
10535 0.648718089502
10536 0.700251829929
10537 -1.18203048608
10538 0.576781153603
10539 0.605249332477
10540 -1.03916145114
10541 0.624130653526
10542 0.415030797618
10543 -1.06541083916
10544 0.493835087622
10545 0.571575751537
10546 -0.982141557496
10547 0.559648711742
10548 0.422492845754
10549 -1.22473722414
10550 0.656599457943
10551 0.568137766196
10552 -0.949150779335
10553 0.495747287023
10554 0.453403492312
10555 -1.15594520175
10556 0.572763222092
10557 0.583181979654
10558 -1.04325267925
10559 0.557331824671
10560 0.485920854575
10561 -1.11047315152
10562 0.595720202938
10563 0.514752948582
10564 -1.0175384217
10565 0.474343178921
10566 0.543195242781
10567 -1.3660371753
10568 0.61399253076
10569 0.752044644536
10570 -1.26768409459
10571 0.579783963118
10572 0.687900131468
10573 -1.01719427029
10574 0.489178532623
10575 0.528015737667
10576 -1.0702052609
10577 0.493631360451
10578 0.576573900447
10579 -0.86804165226
10580 0.442510109088
10581 0.425531543172
10582 -0.866511468359
10583 0.391466570961
10584 0.475044897398
10585 -1.0263273089
10586 0.520533174889
10587 0.505794134012
10588 -1.05239673422
10589 0.478008893999
10590 0.574387840221
10591 -1.20176318428
10592 0.562893007526
10593 0.638870176749
10594 -1.09583304666
10595 0.616343423099
10596 0.479489623556
10597 -1.09645053907
10598 0.558444942105
10599 0.538005596968
10600 -1.03788042799
10601 0.450896289482
10602 0.586984138508
10603 -1.1909198936
10604 0.624146608774
10605 0.56677328483
10606 -1.19059527083
10607 0.595934142984
10608 0.59466112785
10609 -1.15012241295
10610 0.597475731499
10611 0.552646681453
10612 -0.970496159381
10613 0.439294269996
10614 0.531201889385
10615 -0.919455158459
10616 0.460598403675
10617 0.458856754784
10618 -0.988274159552
10619 0.477052968065
10620 0.511221191487
10621 -1.12465253331
10622 0.55091587387
10623 0.573736659438
10624 -1.10614332908
10625 0.533578290662
10626 0.572565038418
10627 -1.19773952104
10628 0.683450583405
10629 0.514288937637
10630 -1.06819757287
10631 0.591164812026
10632 0.477032760841
10633 -1.14130736912
10634 0.513664594664
10635 0.62764277446
10636 -1.141881063
10637 0.58021285112
10638 0.561668211881
10639 -1.08794238558
10640 0.560083565662
10641 0.527858819921
10642 -0.997457794676
10643 0.474521398763
10644 0.522936395913
10645 -1.31716191368
10646 0.68650985713
10647 0.630652056545
10648 -1.06850176919
10649 0.44092444702
10650 0.627577322171
10651 -1.22192475201
10652 0.63590180152
10653 0.586022950487
10654 -1.09121776049
10655 0.604492590449
10656 0.486725170043
10657 -1.23220025971
10658 0.615842216251
10659 0.616358043459
10660 -1.20603133446
10661 0.610003965089
10662 0.596027369374
10663 -1.05029978561
10664 0.64366814124
10665 0.406631644369
10666 -1.0925202333
10667 0.50797507438
10668 0.584545158923
10669 -1.08082701135
10670 0.50017420305
10671 0.580652808303
10672 -0.852276171301
10673 0.423742909261
10674 0.42853326204
10675 -1.38753324078
10676 0.711706747039
10677 0.675826493736
10678 -1.10378238838
10679 0.565823572921
10680 0.537958815462
10681 -1.06851937792
10682 0.548904137422
10683 0.519615240499
10684 -0.99697106301
10685 0.474182454639
10686 0.522788608371
10687 -1.27307587273
10688 0.626105870269
10689 0.646970002465
10690 -1.33417467637
10691 0.697048440606
10692 0.637126235768
10693 -0.955935224804
10694 0.450738217055
10695 0.505197007749
10696 -1.42302065009
10697 0.729552638467
10698 0.69346801162
10699 -1.25662421749
10700 0.648882240652
10701 0.607741976838
10702 -1.01659510615
10703 0.517729892596
10704 0.498865213552
10705 -1.02130468767
10706 0.589322071732
10707 0.431982615934
10708 -1.09238316433
10709 0.544733396547
10710 0.547649767783
10711 -1.09648144284
10712 0.543248116864
10713 0.553233325971
10714 -1.0140244291
10715 0.479416300726
10716 0.534608128377
10717 -1.19638441423
10718 0.618424131792
10719 0.577960282434
10720 -1.21116462176
10721 0.660990469653
10722 0.550174152108
10723 -1.23532484329
10724 0.537148539833
10725 0.698176303454
10726 -1.28561041522
10727 0.597506614318
10728 0.688103800906
10729 -0.971217993035
10730 0.540781423776
10731 0.430436569259
10732 -1.08700695519
10733 0.561538670156
10734 0.525468285033
10735 -1.09388010049
10736 0.58974608523
10737 0.50413401526
10738 -0.979202347879
10739 0.48562860038
10740 0.493573747499
10741 -1.09744114768
10742 0.541064013664
10743 0.556377134021
10744 -1.13347555485
10745 0.483446642426
10746 0.650028912429
10747 -1.03775451158
10748 0.54476578884
10749 0.492988722741
10750 -1.08967832185
10751 0.531958718632
10752 0.557719603216
10753 -1.23388411427
10754 0.549903747526
10755 0.683980366739
10756 -1.18268523073
10757 0.647946219297
10758 0.534739011432
10759 -1.22414529275
10760 0.539119751576
10761 0.685025541169
10762 -1.04079953252
10763 0.526392358904
10764 0.51440717362
10765 -0.954060843584
10766 0.484340826609
10767 0.469720016975
10768 -1.28768776444
10769 0.697358417998
10770 0.590329346444
10771 -1.14814865247
10772 0.531786039575
10773 0.616362612891
10774 -0.969696017542
10775 0.546595060663
10776 0.423100956879
10777 -1.18471429275
10778 0.550573133716
10779 0.634141159032
10780 -1.09182473391
10781 0.5424690094
10782 0.549355724513
10783 -1.30298015048
10784 0.634038598869
10785 0.668941551612
10786 -1.17948239053
10787 0.673440634576
10788 0.50604175595
10789 -1.36659458471
10790 0.689426530669
10791 0.67716805404
10792 -1.07195047233
10793 0.487674406205
10794 0.584276066123
10795 -1.01178953578
10796 0.461935453591
10797 0.549854082191
10798 -1.08400570745
10799 0.552938474586
10800 0.531067232863
10801 -0.988346438978
10802 0.485680404783
10803 0.502666034195
10804 -1.16950095632
10805 0.527872129208
10806 0.641628827109
10807 -1.0614065645
10808 0.567121432051
10809 0.494285132453
10810 -1.01826324187
10811 0.469361888108
10812 0.548901353764
10813 -1.31384115055
10814 0.662470243584
10815 0.651370906965
10816 -1.12077453633
10817 0.612232967654
10818 0.508541568681
10819 -1.17143217384
10820 0.57419428605
10821 0.597237887792
10822 -1.25219453167
10823 0.609451636746
10824 0.642742894921
10825 -0.911606109415
10826 0.460814191686
10827 0.450791917728
10828 -1.20656117048
10829 0.530058530577
10830 0.676502639899
10831 -0.93240521042
10832 0.545731382549
10833 0.386673827871
10834 -1.05572004779
10835 0.517450660485
10836 0.538269387301
10837 -1.03832093267
10838 0.594237346256
10839 0.444083586417
10840 -1.16994108646
10841 0.682757204418
10842 0.48718388204
10843 -1.07600858109
10844 0.514461657694
10845 0.561546923401
10846 -1.20584841393
10847 0.564881249382
10848 0.640967164544
10849 -1.29076612677
10850 0.600361881091
10851 0.690404245675
10852 -1.19741948063
10853 0.542618359459
10854 0.654801121176
10855 -1.07071561642
10856 0.537007568508
10857 0.53370804791
10858 -0.888345118645
10859 0.440041002189
10860 0.448304116457
10861 -1.09054751286
10862 0.568609906701
10863 0.521937606157
10864 -1.02483956237
10865 0.488600145116
10866 0.536239417255
10867 -0.911227938957
10868 0.492881363875
10869 0.418346575083
10870 -1.22970751902
10871 0.56299555762
10872 0.666711961404
10873 -1.10681446133
10874 0.538193985713
10875 0.568620475612
10876 -1.05874264424
10877 0.50287980263
10878 0.555862841611
10879 -1.263637311
10880 0.674812420789
10881 0.588824890214
10882 -0.98066869142
10883 0.498950539821
10884 0.481718151599
10885 -1.18112304756
10886 0.577087045145
10887 0.604036002418
10888 -1.04861612424
10889 0.529307061186
10890 0.519309063059
10891 -1.10237386841
10892 0.497581022318
10893 0.604792846091
10894 -0.975300375062
10895 0.401447180757
10896 0.573853194306
10897 -1.23994871198
10898 0.677165697384
10899 0.562783014592
10900 -1.15633137126
10901 0.528096838692
10902 0.628234532568
10903 -0.922426581029
10904 0.54721792191
10905 0.375208659119
10906 -1.17302095773
10907 0.585724705105
10908 0.587296252624
10909 -1.22053014778
10910 0.680730380203
10911 0.53979976758
10912 -1.23505647739
10913 0.591149778554
10914 0.643906698836
10915 -1.06887837596
10916 0.532692903712
10917 0.53618547225
10918 -1.03750125327
10919 0.505135266288
10920 0.532365986985
10921 -1.19299887268
10922 0.624687678963
10923 0.568311193718
10924 -1.14334213984
10925 0.540865616285
10926 0.602476523553
10927 -1.35838872161
10928 0.705308070894
10929 0.653080650718
10930 -1.15192124949
10931 0.58268926384
10932 0.569231985649
10933 -1.15415253813
10934 0.445244137422
10935 0.708908400707
10936 -1.25580925374
10937 0.702936103047
10938 0.552873150697
10939 -1.0282276497
10940 0.526670215518
10941 0.50155743418
10942 -1.08951660957
10943 0.486757041061
10944 0.602759568512
10945 -1.22329702877
10946 0.609775066991
10947 0.613521961775
10948 -1.08693683633
10949 0.517424886181
10950 0.569511950149
10951 -1.37108076862
10952 0.677295494133
10953 0.693785274489
10954 -1.10923909234
10955 0.528033865716
10956 0.58120522662
10957 -1.01957851759
10958 0.478636751238
10959 0.540941766351
10960 -1.12716556146
10961 0.49459610569
10962 0.632569455771
10963 -1.01407616778
10964 0.462143231625
10965 0.551932936156
10966 -0.947627331643
10967 0.437379345484
10968 0.510247986159
10969 -0.901424747919
10970 0.437775539695
10971 0.463649208224
10972 -1.19435065824
10973 0.550964069844
10974 0.6433865884
10975 -1.16943502126
10976 0.538962530085
10977 0.630472491179
10978 -1.08054680695
10979 0.502219738304
10980 0.578327068644
10981 -1.19684544947
10982 0.619006964426
10983 0.57783848504
10984 -1.00490638301
10985 0.512763116598
10986 0.492143266415
10987 -1.07493821126
10988 0.479112978977
10989 0.595825232281
10990 -0.955787618117
10991 0.469796386733
10992 0.485991231384
10993 -1.44708374643
10994 0.737531680151
10995 0.709552066276
10996 -1.20528898297
10997 0.560105072349
10998 0.645183910617
10999 -1.05186162382
11000 0.537778119308
11001 0.514083504512
11002 -1.20473716401
11003 0.517894902472
11004 0.686842261538
11005 -1.197780799
11006 0.622004264868
11007 0.575776534128
11008 -1.30108097251
11009 0.691477861282
11010 0.60960311123
11011 -1.09468618834
11012 0.516754399754
11013 0.577931788588
11014 -1.11409826309
11015 0.589100429208
11016 0.524997833879
11017 -1.20501343952
11018 0.544336945259
11019 0.660676494257
11020 -0.958812759796
11021 0.537392234545
11022 0.421420525251
11023 -1.06059060752
11024 0.505577069158
11025 0.55501353836
11026 -1.29586837537
11027 0.676200736234
11028 0.619667639133
11029 -1.05743426592
11030 0.611106318727
11031 0.446327947196
11032 -0.89674834007
11033 0.445175836914
11034 0.451572503156
11035 -1.08128267917
11036 0.532864406247
11037 0.548418272927
11038 -1.19053774986
11039 0.581815135078
11040 0.608722614784
11041 -1.21930180383
11042 0.579007535068
11043 0.64029426876
11044 -1.10193267982
11045 0.586218248211
11046 0.515714431606
11047 -1.0483206388
11048 0.59081683457
11049 0.457503804232
11050 -1.18019740142
11051 0.584318652986
11052 0.595878748435
11053 -1.07426722254
11054 0.493938807818
11055 0.58032841472
11056 -0.992083849889
11057 0.540619217526
11058 0.451464632362
11059 -1.38607342936
11060 0.658698980704
11061 0.727374448659
11062 -1.2435981595
11063 0.671974704345
11064 0.571623455151
11065 -1.20320490235
11066 0.614863867218
11067 0.588341035134
11068 -1.09017309909
11069 0.545784853949
11070 0.54438824514
11071 -1.3225561466
11072 0.579246953682
11073 0.743309192918
11074 -1.23993356549
11075 0.61530004939
11076 0.6246335161
11077 -0.991539956141
11078 0.49442428413
11079 0.497115672012
11080 -1.01379754764
11081 0.498255414133
11082 0.515542133511
11083 -1.19806217987
11084 0.592585821891
11085 0.605476357977
11086 -1.20221205698
11087 0.624168244739
11088 0.578043812243
11089 -1.07953684016
11090 0.595752850851
11091 0.483783989305
11092 -1.24951699937
11093 0.651052826235
11094 0.598464173131
11095 -1.10423683981
11096 0.61717733172
11097 0.487059508088
11098 -1.06245959974
11099 0.654818511472
11100 0.407641088264
11101 -1.18708095334
11102 0.529231066214
11103 0.657849887124
11104 -1.21134313805
11105 0.56440254399
11106 0.64694059406
11107 -1.41479008762
11108 0.685601543652
11109 0.729188543973
11110 -1.01206072403
11111 0.547696027118
11112 0.464364696914
11113 -1.06440527066
11114 0.468564924103
11115 0.595840346553
11116 -1.13361318396
11117 0.648242855934
11118 0.485370328026
11119 -0.969505481622
11120 0.465761432617
11121 0.503744049004
11122 -1.37239034692
11123 0.683703679321
11124 0.688686667594
11125 -1.36760132268
11126 0.708395012445
11127 0.659206310238
11128 -1.06980126363
11129 0.477658217106
11130 0.592143046522
11131 -1.22303963499
11132 0.578323459962
11133 0.644716175028
11134 -1.10880055479
11135 0.51805941049
11136 0.590741144299
11137 -0.908492475319
11138 0.448634459852
11139 0.459858015468
11140 -0.913568986062
11141 0.481830226335
11142 0.431738759727
11143 -1.03301709464
11144 0.456437977824
11145 0.576579116814
11146 -1.18494977232
11147 0.516075040157
11148 0.668874732165
11149 -1.09250980232
11150 0.594062735712
11151 0.498447066608
11152 -1.02715346141
11153 0.567613872681
11154 0.459539588726
11155 -1.14366402065
11156 0.608521139127
11157 0.53514288152
11158 -1.31295009964
11159 0.658113154717
11160 0.654836944919
11161 -1.05041607658
11162 0.504204186344
11163 0.546211890234
11164 -1.20433419488
11165 0.618997409197
11166 0.585336785679
11167 -0.977375448199
11168 0.551400691452
11169 0.425974756747
11170 -1.12835592396
11171 0.586216490923
11172 0.542139433036
11173 -1.00581088124
11174 0.580117016742
11175 0.425693864494
11176 -1.22614412907
11177 0.604872200723
11178 0.621271928345
11179 -1.20473824784
11180 0.564913012982
11181 0.639825234862
11182 -1.00912481731
11183 0.546671358417
11184 0.462453458889
11185 -1.03756689584
11186 0.555248588544
11187 0.482318307291
11188 -1.22440227225
11189 0.54397549667
11190 0.680426775582
11191 -1.11475070152
11192 0.493806461457
11193 0.620944240068
11194 -0.895960893001
11195 0.476247151656
11196 0.419713741345
11197 -1.1282228928
11198 0.444628409312
11199 0.683594483492
11200 -1.0572053907
11201 0.503914124911
11202 0.553291265793
11203 -1.14577452508
11204 0.572535243486
11205 0.573239281594
11206 -1.32429391166
11207 0.580627578048
11208 0.743666333611
11209 -1.40832947746
11210 0.633468534288
11211 0.774860943171
11212 -1.02481738952
11213 0.528605875868
11214 0.496211513657
11215 -1.2015511696
11216 0.620913390132
11217 0.580637779469
11218 -1.13464581876
11219 0.550238104353
11220 0.584407714404
11221 -1.30906778347
11222 0.690162697207
11223 0.618905086264
11224 -1.03805015593
11225 0.659225031679
11226 0.378825124252
11227 -1.00629359569
11228 0.49809188659
11229 0.508201709104
11230 -1.14223018149
11231 0.612775610803
11232 0.529454570688
11233 -1.05133901656
11234 0.51613285265
11235 0.535206163911
11236 -1.14944719427
11237 0.499890918961
11238 0.64955627531
11239 -1.14649560637
11240 0.569597730048
11241 0.576897876323
11242 -1.06362327327
11243 0.588262913988
11244 0.475360359283
11245 -1.29098078463
11246 0.745496183994
11247 0.545484600636
11248 -1.16017558035
11249 0.668918730198
11250 0.491256850152
11251 -1.01254093108
11252 0.539375656559
11253 0.473165274523
11254 -0.869581276837
11255 0.397028498504
11256 0.472552778333
11257 -1.22143217391
11258 0.554044509618
11259 0.667387664293
11260 -0.924941916979
11261 0.486017763173
11262 0.438924153805
11263 -1.32182947607
11264 0.626535645932
11265 0.695293830138
11266 -1.17463258693
11267 0.59341171036
11268 0.581220876569
11269 -0.892945918355
11270 0.420878983575
11271 0.472066934781
11272 -1.13167421877
11273 0.635025511586
11274 0.496648707189
11275 -1.11052173207
11276 0.602443832622
11277 0.508077899448
11278 -1.28055016411
11279 0.679946894711
11280 0.600603269398
11281 -1.13339591931
11282 0.480003373835
11283 0.653392545476
11284 -1.12075971645
11285 0.610439665509
11286 0.510320050938
11287 -1.06385371512
11288 0.511615325712
11289 0.552238389412
11290 -1.26036668786
11291 0.656662484144
11292 0.603704203711
11293 -1.08050602955
11294 0.556800030043
11295 0.523705999504
11296 -1.02238655561
11297 0.425487290016
11298 0.596899265591
11299 -0.928616545554
11300 0.510969929477
11301 0.417646616077
11302 -1.07092350817
11303 0.526673170352
11304 0.544250337817
11305 -1.22523971257
11306 0.590473604764
11307 0.634766107809
11308 -1.17184429495
11309 0.566673619612
11310 0.605170675334
11311 -1.15272515548
11312 0.569910723129
11313 0.582814432353
11314 -1.00494806663
11315 0.525436841453
11316 0.47951122518
11317 -1.27437498475
11318 0.782456770231
11319 0.49191821452
11320 -1.0246875573
11321 0.471479706582
11322 0.553207850714
11323 -1.13696028159
11324 0.53332280266
11325 0.603637478928
11326 -1.00528721161
11327 0.530488419684
11328 0.474798791927
11329 -1.26264183363
11330 0.561098990531
11331 0.701542843097
11332 -1.13486724929
11333 0.582227102203
11334 0.552640147085
11335 -1.03669909221
11336 0.480153424465
11337 0.556545667742
11338 -1.0545509274
11339 0.507978436225
11340 0.546572491175
11341 -1.20423156163
11342 0.614974280228
11343 0.589257281398
11344 -0.985130500701
11345 0.481782642221
11346 0.50334785848
11347 -1.08261986573
11348 0.657540593949
11349 0.425079271785
11350 -1.09765180139
11351 0.62645826436
11352 0.471193537025
11353 -0.861297817166
11354 0.419205401454
11355 0.442092415712
11356 -1.25813073544
11357 0.636175457811
11358 0.621955277626
11359 -1.12487420932
11360 0.594827494952
11361 0.530046714366
11362 -1.35379857746
11363 0.688418730244
11364 0.665379847217
11365 -1.10286422748
11366 0.444594772109
11367 0.658269455373
11368 -1.20268498466
11369 0.658317523419
11370 0.544367461242
11371 -1.12358639488
11372 0.560765494
11373 0.562820900877
11374 -1.08700289106
11375 0.519017605953
11376 0.567985285106
11377 -0.992626205971
11378 0.520227003813
11379 0.472399202158
11380 -1.23896813453
11381 0.7792387658
11382 0.459729368729
11383 -1.02322170896
11384 0.586312364696
11385 0.436909344261
11386 -1.09942710477
11387 0.502865827448
11388 0.596561277325
11389 -1.08257619225
11390 0.490253448441
11391 0.592322743814
11392 -1.06130247266
11393 0.542475442354
11394 0.518827030304
11395 -1.01730443722
11396 0.542270733873
11397 0.475033703343
11398 -1.17359428505
11399 0.579000063046
11400 0.594594222003
11401 -1.12691675594
11402 0.615229870897
11403 0.511686885043
11404 -1.23994861467
11405 0.567554676205
11406 0.672393938469
11407 -1.10196630659
11408 0.537415604537
11409 0.56455070205
11410 -1.07461001598
11411 0.49094095213
11412 0.583669063848
11413 -1.09772861468
11414 0.555111188249
11415 0.542617426433
11416 -1.11162017261
11417 0.586212325386
11418 0.525407847222
11419 -1.32830093372
11420 0.705983844451
11421 0.622317089265
11422 -1.08962900588
11423 0.541057576633
11424 0.548571429242
11425 -1.19281888806
11426 0.571518529981
11427 0.621300358083
11428 -1.12202510342
11429 0.540253074761
11430 0.581772028663
11431 -1.0641063019
11432 0.615997159802
11433 0.448109142098
11434 -1.05608951274
11435 0.522193395456
11436 0.53389611728
11437 -0.956141238309
11438 0.507326326457
11439 0.448814911852
11440 -1.06430726356
11441 0.538817666582
11442 0.525489596982
11443 -1.16891983932
11444 0.671288741112
11445 0.49763109821
11446 -1.0678340376
11447 0.536703469763
11448 0.531130567841
11449 -1.1046569268
11450 0.534739910603
11451 0.569917016194
11452 -1.41428081606
11453 0.759837553491
11454 0.654443262568
11455 -1.35694584104
11456 0.632192634854
11457 0.724753206183
11458 -1.18734317319
11459 0.59473844904
11460 0.592604724153
11461 -1.05082120565
11462 0.422061350767
11463 0.628759854887
11464 -1.16675255879
11465 0.647737959469
11466 0.519014599323
11467 -1.3191238624
11468 0.671956197626
11469 0.647167664774
11470 -0.98158949109
11471 0.563671586331
11472 0.417917904759
11473 -1.35354512194
11474 0.644160609076
11475 0.709384512863
11476 -1.03906872038
11477 0.531445828241
11478 0.507622892135
11479 -1.21320056297
11480 0.455361640185
11481 0.757838922789
11482 -1.06199370518
11483 0.636214975406
11484 0.425778729778
11485 -1.09399914797
11486 0.578312945643
11487 0.515686202323
11488 -1.04398365745
11489 0.502558278054
11490 0.541425379396
11491 -1.34325781007
11492 0.771910990476
11493 0.571346819597
11494 -1.04712033567
11495 0.560440735017
11496 0.486679600654
11497 -1.11722820594
11498 0.456093522049
11499 0.661134683896
11500 -1.06460845304
11501 0.502196227701
11502 0.562412225344
11503 -1.01772084056
11504 0.460134953151
11505 0.557585887414
11506 -1.02414477994
11507 0.51059756276
11508 0.513547217176
11509 -0.980953869262
11510 0.507572965626
11511 0.473380903636
11512 -1.16318638928
11513 0.483455725409
11514 0.679730663869
11515 -1.10947195039
11516 0.613626113826
11517 0.495845836568
11518 -1.20642363187
11519 0.59203291718
11520 0.614390714693
11521 -1.24331002546
11522 0.555992416348
11523 0.687317609116
11524 -1.18913733536
11525 0.571846611162
11526 0.6172907242
11527 -1.05483745854
11528 0.545320739328
11529 0.509516719207
11530 -0.948196701919
11531 0.444637870364
11532 0.503558831555
11533 -1.1642891016
11534 0.638011350971
11535 0.526277750624
11536 -1.20666558421
11537 0.577328353231
11538 0.629337230982
11539 -1.38320541955
11540 0.694163744257
11541 0.689041675296
11542 -1.10214540433
11543 0.584828802914
11544 0.517316601414
11545 -0.964475739443
11546 0.497644199984
11547 0.466831539459
11548 -1.04662781596
11549 0.519364189833
11550 0.52726362613
11551 -1.13628254222
11552 0.54430193323
11553 0.591980608991
11554 -1.27720664495
11555 0.643346295896
11556 0.633860349052
11557 -1.07135424342
11558 0.540341901122
11559 0.531012342295
11560 -1.13799593769
11561 0.638137650034
11562 0.499858287656
11563 -1.20355816996
11564 0.54718447696
11565 0.656373692998
11566 -1.23590534871
11567 0.629231725321
11568 0.606673623392
11569 -1.24430262346
11570 0.564192299995
11571 0.680110323463
11572 -1.14278555697
11573 0.520120286906
11574 0.622665270064
11575 -1.13045670805
11576 0.618446091263
11577 0.512010616787
11578 -1.12012378811
11579 0.464299772393
11580 0.655824015717
11581 -1.11179001642
11582 0.495006189342
11583 0.616783827078
11584 -1.4303964946
11585 0.815841663693
11586 0.614554830905
11587 -1.03647428473
11588 0.571909361185
11589 0.464564923548
11590 -1.03890504211
11591 0.566590817366
11592 0.472314224746
11593 -1.18422220399
11594 0.651771537194
11595 0.532450666793
11596 -1.19908423834
11597 0.645074692604
11598 0.554009545732
11599 -1.15867809554
11600 0.585569734966
11601 0.573108360577
11602 -1.21647216484
11603 0.643274515979
11604 0.573197648859
11605 -1.1368604644
11606 0.616593666609
11607 0.520266797789
11608 -1.14794066628
11609 0.538316811566
11610 0.609623854714
11611 -1.41055373861
11612 0.692663796984
11613 0.717889941629
11614 -1.12636433938
11615 0.515593426798
11616 0.61077091258
11617 -1.14292017118
11618 0.681652490241
11619 0.461267680936
11620 -1.0707718805
11621 0.510960274122
11622 0.559811606374
11623 -1.30123414545
11624 0.631397625949
11625 0.669836519499
11626 -1.17292246742
11627 0.565528811441
11628 0.607393655976
11629 -1.11457809207
11630 0.569351172763
11631 0.545226919304
11632 -1.1771023114
11633 0.61039004359
11634 0.566712267815
11635 -1.21781426546
11636 0.683970170095
11637 0.533844095366
11638 -0.943167826854
11639 0.442452637611
11640 0.500715189243
11641 -1.06124069724
11642 0.502035857136
11643 0.559204840101
11644 -1.13293542792
11645 0.536623027727
11646 0.596312400194
11647 -1.44191852911
11648 0.683580695044
11649 0.75833783407
11650 -1.22232157774
11651 0.576579133836
11652 0.645742443907
11653 -1.14393716055
11654 0.589779685566
11655 0.554157474986
11656 -0.96624340068
11657 0.493103035696
11658 0.473140364984
11659 -1.14412125812
11660 0.533196804885
11661 0.610924453231
11662 -1.24826095614
11663 0.56524871073
11664 0.683012245406
11665 -0.992463702689
11666 0.511676874176
11667 0.480786828513
11668 -1.04993501438
11669 0.49894677319
11670 0.550988241189
11671 -1.32091156434
11672 0.704655286425
11673 0.616256277917
11674 -0.975327382226
11675 0.41938279307
11676 0.555944589156
11677 -0.986758999584
11678 0.458067318745
11679 0.528691680839
11680 -0.989463910864
11681 0.525605200123
11682 0.463858710742
11683 -1.17178099865
11684 0.555150742466
11685 0.616630256184
11686 -1.05067190278
11687 0.591721415637
11688 0.45895048714
11689 -1.09955236185
11690 0.503864488402
11691 0.595687873452
11692 -1.12468831385
11693 0.596246037488
11694 0.52844227636
11695 -1.028460224
11696 0.592814379549
11697 0.43564584445
11698 -1.19251699437
11699 0.592129770141
11700 0.600387224227
11701 -1.2343687265
11702 0.600575740612
11703 0.633792985887
11704 -1.12740619677
11705 0.569379315457
11706 0.558026881312
11707 -1.18778969786
11708 0.648292339485
11709 0.539497358374
11710 -1.09984466319
11711 0.521615946975
11712 0.578228716213
11713 -1.28470056297
11714 0.535801415862
11715 0.748899147109
11716 -1.214592819
11717 0.60642463804
11718 0.608168180964
11719 -1.11757336944
11720 0.616069734013
11721 0.501503635432
11722 -1.08111315265
11723 0.590844174185
11724 0.490268978462
11725 -0.929303224702
11726 0.445432734986
11727 0.483870489716
11728 -1.09462802346
11729 0.621407517086
11730 0.473220506373
11731 -0.994904165123
11732 0.52903976089
11733 0.465864404233
11734 -1.09912386698
11735 0.606098330752
11736 0.493025536232
11737 -1.19059912338
11738 0.539029492771
11739 0.65156963061
11740 -1.10412951734
11741 0.537197040279
11742 0.566932477065
11743 -1.09807945688
11744 0.583325796597
11745 0.51475366028
11746 -1.04033144431
11747 0.583300701841
11748 0.457030742473
11749 -1.05268511891
11750 0.573009564703
11751 0.479675554209
11752 -0.927527443243
11753 0.510215082713
11754 0.417312360531
11755 -1.25955155725
11756 0.627026895165
11757 0.632524662084
11758 -0.972727848153
11759 0.477443720854
11760 0.4952841273
11761 -1.43837623375
11762 0.712450921285
11763 0.725925312466
11764 -1.04440034008
11765 0.560875496866
11766 0.483524843217
11767 -1.04366779901
11768 0.55896420838
11769 0.484703590634
11770 -1.1236413052
11771 0.588294533533
11772 0.535346771662
11773 -1.0636466086
11774 0.52649210352
11775 0.537154505075
11776 -1.38368399803
11777 0.757382096211
11778 0.626301901817
11779 -1.43814760384
11780 0.743321616777
11781 0.694825987059
11782 -1.15864948488
11783 0.574045039053
11784 0.584604445824
11785 -0.972657628863
11786 0.466602666912
11787 0.506054961951
11788 -0.919441819113
11789 0.429023572976
11790 0.490418246137
11791 -1.21746596231
11792 0.635887594965
11793 0.581578367345
11794 -1.22817363986
11795 0.707016694324
11796 0.521156945538
11797 -1.22652136646
11798 0.566112158811
11799 0.660409207645
11800 -1.16084035346
11801 0.533797848145
11802 0.627042505319
11803 -1.15950813252
11804 0.533717270614
11805 0.625790861908
11806 -1.06047863422
11807 0.518245121467
11808 0.542233512754
11809 -1.06645594648
11810 0.514102397605
11811 0.552353548877
11812 -1.27576981541
11813 0.691470190497
11814 0.58429962491
11815 -1.14558302551
11816 0.470609850537
11817 0.674973174975
11818 -0.987231505481
11819 0.447771448744
11820 0.539460056737
11821 -1.33255923237
11822 0.657079289687
11823 0.675479942684
11824 -1.19197405814
11825 0.584650620548
11826 0.607323437588
11827 -1.44328297083
11828 0.631508143747
11829 0.81177482708
11830 -0.836742157557
11831 0.379360342081
11832 0.457381815476
11833 -1.04505160873
11834 0.492088873224
11835 0.55296273551
11836 -0.972100944417
11837 0.489917353986
11838 0.482183590431
11839 -1.3200640058
11840 0.624672380673
11841 0.69539162513
11842 -1.33700624949
11843 0.621770316763
11844 0.715235932728
11845 -1.08800746525
11846 0.591843710425
11847 0.496163754827
11848 -1.2091493114
11849 0.614304343491
11850 0.59484496791
11851 -1.06930781902
11852 0.620285100262
11853 0.449022718753
11854 -1.36849478098
11855 0.624899144254
11856 0.743595636728
11857 -1.2415935916
11858 0.664050833156
11859 0.577542758445
11860 -1.16357145824
11861 0.658765358708
11862 0.504806099528
11863 -1.14058155623
11864 0.582223508149
11865 0.558358048083
11866 -0.965840323834
11867 0.492482039278
11868 0.473358284556
11869 -1.30285145372
11870 0.664104344188
11871 0.638747109535
11872 -1.33504060444
11873 0.677343352443
11874 0.657697252002
11875 -1.04476247772
11876 0.49270017691
11877 0.552062300814
11878 -0.991884828784
11879 0.527858510763
11880 0.464026318021
11881 -1.0440298974
11882 0.494997295209
11883 0.549032602194
11884 -1.15869331856
11885 0.595817642598
11886 0.562875675966
11887 -0.920677611156
11888 0.499966529824
11889 0.420711081332
11890 -1.15575202101
11891 0.498358045684
11892 0.657393975326
11893 -1.33030060971
11894 0.630690451217
11895 0.699610158494
11896 -1.16811513262
11897 0.609202284627
11898 0.558912847992
11899 -1.02017178426
11900 0.542400578804
11901 0.477771205461
11902 -1.25293307711
11903 0.656645937958
11904 0.596287139149
11905 -1.01225115193
11906 0.534042128761
11907 0.478209023173
11908 -1.11459463351
11909 0.5511119577
11910 0.563482675807
11911 -1.01960788247
11912 0.435302020936
11913 0.584305861539
11914 -1.16706864241
11915 0.611819791394
11916 0.555248851017
11917 -1.05431934975
11918 0.49691504156
11919 0.557404308187
11920 -0.851560207992
11921 0.469117393224
11922 0.382442814768
11923 -0.971214030122
11924 0.505890221108
11925 0.465323809014
11926 -0.780948274473
11927 0.396229785992
11928 0.384718488482
11929 -0.959198823972
11930 0.469160357064
11931 0.490038466907
11932 -1.02489191194
11933 0.487666500006
11934 0.53722541193
11935 -1.14475889372
11936 0.678314197792
11937 0.466444695931
11938 -0.958271256659
11939 0.373595269489
11940 0.58467598717
11941 -1.1534424448
11942 0.523682250639
11943 0.629760194162
11944 -1.15845877877
11945 0.52841592727
11946 0.630042851503
11947 -1.16492767606
11948 0.626819586333
11949 0.538108089732
11950 -0.897011163663
11951 0.4859891609
11952 0.411022002762
11953 -1.06051466799
11954 0.558675840163
11955 0.501838827825
11956 -0.879079776467
11957 0.484238947612
11958 0.394840828854
11959 -1.30198577177
11960 0.738013334683
11961 0.563972437084
11962 -1.23467963973
11963 0.64086104302
11964 0.593818596713
11965 -1.13353436621
11966 0.597936949021
11967 0.535597417185
11968 -1.20314604595
11969 0.605296681834
11970 0.597849364114
11971 -1.00018399546
11972 0.493233203706
11973 0.506950791749
11974 -1.04090638129
11975 0.473007850981
11976 0.567898530307
11977 -1.06880411255
11978 0.510194987195
11979 0.558609125359
11980 -1.03730489625
11981 0.541196709957
11982 0.496108186297
11983 -1.03442989227
11984 0.483235969883
11985 0.551193922392
11986 -1.10251427075
11987 0.450932274264
11988 0.651581996485
11989 -1.13385107681
11990 0.556632969029
11991 0.577218107779
11992 -1.07853084684
11993 0.406961573733
11994 0.67156927311
11995 -1.05247464943
11996 0.453864176752
11997 0.598610472677
11998 -1.09366385183
11999 0.516948080232
12000 0.576715771598
12001 -0.913759008855
12002 0.474717517668
12003 0.439041491187
12004 -1.10554738017
12005 0.51369672127
12006 0.591850658896
12007 -1.13523787934
12008 0.588860451086
12009 0.546377428258
12010 -1.10281952611
12011 0.524966510861
12012 0.577853015251
12013 -1.16189541987
12014 0.559624185032
12015 0.602271234838
12016 -1.2228498377
12017 0.668627223031
12018 0.554222614673
12019 -1.22098704265
12020 0.619086627095
12021 0.601900415556
12022 -1.16967440541
12023 0.544368563248
12024 0.625305842164
12025 -1.24593279297
12026 0.647031484856
12027 0.598901308109
12028 -1.11042573174
12029 0.535479263685
12030 0.574946468054
12031 -1.2921284049
12032 0.627627056138
12033 0.664501348767
12034 -1.26299375046
12035 0.585828591999
12036 0.677165158463
12037 -1.18578673063
12038 0.660490459861
12039 0.525296270767
12040 -1.08249454928
12041 0.531211212247
12042 0.551283337031
12043 -1.19306850965
12044 0.644182286401
12045 0.54888622325
12046 -1.38470000694
12047 0.693155083238
12048 0.691544923702
12049 -1.08486852219
12050 0.618188394626
12051 0.466680127568
12052 -1.0866281319
12053 0.59396091741
12054 0.492667214494
12055 -0.976064816936
12056 0.567180419972
12057 0.408884396963
12058 -0.881527241805
12059 0.469492906593
12060 0.412034335212
12061 -1.27597275589
12062 0.640833662488
12063 0.6351390934
12064 -1.2221325512
12065 0.537494031482
12066 0.684638519716
12067 -1.1831561209
12068 0.639950206955
12069 0.543205913947
12070 -1.34896991943
12071 0.648718089502
12072 0.700251829929
12073 -1.18203048608
12074 0.576781153603
12075 0.605249332477
12076 -1.03916145114
12077 0.624130653526
12078 0.415030797618
12079 -1.06541083916
12080 0.493835087622
12081 0.571575751537
12082 -0.982141557496
12083 0.559648711742
12084 0.422492845754
12085 -1.22473722414
12086 0.656599457943
12087 0.568137766196
12088 -0.949150779335
12089 0.495747287023
12090 0.453403492312
12091 -1.15594520175
12092 0.572763222092
12093 0.583181979654
12094 -1.04325267925
12095 0.557331824671
12096 0.485920854575
12097 -1.11047315152
12098 0.595720202938
12099 0.514752948582
12100 -1.0175384217
12101 0.474343178921
12102 0.543195242781
12103 -1.3660371753
12104 0.61399253076
12105 0.752044644536
12106 -1.26768409459
12107 0.579783963118
12108 0.687900131468
12109 -1.01719427029
12110 0.489178532623
12111 0.528015737667
12112 -1.0702052609
12113 0.493631360451
12114 0.576573900447
12115 -0.86804165226
12116 0.442510109088
12117 0.425531543172
12118 -0.866511468359
12119 0.391466570961
12120 0.475044897398
12121 -1.0263273089
12122 0.520533174889
12123 0.505794134012
12124 -1.05239673422
12125 0.478008893999
12126 0.574387840221
12127 -1.20176318428
12128 0.562893007526
12129 0.638870176749
12130 -1.09583304666
12131 0.616343423099
12132 0.479489623556
12133 -1.09645053907
12134 0.558444942105
12135 0.538005596968
12136 -1.03788042799
12137 0.450896289482
12138 0.586984138508
12139 -1.1909198936
12140 0.624146608774
12141 0.56677328483
12142 -1.19059527083
12143 0.595934142984
12144 0.59466112785
12145 -1.15012241295
12146 0.597475731499
12147 0.552646681453
12148 -0.970496159381
12149 0.439294269996
12150 0.531201889385
12151 -0.919455158459
12152 0.460598403675
12153 0.458856754784
12154 -0.988274159552
12155 0.477052968065
12156 0.511221191487
12157 -1.12465253331
12158 0.55091587387
12159 0.573736659438
12160 -1.10614332908
12161 0.533578290662
12162 0.572565038418
12163 -1.19773952104
12164 0.683450583405
12165 0.514288937637
12166 -1.06819757287
12167 0.591164812026
12168 0.477032760841
12169 -1.14130736912
12170 0.513664594664
12171 0.62764277446
12172 -1.141881063
12173 0.58021285112
12174 0.561668211881
12175 -1.08794238558
12176 0.560083565662
12177 0.527858819921
12178 -0.997457794676
12179 0.474521398763
12180 0.522936395913
12181 -1.31716191368
12182 0.68650985713
12183 0.630652056545
12184 -1.06850176919
12185 0.44092444702
12186 0.627577322171
12187 -1.22192475201
12188 0.63590180152
12189 0.586022950487
12190 -1.09121776049
12191 0.604492590449
12192 0.486725170043
12193 -1.23220025971
12194 0.615842216251
12195 0.616358043459
12196 -1.20603133446
12197 0.610003965089
12198 0.596027369374
12199 -1.05029978561
12200 0.64366814124
12201 0.406631644369
12202 -1.0925202333
12203 0.50797507438
12204 0.584545158923
12205 -1.08082701135
12206 0.50017420305
12207 0.580652808303
12208 -0.852276171301
12209 0.423742909261
12210 0.42853326204
12211 -1.38753324078
12212 0.711706747039
12213 0.675826493736
12214 -1.10378238838
12215 0.565823572921
12216 0.537958815462
12217 -1.06851937792
12218 0.548904137422
12219 0.519615240499
12220 -0.99697106301
12221 0.474182454639
12222 0.522788608371
12223 -1.27307587273
12224 0.626105870269
12225 0.646970002465
12226 -1.33417467637
12227 0.697048440606
12228 0.637126235768
12229 -0.955935224804
12230 0.450738217055
12231 0.505197007749
12232 -1.42302065009
12233 0.729552638467
12234 0.69346801162
12235 -1.25662421749
12236 0.648882240652
12237 0.607741976838
12238 -1.01659510615
12239 0.517729892596
12240 0.498865213552
12241 -1.02130468767
12242 0.589322071732
12243 0.431982615934
12244 -1.09238316433
12245 0.544733396547
12246 0.547649767783
12247 -1.09648144284
12248 0.543248116864
12249 0.553233325971
12250 -1.0140244291
12251 0.479416300726
12252 0.534608128377
12253 -1.19638441423
12254 0.618424131792
12255 0.577960282434
12256 -1.21116462176
12257 0.660990469653
12258 0.550174152108
12259 -1.23532484329
12260 0.537148539833
12261 0.698176303454
12262 -1.28561041522
12263 0.597506614318
12264 0.688103800906
12265 -0.971217993035
12266 0.540781423776
12267 0.430436569259
12268 -1.08700695519
12269 0.561538670156
12270 0.525468285033
12271 -1.09388010049
12272 0.58974608523
12273 0.50413401526
12274 -0.979202347879
12275 0.48562860038
12276 0.493573747499
12277 -1.09744114768
12278 0.541064013664
12279 0.556377134021
12280 -1.13347555485
12281 0.483446642426
12282 0.650028912429
12283 -1.03775451158
12284 0.54476578884
12285 0.492988722741
12286 -1.08967832185
12287 0.531958718632
12288 0.557719603216
ITEM: TIMESTEP
10
ITEM: NUMBER OF ATOMS
12288
ITEM: BOX BOUNDS pp pp pp
0.0000000000000000e+00 4.9600000000000001e+01
0.0000000000000000e+00 4.9600000000000001e+01
0.0000000000000000e+00 4.9600000000000001e+01
ITEM: ATOMS id q
1 -1.21179505339
2 0.527773928928
3 0.68402112446
4 -1.21115752835
5 0.672477290812
6 0.538680237534
7 -1.21466615051
8 0.570040364691
9 0.644625785817
10 -1.09994987765
11 0.561007372588
12 0.53894250506
13 -0.927059000387
14 0.442046627375
15 0.485012373012
16 -1.27439021443
17 0.69686561375
18 0.577524600685
19 -1.15482754423
20 0.54731992056
21 0.607507623673
22 -0.975462907567
23 0.534568205036
24 0.440894702531
25 -1.21522004365
26 0.59305597895
27 0.622164064697
28 -1.06507047398
29 0.547232238842
30 0.517838235139
31 -1.314082189
32 0.667446848547
33 0.646635340457
34 -1.16175945593
35 0.628668180779
36 0.533091275154
37 -1.37263832096
38 0.72628664513
39 0.646351675829
40 -1.08365753139
41 0.476505076776
42 0.607152454618
43 -1.04948469631
44 0.490569680773
45 0.558915015536
46 -1.08755370671
47 0.549905254575
48 0.537648452136
49 -0.983839173782
50 0.483437432356
51 0.500401741426
52 -1.13859162207
53 0.49655100046
54 0.642040621614
55 -1.02317939886
56 0.524417668054
57 0.498761730803
58 -1.01630319015
59 0.465235444219
60 0.55106774593
61 -1.2832095454
62 0.6513710319
63 0.631838513498
64 -1.1527091533
65 0.613270068119
66 0.539439085185
67 -1.22164203818
68 0.595819791486
69 0.625822246698
70 -1.25677041975
71 0.617723264952
72 0.639047154802
73 -0.96053958038
74 0.472158915817
75 0.488380664563
76 -1.23054427976
77 0.560470916958
78 0.670073362802
79 -0.940190956513
80 0.566072007506
81 0.374118949007
82 -1.0601640329
83 0.515348002468
84 0.54481603043
85 -1.06045224736
86 0.614820721933
87 0.445631525423
88 -1.1839505973
89 0.685239696614
90 0.498710900686
91 -1.12193333848
92 0.529747030966
93 0.592186307517
94 -1.27146930209
95 0.587180806465
96 0.684288495625
97 -1.26294624306
98 0.590405146925
99 0.672541096131
100 -1.20799318686
101 0.554500930556
102 0.653492256308
103 -1.06814812752
104 0.542280646767
105 0.525867480758
106 -0.927676115368
107 0.440288472972
108 0.487387642396
109 -1.09503366288
110 0.543594776983
111 0.551438885899
112 -1.01890139885
113 0.486804746619
114 0.532096652232
115 -0.923117669175
116 0.492727312408
117 0.430390356767
118 -1.21733954496
119 0.563228056307
120 0.654111488649
121 -1.15529517623
122 0.578994439094
123 0.576300737141
124 -1.0600679119
125 0.472994513058
126 0.587073398845
127 -1.27742227075
128 0.679893668014
129 0.597528602731
130 -0.991530482806
131 0.48445362047
132 0.507076862336
133 -1.18881572858
134 0.567328543034
135 0.621487185548
136 -1.07110914047
137 0.514060959348
138 0.557048181119
139 -1.07734016894
140 0.487914754988
141 0.589425413954
142 -1.02014014928
143 0.448853531061
144 0.571286618221
145 -1.23705609327
146 0.680160879778
147 0.556895213495
148 -1.23607309093
149 0.545332581999
150 0.690740508928
151 -0.923611815435
152 0.523341704086
153 0.400270111349
154 -1.1853317527
155 0.601058712015
156 0.584273040683
157 -1.2458707393
158 0.701107363092
159 0.544763376206
160 -1.22331663007
161 0.603667483393
162 0.619649146675
163 -1.07239132201
164 0.533304278572
165 0.539087043441
166 -1.04053064448
167 0.50144907422
168 0.539081570264
169 -1.24417262873
170 0.649003150862
171 0.595169477866
172 -1.17866409414
173 0.538850607912
174 0.639813486233
175 -1.35424868047
176 0.714207585934
177 0.640041094538
178 -1.13238799632
179 0.590135915794
180 0.542252080527
181 -1.21473894806
182 0.48112707278
183 0.733611875276
184 -1.26276686336
185 0.707439377156
186 0.555327486202
187 -1.02340975772
188 0.519601100341
189 0.503808657382
190 -1.06929942618
191 0.489377112932
192 0.579922313251
193 -1.20022846791
194 0.583453047923
195 0.616775419986
196 -1.13357343708
197 0.531339467782
198 0.602233969296
199 -1.3676960611
200 0.638899685275
201 0.728796375822
202 -1.14431242278
203 0.54953383813
204 0.594778584654
205 -1.01466698831
206 0.462471664437
207 0.552195323872
208 -1.11446264456
209 0.498689994154
210 0.615772650406
211 -1.00704779317
212 0.456361591185
213 0.55068620198
214 -0.966381319845
215 0.449267471962
216 0.517113847883
217 -0.901114037148
218 0.457533006194
219 0.443581030954
220 -1.16083153152
221 0.520006484035
222 0.640825047483
223 -1.18238618672
224 0.52154761254
225 0.66083857418
226 -1.10012305202
227 0.469960318106
228 0.630162733912
229 -1.22220201334
230 0.63430108206
231 0.587900931283
232 -1.064897632
233 0.521684487755
234 0.543213144249
235 -1.04829128984
236 0.461577320223
237 0.586713969615
238 -0.959400881887
239 0.468549610816
240 0.490851271071
241 -1.44235660874
242 0.747082987598
243 0.695273621146
244 -1.21764480685
245 0.564346187945
246 0.653298618903
247 -1.04656009564
248 0.540515045379
249 0.506045050263
250 -1.20986363218
251 0.515524037985
252 0.6943395942
253 -1.19065511074
254 0.637783183612
255 0.552871927127
256 -1.33197538578
257 0.720677457331
258 0.611297928452
259 -1.11383597783
260 0.504839431623
261 0.608996546208
262 -1.14202655352
263 0.61417520545
264 0.527851348072
265 -1.21053586222
266 0.544558776517
267 0.6659770857
268 -0.998334550217
269 0.568948964555
270 0.429385585662
271 -1.09856684074
272 0.510441519522
273 0.588125321219
274 -1.28785887723
275 0.698674664384
276 0.589184212844
277 -1.09001317553
278 0.626242938172
279 0.463770237355
280 -0.955829646069
281 0.481231943583
282 0.474597702486
283 -1.10637289533
284 0.551497210587
285 0.554875684747
286 -1.23720089155
287 0.638712913603
288 0.598487977946
289 -1.14879538498
290 0.521978956103
291 0.62681642888
292 -1.0870092558
293 0.556964580008
294 0.530044675789
295 -1.00743262122
296 0.577580904337
297 0.429851716886
298 -1.20915478728
299 0.580216938434
300 0.628937848843
301 -1.08817098694
302 0.503447798461
303 0.584723188476
304 -1.05198465009
305 0.561090208899
306 0.490894441194
307 -1.36503918394
308 0.659766554043
309 0.705272629902
310 -1.21588878601
311 0.667381831502
312 0.548506954507
313 -1.22269843371
314 0.639834727342
315 0.582863706366
316 -1.09675654386
317 0.544856050305
318 0.55190049355
319 -1.3005355755
320 0.585610764429
321 0.714924811071
322 -1.19484385129
323 0.592045195907
324 0.602798655384
325 -1.00976633177
326 0.548698536603
327 0.461067795165
328 -1.04138443886
329 0.5242331882
330 0.517151250664
331 -1.21639893477
332 0.630004497326
333 0.586394437445
334 -1.16966379688
335 0.621551267427
336 0.54811252945
337 -1.1325846831
338 0.641740400475
339 0.490844282624
340 -1.25150659929
341 0.645770291116
342 0.605736308174
343 -1.11482201131
344 0.597793591153
345 0.517028420153
346 -1.0161694133
347 0.596333293755
348 0.419836119549
349 -1.18425974656
350 0.566559344752
351 0.617700401813
352 -1.21545115644
353 0.544330615039
354 0.671120541405
355 -1.44443028321
356 0.705555503014
357 0.738874780201
358 -0.994793364828
359 0.524449157198
360 0.47034420763
361 -1.06487819366
362 0.454311363646
363 0.610566830011
364 -1.11026777576
365 0.633573747099
366 0.476694028665
367 -0.935199534199
368 0.441706647073
369 0.493492887126
370 -1.37334081852
371 0.593451403576
372 0.77988941494
373 -1.37260649582
374 0.697120307938
375 0.675486187881
376 -1.07499768789
377 0.502067934503
378 0.572929753385
379 -1.28293851757
380 0.6106559938
381 0.672282523768
382 -1.08292687572
383 0.474625064871
384 0.608301810848
385 -0.913765107019
386 0.439038696329
387 0.474726410689
388 -0.943093387306
389 0.484788766793
390 0.458304620513
391 -1.05821865415
392 0.486628948146
393 0.571589706
394 -1.24971494707
395 0.576791714655
396 0.672923232417
397 -1.11724928789
398 0.630193067001
399 0.487056220893
400 -1.03641306028
401 0.565259897391
402 0.471153162889
403 -1.1341673632
404 0.579124264317
405 0.555043098885
406 -1.28734427146
407 0.636657332359
408 0.650686939102
409 -1.01723510277
410 0.466397026589
411 0.55083807618
412 -1.22139727379
413 0.641731903751
414 0.579665370044
415 -1.00603657846
416 0.559430251875
417 0.446606326584
418 -1.11191188226
419 0.56829902511
420 0.54361285715
421 -1.04493680715
422 0.57264239371
423 0.472294413438
424 -1.19801906526
425 0.595416718987
426 0.602602346269
427 -1.22927666923
428 0.559755593317
429 0.669521075909
430 -1.00081505501
431 0.530260777353
432 0.47055427766
433 -1.02991391521
434 0.554471682499
435 0.475442232712
436 -1.23460834398
437 0.537527197238
438 0.697081146744
439 -1.10837819872
440 0.483768209258
441 0.624609989459
442 -0.88128876271
443 0.439325599778
444 0.441963162931
445 -1.12473383401
446 0.441680802794
447 0.683053031216
448 -1.0198079311
449 0.492526189801
450 0.527281741298
451 -1.1422767943
452 0.559567930849
453 0.582708863455
454 -1.34179750336
455 0.606452902846
456 0.735344600516
457 -1.37705948507
458 0.654289277914
459 0.722770207159
460 -1.05997398388
461 0.540263238936
462 0.519710744948
463 -1.23977603316
464 0.644496168266
465 0.595279864898
466 -1.15383457558
467 0.582889967276
468 0.5709446083
469 -1.3573508619
470 0.705722127649
471 0.651628734248
472 -0.985954259386
473 0.641751768653
474 0.344202490733
475 -0.991623931882
476 0.475337370545
477 0.516286561337
478 -1.11931092839
479 0.58364565631
480 0.535665272085
481 -1.11258567319
482 0.54359471176
483 0.568990961434
484 -1.14190062746
485 0.53674913343
486 0.605151494033
487 -1.1211293976
488 0.553760039246
489 0.567369358356
490 -1.04482517012
491 0.593233236935
492 0.451591933184
493 -1.28328232569
494 0.714673209481
495 0.568609116213
496 -1.13859479906
497 0.666067654735
498 0.472527144326
499 -1.01710862456
500 0.523169956357
501 0.493938668206
502 -0.868273378514
503 0.385864881607
504 0.482408496908
505 -1.22789043961
506 0.558283802118
507 0.669606637491
508 -0.933341901385
509 0.494331884645
510 0.43901001674
511 -1.28081320995
512 0.630297527917
513 0.650515682036
514 -1.15205189564
515 0.592832200181
516 0.559219695457
517 -0.896288513701
518 0.428685720023
519 0.467602793678
520 -1.11735512699
521 0.614934994852
522 0.502420132141
523 -1.12649747542
524 0.594778618247
525 0.531718857176
526 -1.29805377975
527 0.676099634935
528 0.621954144819
529 -1.12028560085
530 0.455945849186
531 0.664339751661
532 -1.17285261932
533 0.656760614644
534 0.516092004677
535 -1.05041184681
536 0.530066292446
537 0.52034555436
538 -1.2709268932
539 0.658225300495
540 0.612701592706
541 -1.12532768448
542 0.573059015571
543 0.552268668905
544 -1.03044502068
545 0.465425846248
546 0.565019174431
547 -0.919204511754
548 0.533954874837
549 0.385249636917
550 -1.04350282124
551 0.528924087974
552 0.514578733264
553 -1.26171273874
554 0.582064257492
555 0.679648481247
556 -1.16634639589
557 0.540750397439
558 0.625595998456
559 -1.1675699412
560 0.560057115942
561 0.607512825254
562 -0.99604606237
563 0.508874221341
564 0.487171841029
565 -1.26016578917
566 0.756545555849
567 0.503620233321
568 -1.0161450322
569 0.465113384329
570 0.551031647869
571 -1.10395352362
572 0.545978329865
573 0.557975193751
574 -1.01857941188
575 0.53819200782
576 0.480387404058
577 -1.28005120218
578 0.554661495457
579 0.725389706722
580 -1.156983542
581 0.605801373813
582 0.55118216819
583 -1.01080923074
584 0.462934945162
585 0.54787428558
586 -1.05187227298
587 0.489009830232
588 0.562862442753
589 -1.19980469391
590 0.600522381156
591 0.59928231275
592 -0.998280755058
593 0.506696282677
594 0.491584472381
595 -1.09370693327
596 0.680258874902
597 0.413448058368
598 -1.14122781887
599 0.635744440422
600 0.50548337845
601 -0.871516483094
602 0.447457780628
603 0.424058702466
604 -1.23771262545
605 0.644368455827
606 0.593344169619
607 -1.13712047327
608 0.576606412761
609 0.560514060512
610 -1.35450639501
611 0.665238872856
612 0.689267522152
613 -1.07539635251
614 0.420893409625
615 0.654502942884
616 -1.19693797344
617 0.647392389551
618 0.549545583884
619 -1.08031695653
620 0.552476719086
621 0.527840237446
622 -1.10953397181
623 0.542015786428
624 0.567518185379
625 -1.01730210969
626 0.548394740107
627 0.468907369585
628 -1.21571583112
629 0.759609040773
630 0.456106790352
631 -1.07727333202
632 0.602863501794
633 0.474409830222
634 -1.07458144776
635 0.511673516258
636 0.562907931497
637 -1.07676890781
638 0.512869949829
639 0.563898957982
640 -1.10197294753
641 0.589144403535
642 0.512828543993
643 -1.04518632524
644 0.548176881892
645 0.497009443351
646 -1.13961779672
647 0.564518234429
648 0.575099562296
649 -1.10601673179
650 0.571456460641
651 0.534560271152
652 -1.19299101618
653 0.569530962848
654 0.623460053335
655 -1.12643384442
656 0.576817857656
657 0.54961598676
658 -1.11152922187
659 0.497996105105
660 0.613533116764
661 -1.09525136872
662 0.536604853956
663 0.558646514767
664 -1.1122292255
665 0.591156299499
666 0.521072926006
667 -1.31682413691
668 0.690983369088
669 0.625840767824
670 -1.09306809213
671 0.531664316272
672 0.561403775861
673 -1.18069665829
674 0.567683665674
675 0.613012992616
676 -1.08538770703
677 0.531918906272
678 0.553468800762
679 -1.10780027099
680 0.633356486583
681 0.474443784406
682 -1.00723556848
683 0.469819867255
684 0.537415701228
685 -0.998543611517
686 0.521817770476
687 0.476725841041
688 -1.08679833766
689 0.563366748026
690 0.523431589634
691 -1.15106311304
692 0.626838581504
693 0.524224531531
694 -1.02914763021
695 0.505042612545
696 0.52410501766
697 -1.11302129488
698 0.524018421778
699 0.589002873101
700 -1.41811046674
701 0.783961332441
702 0.634149134299
703 -1.28569827647
704 0.605853348655
705 0.679844927815
706 -1.10424093066
707 0.567072957033
708 0.537167973626
709 -1.04279394403
710 0.422452315413
711 0.620341628612
712 -1.15776681647
713 0.631874212526
714 0.525892603948
715 -1.38743800396
716 0.718620146288
717 0.668817857675
718 -1.00122760128
719 0.568488997695
720 0.432738603581
721 -1.34161700266
722 0.677790411643
723 0.66382659102
724 -1.03402901204
725 0.530722513157
726 0.503306498883
727 -1.15423869977
728 0.436232931585
729 0.718005768187
730 -1.09248303425
731 0.653937028017
732 0.438546006228
733 -1.12303756178
734 0.610045348818
735 0.512992212962
736 -1.06932452297
737 0.52635446763
738 0.542970055342
739 -1.30947388601
740 0.703747289234
741 0.605726596776
742 -1.03695529872
743 0.556300036416
744 0.480655262305
745 -1.08929198528
746 0.469143018378
747 0.620148966899
748 -1.07705069484
749 0.501958818079
750 0.575091876764
751 -1.01734808854
752 0.453968355664
753 0.563379732878
754 -1.02525787885
755 0.531869297051
756 0.493388581794
757 -1.00500806498
758 0.539547274161
759 0.46546079082
760 -1.18906855506
761 0.519688370705
762 0.669380184353
763 -1.09151192237
764 0.564849660928
765 0.526662261438
766 -1.19653908936
767 0.603256011424
768 0.593283077939
769 -1.26822676459
770 0.579524443937
771 0.688702320648
772 -1.18259909353
773 0.582587463042
774 0.600011630487
775 -1.0894171842
776 0.522951043881
777 0.566466140321
778 -0.947366935992
779 0.460545517528
780 0.486821418464
781 -1.16970500839
782 0.640592102038
783 0.529112906352
784 -1.19638531613
785 0.580686032784
786 0.615699283344
787 -1.40468565357
788 0.711047796342
789 0.693637857225
790 -1.09987412464
791 0.593057614263
792 0.50681651038
793 -0.973766856936
794 0.514662797642
795 0.459104059294
796 -1.0249970652
797 0.492640574786
798 0.53235649041
799 -1.14960141191
800 0.536679689924
801 0.61292172199
802 -1.25152797201
803 0.660535952906
804 0.590992019108
805 -1.14183152251
806 0.566729683991
807 0.575101838515
808 -1.21524671434
809 0.648415802647
810 0.566830911697
811 -1.23209484013
812 0.549657323086
813 0.682437517041
814 -1.23333099314
815 0.615978604645
816 0.617352388494
817 -1.25737417314
818 0.606543358824
819 0.650830814317
820 -1.12383802824
821 0.521506967177
822 0.60233106106
823 -1.18834402508
824 0.62847208653
825 0.559871938553
826 -1.10882946071
827 0.446080003074
828 0.662749457637
829 -1.2008254997
830 0.544584768577
831 0.656240731118
832 -1.42582143839
833 0.759799775714
834 0.666021662674
835 -1.09739153717
836 0.579284333539
837 0.518107203636
838 -1.06847234884
839 0.588509916977
840 0.479962431862
841 -1.22425051403
842 0.672848719933
843 0.551401794095
844 -1.18481581951
845 0.656122451997
846 0.528693367509
847 -1.17742922575
848 0.565725825131
849 0.611703400619
850 -1.2137417069
851 0.626396903723
852 0.587344803179
853 -1.14939057181
854 0.600849372359
855 0.548541199451
856 -1.0994156216
857 0.531037692998
858 0.568377928597
859 -1.42707135243
860 0.695990875365
861 0.731080477065
862 -1.11716629305
863 0.489803803167
864 0.627362489882
865 -1.14017371183
866 0.681701677284
867 0.458472034546
868 -1.10214727131
869 0.4995387021
870 0.602608569212
871 -1.28927847153
872 0.568858750049
873 0.720419721485
874 -1.14594714753
875 0.56007953663
876 0.585867610897
877 -1.07484313855
878 0.53661651792
879 0.538226620625
880 -1.16008453544
881 0.598436327107
882 0.561648208337
883 -1.24517098095
884 0.667278296676
885 0.577892684272
886 -0.966524730867
887 0.44438178812
888 0.522142942747
889 -1.03797402154
890 0.490731350323
891 0.547242671222
892 -1.17493308159
893 0.597953862007
894 0.576979219578
895 -1.49859455554
896 0.713567775442
897 0.785026780096
898 -1.24787454751
899 0.553890163969
900 0.693984383542
901 -1.13499450293
902 0.581461363348
903 0.553533139583
904 -0.958955601381
905 0.4641343987
906 0.494821202681
907 -1.092904107
908 0.496724131712
909 0.596179975286
910 -1.27205817614
911 0.589537866897
912 0.682520309247
913 -1.09655675567
914 0.548648053231
915 0.547908702436
916 -1.02584345466
917 0.472363416593
918 0.553480038072
919 -1.36684138037
920 0.749439900565
921 0.617401479801
922 -1.00434145244
923 0.425508244125
924 0.578833208319
925 -1.00086996885
926 0.467785040544
927 0.53308492831
928 -0.977654162837
929 0.51053633444
930 0.467117828397
931 -1.23392113595
932 0.620135706273
933 0.613785429675
934 -1.06418065949
935 0.613804117101
936 0.450376542388
937 -1.16589251572
938 0.528134793468
939 0.637757722256
940 -1.16586220209
941 0.603117795474
942 0.562744406621
943 -1.01081922439
944 0.554201189789
945 0.456618034597
946 -1.15930255667
947 0.583374370751
948 0.575928185922
949 -1.19658391543
950 0.593634680861
951 0.602949234565
952 -1.14983141616
953 0.550157728253
954 0.599673687911
955 -1.21599308283
956 0.639941494493
957 0.576051588338
958 -1.11817008834
959 0.534072935511
960 0.584097152826
961 -1.26039389528
962 0.543327396732
963 0.717066498545
964 -1.20462543183
965 0.611381246863
966 0.593244184963
967 -1.1451636844
968 0.629857213687
969 0.515306470714
970 -1.11769218544
971 0.59281374667
972 0.524878438769
973 -0.935589057761
974 0.444364176361
975 0.491224881399
976 -1.06602791708
977 0.590170961356
978 0.475856955719
979 -0.988212415605
980 0.505506500915
981 0.482705914691
982 -1.08753096283
983 0.634592796656
984 0.452938166169
985 -1.14531502473
986 0.532112945443
987 0.613202079291
988 -1.12209717305
989 0.5535575591
990 0.568539613947
991 -1.15389421919
992 0.634672318711
993 0.519221900484
994 -1.00024667207
995 0.571507798579
996 0.428738873491
997 -1.08871934125
998 0.605085183916
999 0.483634157335
1000 -0.936548240471
1001 0.504731660602
1002 0.431816579869
1003 -1.34610848766
1004 0.713288995975
1005 0.632819491683
1006 -1.00061309555
1007 0.480543184121
1008 0.520069911424
1009 -1.38066334989
1010 0.662313550895
1011 0.718349798992
1012 -1.10083435031
1013 0.530025446608
1014 0.570808903702
1015 -1.03111857332
1016 0.536792551088
1017 0.494326022231
1018 -1.14152612416
1019 0.601938287237
1020 0.539587836921
1021 -1.05136991818
1022 0.506409716635
1023 0.544960201546
1024 -1.34525850498
1025 0.784227366653
1026 0.561031138331
1027 -1.4385759414
1028 0.783775335617
1029 0.654800605786
1030 -1.1637530018
1031 0.560652459464
1032 0.603100542336
1033 -1.01202564547
1034 0.512246273968
1035 0.499779371497
1036 -0.932848127604
1037 0.433094127349
1038 0.499754000255
1039 -1.23320130837
1040 0.634826978406
1041 0.598374329959
1042 -1.29963023585
1043 0.720676120078
1044 0.578954115768
1045 -1.25327354798
1046 0.586373490023
1047 0.66690005796
1048 -1.18741849616
1049 0.541888755178
1050 0.645529740982
1051 -1.16438969245
1052 0.538053695861
1053 0.62633599659
1054 -1.0736977323
1055 0.494066251542
1056 0.579631480754
1057 -1.05402094851
1058 0.509487719015
1059 0.544533229493
1060 -1.24226653669
1061 0.645610891843
1062 0.596655644849
1063 -1.17020832067
1064 0.507003541866
1065 0.663204778806
1066 -1.06272415561
1067 0.46105684554
1068 0.601667310072
1069 -1.37799070895
1070 0.676657301619
1071 0.701333407329
1072 -1.17020565632
1073 0.582148708479
1074 0.588056947839
1075 -1.45574725207
1076 0.604907844506
1077 0.850839407569
1078 -0.904732071749
1079 0.407356537943
1080 0.497375533806
1081 -1.08782357915
1082 0.520862040847
1083 0.566961538308
1084 -1.03868516372
1085 0.533223285633
1086 0.505461878089
1087 -1.3057163655
1088 0.57565528439
1089 0.730061081107
1090 -1.35551541134
1091 0.630000735374
1092 0.725514675968
1093 -1.10035033944
1094 0.596629711872
1095 0.503720627563
1096 -1.21380066909
1097 0.581248973701
1098 0.632551695385
1099 -1.07594840299
1100 0.6203733313
1101 0.455575071691
1102 -1.27776757875
1103 0.590072745754
1104 0.687694832993
1105 -1.27985169037
1106 0.686855967338
1107 0.592995723036
1108 -1.21713360584
1109 0.626493629891
1110 0.590639975953
1111 -1.14781687413
1112 0.580578636935
1113 0.56723823719
1114 -1.02704865589
1115 0.538171637141
1116 0.48887701875
1117 -1.26046241776
1118 0.62000537688
1119 0.640457040883
1120 -1.31401030399
1121 0.629919452731
1122 0.684090851262
1123 -1.01797308798
1124 0.454162157363
1125 0.563810930619
1126 -1.03607318907
1127 0.53473807202
1128 0.501335117049
1129 -1.05112124023
1130 0.475370983735
1131 0.575750256496
1132 -1.13455431669
1133 0.59315337358
1134 0.541400943113
1135 -0.9912468428
1136 0.52307174449
1137 0.468175098309
1138 -1.14048948165
1139 0.483800624989
1140 0.656688856665
1141 -1.33987382551
1142 0.667340389222
1143 0.672533436286
1144 -1.17087743098
1145 0.607812754745
1146 0.563064676239
1147 -1.10213562444
1148 0.571297358112
1149 0.53083826633
1150 -1.23819539355
1151 0.652223099382
1152 0.585972294172
1153 -1.02118328407
1154 0.551371153472
1155 0.469812130601
1156 -1.12920158363
1157 0.579502467868
1158 0.549699115758
1159 -0.986061003963
1160 0.424891462372
1161 0.56116954159
1162 -1.15919576447
1163 0.598260896442
1164 0.560934868032
1165 -1.07998567849
1166 0.519103368603
1167 0.560882309885
1168 -0.829959647984
1169 0.455210799742
1170 0.374748848242
1171 -1.00677970651
1172 0.502201887733
1173 0.504577818773
1174 -0.76190165998
1175 0.379483021638
1176 0.382418638342
1177 -1.03499349956
1178 0.5513675907
1179 0.483625908858
1180 -1.03420790566
1181 0.527117490858
1182 0.507090414799
1183 -1.13108107039
1184 0.673012397325
1185 0.458068673061
1186 -0.953606838634
1187 0.382598484597
1188 0.571008354037
1189 -1.13512518998
1190 0.530538090865
1191 0.60458709912
1192 -1.14632292453
1193 0.547427177342
1194 0.59889574719
1195 -1.14392614255
1196 0.615673549187
1197 0.528252593362
1198 -0.924949905644
1199 0.491900932244
1200 0.4330489734
1201 -1.05562963623
1202 0.552512120144
1203 0.503117516087
1204 -0.886992414989
1205 0.513573953574
1206 0.373418461414
1207 -1.35070366002
1208 0.765903563921
1209 0.584800096101
1210 -1.22520183257
1211 0.661667157541
1212 0.563534675025
1213 -1.08214368968
1214 0.585355380251
1215 0.496788309424
1216 -1.14177352359
1217 0.58214715757
1218 0.55962636602
1219 -1.04474023504
1220 0.47731077245
1221 0.567429462594
1222 -1.0431778674
1223 0.479135519436
1224 0.564042347966
1225 -1.10964642372
1226 0.526997164509
1227 0.582649259208
1228 -1.05052856435
1229 0.555979447064
1230 0.49454911729
1231 -1.04398236056
1232 0.49237331961
1233 0.55160904095
1234 -1.10089611495
1235 0.49068482814
1236 0.610211286807
1237 -1.18157335686
1238 0.595514014179
1239 0.586059342683
1240 -1.07609185086
1241 0.397547153542
1242 0.678544697316
1243 -1.07125740188
1244 0.482836865443
1245 0.58842053644
1246 -1.10919507042
1247 0.530378710735
1248 0.578816359682
1249 -0.935998082463
1250 0.488435843065
1251 0.447562239398
1252 -1.11572436752
1253 0.537295328311
1254 0.578429039209
1255 -1.10262553937
1256 0.553131900429
1257 0.549493638945
1258 -1.10939491125
1259 0.526643745892
1260 0.582751165362
1261 -1.20872110959
1262 0.607718855129
1263 0.60100225446
1264 -1.21885641431
1265 0.690331961727
1266 0.528524452581
1267 -1.20099464227
1268 0.627876879154
1269 0.573117763114
1270 -1.15048969233
1271 0.505995209272
1272 0.644494483056
1273 -1.21050421401
1274 0.62519583954
1275 0.585308374466
1276 -1.11673460314
1277 0.559896459699
1278 0.556838143439
1279 -1.28794340829
1280 0.598606246732
1281 0.689337161563
1282 -1.22317643418
1283 0.579325147231
1284 0.643851286951
1285 -1.16389672572
1286 0.691981156213
1287 0.471915569507
1288 -1.12807407819
1289 0.577237796887
1290 0.5508362813
1291 -1.24469482306
1292 0.676830561368
1293 0.567864261694
1294 -1.38133941921
1295 0.703519130001
1296 0.677820289209
1297 -1.06603752818
1298 0.573183478488
1299 0.492854049688
1300 -1.08142031012
1301 0.587643898817
1302 0.493776411305
1303 -0.992963083974
1304 0.557502964572
1305 0.435460119402
1306 -0.900220123924
1307 0.460359703947
1308 0.439860419977
1309 -1.31190899646
1310 0.639144135176
1311 0.672764861288
1312 -1.28117193261
1313 0.54509087829
1314 0.736081054322
1315 -1.19715355894
1316 0.610955283309
1317 0.586198275628
1318 -1.4234291936
1319 0.722825080715
1320 0.700604112889
1321 -1.18480529571
1322 0.568834610605
1323 0.61597068511
1324 -1.02161098682
1325 0.574428616057
1326 0.447182370766
1327 -1.03815446665
1328 0.493234445243
1329 0.544920021403
1330 -0.989905248153
1331 0.558751278769
1332 0.431153969383
1333 -1.23450732608
1334 0.674166511115
1335 0.560340814963
1336 -0.95787776683
1337 0.476406230686
1338 0.481471536143
1339 -1.16265022674
1340 0.586865881315
1341 0.575784345421
1342 -1.08354226796
1343 0.541467917288
1344 0.542074350672
1345 -1.17610426786
1346 0.636849572774
1347 0.539254695085
1348 -0.98125415272
1349 0.438478095572
1350 0.542776057148
1351 -1.42199300407
1352 0.617744366355
1353 0.804248637715
1354 -1.2726619439
1355 0.593788546013
1356 0.678873397886
1357 -0.988330359982
1358 0.469554901538
1359 0.518775458444
1360 -1.09161343687
1361 0.490105532233
1362 0.601507904641
1363 -0.898554490097
1364 0.430263878674
1365 0.468290611422
1366 -0.857869684573
1367 0.367542738917
1368 0.490326945656
1369 -0.980546310565
1370 0.495782768791
1371 0.484763541774
1372 -1.04926649706
1373 0.515642645159
1374 0.533623851903
1375 -1.22967028294
1376 0.605588883391
1377 0.62408139955
1378 -1.08209959724
1379 0.59572352542
1380 0.486376071819
1381 -1.13505126701
1382 0.599789564171
1383 0.535261702837
1384 -1.08451669899
1385 0.44939395386
1386 0.635122745134
1387 -1.18156544633
1388 0.600403071387
1389 0.581162374948
1390 -1.18755618013
1391 0.596255232375
1392 0.591300947756
1393 -1.16383127105
1394 0.613824663699
1395 0.550006607352
1396 -0.939355189241
1397 0.431998692216
1398 0.507356497024
1399 -0.946162603738
1400 0.472556220977
1401 0.473606382761
1402 -1.00142725278
1403 0.493711419331
1404 0.507715833444
1405 -1.11672475717
1406 0.544378909215
1407 0.572345847951
1408 -1.1483697136
1409 0.524202177358
1410 0.624167536238
1411 -1.23572825199
1412 0.675215479118
1413 0.560512772873
1414 -1.05813962043
1415 0.582721719227
1416 0.475417901205
1417 -1.11454745832
1418 0.496936501141
1419 0.617610957176
1420 -1.12538357673
1421 0.582170855351
1422 0.543212721376
1423 -1.08826939304
1424 0.54443099458
1425 0.543838398456
1426 -1.00101196584
1427 0.456273185335
1428 0.544738780504
1429 -1.28675333334
1430 0.660639422917
1431 0.626113910427
1432 -1.1312588428
1433 0.476556750573
1434 0.654702092232
1435 -1.19399597462
1436 0.598739941317
1437 0.595256033306
1438 -1.12357631423
1439 0.578090790888
1440 0.545485523342
1441 -1.22880609945
1442 0.578862232216
1443 0.649943867234
1444 -1.22969876063
1445 0.603440371605
1446 0.626258389022
1447 -1.0740030026
1448 0.644793326749
1449 0.429209675854
1450 -1.10341032773
1451 0.497909286641
1452 0.605501041086
1453 -1.07179834955
1454 0.500994983453
1455 0.570803366097
1456 -0.937323461321
1457 0.489524189635
1458 0.447799271686
1459 -1.39836091631
1460 0.686623721512
1461 0.711737194797
1462 -1.10143765425
1463 0.55357500612
1464 0.547862648133
1465 -1.0896057097
1466 0.566808672736
1467 0.522797036966
1468 -0.973431931235
1469 0.461175328147
1470 0.512256603088
1471 -1.29247973039
1472 0.670625010933
1473 0.621854719453
1474 -1.34649026335
1475 0.727814793661
1476 0.618675469692
1477 -0.955691552676
1478 0.431944869432
1479 0.523746683244
1480 -1.43292286476
1481 0.745519147568
1482 0.687403717191
1483 -1.28706288376
1484 0.648672537543
1485 0.638390346216
1486 -0.996875588704
1487 0.483028277673
1488 0.513847311031
1489 -1.07075381463
1490 0.626176735264
1491 0.444577079363
1492 -1.12583123712
1493 0.558044684355
1494 0.56778655277
1495 -1.10176152355
1496 0.540845177822
1497 0.560916345729
1498 -1.0370520875
1499 0.513361552026
1500 0.523690535476
1501 -1.14697041546
1502 0.584767997335
1503 0.562202418122
1504 -1.22529284432
1505 0.686129266298
1506 0.539163578026
1507 -1.27754746668
1508 0.55996886242
1509 0.717578604259
1510 -1.27654455084
1511 0.600562658027
1512 0.675981892814
1513 -1.00984117938
1514 0.553451630215
1515 0.456389549161
1516 -1.10062519948
1517 0.565020407609
1518 0.535604791872
1519 -1.07823900924
1520 0.569549974228
1521 0.508689035012
1522 -0.963096396475
1523 0.478015731289
1524 0.485080665186
1525 -1.11559386661
1526 0.573524131144
1527 0.542069735466
1528 -1.09711573101
1529 0.452981168261
1530 0.644134562754
1531 -1.01695128606
1532 0.522331228904
1533 0.494620057159
1534 -1.06227310752
1535 0.49251751395
1536 0.569755593569
1537 -1.18821762786
1538 0.537777663096
1539 0.650439964767
1540 -1.17254915726
1541 0.612727079817
1542 0.55982207744
1543 -1.22808113911
1544 0.574856620801
1545 0.653224518314
1546 -1.10522091445
1547 0.592263570028
1548 0.512957344421
1549 -0.95581698269
1550 0.490081849209
1551 0.465735133481
1552 -1.29674638198
1553 0.71163921078
1554 0.585107171203
1555 -1.14505338712
1556 0.51666157933
1557 0.628391807789
1558 -0.960818480106
1559 0.536193961292
1560 0.424624518814
1561 -1.23064741148
1562 0.59929960798
1563 0.631347803498
1564 -1.06229774626
1565 0.578940249
1566 0.483357497263
1567 -1.32722704823
1568 0.669209185661
1569 0.65801786257
1570 -1.14374924663
1571 0.627191675538
1572 0.516557571093
1573 -1.39890358696
1574 0.678501895403
1575 0.720401691561
1576 -1.03570475838
1577 0.467126987066
1578 0.568577771317
1579 -1.02088751377
1580 0.483168773107
1581 0.537718740661
1582 -1.08011666528
1583 0.523626637071
1584 0.556490028212
1585 -0.988733238864
1586 0.495199379305
1587 0.493533859559
1588 -1.17987529202
1589 0.518978249153
1590 0.660897042862
1591 -1.07937303948
1592 0.563726309282
1593 0.515646730193
1594 -1.02400865634
1595 0.489323226998
1596 0.53468542934
1597 -1.33253794427
1598 0.680000378476
1599 0.652537565795
1600 -1.14485508785
1601 0.625329197093
1602 0.519525890752
1603 -1.19496704704
1604 0.56650126376
1605 0.628465783284
1606 -1.21513256153
1607 0.578281500278
1608 0.63685106125
1609 -0.92504013399
1610 0.469946409644
1611 0.455093724346
1612 -1.19979962474
1613 0.553128740789
1614 0.646670883953
1615 -0.943322217878
1616 0.560830158452
1617 0.382492059426
1618 -1.04278894212
1619 0.475352426121
1620 0.567436516001
1621 -1.01722440518
1622 0.590871158107
1623 0.426353247077
1624 -1.18410577441
1625 0.706840612279
1626 0.477265162134
1627 -1.07989395355
1628 0.530044188077
1629 0.549849765474
1630 -1.26070943966
1631 0.604142426342
1632 0.656567013315
1633 -1.24925076881
1634 0.570018390707
1635 0.6792323781
1636 -1.16998509392
1637 0.536267134148
1638 0.633717959775
1639 -1.10010911049
1640 0.505538092356
1641 0.594571018137
1642 -0.952037789844
1643 0.474086490435
1644 0.477951299408
1645 -1.06834784059
1646 0.57563053922
1647 0.492717301371
1648 -1.00962888209
1649 0.481888456605
1650 0.527740425487
1651 -0.958309964476
1652 0.49641963926
1653 0.461890325216
1654 -1.19182501856
1655 0.550724835895
1656 0.641100182667
1657 -1.16843772824
1658 0.589348811493
1659 0.579088916745
1660 -1.06861213309
1661 0.486702425222
1662 0.581909707872
1663 -1.27149423884
1664 0.651785496102
1665 0.619708742734
1666 -1.01865304344
1667 0.504409925217
1668 0.514243118227
1669 -1.19631559072
1670 0.579779499097
1671 0.616536091622
1672 -1.0366165849
1673 0.524883344048
1674 0.51173324085
1675 -1.09878166077
1676 0.504297022161
1677 0.594484638605
1678 -0.971132065663
1679 0.413462026644
1680 0.557670039019
1681 -1.21562013884
1682 0.677146147798
1683 0.538473991043
1684 -1.16904144612
1685 0.514928707088
1686 0.654112739036
1687 -0.943173127697
1688 0.542730211601
1689 0.400442916096
1690 -1.23438094912
1691 0.627744894874
1692 0.606636054247
1693 -1.20173745673
1694 0.708634929886
1695 0.493102526847
1696 -1.20526094631
1697 0.572849566188
1698 0.632411380124
1699 -1.06561112697
1700 0.514159452671
1701 0.5514516743
1702 -1.0348311888
1703 0.498712935535
1704 0.536118253261
1705 -1.22991167864
1706 0.662658442812
1707 0.567253235824
1708 -1.16315953673
1709 0.535852804658
1710 0.62730673207
1711 -1.33742019216
1712 0.691600205307
1713 0.645819986857
1714 -1.10876633325
1715 0.58251287358
1716 0.526253459666
1717 -1.15638750843
1718 0.494422115749
1719 0.661965392676
1720 -1.28459286475
1721 0.709765374694
1722 0.574827490052
1723 -1.04589817824
1724 0.535261608783
1725 0.51063656946
1726 -1.07803249841
1727 0.455577350174
1728 0.62245514824
1729 -1.17139892255
1730 0.592242257584
1731 0.579156664962
1732 -1.08999037536
1733 0.53375474696
1734 0.556235628397
1735 -1.38034081061
1736 0.673242923192
1737 0.707097887422
1738 -1.09696841761
1739 0.520089465412
1740 0.576878952202
1741 -1.00133566157
1742 0.443006179328
1743 0.558329482243
1744 -1.11016459986
1745 0.501888270706
1746 0.608276329149
1747 -1.02837556256
1748 0.447685264226
1749 0.580690298329
1750 -0.951163752108
1751 0.430029950792
1752 0.521133801316
1753 -0.915837657429
1754 0.478830201926
1755 0.437007455503
1756 -1.16714291909
1757 0.551325418695
1758 0.615817500392
1759 -1.16361807595
1760 0.521673655034
1761 0.641944420913
1762 -1.13413293009
1763 0.512313765929
1764 0.621819164163
1765 -1.21649503098
1766 0.578655048178
1767 0.637839982801
1768 -1.03598120681
1769 0.500084451792
1770 0.535896755015
1771 -1.10395129207
1772 0.491526252905
1773 0.612425039165
1774 -0.944801847326
1775 0.490258054343
1776 0.454543792983
1777 -1.43315884416
1778 0.715077478419
1779 0.718081365742
1780 -1.22501935145
1781 0.576964586865
1782 0.648054764586
1783 -1.01462098696
1784 0.514439445941
1785 0.500181541017
1786 -1.19279209637
1787 0.537432015309
1788 0.655360081066
1789 -1.25157831614
1790 0.59449803648
1791 0.657080279663
1792 -1.26880196011
1793 0.675456822655
1794 0.593345137456
1795 -1.0852863294
1796 0.513475109277
1797 0.571811220118
1798 -1.12010002552
1799 0.610544917214
1800 0.509555108305
1801 -1.25021858088
1802 0.566373212012
1803 0.683845368867
1804 -0.951215749316
1805 0.510992146987
1806 0.440223602328
1807 -1.07392526243
1808 0.484435365355
1809 0.589489897077
1810 -1.26254123335
1811 0.64687219643
1812 0.615669036919
1813 -1.1137762643
1814 0.645517227488
1815 0.468259036809
1816 -0.958711195136
1817 0.450341107609
1818 0.508370087527
1819 -1.10702762991
1820 0.540104326572
1821 0.566923303336
1822 -1.1987933213
1823 0.630428966561
1824 0.568364354741
1825 -1.17728264325
1826 0.565636207712
1827 0.61164643554
1828 -1.10826502107
1829 0.563035722579
1830 0.545229298494
1831 -1.01572966404
1832 0.591426978866
1833 0.424302685178
1834 -1.17184788187
1835 0.568635403203
1836 0.603212478671
1837 -1.07511725405
1838 0.496626525709
1839 0.578490728344
1840 -1.06292048906
1841 0.556415784131
1842 0.506504704929
1843 -1.35618553873
1844 0.638817651588
1845 0.717367887147
1846 -1.2121760902
1847 0.623401692498
1848 0.588774397702
1849 -1.24558049893
1850 0.647308560655
1851 0.59827193828
1852 -1.10294169298
1853 0.535140522682
1854 0.567801170297
1855 -1.31876177745
1856 0.541262142832
1857 0.777499634615
1858 -1.15616930727
1859 0.594068215839
1860 0.562101091432
1861 -1.03836291773
1862 0.515503240798
1863 0.522859676936
1864 -0.965305795187
1865 0.476515574221
1866 0.488790220966
1867 -1.20907976071
1868 0.611991828169
1869 0.597087932543
1870 -1.24977670429
1871 0.665130104199
1872 0.58464660009
1873 -1.09741059607
1874 0.614936367656
1875 0.482474228409
1876 -1.22084681703
1877 0.63647348691
1878 0.584373330122
1879 -1.07775765104
1880 0.550801347797
1881 0.526956303242
1882 -0.962008540696
1883 0.571238489351
1884 0.390770051345
1885 -1.19991607323
1886 0.537733331197
1887 0.66218274203
1888 -1.19213926599
1889 0.549907947592
1890 0.642231318401
1891 -1.45132415347
1892 0.735097982672
1893 0.716226170801
1894 -1.0391302185
1895 0.527046152336
1896 0.51208406616
1897 -1.0440191789
1898 0.44989000047
1899 0.594129178431
1900 -1.16658475807
1901 0.671918636983
1902 0.494666121084
1903 -0.956683963097
1904 0.438680770285
1905 0.518003192812
1906 -1.35461939407
1907 0.574439919527
1908 0.78017947454
1909 -1.2938121613
1910 0.628548147345
1911 0.665264013954
1912 -1.08365614998
1913 0.516022883232
1914 0.567633266751
1915 -1.25789188926
1916 0.616606532375
1917 0.641285356885
1918 -1.07681861517
1919 0.454664923263
1920 0.622153691904
1921 -0.884950691549
1922 0.418481228279
1923 0.46646946327
1924 -0.940273509075
1925 0.482349358565
1926 0.45792415051
1927 -1.06164941141
1928 0.501288404449
1929 0.560361006957
1930 -1.25027934588
1931 0.590791002962
1932 0.659488342915
1933 -1.10287878693
1934 0.611718444783
1935 0.491160342145
1936 -1.05506913674
1937 0.572836879397
1938 0.482232257343
1939 -1.11192379565
1940 0.619419146669
1941 0.492504648978
1942 -1.31469063649
1943 0.637575678542
1944 0.677114957949
1945 -1.06238380018
1946 0.510393631469
1947 0.551990168711
1948 -1.19766216384
1949 0.634604766895
1950 0.563057396947
1951 -1.01334710352
1952 0.552333589144
1953 0.461013514373
1954 -1.09626901697
1955 0.571440213998
1956 0.524828802972
1957 -1.0133169633
1958 0.564857357735
1959 0.44845960557
1960 -1.18084304773
1961 0.57961474146
1962 0.601228306274
1963 -1.20140687356
1964 0.593812099316
1965 0.607594774248
1966 -1.00077860236
1967 0.520429377021
1968 0.480349225339
1969 -1.08936988971
1970 0.616769507541
1971 0.472600382166
1972 -1.24985542297
1973 0.524680743524
1974 0.725174679441
1975 -1.07608547773
1976 0.492204985071
1977 0.58388049266
1978 -0.909445933043
1979 0.43315508911
1980 0.476290843933
1981 -1.11747062841
1982 0.438385448282
1983 0.679085180128
1984 -1.05436486321
1985 0.49302746532
1986 0.561337397887
1987 -1.12846947404
1988 0.556202216351
1989 0.572267257692
1990 -1.31518057654
1991 0.6324789824
1992 0.682701594137
1993 -1.37529888749
1994 0.655035049022
1995 0.720263838469
1996 -1.06902399869
1997 0.538142980364
1998 0.530881018322
1999 -1.24144196446
2000 0.643469012381
2001 0.597972952074
2002 -1.1574396492
2003 0.559585980584
2004 0.597853668613
2005 -1.3239988427
2006 0.688747588815
2007 0.635251253885
2008 -1.00930262703
2009 0.640112041913
2010 0.369190585118
2011 -1.01404183374
2012 0.478449232035
2013 0.535592601708
2014 -1.1281723967
2015 0.630683521015
2016 0.497488875686
2017 -1.12553975163
2018 0.557533374347
2019 0.568006377281
2020 -1.18186226872
2021 0.553538183655
2022 0.628324085068
2023 -1.16569234137
2024 0.564147729605
2025 0.601544611769
2026 -1.03859483587
2027 0.589983591729
2028 0.44861124414
2029 -1.30232274604
2030 0.74900263935
2031 0.553320106685
2032 -1.12483918281
2033 0.645754447471
2034 0.479084735341
2035 -1.03139752357
2036 0.532009384179
2037 0.499388139388
2038 -0.866346775947
2039 0.39969887457
2040 0.466647901377
2041 -1.19533900786
2042 0.528409064449
2043 0.666929943407
2044 -0.954730059754
2045 0.505382199251
2046 0.449347860503
2047 -1.37230683624
2048 0.679452112184
2049 0.692854724054
2050 -1.16341547325
2051 0.582098557683
2052 0.581316915568
2053 -0.885577708828
2054 0.430537452407
2055 0.455040256421
2056 -1.14623425283
2057 0.621039974423
2058 0.52519427841
2059 -1.1277842025
2060 0.630552502519
2061 0.497231699984
2062 -1.2907800485
2063 0.651654524087
2064 0.639125524416
2065 -1.13480962305
2066 0.501069991463
2067 0.633739631587
2068 -1.13832650455
2069 0.590816413708
2070 0.547510090843
2071 -1.07350140717
2072 0.510700082743
2073 0.56280132443
2074 -1.24763498388
2075 0.627543430492
2076 0.620091553391
2077 -1.09968760241
2078 0.560999681572
2079 0.538687920835
2080 -1.00805453037
2081 0.454359394249
2082 0.553695136122
2083 -0.924119899235
2084 0.525074340638
2085 0.399045558597
2086 -1.07615292083
2087 0.61221965346
2088 0.463933267374
2089 -1.24760653895
2090 0.579775255592
2091 0.667831283359
2092 -1.14170416454
2093 0.546520373322
2094 0.595183791217
2095 -1.14475806324
2096 0.553829166138
2097 0.590928897106
2098 -1.00274919785
2099 0.4933313054
2100 0.509417892447
2101 -1.28028887537
2102 0.817116569319
2103 0.463172306049
2104 -1.05186516845
2105 0.508796401767
2106 0.543068766682
2107 -1.1217134166
2108 0.536718398679
2109 0.584995017919
2110 -1.04918359786
2111 0.551090033017
2112 0.498093564841
2113 -1.29746271989
2114 0.553184566912
2115 0.744278152974
2116 -1.12529840406
2117 0.592294105258
2118 0.533004298802
2119 -1.04277035674
2120 0.495796677775
2121 0.546973678968
2122 -1.05921916561
2123 0.512980603725
2124 0.546238561884
2125 -1.20922855301
2126 0.634773885654
2127 0.574454667351
2128 -0.998153131824
2129 0.527550203745
2130 0.470602928079
2131 -1.07836113863
2132 0.642598840501
2133 0.435762298128
2134 -1.10565755824
2135 0.623216131084
2136 0.482441427157
2137 -0.839697465431
2138 0.416658667359
2139 0.423038798072
2140 -1.27134686712
2141 0.647674652139
2142 0.623672214979
2143 -1.12163806458
2144 0.601567948609
2145 0.52007011597
2146 -1.30158782587
2147 0.660356872238
2148 0.641230953632
2149 -1.11921407592
2150 0.4600815966
2151 0.65913247932
2152 -1.15436199451
2153 0.60613165798
2154 0.548230336533
2155 -1.13499102669
2156 0.543577223788
2157 0.5914138029
2158 -1.12923217188
2159 0.56316880019
2160 0.566063371693
2161 -1.01116412578
2162 0.522976026655
2163 0.488188099127
2164 -1.24424952161
2165 0.767189601437
2166 0.477059920173
2167 -1.0617577925
2168 0.63128401193
2169 0.430473780574
2170 -1.08871896953
2171 0.519537092033
2172 0.569181877501
2173 -1.08603491433
2174 0.504241125015
2175 0.581793789314
2176 -1.0700498379
2177 0.539839767861
2178 0.530210070038
2179 -0.974891257561
2180 0.542339025571
2181 0.432552231991
2182 -1.17509779147
2183 0.584968120375
2184 0.590129671098
2185 -1.14035987327
2186 0.646612371957
2187 0.49374750131
2188 -1.235585051
2189 0.576198825154
2190 0.659386225842
2191 -1.13987090375
2192 0.572697523941
2193 0.567173379805
2194 -1.10774263911
2195 0.521403247772
2196 0.586339391338
2197 -1.08859348521
2198 0.550128960485
2199 0.538464524727
2200 -1.06412960937
2201 0.571727387197
2202 0.49240222217
2203 -1.31897063298
2204 0.705457386126
2205 0.613513246855
2206 -1.06159025219
2207 0.523475433571
2208 0.538114818616
2209 -1.20570828769
2210 0.562293305837
2211 0.643414981857
2212 -1.10787603621
2213 0.541863884079
2214 0.566012152134
2215 -1.10410883432
2216 0.632520555981
2217 0.471588278338
2218 -1.05847316697
2219 0.524768131167
2220 0.533705035802
2221 -0.975512813701
2222 0.536994878028
2223 0.438517935674
2224 -1.07227481621
2225 0.534542053558
2226 0.537732762651
2227 -1.17585637031
2228 0.681869473108
2229 0.493986897201
2230 -1.06228348078
2231 0.495202002413
2232 0.567081478366
2233 -1.10673987924
2234 0.514837113767
2235 0.591902765473
2236 -1.38869126536
2237 0.759845010759
2238 0.628846254603
2239 -1.36408103703
2240 0.630765581933
2241 0.733315455101
2242 -1.18478277734
2243 0.595535380911
2244 0.589247396425
2245 -1.02495683156
2246 0.417616116912
2247 0.607340714647
2248 -1.14123867237
2249 0.604986110067
2250 0.536252562301
2251 -1.36584333929
2252 0.735441045253
2253 0.630402294035
2254 -1.03142579401
2255 0.619868474297
2256 0.411557319709
2257 -1.34660866331
2258 0.644104559373
2259 0.70250410394
2260 -1.04240022773
2261 0.533714143722
2262 0.508686084005
2263 -1.19039043611
2264 0.474647382043
2265 0.715743054068
2266 -1.08379161016
2267 0.635778397544
2268 0.448013212619
2269 -1.12404558494
2270 0.61583792925
2271 0.508207655687
2272 -1.07473302177
2273 0.506957520083
2274 0.567775501689
2275 -1.32587653359
2276 0.754777718164
2277 0.571098815422
2278 -1.03108240845
2279 0.54043515935
2280 0.490647249095
2281 -1.10293216655
2282 0.483968659267
2283 0.618963507278
2284 -1.04541871851
2285 0.529036374679
2286 0.516382343827
2287 -1.03767586848
2288 0.480573410808
2289 0.557102457675
2290 -1.04811768674
2291 0.542644704031
2292 0.505472982713
2293 -0.988457794017
2294 0.517236888998
2295 0.471220905019
2296 -1.20913182652
2297 0.490736451188
2298 0.718395375333
2299 -1.11536493986
2300 0.612969468717
2301 0.50239547114
2302 -1.18056477331
2303 0.583171511246
2304 0.597393262064
2305 -1.23506015843
2306 0.55129489345
2307 0.683765264983
2308 -1.1929260914
2309 0.534360277147
2310 0.658565814257
2311 -1.09713537453
2312 0.547813236176
2313 0.549322138353
2314 -0.938712014015
2315 0.447221719093
2316 0.491490294922
2317 -1.13010315178
2318 0.621766706792
2319 0.508336444992
2320 -1.19265655974
2321 0.572195227693
2322 0.620461332046
2323 -1.37598469217
2324 0.72361984883
2325 0.652364843345
2326 -1.12262884124
2327 0.596557843803
2328 0.526070997434
2329 -0.993922784879
2330 0.544890502591
2331 0.449032282288
2332 -0.9957268977
2333 0.470399902247
2334 0.525326995453
2335 -1.09330924953
2336 0.518526333879
2337 0.574782915651
2338 -1.2520762512
2339 0.625649320065
2340 0.626426931137
2341 -1.1448021694
2342 0.561443985996
2343 0.583358183407
2344 -1.2278959236
2345 0.660289820518
2346 0.567606103079
2347 -1.2464019589
2348 0.576630386654
2349 0.669771572243
2350 -1.25137897049
2351 0.642901322308
2352 0.60847764818
2353 -1.30010148484
2354 0.660259673068
2355 0.639841811776
2356 -1.19335028094
2357 0.547765338075
2358 0.645584942863
2359 -1.18410538577
2360 0.652373818414
2361 0.531731567353
2362 -1.10595169447
2363 0.434216121465
2364 0.671735573004
2365 -1.10974105186
2366 0.493989486144
2367 0.615751565713
2368 -1.41264353394
2369 0.739153090998
2370 0.673490442941
2371 -1.10247906288
2372 0.547955034277
2373 0.554524028605
2374 -1.07389674847
2375 0.601949710121
2376 0.47194703835
2377 -1.17692101565
2378 0.634751088941
2379 0.542169926705
2380 -1.20548053479
2381 0.680095798383
2382 0.525384736409
2383 -1.16985305551
2384 0.571966615894
2385 0.597886439611
2386 -1.21889865478
2387 0.634373380199
2388 0.584525274584
2389 -1.19378199118
2390 0.602503431672
2391 0.591278559505
2392 -1.16857677714
2393 0.560984855619
2394 0.607591921522
2395 -1.46463939448
2396 0.684690378974
2397 0.779949015507
2398 -1.13289829619
2399 0.493263758319
2400 0.639634537873
2401 -1.12161758273
2402 0.659029864397
2403 0.462587718338
2404 -1.09575593701
2405 0.502760336623
2406 0.592995600391
2407 -1.32835213208
2408 0.615443402801
2409 0.712908729276
2410 -1.23109742929
2411 0.620535214199
2412 0.610562215088
2413 -1.08166605976
2414 0.539332246834
2415 0.542333812925
2416 -1.21133687186
2417 0.633037626785
2418 0.57829924508
2419 -1.21236999667
2420 0.685202704405
2421 0.527167292265
2422 -0.950407099234
2423 0.454314836059
2424 0.496092263175
2425 -1.02964322142
2426 0.499552275855
2427 0.530090945563
2428 -1.13823773622
2429 0.576223286361
2430 0.56201444986
2431 -1.44019260348
2432 0.708491886162
2433 0.731700717321
2434 -1.28894839898
2435 0.590285571278
2436 0.6986628277
2437 -1.10243135766
2438 0.55839273212
2439 0.544038625536
2440 -0.947015954194
2441 0.485155909404
2442 0.46186004479
2443 -1.06747825246
2444 0.499302954259
2445 0.568175298205
2446 -1.20806440662
2447 0.535422107121
2448 0.672642299495
2449 -1.08650131766
2450 0.522599470293
2451 0.563901847367
2452 -1.05728309833
2453 0.528558176034
2454 0.528724922293
2455 -1.31849406737
2456 0.713934153486
2457 0.604559913881
2458 -1.00392334986
2459 0.405358079779
2460 0.598565270083
2461 -0.987233724052
2462 0.45672123378
2463 0.530512490273
2464 -0.996328574785
2465 0.503034171105
2466 0.49329440368
2467 -1.2460654671
2468 0.636488301536
2469 0.609577165564
2470 -1.04843415792
2471 0.592655966388
2472 0.455778191532
2473 -1.05593594126
2474 0.485875414647
2475 0.57006052661
2476 -1.15331608015
2477 0.57400140286
2478 0.579314677294
2479 -1.0215221806
2480 0.57087540528
2481 0.450646775318
2482 -1.13537261908
2483 0.570201986509
2484 0.565170632567
2485 -1.15539740357
2486 0.598055410316
2487 0.557341993254
2488 -1.07695680419
2489 0.525894399567
2490 0.551062404622
2491 -1.18348824553
2492 0.631094566659
2493 0.552393678866
2494 -1.12105373089
2495 0.554030248058
2496 0.567023482834
2497 -1.34833410699
2498 0.605736520243
2499 0.742597586749
2500 -1.2322362965
2501 0.613125084354
2502 0.61911121215
2503 -1.12570311248
2504 0.633040288735
2505 0.492662823744
2506 -1.0968751506
2507 0.584271353377
2508 0.512603797218
2509 -0.955442728506
2510 0.450194638543
2511 0.505248089962
2512 -1.04632225367
2513 0.594933413883
2514 0.451388839785
2515 -1.03211940824
2516 0.555236696472
2517 0.476882711764
2518 -1.13454099012
2519 0.627222595117
2520 0.507318395007
2521 -1.13921651776
2522 0.527510945629
2523 0.611705572135
2524 -1.12488444924
2525 0.554239723688
2526 0.57064472555
2527 -1.11196438635
2528 0.622155401177
2529 0.489808985171
2530 -1.00895950738
2531 0.562458620525
2532 0.446500886852
2533 -1.12827026086
2534 0.632318958346
2535 0.495951302509
2536 -0.988310370132
2537 0.538092675482
2538 0.45021769465
2539 -1.30175549853
2540 0.689822454814
2541 0.611933043719
2542 -1.04206887758
2543 0.48971989464
2544 0.552348982936
2545 -1.3782986683
2546 0.700198031833
2547 0.678100636469
2548 -1.11463527688
2549 0.58036243673
2550 0.534272840146
2551 -1.0337574053
2552 0.532111323437
2553 0.501646081859
2554 -1.1161771791
2555 0.570407558505
2556 0.545769620599
2557 -1.06877701538
2558 0.521330106514
2559 0.547446908868
2560 -1.38322597152
2561 0.761431782378
2562 0.621794189146
2563 -1.47842138386
2564 0.767288770903
2565 0.711132612953
2566 -1.13164765781
2567 0.565885589292
2568 0.565762068522
2569 -1.0110995423
2570 0.497095771847
2571 0.514003770454
2572 -0.919197339307
2573 0.412809891613
2574 0.506387447693
2575 -1.26047324657
2576 0.659324436243
2577 0.601148810322
2578 -1.27374954061
2579 0.716918602585
2580 0.556830938024
2581 -1.24570457859
2582 0.556376046922
2583 0.689328531665
2584 -1.20112376574
2585 0.577576865527
2586 0.623546900216
2587 -1.1915872013
2588 0.553841142359
2589 0.637746058938
2590 -1.11370832658
2591 0.496900674629
2592 0.616807651956
2593 -1.09622644522
2594 0.538873597712
2595 0.557352847507
2596 -1.22560228257
2597 0.63721311022
2598 0.588389172345
2599 -1.19580144452
2600 0.537375512408
2601 0.658425932108
2602 -0.979299328989
2603 0.410440836142
2604 0.568858492847
2605 -1.34279104706
2606 0.649043556626
2607 0.693747490437
2608 -1.23509167718
2609 0.609823257886
2610 0.62526841929
2611 -1.55582835441
2612 0.686205824776
2613 0.869622529632
2614 -0.867817885618
2615 0.398696134676
2616 0.469121750942
2617 -1.0537041662
2618 0.515584931203
2619 0.538119235001
2620 -0.983101390264
2621 0.521649035983
2622 0.461452354281
2623 -1.32722952861
2624 0.610359569853
2625 0.716869958759
2626 -1.30980907657
2627 0.604464514733
2628 0.705344561837
2629 -1.09491357128
2630 0.564788836271
2631 0.530124735008
2632 -1.28240388948
2633 0.598111271779
2634 0.684292617702
2635 -1.11899601897
2636 0.643366542606
2637 0.475629476363
2638 -1.31550576352
2639 0.599291313913
2640 0.716214449608
2641 -1.23733668144
2642 0.6756563157
2643 0.561680365739
2644 -1.18977719537
2645 0.654062607328
2646 0.53571458804
2647 -1.15359571239
2648 0.594319917163
2649 0.559275795229
2650 -0.986158176527
2651 0.528933526323
2652 0.457224650204
2653 -1.33310796142
2654 0.632447593054
2655 0.700660368367
2656 -1.29079499871
2657 0.599668464833
2658 0.69112653388
2659 -1.03828225746
2660 0.47562772409
2661 0.562654533371
2662 -1.01982877541
2663 0.535106409937
2664 0.484722365473
2665 -1.04540023783
2666 0.464502244645
2667 0.580897993181
2668 -1.13809925547
2669 0.563885800327
2670 0.574213455139
2671 -0.962820707719
2672 0.529461940599
2673 0.433358767121
2674 -1.15468307514
2675 0.545948236469
2676 0.60873483867
2677 -1.32528398888
2678 0.641598338175
2679 0.683685650703
2680 -1.20564883415
2681 0.635821107053
2682 0.569827727093
2683 -1.01828983103
2684 0.553281453928
2685 0.465008377098
2686 -1.26224691962
2687 0.685256094857
2688 0.576990824762
2689 -1.05282145472
2690 0.579048334519
2691 0.473773120197
2692 -1.13656238424
2693 0.569256255724
2694 0.567306128514
2695 -0.985133718168
2696 0.412844023591
2697 0.572289694577
2698 -1.13834649363
2699 0.59355748818
2700 0.544789005447
2701 -1.02654735304
2702 0.512467016166
2703 0.514080336874
2704 -0.883631248285
2705 0.479086508833
2706 0.404544739451
2707 -0.980609383993
2708 0.47121324912
2709 0.509396134874
2710 -0.74702941596
2711 0.382824916073
2712 0.364204499886
2713 -1.01284246146
2714 0.539657012147
2715 0.473185449317
2716 -1.0542738584
2717 0.508076991299
2718 0.546196867103
2719 -1.12352638536
2720 0.670463719239
2721 0.453062666121
2722 -0.969305022505
2723 0.398898884432
2724 0.570406138073
2725 -1.13030964198
2726 0.536091231094
2727 0.594218410889
2728 -1.14951347112
2729 0.520676292909
2730 0.628837178214
2731 -1.16117284311
2732 0.608468484156
2733 0.55270435895
2734 -0.9449063982
2735 0.517740024768
2736 0.427166373431
2737 -1.09639031018
2738 0.588637508056
2739 0.507752802119
2740 -0.885434778167
2741 0.492071458328
2742 0.393363319839
2743 -1.3386194221
2744 0.766809113534
2745 0.571810308566
2746 -1.20883150191
2747 0.64010699622
2748 0.568724505689
2749 -1.09182602302
2750 0.560673039525
2751 0.531152983491
2752 -1.18190314559
2753 0.58454326318
2754 0.597359882413
2755 -1.00670587118
2756 0.498902295425
2757 0.507803575751
2758 -1.02892498711
2759 0.469567860566
2760 0.559357126541
2761 -1.1195002464
2762 0.554922136364
2763 0.564578110031
2764 -1.07561045304
2765 0.545049428649
2766 0.530561024394
2767 -1.0160869725
2768 0.455299849452
2769 0.560787123053
2770 -1.09499989427
2771 0.450787384346
2772 0.644212509919
2773 -1.12129160179
2774 0.527012520581
2775 0.594279081214
2776 -1.10673810576
2777 0.426823489097
2778 0.679914616659
2779 -1.0124713445
2780 0.471582157589
2781 0.540889186909
2782 -1.12269790759
2783 0.566213316509
2784 0.556484591083
2785 -0.946667041119
2786 0.492478805781
2787 0.454188235338
2788 -1.18512790743
2789 0.588158110798
2790 0.596969796634
2791 -1.1135451614
2792 0.556295626007
2793 0.557249535389
2794 -1.13577254739
2795 0.515671423989
2796 0.6201011234
2797 -1.15579182368
2798 0.568663198696
2799 0.587128624984
2800 -1.22180229127
2801 0.697606385532
2802 0.524195905739
2803 -1.19510520445
2804 0.588067940133
2805 0.60703726432
2806 -1.20142616235
2807 0.555163244665
2808 0.646262917685
2809 -1.20878989428
2810 0.651817448658
2811 0.556972445618
2812 -1.10245007888
2813 0.592827154059
2814 0.509622924824
2815 -1.3339430362
2816 0.657020780133
2817 0.676922256071
2818 -1.28123583925
2819 0.597573771048
2820 0.683662068204
2821 -1.1749330045
2822 0.687990342541
2823 0.486942661964
2824 -1.11703749625
2825 0.592996860146
2826 0.524040636107
2827 -1.23121697443
2828 0.677195991216
2829 0.554020983209
2830 -1.37685861493
2831 0.699344785469
2832 0.677513829459
2833 -1.05834995855
2834 0.566049359196
2835 0.492300599353
2836 -1.07391737443
2837 0.559006942014
2838 0.514910432416
2839 -1.01585644878
2840 0.569273397512
2841 0.446583051265
2842 -0.877076390986
2843 0.462017861041
2844 0.415058529945
2845 -1.30308736175
2846 0.630702248025
2847 0.672385113729
2848 -1.25415942156
2849 0.553385109621
2850 0.700774311939
2851 -1.23688198556
2852 0.620387769234
2853 0.616494216323
2854 -1.31567526335
2855 0.655451307091
2856 0.660223956259
2857 -1.17191344438
2858 0.573459521923
2859 0.598453922457
2860 -0.999649961291
2861 0.552624061061
2862 0.44702590023
2863 -1.04932377255
2864 0.475182637282
2865 0.57414113527
2866 -0.957782728191
2867 0.530533354104
2868 0.427249374087
2869 -1.22437446399
2870 0.641147287992
2871 0.583227175995
2872 -0.936319306557
2873 0.474470464133
2874 0.461848842424
2875 -1.15890430256
2876 0.574407242119
2877 0.584497060438
2878 -1.03470029504
2879 0.520327649632
2880 0.514372645412
2881 -1.10891389297
2882 0.60194947979
2883 0.50696441318
2884 -1.04201176719
2885 0.479259088567
2886 0.562752678622
2887 -1.35852642445
2888 0.605900544136
2889 0.752625880316
2890 -1.28355520584
2891 0.596581981722
2892 0.686973224122
2893 -1.01383401149
2894 0.489276396958
2895 0.524557614529
2896 -1.07814809906
2897 0.532780986389
2898 0.545367112673
2899 -0.868119568584
2900 0.445946445957
2901 0.422173122626
2902 -0.845138109937
2903 0.348294284823
2904 0.496843825114
2905 -0.991884471657
2906 0.501168105569
2907 0.490716366088
2908 -1.02285674001
2909 0.464456392024
2910 0.558400347987
2911 -1.26116865979
2912 0.63056189793
2913 0.630606761856
2914 -1.09021217547
2915 0.597928361529
2916 0.49228381394
2917 -1.05149527495
2918 0.544172921369
2919 0.507322353577
2920 -1.07634928927
2921 0.478552288229
2922 0.597797001037
2923 -1.20634408019
2924 0.639221453639
2925 0.567122626549
2926 -1.17130105268
2927 0.602078616654
2928 0.569222436027
2929 -1.10387506832
2930 0.57645242217
2931 0.527422646146
2932 -0.991282636829
2933 0.460502421247
2934 0.530780215582
2935 -0.899238164085
2936 0.454631793581
2937 0.444606370505
2938 -1.00191746485
2939 0.510204238746
2940 0.491713226104
2941 -1.10622388715
2942 0.526078682703
2943 0.580145204443
2944 -1.19760558687
2945 0.51895658075
2946 0.678649006116
2947 -1.25329770987
2948 0.712344505065
2949 0.540953204807
2950 -1.0896292017
2951 0.582345049256
2952 0.507284152442
2953 -1.1155178699
2954 0.518500567831
2955 0.597017302071
2956 -1.10990706686
2957 0.546424914362
2958 0.5634821525
2959 -1.07901615928
2960 0.589466903927
2961 0.489549255358
2962 -1.01454145445
2963 0.47998951672
2964 0.534551937732
2965 -1.24866431678
2966 0.655985625959
2967 0.592678690818
2968 -1.13259507665
2969 0.475818496085
2970 0.65677658057
2971 -1.17202067704
2972 0.63981959044
2973 0.532201086599
2974 -1.11579615368
2975 0.588192456941
2976 0.527603696742
2977 -1.22189106623
2978 0.599380309171
2979 0.622510757056
2980 -1.20006534885
2981 0.59190213033
2982 0.608163218523
2983 -0.996656749503
2984 0.599069156234
2985 0.397587593269
2986 -1.07522128723
2987 0.508604194022
2988 0.566617093211
2989 -1.05724801215
2990 0.495328080845
2991 0.561919931306
2992 -0.930199866467
2993 0.474559406515
2994 0.455640459951
2995 -1.37529338506
2996 0.684158882545
2997 0.69113450252
2998 -1.12900666253
2999 0.578093875949
3000 0.550912786579
3001 -1.04409118594
3002 0.54494083021
3003 0.499150355727
3004 -0.955885289573
3005 0.454435002678
3006 0.501450286895
3007 -1.28996086003
3008 0.625831910367
3009 0.664128949662
3010 -1.33791059712
3011 0.702095937481
3012 0.635814659638
3013 -0.966803970812
3014 0.452333021302
3015 0.514470949509
3016 -1.46413882064
3017 0.752618027191
3018 0.71152079345
3019 -1.25715732474
3020 0.637299923067
3021 0.619857401675
3022 -1.02755394032
3023 0.515682045805
3024 0.511871894518
3025 -1.04114488863
3026 0.606073329837
3027 0.435071558797
3028 -1.12198459524
3029 0.549311939963
3030 0.572672655274
3031 -1.15485129833
3032 0.553936511425
3033 0.600914786902
3034 -1.08198040494
3035 0.533062115243
3036 0.548918289697
3037 -1.14908016862
3038 0.568636185642
3039 0.580443982983
3040 -1.22725351294
3041 0.674481439802
3042 0.552772073138
3043 -1.31800412543
3044 0.585119454137
3045 0.732884671292
3046 -1.30886062669
3047 0.636607689625
3048 0.672252937061
3049 -1.01948421671
3050 0.562681073277
3051 0.456803143435
3052 -1.15331620279
3053 0.6079397474
3054 0.545376455388
3055 -1.11999942368
3056 0.570105874096
3057 0.549893549584
3058 -0.996394593697
3059 0.523639363412
3060 0.472755230285
3061 -1.07807817731
3062 0.533434327465
3063 0.544643849846
3064 -1.16573780516
3065 0.484487219545
3066 0.681250585611
3067 -1.05310966611
3068 0.536713345518
3069 0.516396320595
3070 -1.05517190798
3071 0.496846270552
3072 0.558325637432
3073 -1.23531546058
3074 0.56069136526
3075 0.674624095323
3076 -1.18715700824
3077 0.624776844182
3078 0.562380164058
3079 -1.22392825563
3080 0.565803531222
3081 0.658124724412
3082 -1.08515188381
3083 0.53138593422
3084 0.553765949591
3085 -0.931376006004
3086 0.439803198226
3087 0.491572807778
3088 -1.27970894489
3089 0.677531551602
3090 0.602177393291
3091 -1.15482374033
3092 0.543515992025
3093 0.611307748309
3094 -0.947661958552
3095 0.490944087939
3096 0.456717870613
3097 -1.21318149512
3098 0.568909043378
3099 0.644272451737
3100 -1.03784237101
3101 0.540124471642
3102 0.497717899363
3103 -1.29733023963
3104 0.630264103677
3105 0.667066135954
3106 -1.18908224804
3107 0.632287798831
3108 0.556794449212
3109 -1.31742855799
3110 0.672112642472
3111 0.645315915515
3112 -1.04895879889
3113 0.503852650264
3114 0.545106148627
3115 -1.02223783345
3116 0.488362605528
3117 0.533875227918
3118 -1.10293961883
3119 0.565481399752
3120 0.537458219077
3121 -1.01479661874
3122 0.486973302871
3123 0.527823315865
3124 -1.16614710878
3125 0.509128709907
3126 0.657018398877
3127 -1.05069999387
3128 0.557200639316
3129 0.493499354551
3130 -1.03863666777
3131 0.486399420537
3132 0.552237247233
3133 -1.33107761772
3134 0.663466723707
3135 0.667610894011
3136 -1.14279693206
3137 0.611184265302
3138 0.531612666756
3139 -1.23146696494
3140 0.599572338387
3141 0.631894626551
3142 -1.21852241512
3143 0.594992869064
3144 0.623529546057
3145 -0.892787917884
3146 0.458066559105
3147 0.434721358779
3148 -1.18766548764
3149 0.491599081305
3150 0.696066406336
3151 -0.942389122443
3152 0.538000510937
3153 0.404388611506
3154 -1.00315650158
3155 0.482228982757
3156 0.520927518826
3157 -1.10368774801
3158 0.597333530744
3159 0.50635421727
3160 -1.14266755164
3161 0.658938849023
3162 0.483728702615
3163 -1.10767132409
3164 0.511215741128
3165 0.596455582963
3166 -1.27281862104
3167 0.56820547989
3168 0.704613141152
3169 -1.32778562092
3170 0.623807073251
3171 0.703978547673
3172 -1.23046149846
3173 0.570444126041
3174 0.66001737242
3175 -1.04037309169
3176 0.518489427443
3177 0.521883664247
3178 -0.871737068608
3179 0.420819270201
3180 0.450917798408
3181 -1.11905052394
3182 0.580854621282
3183 0.538195902657
3184 -1.00869594158
3185 0.486753667794
3186 0.521942273785
3187 -0.93902045078
3188 0.503496480997
3189 0.435523969784
3190 -1.22227674405
3191 0.570931399696
3192 0.65134534435
3193 -1.08943285076
3194 0.551976225629
3195 0.537456625129
3196 -1.08867972418
3197 0.491304065735
3198 0.59737565844
3199 -1.25545093306
3200 0.676661848023
3201 0.578789085037
3202 -1.01339061493
3203 0.506184057077
3204 0.507206557857
3205 -1.19367111185
3206 0.594259945617
3207 0.599411166236
3208 -1.06506941521
3209 0.529250803299
3210 0.535818611914
3211 -1.10421915173
3212 0.508112411267
3213 0.596106740462
3214 -1.00306173422
3215 0.435776199408
3216 0.56728553481
3217 -1.2142853778
3218 0.664398814422
3219 0.54988656338
3220 -1.17347690293
3221 0.484476679154
3222 0.689000223774
3223 -0.923523463989
3224 0.532292151352
3225 0.391231312638
3226 -1.22474272748
3227 0.619793848375
3228 0.604948879109
3229 -1.25530209933
3230 0.708791719023
3231 0.54651038031
3232 -1.21122566978
3233 0.588664895555
3234 0.62256077423
3235 -1.0457866141
3236 0.479884767946
3237 0.565901846154
3238 -1.02545672122
3239 0.509956362113
3240 0.515500359108
3241 -1.24521440738
3242 0.619861771871
3243 0.625352635505
3244 -1.20405477158
3245 0.561414951573
3246 0.642639820003
3247 -1.33984336446
3248 0.689628942266
3249 0.650214422189
3250 -1.11377245267
3251 0.558552090837
3252 0.555220361829
3253 -1.18475266091
3254 0.470677700274
3255 0.714074960636
3256 -1.22085042213
3257 0.709497786822
3258 0.51135263531
3259 -1.02102272281
3260 0.509086248862
3261 0.51193647395
3262 -1.06446422779
3263 0.453175984448
3264 0.611288243347
3265 -1.22848533943
3266 0.593531496273
3267 0.634953843156
3268 -1.11529150882
3269 0.559556320614
3270 0.555735188207
3271 -1.3395483375
3272 0.669758191357
3273 0.669790146144
3274 -1.12717331951
3275 0.564608911897
3276 0.562564407612
3277 -1.04638823227
3278 0.476755480372
3279 0.569632751899
3280 -1.12748892895
3281 0.504932151724
3282 0.622556777224
3283 -0.987832362189
3284 0.415762149465
3285 0.572070212724
3286 -0.949458063207
3287 0.429299928318
3288 0.520158134889
3289 -0.955256361643
3290 0.483411159692
3291 0.471845201951
3292 -1.17675769831
3293 0.541996766405
3294 0.6347609319
3295 -1.13708229389
3296 0.521728713751
3297 0.615353580136
3298 -1.10038966786
3299 0.491919065985
3300 0.608470601875
3301 -1.23903757651
3302 0.606018131882
3303 0.633019444631
3304 -1.02091811172
3305 0.500555149812
3306 0.520362961909
3307 -1.0613171622
3308 0.470094574158
3309 0.591222588046
3310 -0.935825712224
3311 0.457063721419
3312 0.478761990805
3313 -1.38868597016
3314 0.682026625147
3315 0.70665934501
3316 -1.25616700186
3317 0.599403655257
3318 0.656763346606
3319 -1.06155236558
3320 0.53394531789
3321 0.527607047691
3322 -1.21474863823
3323 0.51689066436
3324 0.697857973868
3325 -1.2244235025
3326 0.623145436351
3327 0.601278066147
3328 -1.28189965218
3329 0.693967005828
3330 0.587932646353
3331 -1.11551904226
3332 0.515029826994
3333 0.600489215264
3334 -1.13711113946
3335 0.606731024963
3336 0.530380114498
3337 -1.21243339033
3338 0.536540558929
3339 0.6758928314
3340 -0.954078015879
3341 0.51738936369
3342 0.436688652189
3343 -1.0720562252
3344 0.50193210991
3345 0.570124115289
3346 -1.28188290804
3347 0.644007176297
3348 0.637875731747
3349 -1.07937328277
3350 0.611544853234
3351 0.467828429538
3352 -0.948497109072
3353 0.484528532628
3354 0.463968576444
3355 -1.02911991025
3356 0.489404860133
3357 0.539715050119
3358 -1.24445687522
3359 0.639927665373
3360 0.604529209845
3361 -1.18563538012
3362 0.544664451959
3363 0.640970928162
3364 -1.12165175311
3365 0.578665408202
3366 0.542986344906
3367 -1.03268947664
3368 0.584782119623
3369 0.447907357015
3370 -1.24421040931
3371 0.591230955495
3372 0.652979453818
3373 -1.08771242255
3374 0.516095950657
3375 0.571616471888
3376 -1.00205481448
3377 0.532430320681
3378 0.469624493798
3379 -1.38406809397
3380 0.660113786988
3381 0.723954306978
3382 -1.22897457871
3383 0.658233592451
3384 0.570740986257
3385 -1.24753957772
3386 0.656269950186
3387 0.591269627536
3388 -1.10787407078
3389 0.563299017009
3390 0.54457505377
3391 -1.29300612459
3392 0.559256423171
3393 0.733749701414
3394 -1.23485389259
3395 0.601560839694
3396 0.6332930529
3397 -0.992523941785
3398 0.520504667422
3399 0.472019274363
3400 -1.06232491045
3401 0.529513719962
3402 0.532811190484
3403 -1.20448872212
3404 0.612443621583
3405 0.592045100534
3406 -1.17907173318
3407 0.596686971022
3408 0.582384762158
3409 -1.13237814472
3410 0.633109593137
3411 0.499268551582
3412 -1.24467855227
3413 0.638965309774
3414 0.605713242491
3415 -1.14161862115
3416 0.635383837801
3417 0.506234783346
3418 -1.05004688997
3419 0.629105070499
3420 0.420941819475
3421 -1.17914042709
3422 0.551142149519
3423 0.627998277567
3424 -1.22088121846
3425 0.539842338633
3426 0.681038879827
3427 -1.41543963117
3428 0.710866251526
3429 0.704573379649
3430 -1.02384082725
3431 0.541780284373
3432 0.482060542873
3433 -1.09321530702
3434 0.471439882947
3435 0.621775424075
3436 -1.12140625383
3437 0.627039066113
3438 0.494367187717
3439 -0.944522973206
3440 0.443747835195
3441 0.500775138011
3442 -1.39108080607
3443 0.635157165277
3444 0.755923640795
3445 -1.33225557742
3446 0.678731622991
3447 0.653523954428
3448 -1.03592600797
3449 0.472579378007
3450 0.563346629964
3451 -1.28435480001
3452 0.629521924948
3453 0.654832875063
3454 -1.10137476371
3455 0.502699114824
3456 0.598675648881
3457 -0.955737463653
3458 0.4605365256
3459 0.495200938053
3460 -0.93877334556
3461 0.492847035791
3462 0.44592630977
3463 -1.08238241972
3464 0.48174696908
3465 0.600635450642
3466 -1.27262257896
3467 0.574987331756
3468 0.697635247209
3469 -1.09134427144
3470 0.604056551591
3471 0.487287719845
3472 -1.04430894017
3473 0.558694250233
3474 0.485614689935
3475 -1.09334874939
3476 0.570797362845
3477 0.522551386545
3478 -1.32572638898
3479 0.658236257276
3480 0.667490131701
3481 -1.04869158142
3482 0.502286412064
3483 0.546405169356
3484 -1.18313257987
3485 0.604782240548
3486 0.578350339326
3487 -1.0289423601
3488 0.584278583345
3489 0.444663776751
3490 -1.16134062429
3491 0.615375345983
3492 0.545965278304
3493 -1.10203102248
3494 0.63325855531
3495 0.468772467171
3496 -1.19163490675
3497 0.579893215082
3498 0.611741691665
3499 -1.22133917096
3500 0.592980985947
3501 0.628358185015
3502 -0.974043698475
3503 0.478492593266
3504 0.495551105209
3505 -1.05120302962
3506 0.587557030618
3507 0.463645999
3508 -1.26006659115
3509 0.52271521267
3510 0.737351378479
3511 -1.12394352244
3512 0.478334979792
3513 0.645608542648
3514 -0.886071509107
3515 0.452147577578
3516 0.433923931529
3517 -1.13967910987
3518 0.494808458835
3519 0.64487065103
3520 -1.02938114308
3521 0.50526471618
3522 0.524116426899
3523 -1.13763003408
3524 0.546778841362
3525 0.590851192722
3526 -1.33557965577
3527 0.613648155781
3528 0.721931499991
3529 -1.39047193873
3530 0.663373397374
3531 0.727098541356
3532 -1.05179211972
3533 0.538917044211
3534 0.512875075507
3535 -1.21183615191
3536 0.600393666079
3537 0.611442485827
3538 -1.12102377246
3539 0.535314908797
3540 0.585708863665
3541 -1.31131908689
3542 0.679394682742
3543 0.631924404152
3544 -1.04483404901
3545 0.664537599935
3546 0.380296449071
3547 -1.01899271073
3548 0.497944664828
3549 0.521048045897
3550 -1.15698337374
3551 0.646597016539
3552 0.510386357205
3553 -1.07906529614
3554 0.538986312245
3555 0.540078983892
3556 -1.19599701914
3557 0.550106315583
3558 0.645890703554
3559 -1.17918357422
3560 0.584051619644
3561 0.595131954571
3562 -1.02352754016
3563 0.585899941326
3564 0.43762759883
3565 -1.30221415655
3566 0.753607634829
3567 0.548606521721
3568 -1.14173192351
3569 0.662831554386
3570 0.478900369122
3571 -1.00984889197
3572 0.54198217807
3573 0.467866713902
3574 -0.876138261538
3575 0.403975275684
3576 0.472162985855
3577 -1.25587605752
3578 0.567629571624
3579 0.6882464859
3580 -0.9242095633
3581 0.4825647289
3582 0.4416448344
3583 -1.32563671495
3584 0.619745715391
3585 0.705890999556
3586 -1.2024857424
3587 0.605755623996
3588 0.596730118399
3589 -0.849500685142
3590 0.405676158273
3591 0.443824526869
3592 -1.11574727292
3593 0.63948314256
3594 0.476264130358
3595 -1.14522588459
3596 0.609767046653
3597 0.535458837934
3598 -1.27734472537
3599 0.665682968503
3600 0.611661756867
3601 -1.12777822213
3602 0.479279737168
3603 0.648498484958
3604 -1.14996913379
3605 0.628877730603
3606 0.52109140319
3607 -1.07236475023
3608 0.498999878677
3609 0.573364871556
3610 -1.27565976226
3611 0.637684751061
3612 0.637975011196
3613 -1.08981546712
3614 0.565296760902
3615 0.524518706217
3616 -1.04269241769
3617 0.455949813787
3618 0.5867426039
3619 -0.9133184895
3620 0.516883475566
3621 0.396435013933
3622 -1.07270792142
3623 0.569881206867
3624 0.502826714555
3625 -1.25318329684
3626 0.600614329332
3627 0.652568967503
3628 -1.10277890268
3629 0.527065770243
3630 0.575713132438
3631 -1.18539362695
3632 0.567411956238
3633 0.61798167071
3634 -1.01571472891
3635 0.516706415632
3636 0.499008313275
3637 -1.29462529262
3638 0.807225199995
3639 0.48740009263
3640 -1.0145225105
3641 0.471252984043
3642 0.543269526457
3643 -1.16727864862
3644 0.563662598526
3645 0.603616050091
3646 -0.983378204594
3647 0.52333105801
3648 0.460047146584
3649 -1.27704127038
3650 0.551376142017
3651 0.725665128358
3652 -1.09582013753
3653 0.551497883584
3654 0.544322253945
3655 -0.990316699056
3656 0.475657019691
3657 0.514659679364
3658 -1.06084557208
3659 0.503766890288
3660 0.557078681791
3661 -1.26838014111
3662 0.637752924761
3663 0.630627216351
3664 -1.00848968745
3665 0.509026732962
3666 0.499462954489
3667 -1.01247633443
3668 0.602122378038
3669 0.410353956394
3670 -1.10469036598
3671 0.603028305775
3672 0.501662060206
3673 -0.84456937694
3674 0.396580096686
3675 0.447989280254
3676 -1.24784212974
3677 0.63022569469
3678 0.617616435045
3679 -1.14623265356
3680 0.586150540296
3681 0.560082113268
3682 -1.36357742086
3683 0.672219521971
3684 0.691357898887
3685 -1.14480883323
3686 0.469437609588
3687 0.675371223642
3688 -1.15877379095
3689 0.640837496545
3690 0.517936294409
3691 -1.12531464592
3692 0.548127930034
3693 0.577186715884
3694 -1.09872496947
3695 0.554611552923
3696 0.544113416551
3697 -1.02378157841
3698 0.515894363906
3699 0.507887214508
3700 -1.25585042263
3701 0.736369047435
3702 0.519481375192
3703 -1.05510538919
3704 0.588920533334
3705 0.466184855858
3706 -1.093424137
3707 0.504005662579
3708 0.589418474423
3709 -1.08538381404
3710 0.494322395576
3711 0.591061418461
3712 -1.07808929742
3713 0.568756081731
3714 0.509333215693
3715 -1.01603292055
3716 0.540034921005
3717 0.475997999542
3718 -1.1626982881
3719 0.586144148877
3720 0.57655413922
3721 -1.12283654159
3722 0.630557463984
3723 0.492279077606
3724 -1.24818034733
3725 0.568667853939
3726 0.67951249339
3727 -1.13319463416
3728 0.563366264576
3729 0.569828369583
3730 -1.08638225871
3731 0.47919831184
3732 0.607183946866
3733 -1.08542725546
3734 0.537337304729
3735 0.548089950732
3736 -1.10496864192
3737 0.583334924958
3738 0.52163371696
3739 -1.30913540105
3740 0.70380839068
3741 0.605327010371
3742 -1.03407449938
3743 0.479704051524
3744 0.554370447856
3745 -1.14660279381
3746 0.550659538826
3747 0.595943254987
3748 -1.11326578442
3749 0.518813117513
3750 0.594452666906
3751 -1.0897283581
3752 0.625089591555
3753 0.464638766547
3754 -1.07409616971
3755 0.538317635615
3756 0.535778534093
3757 -0.972571505986
3758 0.509750890993
3759 0.462820614993
3760 -1.10886542615
3761 0.595769151762
3762 0.513096274389
3763 -1.14215233334
3764 0.654868820782
3765 0.487283512553
3766 -1.08718980954
3767 0.55444806098
3768 0.532741748565
3769 -1.10320595949
3770 0.509691782284
3771 0.593514177207
3772 -1.38961818984
3773 0.768029165541
3774 0.621589024302
3775 -1.35946468107
3776 0.63183480154
3777 0.727629879527
3778 -1.1783037136
3779 0.631231571202
3780 0.5470721424
3781 -1.10224379832
3782 0.439665624026
3783 0.662578174291
3784 -1.17375286507
3785 0.645734666736
3786 0.528018198334
3787 -1.37205298782
3788 0.725617713346
3789 0.646435274477
3790 -0.993489436441
3791 0.571265084529
3792 0.422224351911
3793 -1.34270154087
3794 0.651558568797
3795 0.691142972073
3796 -1.04481593271
3797 0.517197793717
3798 0.527618138992
3799 -1.22177023031
3800 0.471988711585
3801 0.749781518725
3802 -1.09625143426
3803 0.664797274535
3804 0.431454159727
3805 -1.10598463401
3806 0.606015184426
3807 0.499969449589
3808 -1.03937345053
3809 0.503014141233
3810 0.536359309299
3811 -1.28024573375
3812 0.747781445829
3813 0.53246428792
3814 -1.00069390371
3815 0.536078974223
3816 0.46461492949
3817 -1.1079560807
3818 0.472097609629
3819 0.635858471075
3820 -1.11030872512
3821 0.530326137059
3822 0.579982588065
3823 -1.01702118947
3824 0.477345686239
3825 0.539675503232
3826 -1.0808664205
3827 0.554293041738
3828 0.526573378767
3829 -1.00273399694
3830 0.504381972851
3831 0.498352024086
3832 -1.18358344205
3833 0.497214972995
3834 0.686368469054
3835 -1.10057083106
3836 0.579959238146
3837 0.520611592914
3838 -1.26720668624
3839 0.633553864676
3840 0.633652821568
3841 -1.25376137363
3842 0.552540877516
3843 0.701220496118
3844 -1.19858857885
3845 0.583910378649
3846 0.614678200199
3847 -1.08759744672
3848 0.535411245659
3849 0.552186201062
3850 -0.939933593909
3851 0.45987690727
3852 0.480056686638
3853 -1.20826202679
3854 0.677170715448
3855 0.531091311346
3856 -1.19370579566
3857 0.585712166172
3858 0.607993629491
3859 -1.35461312709
3860 0.683950994177
3861 0.670662132913
3862 -1.11804466584
3863 0.587075562767
3864 0.530969103076
3865 -0.933943942892
3866 0.482363380785
3867 0.451580562108
3868 -1.02809537409
3869 0.521724673816
3870 0.506370700272
3871 -1.11151377823
3872 0.537111352759
3873 0.574402425469
3874 -1.24737455299
3875 0.654560620427
3876 0.592813932561
3877 -1.13804527208
3878 0.575597449098
3879 0.562447822979
3880 -1.15405396635
3881 0.599235387916
3882 0.554818578435
3883 -1.23985784403
3884 0.586069911081
3885 0.653787932946
3886 -1.21042123678
3887 0.606722164812
3888 0.603699071966
3889 -1.28602990045
3890 0.602981959301
3891 0.683047941152
3892 -1.11196141793
3893 0.503660245228
3894 0.608301172698
3895 -1.17118570197
3896 0.623472868213
3897 0.547712833761
3898 -1.11170942537
3899 0.43943291335
3900 0.672276512021
3901 -1.13737242513
3902 0.493763943321
3903 0.643608481804
3904 -1.41019138277
3905 0.782026847657
3906 0.628164535114
3907 -1.11555395774
3908 0.559772440252
3909 0.555781517491
3910 -1.14402373393
3911 0.646616451694
3912 0.497407282233
3913 -1.22387384364
3914 0.652405053069
3915 0.571468790575
3916 -1.18798662456
3917 0.664721332825
3918 0.52326529173
3919 -1.16061182267
3920 0.571542475002
3921 0.589069347671
3922 -1.25195492112
3923 0.653884503617
3924 0.598070417498
3925 -1.16597829807
3926 0.598012268709
3927 0.567966029364
3928 -1.15656707736
3929 0.540787967967
3930 0.61577910939
3931 -1.42185729558
3932 0.661975095994
3933 0.759882199589
3934 -1.11803166712
3935 0.509681538123
3936 0.608350129002
3937 -1.10689633006
3938 0.660344540566
3939 0.446551789494
3940 -1.09357977056
3941 0.494712305808
3942 0.598867464753
3943 -1.28989972544
3944 0.575709450757
3945 0.71419027468
3946 -1.20227069652
3947 0.5822760243
3948 0.61999467222
3949 -1.06978016522
3950 0.554612520572
3951 0.515167644643
3952 -1.16298238475
3953 0.630177784115
3954 0.53280460063
3955 -1.24358938383
3956 0.697617432644
3957 0.545971951187
3958 -0.90571438888
3959 0.426184600832
3960 0.479529788047
3961 -1.04844117584
3962 0.516743205829
3963 0.531697970012
3964 -1.13739752878
3965 0.571009145119
3966 0.566388383664
3967 -1.44728236262
3968 0.683847726066
3969 0.763434636553
3970 -1.2692877483
3971 0.610901275018
3972 0.658386473286
3973 -1.1377117076
3974 0.585953620282
3975 0.551758087322
3976 -1.01282986532
3977 0.526074383436
3978 0.486755481884
3979 -1.12896109407
3980 0.553606420843
3981 0.575354673223
3982 -1.2546243452
3983 0.57526207443
3984 0.679362270766
3985 -1.08192344241
3986 0.577024855324
3987 0.504898587087
3988 -0.997474365741
3989 0.465110846406
3990 0.532363519335
3991 -1.38300606761
3992 0.755766919482
3993 0.62723914813
3994 -0.982874970664
3995 0.419399227952
3996 0.563475742712
3997 -0.996370873842
3998 0.472863123224
3999 0.523507750618
4000 -0.972292705605
4001 0.517444479676
4002 0.454848225929
4003 -1.21032366234
4004 0.597309255585
4005 0.613014406754
4006 -1.02494352405
4007 0.601784233622
4008 0.423159290425
4009 -1.10919857071
4010 0.507377513425
4011 0.601821057286
4012 -1.15828955482
4013 0.605591701297
4014 0.55269785352
4015 -1.06023811074
4016 0.583937305166
4017 0.476300805577
4018 -1.14163866096
4019 0.564576423314
4020 0.577062237649
4021 -1.21256819829
4022 0.603676974702
4023 0.608891223588
4024 -1.10676550698
4025 0.554726346087
4026 0.552039160889
4027 -1.17587604488
4028 0.642984826402
4029 0.532891218477
4030 -1.14046764227
4031 0.537777639301
4032 0.602690002972
4033 -1.32025664037
4034 0.571964258262
4035 0.748292382103
4036 -1.20512060536
4037 0.582205272154
4038 0.622915333203
4039 -1.11486094873
4040 0.620300932407
4041 0.494560016324
4042 -1.09933453683
4043 0.58796468625
4044 0.511369850576
4045 -0.949631006567
4046 0.452838751535
4047 0.496792255032
4048 -1.09869090329
4049 0.61538716243
4050 0.483303740861
4051 -0.966580000387
4052 0.527412668985
4053 0.439167331402
4054 -1.09511352809
4055 0.597922921611
4056 0.497190606475
4057 -1.18792423909
4058 0.57437344673
4059 0.613550792358
4060 -1.14614923599
4061 0.565276513538
4062 0.580872722453
4063 -1.13503200768
4064 0.63370772286
4065 0.501324284815
4066 -1.00623058591
4067 0.568744041784
4068 0.43748654413
4069 -1.07566115944
4070 0.60565468792
4071 0.470006471524
4072 -0.969924922448
4073 0.50826810482
4074 0.461656817627
4075 -1.35641687217
4076 0.694440240594
4077 0.661976631576
4078 -1.02422567514
4079 0.505120021868
4080 0.519105653274
4081 -1.41262346868
4082 0.734475269262
4083 0.678148199416
4084 -1.10325500782
4085 0.538996543294
4086 0.564258464529
4087 -1.02089069028
4088 0.56078657287
4089 0.460104117413
4090 -1.1209271751
4091 0.598058151559
4092 0.522869023538
4093 -1.03791700742
4094 0.524295980808
4095 0.51362102661
4096 -1.31377537591
4097 0.765607014086
4098 0.548168361825
4099 -1.44021389466
4100 0.759201911189
4101 0.681011983466
4102 -1.20164592805
4103 0.572907358296
4104 0.628738569759
4105 -0.962138403579
4106 0.494187959989
4107 0.46795044359
4108 -0.943786027835
4109 0.430714418397
4110 0.513071609439
4111 -1.22078809668
4112 0.633083138506
4113 0.587704958175
4114 -1.21712596675
4115 0.685587806072
4116 0.531538160677
4117 -1.26255145862
4118 0.561482266792
4119 0.701069191823
4120 -1.18543127115
4121 0.575860219501
4122 0.609571051645
4123 -1.17463571123
4124 0.551305304647
4125 0.623330406579
4126 -1.06856510711
4127 0.505355354463
4128 0.563209752648
4129 -1.09069715502
4130 0.527696110096
4131 0.563001044924
4132 -1.24369336959
4133 0.658402815528
4134 0.585290554061
4135 -1.18542148842
4136 0.513002192703
4137 0.67241929572
4138 -0.992252157776
4139 0.456948552373
4140 0.535303605403
4141 -1.39561348722
4142 0.699892847403
4143 0.695720639821
4144 -1.20979951834
4145 0.611786987336
4146 0.598012531005
4147 -1.44136333452
4148 0.655963760636
4149 0.785399573886
4150 -0.863865426788
4151 0.390333743718
4152 0.47353168307
4153 -1.05032211586
4154 0.53201693059
4155 0.518305185269
4156 -0.988307747364
4157 0.519952570622
4158 0.468355176742
4159 -1.29170550374
4160 0.579296469319
4161 0.71240903442
4162 -1.2663051544
4163 0.568435201412
4164 0.697869952992
4165 -1.12574367328
4166 0.628640411653
4167 0.497103261625
4168 -1.17145959724
4169 0.610338381363
4170 0.561121215876
4171 -1.06927765377
4172 0.613385827926
4173 0.455891825848
4174 -1.35125501486
4175 0.666329568624
4176 0.684925446236
4177 -1.24052534
4178 0.676615936297
4179 0.563909403705
4180 -1.250174197
4181 0.683274043187
4182 0.566900153813
4183 -1.14977934306
4184 0.598509480743
4185 0.55126986232
4186 -0.984824437033
4187 0.511213038899
4188 0.473611398134
4189 -1.31953727657
4190 0.644816516358
4191 0.674720760209
4192 -1.30950317316
4193 0.658199195574
4194 0.651303977583
4195 -1.02172184686
4196 0.468036264615
4197 0.553685582244
4198 -1.04855612227
4199 0.517855341674
4200 0.530700780598
4201 -1.06666079533
4202 0.491310006553
4203 0.575350788775
4204 -1.14161997641
4205 0.578514574108
4206 0.563105402301
4207 -0.963200634155
4208 0.503714421219
4209 0.459486212936
4210 -1.17210183685
4211 0.535297189194
4212 0.636804647661
4213 -1.27199929867
4214 0.612893401899
4215 0.659105896767
4216 -1.1709103898
4217 0.6345811182
4218 0.536329271596
4219 -1.0236888865
4220 0.528674732335
4221 0.49501415416
4222 -1.26198769023
4223 0.676471420351
4224 0.585516269883
4225 -1.02082163367
4226 0.561837474824
4227 0.458984158848
4228 -1.11327253968
4229 0.555144043559
4230 0.558128496125
4231 -1.00894930176
4232 0.415639995509
4233 0.593309306251
4234 -1.20193284934
4235 0.620004510277
4236 0.581928339061
4237 -1.07351350475
4238 0.502211837541
4239 0.571301667208
4240 -0.846001829849
4241 0.450071967649
4242 0.3959298622
4243 -0.951167148038
4244 0.501883324717
4245 0.449283823322
4246 -0.778385134158
4247 0.418362873894
4248 0.360022260264
4249 -1.01790001409
4250 0.522478824829
4251 0.495421189256
4252 -1.01064605473
4253 0.49633983691
4254 0.514306217821
4255 -1.1289252225
4256 0.646687398244
4257 0.482237824259
4258 -0.977138943137
4259 0.366509786492
4260 0.610629156645
4261 -1.07896763927
4262 0.501659875325
4263 0.577307763946
4264 -1.17136516363
4265 0.549299373259
4266 0.622065790374
4267 -1.10288091968
4268 0.625228687947
4269 0.477652231734
4270 -0.908947717058
4271 0.500536204246
4272 0.408411512813
4273 -1.12085654607
4274 0.59898158859
4275 0.521874957484
4276 -0.908155992866
4277 0.484472478487
4278 0.423683514379
4279 -1.34479388391
4280 0.783081273429
4281 0.561712610481
4282 -1.24061358931
4283 0.66835287929
4284 0.572260710022
4285 -1.09512461797
4286 0.586256564726
4287 0.508868053245
4288 -1.26242408482
4289 0.632889170389
4290 0.629534914434
4291 -1.09495289255
4292 0.510826812099
4293 0.58412608045
4294 -1.05457488746
4295 0.503729765296
4296 0.550845122161
4297 -1.06887235917
4298 0.505499214503
4299 0.563373144672
4300 -1.07779143731
4301 0.585185272984
4302 0.492606164329
4303 -1.05072899651
4304 0.514830064891
4305 0.535898931621
4306 -1.04800171952
4307 0.457218423201
4308 0.59078329632
4309 -1.17322599371
4310 0.561261257678
4311 0.611964736032
4312 -1.07541364446
4313 0.396588078893
4314 0.678825565564
4315 -1.04669424198
4316 0.501204617534
4317 0.545489624449
4318 -1.10013517238
4319 0.532996678882
4320 0.567138493496
4321 -0.904930591884
4322 0.473373473334
4323 0.43155711855
4324 -1.14401841187
4325 0.528170931139
4326 0.615847480731
4327 -1.12443344887
4328 0.579774937378
4329 0.544658511489
4330 -1.16957172744
4331 0.532740048847
4332 0.636831678595
4333 -1.19527810001
4334 0.582209850159
4335 0.613068249849
4336 -1.23820996268
4337 0.672037927312
4338 0.566172035366
4339 -1.18877818801
4340 0.603275320602
4341 0.585502867408
4342 -1.20208820862
4343 0.582017863957
4344 0.620070344662
4345 -1.18821335245
4346 0.624086230631
4347 0.564127121819
4348 -1.10832225636
4349 0.543641031288
4350 0.56468122507
4351 -1.28030206205
4352 0.612013589447
4353 0.668288472602
4354 -1.24506261649
4355 0.573454958714
4356 0.671607657775
4357 -1.20020822172
4358 0.739336274181
4359 0.460871947534
4360 -1.12747771011
4361 0.560975064607
4362 0.566502645502
4363 -1.17869769222
4364 0.627025509631
4365 0.55167218259
4366 -1.36125684691
4367 0.703922374295
4368 0.657334472616
4369 -1.04216674062
4370 0.568311180945
4371 0.473855559673
4372 -1.09038995645
4373 0.592153612575
4374 0.498236343877
4375 -0.953109734269
4376 0.508514452145
4377 0.444595282124
4378 -0.873628507318
4379 0.447835189137
4380 0.425793318181
4381 -1.28057519106
4382 0.602855691628
4383 0.67771949943
4384 -1.19875127009
4385 0.535734442077
4386 0.66301682801
4387 -1.18568275776
4388 0.555707788312
4389 0.629974969451
4390 -1.37412014418
4391 0.639969447247
4392 0.734150696938
4393 -1.16605125158
4394 0.570397311694
4395 0.595653939886
4396 -0.998167147351
4397 0.606055106239
4398 0.392112041111
4399 -1.03375593472
4400 0.469616364304
4401 0.564139570421
4402 -0.992056857876
4403 0.574656168134
4404 0.417400689741
4405 -1.23101724598
4406 0.646133093638
4407 0.584884152339
4408 -0.94248939139
4409 0.479831576668
4410 0.462657814723
4411 -1.15824684699
4412 0.564075118041
4413 0.594171728954
4414 -1.03756099728
4415 0.494617390302
4416 0.542943606983
4417 -1.0904328621
4418 0.601048703182
4419 0.489384158921
4420 -1.00340680111
4421 0.470082488837
4422 0.533324312269
4423 -1.36421564752
4424 0.57569485345
4425 0.788520794072
4426 -1.28561783587
4427 0.587099289239
4428 0.698518546633
4429 -1.00449642339
4430 0.482833266499
4431 0.521663156886
4432 -1.07512533667
4433 0.51961059599
4434 0.555514740675
4435 -0.868024612431
4436 0.43738592773
4437 0.430638684701
4438 -0.851655042384
4439 0.354539999475
4440 0.49711504291
4441 -0.996767324911
4442 0.507383455474
4443 0.489383869437
4444 -1.03050144673
4445 0.458303261537
4446 0.572198185192
4447 -1.2432313258
4448 0.600222170856
4449 0.643009154941
4450 -1.04255913039
4451 0.575581999815
4452 0.466977130579
4453 -1.03292189542
4454 0.559837787018
4455 0.473084108407
4456 -1.02540408923
4457 0.439470753381
4458 0.585933335845
4459 -1.1897833903
4460 0.619080107492
4461 0.570703282807
4462 -1.21016451409
4463 0.623244543784
4464 0.586919970304
4465 -1.14099282758
4466 0.620156161044
4467 0.520836666541
4468 -0.989223762532
4469 0.467498172947
4470 0.521725589585
4471 -0.979249124454
4472 0.499154241227
4473 0.480094883227
4474 -1.01101230089
4475 0.447910292714
4476 0.563102008175
4477 -1.14095038758
4478 0.540206970891
4479 0.600743416689
4480 -1.0932148095
4481 0.4581084404
4482 0.635106369096
4483 -1.19163425799
4484 0.63999327708
4485 0.551640980914
4486 -1.0485983618
4487 0.584914983969
4488 0.463683377828
4489 -1.12803981292
4490 0.478550276703
4491 0.649489536215
4492 -1.13336318395
4493 0.569985630464
4494 0.563377553486
4495 -1.11613224874
4496 0.591369643825
4497 0.524762604913
4498 -0.997848746419
4499 0.463770055158
4500 0.534078691261
4501 -1.2544188768
4502 0.61972746238
4503 0.634691414422
4504 -1.10985334624
4505 0.457256100709
4506 0.652597245528
4507 -1.21641443275
4508 0.619160161157
4509 0.597254271594
4510 -1.13140809815
4511 0.585171387095
4512 0.546236711059
4513 -1.20390792666
4514 0.64233359693
4515 0.561574329729
4516 -1.20283616299
4517 0.598086928715
4518 0.604749234276
4519 -1.05871163811
4520 0.625136566154
4521 0.433575071958
4522 -1.08988382202
4523 0.486115998252
4524 0.603767823766
4525 -1.10377882843
4526 0.508918841386
4527 0.594859987042
4528 -0.900867809254
4529 0.450339199909
4530 0.450528609345
4531 -1.39026621642
4532 0.691168129508
4533 0.699098086908
4534 -1.07999898032
4535 0.551838104073
4536 0.528160876249
4537 -1.09574713189
4538 0.566751489679
4539 0.528995642215
4540 -0.999855850129
4541 0.446423897503
4542 0.553431952626
4543 -1.28133615467
4544 0.626570201337
4545 0.654765953328
4546 -1.37825503971
4547 0.73642112974
4548 0.641833909965
4549 -0.961519646569
4550 0.439747277564
4551 0.521772369005
4552 -1.46292004429
4553 0.741050899333
4554 0.721869144956
4555 -1.30357976729
4556 0.671245485351
4557 0.632334281938
4558 -1.05826290802
4559 0.554729971878
4560 0.503532936137
4561 -1.04235591021
4562 0.603573043381
4563 0.438782866831
4564 -1.15593877659
4565 0.574066044004
4566 0.581872732588
4567 -1.14734524469
4568 0.539426639998
4569 0.607918604692
4570 -1.04054714067
4571 0.479029481646
4572 0.561517659026
4573 -1.14721438549
4574 0.588888996909
4575 0.558325388577
4576 -1.21793555017
4577 0.657353275888
4578 0.560582274287
4579 -1.23567673604
4580 0.552539631012
4581 0.683137105032
4582 -1.29283550715
4583 0.611595028448
4584 0.681240478701
4585 -1.01521929353
4586 0.515051011358
4587 0.500168282175
4588 -1.14391341265
4589 0.577503032807
4590 0.566410379841
4591 -1.12704495358
4592 0.598800314158
4593 0.528244639417
4594 -0.977903805629
4595 0.49236131416
4596 0.485542491469
4597 -1.14782446858
4598 0.561736244646
4599 0.586088223934
4600 -1.08097044685
4601 0.435146319758
4602 0.645824127088
4603 -1.03439083988
4604 0.545231963712
4605 0.48915887617
4606 -1.0813807111
4607 0.540534126571
4608 0.540846584526
4609 -1.23238446483
4610 0.532539805092
4611 0.699844659742
4612 -1.19092797758
4613 0.640984242464
4614 0.549943735116
4615 -1.25096477344
4616 0.580165455858
4617 0.67079931758
4618 -1.04616057694
4619 0.52869690672
4620 0.517463670225
4621 -0.918221778918
4622 0.43706092384
4623 0.481160855078
4624 -1.28174494594
4625 0.672621084323
4626 0.60912386162
4627 -1.15735675897
4628 0.532404305688
4629 0.624952453282
4630 -0.98649036801
4631 0.528021531664
4632 0.458468836347
4633 -1.21770748089
4634 0.578358831479
4635 0.63934864941
4636 -1.03887641623
4637 0.523472778674
4638 0.515403637558
4639 -1.31792299294
4640 0.646997989901
4641 0.670925003039
4642 -1.15908619161
4643 0.621981349169
4644 0.537104842436
4645 -1.35697888379
4646 0.69105392365
4647 0.665924960143
4648 -1.04880255432
4649 0.511225245486
4650 0.537577308839
4651 -1.03645434656
4652 0.484325625479
4653 0.552128721081
4654 -1.10606817127
4655 0.548149168649
4656 0.55791900262
4657 -0.995673744362
4658 0.486061569911
4659 0.509612174451
4660 -1.16761176391
4661 0.515812941587
4662 0.651798822328
4663 -1.05462766181
4664 0.556530803968
4665 0.498096857837
4666 -1.0353938311
4667 0.495459215387
4668 0.539934615709
4669 -1.31698540274
4670 0.656909111449
4671 0.660076291294
4672 -1.11431662212
4673 0.597604588786
4674 0.516712033331
4675 -1.14477176416
4676 0.559542465378
4677 0.58522929878
4678 -1.26774349149
4679 0.614174064121
4680 0.653569427366
4681 -0.902192906381
4682 0.473571571408
4683 0.428621334973
4684 -1.238804132
4685 0.559627745935
4686 0.679176386062
4687 -0.937499410978
4688 0.54679624009
4689 0.390703170888
4690 -1.04212430146
4691 0.504480354652
4692 0.537643946807
4693 -1.05557278665
4694 0.594082752025
4695 0.46149003462
4696 -1.18832208019
4697 0.701602394192
4698 0.486719685994
4699 -1.05663154666
4700 0.498905397118
4701 0.557726149539
4702 -1.21763608609
4703 0.625526250242
4704 0.592109835849
4705 -1.28065848377
4706 0.583080941821
4707 0.697577541951
4708 -1.21319195093
4709 0.554927930613
4710 0.658264020321
4711 -1.13888573395
4712 0.540745595809
4713 0.59814013814
4714 -0.905774987371
4715 0.448066272949
4716 0.457708714422
4717 -1.12099654114
4718 0.595109310562
4719 0.525887230573
4720 -0.995990991269
4721 0.457124511063
4722 0.538866480206
4723 -0.958949219501
4724 0.518932352553
4725 0.440016866948
4726 -1.26538289457
4727 0.581011941505
4728 0.684370953064
4729 -1.08133194461
4730 0.537238933787
4731 0.544093010818
4732 -1.05421377383
4733 0.48940367324
4734 0.564810100591
4735 -1.28521324515
4736 0.692142665689
4737 0.59307057946
4738 -0.984206863808
4739 0.481237831662
4740 0.502969032146
4741 -1.19596598117
4742 0.596976533557
4743 0.598989447615
4744 -1.04459194504
4745 0.527003641882
4746 0.517588303155
4747 -1.14180459979
4748 0.521819896642
4749 0.619984703146
4750 -1.01961370423
4751 0.465769919855
4752 0.553843784374
4753 -1.22055481876
4754 0.640910779036
4755 0.579644039725
4756 -1.18197930688
4757 0.492268424179
4758 0.689710882698
4759 -0.922013668093
4760 0.554883883576
4761 0.367129784517
4762 -1.15307391728
4763 0.61775869935
4764 0.535315217932
4765 -1.23470494311
4766 0.698831002295
4767 0.535873940811
4768 -1.21258878118
4769 0.56816772873
4770 0.64442105245
4771 -1.03801154101
4772 0.527307688085
4773 0.510703852925
4774 -0.998690301015
4775 0.477613536364
4776 0.521076764651
4777 -1.23687297375
4778 0.636431806536
4779 0.600441167219
4780 -1.1775731285
4781 0.541620366667
4782 0.635952761832
4783 -1.34001409364
4784 0.700688248045
4785 0.639325845596
4786 -1.11262258737
4787 0.594084530891
4788 0.518538056483
4789 -1.17013081088
4790 0.471199996181
4791 0.698930814697
4792 -1.28502279175
4793 0.691375424397
4794 0.593647367355
4795 -1.02178488582
4796 0.533277424491
4797 0.488507461327
4798 -1.03541916495
4799 0.470597479639
4800 0.564821685307
4801 -1.19744449569
4802 0.580880878796
4803 0.616563616898
4804 -1.08745861773
4805 0.537829298353
4806 0.549629319373
4807 -1.38580806187
4808 0.669847028627
4809 0.715961033246
4810 -1.16349365544
4811 0.545670675363
4812 0.617822980076
4813 -1.04819447399
4814 0.49412867096
4815 0.554065803032
4816 -1.14423559924
4817 0.549484593353
4818 0.594751005885
4819 -0.982285192499
4820 0.476773631003
4821 0.505511561496
4822 -0.936516209799
4823 0.417543957371
4824 0.518972252428
4825 -0.917925944321
4826 0.47837149397
4827 0.439554450351
4828 -1.12877853691
4829 0.50195838438
4830 0.626820152534
4831 -1.11978008429
4832 0.532423392636
4833 0.587356691657
4834 -1.1162409711
4835 0.504158751783
4836 0.61208221932
4837 -1.22871793578
4838 0.606322925382
4839 0.622395010397
4840 -1.08105189599
4841 0.522170048694
4842 0.5588818473
4843 -1.07395549679
4844 0.473598862222
4845 0.600356634565
4846 -0.975596824311
4847 0.487058239031
4848 0.48853858528
4849 -1.39262455189
4850 0.69238987315
4851 0.700234678742
4852 -1.20906289057
4853 0.564225743188
4854 0.644837147385
4855 -1.0724777461
4856 0.575423134486
4857 0.497054611612
4858 -1.19568262582
4859 0.530622351293
4860 0.665060274531
4861 -1.20592290981
4862 0.598103358955
4863 0.607819550851
4864 -1.30146411392
4865 0.687719106109
4866 0.613745007816
4867 -1.09978596583
4868 0.51318790028
4869 0.586598065546
4870 -1.1565381243
4871 0.609582068384
4872 0.54695605592
4873 -1.23826169336
4874 0.569636117313
4875 0.668625576051
4876 -0.971397428994
4877 0.525406227344
4878 0.44599120165
4879 -1.07585949508
4880 0.536800643874
4881 0.53905885121
4882 -1.30475332301
4883 0.689060735195
4884 0.615692587813
4885 -1.09517696691
4886 0.619458098924
4887 0.475718867989
4888 -0.91254183904
4889 0.474358169984
4890 0.438183669056
4891 -1.11074844956
4892 0.52895294882
4893 0.581795500735
4894 -1.2266708169
4895 0.616795471832
4896 0.609875345069
4897 -1.20270975986
4898 0.580317678597
4899 0.622392081261
4900 -1.09877621222
4901 0.609070021758
4902 0.489706190463
4903 -1.02271632071
4904 0.570836180122
4905 0.451880140584
4906 -1.15865715911
4907 0.552810419253
4908 0.605846739857
4909 -1.08298442149
4910 0.524177558346
4911 0.558806863139
4912 -1.04035820361
4913 0.555621750598
4914 0.484736453016
4915 -1.42843134957
4916 0.686001820508
4917 0.742429529065
4918 -1.20309611548
4919 0.615766864472
4920 0.587329251005
4921 -1.13657931187
4922 0.579700968158
4923 0.556878343713
4924 -1.08687263439
4925 0.538784651405
4926 0.548087982989
4927 -1.31188364921
4928 0.565551007731
4929 0.746332641479
4930 -1.26184010214
4931 0.613034162085
4932 0.648805940056
4933 -1.02157049188
4934 0.542868889061
4935 0.478701602823
4936 -1.0146841171
4937 0.474250974724
4938 0.540433142375
4939 -1.18265930653
4940 0.574027189881
4941 0.608632116644
4942 -1.13546674066
4943 0.596943136155
4944 0.538523604503
4945 -1.13175846038
4946 0.648342842475
4947 0.483415617906
4948 -1.27232530863
4949 0.678282568584
4950 0.594042740045
4951 -1.13802807164
4952 0.638320077097
4953 0.499707994541
4954 -1.05873708285
4955 0.62530350028
4956 0.433433582575
4957 -1.16293278197
4958 0.519950819946
4959 0.642981962024
4960 -1.21186913395
4961 0.53651973172
4962 0.675349402232
4963 -1.43940843559
4964 0.709092729235
4965 0.730315706359
4966 -1.0310110307
4967 0.56008586179
4968 0.470925168911
4969 -1.03478879399
4970 0.406612226053
4971 0.628176567933
4972 -1.13869457686
4973 0.673973961854
4974 0.464720615008
4975 -0.92288410647
4976 0.425495595311
4977 0.497388511159
4978 -1.43418360795
4979 0.666563903898
4980 0.767619704055
4981 -1.3640475059
4982 0.687948996425
4983 0.676098509472
4984 -1.00943647286
4985 0.463543341444
4986 0.545893131419
4987 -1.23508231862
4988 0.576779800686
4989 0.658302517934
4990 -1.11876399481
4991 0.501601366386
4992 0.617162628419
4993 -0.93475183336
4994 0.442524982209
4995 0.492226851151
4996 -0.964758596115
4997 0.498929104916
4998 0.465829491199
4999 -1.05961203062
5000 0.466632450492
5001 0.592979580124
5002 -1.24310007424
5003 0.569169416655
5004 0.673930657584
5005 -1.08203173082
5006 0.591363830191
5007 0.490667900634
5008 -1.03169431384
5009 0.537240417841
5010 0.494453896004
5011 -1.10564196551
5012 0.612508815265
5013 0.493133150244
5014 -1.31263432986
5015 0.635062035438
5016 0.677572294418
5017 -1.06280353514
5018 0.50222774376
5019 0.560575791384
5020 -1.20605024704
5021 0.631155250427
5022 0.574894996613
5023 -1.01016548123
5024 0.564765236551
5025 0.445400244674
5026 -1.12813291112
5027 0.593672823375
5028 0.534460087745
5029 -1.07314437403
5030 0.612588984744
5031 0.460555389288
5032 -1.16807737816
5033 0.560530232905
5034 0.60754714526
5035 -1.20295471641
5036 0.57223670081
5037 0.630718015596
5038 -1.0194508313
5039 0.513933445154
5040 0.505517386149
5041 -1.00908322546
5042 0.557360254782
5043 0.451722970679
5044 -1.23576531502
5045 0.515171313573
5046 0.720594001445
5047 -1.12240542444
5048 0.493595133163
5049 0.628810291282
5050 -0.907470298489
5051 0.470547967306
5052 0.436922331183
5053 -1.13496141206
5054 0.456483074703
5055 0.678478337356
5056 -1.00911681927
5057 0.518525873744
5058 0.490590945524
5059 -1.1340933075
5060 0.568338068919
5061 0.565755238581
5062 -1.32374459917
5063 0.619300473039
5064 0.704444126131
5065 -1.4036054322
5066 0.66434365497
5067 0.739261777234
5068 -1.05825828541
5069 0.540712703985
5070 0.517545581424
5071 -1.22736759161
5072 0.634800069682
5073 0.592567521931
5074 -1.15439514323
5075 0.584989900337
5076 0.56940524289
5077 -1.31005951196
5078 0.692365557967
5079 0.617693953992
5080 -1.01631950548
5081 0.635055127956
5082 0.381264377519
5083 -1.02803197283
5084 0.515477474593
5085 0.512554498237
5086 -1.10719781027
5087 0.602033077122
5088 0.505164733147
5089 -1.06750975963
5090 0.540829155633
5091 0.526680603997
5092 -1.2114105316
5093 0.581457141892
5094 0.629953389711
5095 -1.12794996917
5096 0.575605961015
5097 0.552344008155
5098 -1.00889433836
5099 0.571030870592
5100 0.437863467769
5101 -1.31691065004
5102 0.741815653448
5103 0.57509499659
5104 -1.15673282454
5105 0.666088750214
5106 0.490644074328
5107 -1.01517224523
5108 0.526898114898
5109 0.48827413033
5110 -0.845061511808
5111 0.386843503336
5112 0.458218008472
5113 -1.24482572902
5114 0.554798202492
5115 0.690027526527
5116 -0.921387138167
5117 0.482962407817
5118 0.438424730349
5119 -1.31871753392
5120 0.595141765816
5121 0.723575768108
5122 -1.1635285184
5123 0.576525015933
5124 0.587003502464
5125 -0.851835228962
5126 0.399342568049
5127 0.452492660913
5128 -1.15164001745
5129 0.633240529218
5130 0.51839948823
5131 -1.12457441953
5132 0.574024810905
5133 0.55054960862
5134 -1.26280004172
5135 0.634222289266
5136 0.628577752457
5137 -1.1221612893
5138 0.46577946707
5139 0.656381822226
5140 -1.14280508118
5141 0.637009358365
5142 0.505795722819
5143 -1.07014696004
5144 0.511603166981
5145 0.558543793056
5146 -1.26215542264
5147 0.625677421098
5148 0.636478001538
5149 -1.12039792447
5150 0.59727822085
5151 0.52311970362
5152 -1.0715609042
5153 0.505221054682
5154 0.566339849517
5155 -0.93388844014
5156 0.507141923637
5157 0.426746516503
5158 -1.06760337017
5159 0.589858575454
5160 0.477744794713
5161 -1.26112036357
5162 0.634034474646
5163 0.627085888923
5164 -1.12853342084
5165 0.560509117985
5166 0.568024302854
5167 -1.13780197296
5168 0.547010558168
5169 0.590791414788
5170 -0.962198032492
5171 0.486574046084
5172 0.475623986408
5173 -1.30801029671
5174 0.804005014424
5175 0.504005282285
5176 -1.03911225251
5177 0.468708734376
5178 0.570403518135
5179 -1.08332804406
5180 0.541627353728
5181 0.541700690329
5182 -1.03189841011
5183 0.556989804157
5184 0.474908605952
5185 -1.25828302864
5186 0.564802858892
5187 0.693480169747
5188 -1.12313874253
5189 0.584890754079
5190 0.538247988452
5191 -1.05480877041
5192 0.484267840173
5193 0.570540930242
5194 -1.06080086437
5195 0.500484172008
5196 0.560316692361
5197 -1.27264123087
5198 0.656464007325
5199 0.616177223548
5200 -0.998545634668
5201 0.493545776487
5202 0.504999858181
5203 -1.05714242343
5204 0.617881989964
5205 0.439260433467
5206 -1.15853323746
5207 0.620275067609
5208 0.538258169847
5209 -0.849869634066
5210 0.411548036318
5211 0.438321597748
5212 -1.26912419173
5213 0.659654598084
5214 0.609469593645
5215 -1.13808018665
5216 0.589726996618
5217 0.548353190031
5218 -1.36632141955
5219 0.672821685273
5220 0.693499734278
5221 -1.13753220055
5222 0.459699021669
5223 0.677833178882
5224 -1.21006252956
5225 0.653145819551
5226 0.556916710011
5227 -1.13494132718
5228 0.576693013088
5229 0.558248314097
5230 -1.10335945278
5231 0.557589182577
5232 0.545770270208
5233 -1.03068756972
5234 0.505303973299
5235 0.525383596423
5236 -1.18404183629
5237 0.722438993929
5238 0.461602842358
5239 -1.03218866562
5240 0.587880395929
5241 0.444308269694
5242 -1.11284785061
5243 0.519993683146
5244 0.592854167466
5245 -1.08182728151
5246 0.509943728458
5247 0.571883553049
5248 -1.09017320012
5249 0.555172272136
5250 0.535000927981
5251 -1.03243908127
5252 0.563537336014
5253 0.468901745253
5254 -1.14875683765
5255 0.572482033709
5256 0.576274803944
5257 -1.08909047291
5258 0.606116315608
5259 0.482974157302
5260 -1.20423017596
5261 0.577838218508
5262 0.62639195745
5263 -1.10444859524
5264 0.568934575861
5265 0.535514019376
5266 -1.08522966421
5267 0.501201758049
5268 0.584027906165
5269 -1.09273337549
5270 0.530995159646
5271 0.561738215847
5272 -1.08350663024
5273 0.582782087899
5274 0.500724542338
5275 -1.28365914234
5276 0.688835850973
5277 0.594823291369
5278 -1.11506542773
5279 0.571735681064
5280 0.543329746666
5281 -1.17084821559
5282 0.577723380964
5283 0.593124834624
5284 -1.05755928372
5285 0.512118234208
5286 0.545441049515
5287 -1.09059404542
5288 0.61355151488
5289 0.477042530538
5290 -1.04597023667
5291 0.534244496002
5292 0.511725740666
5293 -0.960678989547
5294 0.519266679478
5295 0.441412310068
5296 -1.0862184362
5297 0.562184313306
5298 0.524034122895
5299 -1.17042386812
5300 0.640651261001
5301 0.529772607117
5302 -1.03568567919
5303 0.518924325613
5304 0.516761353574
5305 -1.12582578366
5306 0.538669183445
5307 0.587156600216
5308 -1.38604536778
5309 0.773980055026
5310 0.612065312752
5311 -1.34398987421
5312 0.626477198695
5313 0.717512675511
5314 -1.1574515775
5315 0.594683554434
5316 0.562768023062
5317 -1.00877035143
5318 0.40029693877
5319 0.608473412657
5320 -1.18699511336
5321 0.661203022742
5322 0.525792090619
5323 -1.3491056207
5324 0.70207208211
5325 0.647033538595
5326 -1.00005265022
5327 0.571997474445
5328 0.428055175771
5329 -1.30505625987
5330 0.625313247005
5331 0.679743012865
5332 -1.03962625702
5333 0.494345681611
5334 0.545280575407
5335 -1.19041550042
5336 0.458352322139
5337 0.732063178277
5338 -1.046906571
5339 0.626572664179
5340 0.420333906824
5341 -1.12764536094
5342 0.591302251859
5343 0.53634310908
5344 -1.07689457405
5345 0.492619400546
5346 0.584275173501
5347 -1.30076590873
5348 0.752611804179
5349 0.548154104547
5350 -1.02850319713
5351 0.525828893532
5352 0.502674303596
5353 -1.07161545341
5354 0.448665713687
5355 0.622949739721
5356 -1.13705668475
5357 0.525570198418
5358 0.611486486334
5359 -0.997569683801
5360 0.439114311141
5361 0.558455372659
5362 -1.05258939424
5363 0.542294868123
5364 0.51029452612
5365 -1.02960113328
5366 0.525977778223
5367 0.503623355055
5368 -1.17029984319
5369 0.490324421417
5370 0.679975421777
5371 -1.14730653167
5372 0.589089491108
5373 0.558217040567
5374 -1.21445301284
5375 0.614333687945
5376 0.600119324899
5377 -1.21982378485
5378 0.574529638379
5379 0.645294146473
5380 -1.18843476483
5381 0.550736906269
5382 0.637697858558
5383 -1.08231799042
5384 0.554665507605
5385 0.527652482816
5386 -0.961201075452
5387 0.471972035845
5388 0.489229039606
5389 -1.15150422721
5390 0.631213885369
5391 0.520290341837
5392 -1.18869312223
5393 0.543301430274
5394 0.645391691952
5395 -1.39930482181
5396 0.711491415922
5397 0.687813405887
5398 -1.12691879209
5399 0.620944277667
5400 0.505974514428
5401 -0.991890069353
5402 0.504592972549
5403 0.487297096804
5404 -1.05750051828
5405 0.527394717771
5406 0.530105800506
5407 -1.13466029558
5408 0.554366255101
5409 0.580294040475
5410 -1.26135806989
5411 0.642267739261
5412 0.619090330625
5413 -1.14089429347
5414 0.564958941653
5415 0.575935351815
5416 -1.15638478134
5417 0.61379167241
5418 0.54259310893
5419 -1.20174136329
5420 0.547426830841
5421 0.654314532448
5422 -1.19930008686
5423 0.607928243591
5424 0.591371843272
5425 -1.26131110394
5426 0.594000317155
5427 0.667310786785
5428 -1.1076577055
5429 0.534656680185
5430 0.573001025311
5431 -1.20525407943
5432 0.659955685221
5433 0.545298394206
5434 -1.11223916079
5435 0.434867419011
5436 0.677371741781
5437 -1.13908631023
5438 0.509507846401
5439 0.629578463828
5440 -1.46791739093
5441 0.803796409334
5442 0.664120981599
5443 -1.1033021634
5444 0.577349771574
5445 0.525952391824
5446 -1.07102794456
5447 0.590360221782
5448 0.480667722776
5449 -1.20492934905
5450 0.639974622538
5451 0.564954726509
5452 -1.19657384601
5453 0.687128757175
5454 0.509445088833
5455 -1.14358439715
5456 0.548595873057
5457 0.594988524091
5458 -1.20086646069
5459 0.608335341104
5460 0.59253111959
5461 -1.16087629245
5462 0.617957146584
5463 0.54291914587
5464 -1.12065793524
5465 0.529251777401
5466 0.591406157837
5467 -1.40407783623
5468 0.64352162259
5469 0.760556213643
5470 -1.15007419691
5471 0.517686982088
5472 0.632387214822
5473 -1.12124978074
5474 0.663244805077
5475 0.458004975659
5476 -1.09384140309
5477 0.50221403538
5478 0.59162736771
5479 -1.30155921753
5480 0.550945044078
5481 0.750614173457
5482 -1.20431233676
5483 0.586781617153
5484 0.617530719602
5485 -1.10387948818
5486 0.534076310361
5487 0.569803177818
5488 -1.17695138786
5489 0.626572884994
5490 0.550378502866
5491 -1.27792127035
5492 0.681367232795
5493 0.596554037553
5494 -0.959228071315
5495 0.444246057917
5496 0.514982013398
5497 -1.02588567926
5498 0.493408308361
5499 0.532477370896
5500 -1.16713573817
5501 0.576132459174
5502 0.591003278998
5503 -1.47204065142
5504 0.755940720174
5505 0.716099931248
5506 -1.25839223079
5507 0.605820282601
5508 0.652571948185
5509 -1.1479880293
5510 0.567292811014
5511 0.580695218283
5512 -0.997943380222
5513 0.517209195564
5514 0.480734184658
5515 -1.13094231051
5516 0.514930494634
5517 0.616011815874
5518 -1.20944797146
5519 0.569558439711
5520 0.639889531752
5521 -1.04659912362
5522 0.540908470756
5523 0.505690652867
5524 -1.03323848984
5525 0.518162358184
5526 0.515076131656
5527 -1.38256705868
5528 0.739984294796
5529 0.642582763889
5530 -0.966288751025
5531 0.401194972962
5532 0.565093778063
5533 -0.964181875522
5534 0.452531268485
5535 0.511650607036
5536 -1.01554759927
5537 0.524126965509
5538 0.491420633759
5539 -1.26290652659
5540 0.621592238471
5541 0.64131428812
5542 -1.08519320404
5543 0.597984458886
5544 0.487208745157
5545 -1.07023946063
5546 0.504890433531
5547 0.565349027094
5548 -1.16593117039
5549 0.593738066519
5550 0.572193103875
5551 -1.05580295315
5552 0.601025665784
5553 0.454777287368
5554 -1.07557410411
5555 0.528512845734
5556 0.547061258375
5557 -1.22371884369
5558 0.654034907021
5559 0.569683936669
5560 -1.10889462375
5561 0.536162422944
5562 0.572732200809
5563 -1.18789309334
5564 0.625641511089
5565 0.562251582255
5566 -1.1084958978
5567 0.522079106639
5568 0.586416791159
5569 -1.31070442526
5570 0.560097749069
5571 0.750606676196
5572 -1.2552135145
5573 0.595585110576
5574 0.659628403921
5575 -1.10206872357
5576 0.616064324978
5577 0.486004398596
5578 -1.09912445697
5579 0.571079056912
5580 0.528045400057
5581 -0.936048929467
5582 0.435215392976
5583 0.500833536491
5584 -1.07421564182
5585 0.60474714638
5586 0.469468495436
5587 -1.03946622574
5588 0.546670853999
5589 0.492795371746
5590 -1.10530383945
5591 0.613491882062
5592 0.491811957384
5593 -1.14884947403
5594 0.530191376474
5595 0.618658097551
5596 -1.1241582915
5597 0.548178345484
5598 0.575979946012
5599 -1.13334215034
5600 0.638806444074
5601 0.494535706267
5602 -1.0455762124
5603 0.594784668626
5604 0.450791543774
5605 -1.04856972167
5606 0.584301426622
5607 0.464268295049
5608 -0.992648854518
5609 0.532520195696
5610 0.460128658822
5611 -1.30414636871
5612 0.650734996499
5613 0.653411372214
5614 -1.04625993103
5615 0.503599859205
5616 0.54266007182
5617 -1.37260570782
5618 0.696711073427
5619 0.675894634391
5620 -1.12228596078
5621 0.561088432935
5622 0.561197527841
5623 -1.0407890876
5624 0.538852577529
5625 0.501936510076
5626 -1.13226768516
5627 0.604397892456
5628 0.5278697927
5629 -1.06925609096
5630 0.525129752289
5631 0.544126338672
5632 -1.41657800267
5633 0.798818958168
5634 0.6177590445
5635 -1.42085797438
5636 0.767489351327
5637 0.653368623048
5638 -1.20132541321
5639 0.589066837629
5640 0.612258575585
5641 -0.935221964341
5642 0.472689458565
5643 0.462532505776
5644 -0.966663551624
5645 0.435363279834
5646 0.53130027179
5647 -1.21851686558
5648 0.645919884515
5649 0.572596981061
5650 -1.18294737003
5651 0.649346244387
5652 0.533601125642
5653 -1.2349732089
5654 0.592606305035
5655 0.642366903865
5656 -1.1397235063
5657 0.555943567052
5658 0.58377993925
5659 -1.19027075017
5660 0.562983105105
5661 0.62728764506
5662 -1.04935582858
5663 0.484777746308
5664 0.564578082277
5665 -1.06776147311
5666 0.526442832511
5667 0.541318640597
5668 -1.21395413807
5669 0.646147203029
5670 0.567806935039
5671 -1.19256179086
5672 0.515957189822
5673 0.676604601036
5674 -0.951867081927
5675 0.430978886504
5676 0.520888195423
5677 -1.33112470033
5678 0.662930242992
5679 0.668194457341
5680 -1.23323537353
5681 0.61037602491
5682 0.622859348617
5683 -1.41484344236
5684 0.668889520782
5685 0.745953921573
5686 -0.863048271473
5687 0.40125250276
5688 0.461795768714
5689 -1.02629665396
5690 0.501658884717
5691 0.524637769247
5692 -1.02333671128
5693 0.525648923353
5694 0.497687787925
5695 -1.31941716201
5696 0.590043684835
5697 0.729373477172
5698 -1.29552901065
5699 0.601243696073
5700 0.694285314581
5701 -1.09540348448
5702 0.603922559968
5703 0.49148092451
5704 -1.19641770727
5705 0.592197991042
5706 0.60421971623
5707 -1.09633376194
5708 0.650600316202
5709 0.44573344574
5710 -1.30724976068
5711 0.642163947157
5712 0.665085813527
5713 -1.25314078115
5714 0.68515980488
5715 0.567980976266
5716 -1.24782295526
5717 0.646409172553
5718 0.601413782702
5719 -1.12729400441
5720 0.572531877839
5721 0.554762126572
5722 -1.02154157407
5723 0.522348728698
5724 0.499192845369
5725 -1.31023734932
5726 0.645150290201
5727 0.665087059116
5728 -1.32240467731
5729 0.636727246817
5730 0.685677430495
5731 -1.03417084777
5732 0.449996700683
5733 0.584174147087
5734 -1.066871267
5735 0.516827472449
5736 0.550043794552
5737 -1.08612954256
5738 0.473738530968
5739 0.612391011593
5740 -1.17114470699
5741 0.59922647442
5742 0.571918232568
5743 -0.957640241221
5744 0.514906851556
5745 0.442733389665
5746 -1.16112306505
5747 0.533079390685
5748 0.628043674369
5749 -1.27874461583
5750 0.624177917582
5751 0.654566698244
5752 -1.17974019085
5753 0.634446919391
5754 0.545293271463
5755 -1.03984911881
5756 0.554123066971
5757 0.485726051838
5758 -1.27171528545
5759 0.665247038094
5760 0.606468247352
5761 -1.01563232273
5762 0.562437817322
5763 0.453194505408
5764 -1.1009797947
5765 0.574627041518
5766 0.526352753184
5767 -0.968598388589
5768 0.42516395515
5769 0.543434433439
5770 -1.20467051277
5771 0.627887702718
5772 0.576782810048
5773 -1.07632306271
5774 0.48232109415
5775 0.594001968559
5776 -0.850835352031
5777 0.463460501696
5778 0.387374850335
5779 -0.942450256172
5780 0.469020824439
5781 0.473429431732
5782 -0.767613681745
5783 0.380852208426
5784 0.386761473319
5785 -0.963684815373
5786 0.48838725696
5787 0.475297558413
5788 -1.06124051935
5789 0.506335109933
5790 0.554905409419
5791 -1.1017139075
5792 0.651468259934
5793 0.450245647561
5794 -1.03847581269
5795 0.410224560832
5796 0.628251251856
5797 -1.10877067771
5798 0.520110521506
5799 0.588660156204
5800 -1.16697862955
5801 0.519800755607
5802 0.647177873947
5803 -1.15256877658
5804 0.617172682317
5805 0.535396094268
5806 -0.908585425456
5807 0.496673487591
5808 0.411911937866
5809 -1.09316420128
5810 0.56966834045
5811 0.523495860834
5812 -0.900650041993
5813 0.496405931908
5814 0.404244110086
5815 -1.33881258441
5816 0.745618111451
5817 0.593194472955
5818 -1.23656664292
5819 0.649024731252
5820 0.58754191167
5821 -1.13090967072
5822 0.608771841221
5823 0.522137829497
5824 -1.19576469437
5825 0.633724815398
5826 0.56203987897
5827 -1.00306314971
5828 0.474297376911
5829 0.528765772799
5830 -1.0922540447
5831 0.497074039687
5832 0.595180005017
5833 -1.09775106057
5834 0.520152370567
5835 0.577598690001
5836 -1.10582740861
5837 0.604710787122
5838 0.501116621486
5839 -1.05767486369
5840 0.50765575521
5841 0.550019108479
5842 -1.12103423257
5843 0.457779735629
5844 0.663254496937
5845 -1.14780516183
5846 0.585307878186
5847 0.562497283642
5848 -1.08435326556
5849 0.419899979286
5850 0.664453286272
5851 -1.04301090808
5852 0.456368234594
5853 0.586642673483
5854 -1.11088067198
5855 0.522020296434
5856 0.588860375541
5857 -0.943170434498
5858 0.494567937444
5859 0.448602497054
5860 -1.15682381242
5861 0.537826492768
5862 0.61899731965
5863 -1.11164738323
5864 0.54811765609
5865 0.563529727143
5866 -1.11519466986
5867 0.501589204495
5868 0.613605465368
5869 -1.17973664909
5870 0.570273539755
5871 0.60946310934
5872 -1.22717044823
5873 0.693973789841
5874 0.533196658391
5875 -1.17076329622
5876 0.593581030104
5877 0.577182266116
5878 -1.19049272999
5879 0.59718381516
5880 0.593308914832
5881 -1.19677147097
5882 0.625388231911
5883 0.571383239062
5884 -1.12281716568
5885 0.551514897341
5886 0.571302268336
5887 -1.23878805831
5888 0.605602902457
5889 0.63318515585
5890 -1.27547759354
5891 0.584645777089
5892 0.690831816449
5893 -1.19336061301
5894 0.694940623726
5895 0.498419989283
5896 -1.08617178197
5897 0.563607655098
5898 0.522564126872
5899 -1.20776973941
5900 0.627883542403
5901 0.579886197004
5902 -1.36044766265
5903 0.731052153306
5904 0.629395509345
5905 -1.02526934986
5906 0.568519404269
5907 0.456749945595
5908 -1.06829132683
5909 0.573556518814
5910 0.49473480802
5911 -0.946672717846
5912 0.522052758075
5913 0.42461995977
5914 -0.865672471333
5915 0.450837534791
5916 0.414834936542
5917 -1.22200120345
5918 0.621050812509
5919 0.600950390941
5920 -1.19582254008
5921 0.516909944202
5922 0.678912595874
5923 -1.1815757685
5924 0.566314069355
5925 0.615261699145
5926 -1.38740997154
5927 0.682663416849
5928 0.704746554687
5929 -1.19658696427
5930 0.580127583865
5931 0.6164593804
5932 -1.04189978215
5933 0.611477778378
5934 0.430422003769
5935 -1.02014097626
5936 0.464312578424
5937 0.555828397835
5938 -0.988176334161
5939 0.568127466481
5940 0.42004886768
5941 -1.20277727019
5942 0.634373659878
5943 0.568403610312
5944 -0.952653357526
5945 0.463363128247
5946 0.489290229279
5947 -1.14833291432
5948 0.557202662489
5949 0.59113025183
5950 -1.09349012154
5951 0.542979509497
5952 0.550510612041
5953 -1.12021214309
5954 0.623084695608
5955 0.497127447484
5956 -1.05434641282
5957 0.494673620716
5958 0.559672792102
5959 -1.39721592339
5960 0.610366073335
5961 0.786849850052
5962 -1.2798714661
5963 0.570883633981
5964 0.708987832122
5965 -1.01033692692
5966 0.464858278179
5967 0.545478648741
5968 -1.07553978506
5969 0.521575242205
5970 0.553964542851
5971 -0.851785745713
5972 0.435284289674
5973 0.416501456039
5974 -0.907604525248
5975 0.405077728221
5976 0.502526797026
5977 -0.994012591198
5978 0.490225638322
5979 0.503786952876
5980 -1.02308225339
5981 0.452416864796
5982 0.570665388589
5983 -1.2406260002
5984 0.586280546017
5985 0.654345454187
5986 -1.02932665217
5987 0.592183322319
5988 0.437143329849
5989 -1.10341776418
5990 0.56303569215
5991 0.540382072029
5992 -1.04457682208
5993 0.437445399265
5994 0.607131422818
5995 -1.19369405782
5996 0.645660495251
5997 0.548033562571
5998 -1.18646281208
5999 0.624666661302
6000 0.561796150778
6001 -1.12924244988
6002 0.610068490372
6003 0.519173959512
6004 -0.993848848069
6005 0.437604589499
6006 0.556244258571
6007 -0.918108023136
6008 0.473207719289
6009 0.444900303847
6010 -1.01269012604
6011 0.47763918529
6012 0.535050940746
6013 -1.11884776093
6014 0.543480064291
6015 0.575367696634
6016 -1.14065849971
6017 0.503846267616
6018 0.636812232098
6019 -1.1958982106
6020 0.650282417264
6021 0.545615793336
6022 -1.07012020714
6023 0.576545979781
6024 0.493574227359
6025 -1.07380978035
6026 0.475640264346
6027 0.598169516
6028 -1.09201462657
6029 0.559821041105
6030 0.532193585463
6031 -1.10662958424
6032 0.58041452382
6033 0.526215060424
6034 -1.00200448865
6035 0.467893091726
6036 0.534111396923
6037 -1.27571766541
6038 0.674186482402
6039 0.601531183007
6040 -1.09219168124
6041 0.477288158727
6042 0.614903522511
6043 -1.20767541126
6044 0.62337785703
6045 0.584297554229
6046 -1.15757418543
6047 0.640456109629
6048 0.517118075798
6049 -1.2334725023
6050 0.635735926553
6051 0.59773657575
6052 -1.20921301858
6053 0.652931460285
6054 0.556281558293
6055 -1.03585582226
6056 0.627898926542
6057 0.407956895717
6058 -1.08467191519
6059 0.477139891805
6060 0.607532023387
6061 -1.05334963645
6062 0.50705830065
6063 0.546291335797
6064 -0.899816161977
6065 0.45130830359
6066 0.448507858387
6067 -1.43254486028
6068 0.739073172083
6069 0.693471688195
6070 -1.09527990946
6071 0.569464758092
6072 0.525815151372
6073 -1.07013153482
6074 0.543272835108
6075 0.526858699714
6076 -1.00081339126
6077 0.467299840101
6078 0.533513551161
6079 -1.31784333258
6080 0.676655805397
6081 0.641187527183
6082 -1.36716336811
6083 0.711402343041
6084 0.655761025066
6085 -0.944764102721
6086 0.44368857748
6087 0.501075525241
6088 -1.47550130797
6089 0.769054119308
6090 0.706447188663
6091 -1.27365429258
6092 0.670315669407
6093 0.603338623178
6094 -1.05932356661
6095 0.534245833562
6096 0.525077733047
6097 -1.02550488782
6098 0.59619762868
6099 0.429307259137
6100 -1.14233696756
6101 0.589030377357
6102 0.553306590206
6103 -1.11836061309
6104 0.531802707609
6105 0.586557905482
6106 -1.03537109313
6107 0.466740996019
6108 0.568630097113
6109 -1.11758761111
6110 0.584943945719
6111 0.532643665391
6112 -1.24032140817
6113 0.705463504308
6114 0.534857903864
6115 -1.23995579045
6116 0.551565409321
6117 0.688390381128
6118 -1.28551281814
6119 0.60002386828
6120 0.685488949864
6121 -1.03456218866
6122 0.550536665909
6123 0.484025522752
6124 -1.12710591013
6125 0.570724782143
6126 0.556381127984
6127 -1.12229856794
6128 0.618011433301
6129 0.504287134644
6130 -0.96686440982
6131 0.508370129322
6132 0.458494280498
6133 -1.0808645781
6134 0.562990218323
6135 0.517874359776
6136 -1.10151377386
6137 0.460228495127
6138 0.641285278729
6139 -1.03003547819
6140 0.538404113752
6141 0.491631364441
6142 -1.06615615627
6143 0.499359316143
6144 0.566796840123
6145 -1.19389452413
6146 0.565351794611
6147 0.628542729517
6148 -1.18795429323
6149 0.646197554353
6150 0.541756738874
6151 -1.25924751147
6152 0.549724060062
6153 0.70952345141
6154 -1.09231647727
6155 0.550065664138
6156 0.542250813131
6157 -0.964136193044
6158 0.457370970921
6159 0.506765222124
6160 -1.28003583272
6161 0.709382164084
6162 0.570653668634
6163 -1.10390934203
6164 0.488323565794
6165 0.615585776235
6166 -0.948283505956
6167 0.518089575719
6168 0.430193930237
6169 -1.24409276801
6170 0.592459652066
6171 0.65163311594
6172 -1.08407391617
6173 0.557444062735
6174 0.526629853433
6175 -1.33759673396
6176 0.687985326215
6177 0.64961140774
6178 -1.22563216003
6179 0.678612167832
6180 0.547019992199
6181 -1.36483936806
6182 0.68489879398
6183 0.679940574085
6184 -1.04662085742
6185 0.455065683852
6186 0.59155517357
6187 -1.02700262086
6188 0.483857673533
6189 0.543144947324
6190 -1.07190575319
6191 0.530926337912
6192 0.540979415277
6193 -1.00675326383
6194 0.47675904469
6195 0.52999421914
6196 -1.15184709185
6197 0.513277463044
6198 0.63856962881
6199 -1.09242907965
6200 0.545790094057
6201 0.546638985591
6202 -1.0160758684
6203 0.468210837934
6204 0.547865030466
6205 -1.29582421715
6206 0.648549131444
6207 0.647275085706
6208 -1.09287834802
6209 0.607273689851
6210 0.485604658166
6211 -1.2595583957
6212 0.647474445765
6213 0.612083949931
6214 -1.23313865002
6215 0.585860050833
6216 0.647278599189
6217 -0.904469346323
6218 0.470610342513
6219 0.433859003809
6220 -1.23064952931
6221 0.585330805238
6222 0.645318724073
6223 -0.95588871327
6224 0.55487051336
6225 0.401018199911
6226 -1.05594531175
6227 0.511243445522
6228 0.54470186623
6229 -1.09846538631
6230 0.627681272132
6231 0.470784114183
6232 -1.20835819143
6233 0.69953320896
6234 0.508824982472
6235 -1.0569617264
6236 0.513266756816
6237 0.543694969581
6238 -1.27626748175
6239 0.562680977961
6240 0.713586503787
6241 -1.28286258634
6242 0.585617356761
6243 0.697245229576
6244 -1.20122905326
6245 0.550704170282
6246 0.650524882974
6247 -1.1133780213
6248 0.541199440566
6249 0.572178580739
6250 -0.927026374408
6251 0.418424497149
6252 0.508601877259
6253 -1.04567419052
6254 0.578019237298
6255 0.467654953218
6256 -1.04972417894
6257 0.498344120553
6258 0.551380058386
6259 -0.971125884378
6260 0.47609758643
6261 0.495028297948
6262 -1.19704732195
6263 0.531562189139
6264 0.665485132809
6265 -1.1450283895
6266 0.570150978546
6267 0.574877410951
6268 -1.0565382454
6269 0.466294076018
6270 0.59024416938
6271 -1.23603298936
6272 0.661716943372
6273 0.574316045987
6274 -0.992321176338
6275 0.477120659227
6276 0.515200517111
6277 -1.20762070056
6278 0.59310950347
6279 0.614511197085
6280 -1.02816884587
6281 0.525301358323
6282 0.502867487544
6283 -1.08133612711
6284 0.517395285599
6285 0.563940841511
6286 -1.00414209577
6287 0.456202496808
6288 0.547939598958
6289 -1.27362683645
6290 0.679571191294
6291 0.594055645158
6292 -1.19604582985
6293 0.528071410415
6294 0.667974419434
6295 -0.934730155115
6296 0.538625392035
6297 0.39610476308
6298 -1.1788666313
6299 0.601481267994
6300 0.577385363308
6301 -1.1996734997
6302 0.705045431462
6303 0.494628068234
6304 -1.18992488231
6305 0.544833369168
6306 0.645091513146
6307 -1.06650469002
6308 0.529726228136
6309 0.536778461882
6310 -1.0296297328
6311 0.50890830962
6312 0.520721423177
6313 -1.265472435
6314 0.661715261291
6315 0.603757173707
6316 -1.17862339316
6317 0.544728761526
6318 0.633894631636
6319 -1.3045216639
6320 0.718260108353
6321 0.586261555544
6322 -1.14341128199
6323 0.581429952949
6324 0.561981329041
6325 -1.19130770455
6326 0.442066679252
6327 0.749241025299
6328 -1.26199478162
6329 0.699614779563
6330 0.562380002052
6331 -1.02311536763
6332 0.522123683171
6333 0.500991684463
6334 -1.04346781717
6335 0.448137364885
6336 0.59533045228
6337 -1.19262082697
6338 0.606719945666
6339 0.585900881305
6340 -1.1287213134
6341 0.525037835024
6342 0.603683478375
6343 -1.36491169643
6344 0.636857055242
6345 0.728054641193
6346 -1.11110048963
6347 0.527654062786
6348 0.583446426848
6349 -1.01681821981
6350 0.437557513534
6351 0.579260706274
6352 -1.1280004895
6353 0.507886037365
6354 0.62011445213
6355 -0.999622050044
6356 0.45547412794
6357 0.544147922104
6358 -0.98772306618
6359 0.441440732685
6360 0.546282333495
6361 -0.924437584205
6362 0.463058276721
6363 0.461379307484
6364 -1.16435711498
6365 0.533208125086
6366 0.631148989891
6367 -1.13427770829
6368 0.54219068232
6369 0.592087025966
6370 -1.09919789097
6371 0.47768169047
6372 0.621516200502
6373 -1.26321573606
6374 0.610808376481
6375 0.652407359575
6376 -1.00613796853
6377 0.479223850757
6378 0.526914117774
6379 -1.1168047944
6380 0.509018614797
6381 0.6077861796
6382 -0.938408546647
6383 0.484210918129
6384 0.454197628518
6385 -1.38427495575
6386 0.685834836501
6387 0.698440119245
6388 -1.22085645913
6389 0.577507993548
6390 0.643348465578
6391 -1.05579182761
6392 0.556598233827
6393 0.499193593781
6394 -1.18573566718
6395 0.536523578796
6396 0.649212088384
6397 -1.21034403334
6398 0.58971282923
6399 0.620631204113
6400 -1.27534004389
6401 0.681266772087
6402 0.594073271803
6403 -1.09842961003
6404 0.525928311918
6405 0.572501298113
6406 -1.11026826296
6407 0.590859513057
6408 0.519408749905
6409 -1.15442833118
6410 0.526772897454
6411 0.627655433731
6412 -0.981902166055
6413 0.546644898947
6414 0.435257267108
6415 -1.06318403513
6416 0.500037980162
6417 0.56314605497
6418 -1.24460539011
6419 0.63561544391
6420 0.608989946204
6421 -1.0416641942
6422 0.593137882483
6423 0.448526311721
6424 -0.997359399806
6425 0.485879344058
6426 0.511480055748
6427 -1.10121153263
6428 0.52154388735
6429 0.579667645278
6430 -1.1776421491
6431 0.583758148595
6432 0.593884000506
6433 -1.19479753822
6434 0.585732651766
6435 0.609064886458
6436 -1.08515442549
6437 0.585744205851
6438 0.499410219635
6439 -1.03372849702
6440 0.585784423586
6441 0.44794407343
6442 -1.18408034986
6443 0.585318471107
6444 0.598761878749
6445 -1.09705151575
6446 0.501101043638
6447 0.595950472116
6448 -1.01071278814
6449 0.560112131635
6450 0.450600656503
6451 -1.37147924913
6452 0.642413156754
6453 0.729066092377
6454 -1.22318777589
6455 0.661978095149
6456 0.561209680739
6457 -1.23236661616
6458 0.673906931196
6459 0.558459684965
6460 -1.10960465534
6461 0.568204951895
6462 0.541399703442
6463 -1.30106011138
6464 0.549363898013
6465 0.751696213371
6466 -1.27732407069
6467 0.654734133378
6468 0.622589937311
6469 -0.999017027853
6470 0.517269189224
6471 0.48174783863
6472 -0.998443877794
6473 0.475043929651
6474 0.523399948144
6475 -1.19051323159
6476 0.622212958341
6477 0.568300273246
6478 -1.19702849012
6479 0.623921216524
6480 0.573107273594
6481 -1.16304291533
6482 0.652529484386
6483 0.510513430944
6484 -1.27323228311
6485 0.674290287938
6486 0.598941995172
6487 -1.10537030439
6488 0.633280692393
6489 0.472089611997
6490 -1.03387548575
6491 0.617619895117
6492 0.416255590633
6493 -1.19721888557
6494 0.554652659031
6495 0.642566226538
6496 -1.20969786727
6497 0.561464869345
6498 0.648232997928
6499 -1.45393875866
6500 0.710908009123
6501 0.743030749536
6502 -1.0183278389
6503 0.539339303193
6504 0.478988535702
6505 -1.08740522457
6506 0.453394420437
6507 0.63401080413
6508 -1.17010354472
6509 0.677860773146
6510 0.492242771577
6511 -0.921000140609
6512 0.437246053849
6513 0.48375408676
6514 -1.40269912378
6515 0.639197855744
6516 0.763501268036
6517 -1.38317835296
6518 0.704990076219
6519 0.678188276745
6520 -1.07225891262
6521 0.507298927416
6522 0.564959985202
6523 -1.31383123749
6524 0.625950592667
6525 0.68788064482
6526 -1.11216012838
6527 0.516107202999
6528 0.596052925378
6529 -0.8976527292
6530 0.442858927959
6531 0.454793801242
6532 -0.976724711935
6533 0.514571137937
6534 0.462153573998
6535 -1.07063291974
6536 0.48569715682
6537 0.584935762925
6538 -1.19912123813
6539 0.565656352008
6540 0.633464886123
6541 -1.08574496999
6542 0.595374673946
6543 0.490370296044
6544 -1.06351902642
6545 0.560495682753
6546 0.503023343666
6547 -1.13297595641
6548 0.60300963116
6549 0.52996632525
6550 -1.31962712477
6551 0.649429093209
6552 0.670198031565
6553 -1.02097756078
6554 0.501251063511
6555 0.519726497271
6556 -1.21632504841
6557 0.643314310956
6558 0.573010737449
6559 -1.01167468186
6560 0.577218782411
6561 0.434455899451
6562 -1.09914337395
6563 0.578138253936
6564 0.52100512001
6565 -1.04256557623
6566 0.562167824361
6567 0.480397751867
6568 -1.23121348485
6569 0.623988733254
6570 0.607224751597
6571 -1.16690091079
6572 0.512245098618
6573 0.654655812167
6574 -0.954633281425
6575 0.519946716739
6576 0.434686564686
6577 -1.02630167417
6578 0.546719287944
6579 0.479582386227
6580 -1.24893392682
6581 0.526432993779
6582 0.722500933043
6583 -1.07819292325
6584 0.48189165956
6585 0.596301263689
6586 -0.88495953096
6587 0.453583143256
6588 0.431376387704
6589 -1.13782101465
6590 0.461376123557
6591 0.676444891093
6592 -1.03798499161
6593 0.475264638101
6594 0.562720353514
6595 -1.13853480521
6596 0.568524520843
6597 0.570010284365
6598 -1.28587687993
6599 0.612264276146
6600 0.673612603787
6601 -1.44023064606
6602 0.700317265802
6603 0.739913380258
6604 -1.06141765041
6605 0.561897889334
6606 0.499519761079
6607 -1.24607261411
6608 0.629452068449
6609 0.616620545659
6610 -1.12530597878
6611 0.549559747444
6612 0.575746231337
6613 -1.30501065802
6614 0.702279327724
6615 0.602731330296
6616 -1.01267343783
6617 0.640877306102
6618 0.371796131727
6619 -1.01252323127
6620 0.492662897318
6621 0.519860333947
6622 -1.13489742417
6623 0.626607788762
6624 0.508289635406
6625 -1.07437575282
6626 0.538012016529
6627 0.536363736295
6628 -1.17970092904
6629 0.553172019718
6630 0.626528909327
6631 -1.12639435692
6632 0.55323423845
6633 0.57316011847
6634 -1.04159492441
6635 0.594329782442
6636 0.447265141965
6637 -1.30612943539
6638 0.749265002492
6639 0.556864432901
6640 -1.13454860774
6641 0.652545487381
6642 0.482003120354
6643 -0.954104024484
6644 0.499710301891
6645 0.454393722594
6646 -0.85457797278
6647 0.401192516353
6648 0.453385456427
6649 -1.24388538358
6650 0.567919076439
6651 0.675966307144
6652 -0.940923750464
6653 0.506541243896
6654 0.434382506568
6655 -1.32166707209
6656 0.634246280099
6657 0.687420791988
6658 -1.15390900599
6659 0.589626081631
6660 0.564282924355
6661 -0.853007230806
6662 0.391517204793
6663 0.461490026014
6664 -1.16334925673
6665 0.656622527778
6666 0.506726728952
6667 -1.11458504811
6668 0.572945256073
6669 0.541639792038
6670 -1.2927281381
6671 0.661572643332
6672 0.631155494765
6673 -1.11749438685
6674 0.440846137864
6675 0.676648248984
6676 -1.12505421766
6677 0.617008754847
6678 0.508045462811
6679 -1.05970400931
6680 0.520150235374
6681 0.539553773932
6682 -1.29647299119
6683 0.658424028598
6684 0.638048962595
6685 -1.09835198174
6686 0.584170669699
6687 0.514181312038
6688 -1.10073337627
6689 0.491408112711
6690 0.609325263557
6691 -0.941607548073
6692 0.518861610056
6693 0.422745938017
6694 -1.03908328294
6695 0.557946609905
6696 0.481136673032
6697 -1.25142585431
6698 0.580796653692
6699 0.670629200615
6700 -1.16849430883
6701 0.578225899451
6702 0.590268409376
6703 -1.1444478381
6704 0.555077918694
6705 0.589369919402
6706 -0.989448336312
6707 0.502799110147
6708 0.486649226166
6709 -1.31736570255
6710 0.81769736464
6711 0.499668337906
6712 -1.02735748665
6713 0.482940780447
6714 0.544416706206
6715 -1.13639519274
6716 0.536002858426
6717 0.600392334311
6718 -1.0089976168
6719 0.530731359687
6720 0.47826625711
6721 -1.20097811335
6722 0.515901041792
6723 0.685077071556
6724 -1.15202595158
6725 0.590155574983
6726 0.561870376602
6727 -1.05008150208
6728 0.483874484724
6729 0.566207017355
6730 -1.05125721826
6731 0.507074128934
6732 0.544183089329
6733 -1.2078692
6734 0.613622647234
6735 0.594246552764
6736 -1.02451247037
6737 0.523031699437
6738 0.501480770928
6739 -1.05423915772
6740 0.625983689636
6741 0.428255468079
6742 -1.15447262695
6743 0.627842312587
6744 0.52663031436
6745 -0.839218939928
6746 0.401567811489
6747 0.437651128438
6748 -1.23974104173
6749 0.673815172175
6750 0.565925869558
6751 -1.08484694252
6752 0.544504671385
6753 0.540342271139
6754 -1.34617896411
6755 0.671393562408
6756 0.674785401701
6757 -1.12245140663
6758 0.464100840428
6759 0.658350566197
6760 -1.17287588907
6761 0.618047608247
6762 0.554828280819
6763 -1.11982897168
6764 0.553690962556
6765 0.566138009128
6766 -1.10484646086
6767 0.540876027967
6768 0.563970432896
6769 -1.00660498754
6770 0.510606949844
6771 0.495998037698
6772 -1.24163693547
6773 0.771417734214
6774 0.470219201252
6775 -0.997795592809
6776 0.583862069346
6777 0.413933523463
6778 -1.07595978108
6779 0.496226192132
6780 0.579733588943
6781 -1.10570950115
6782 0.498396059595
6783 0.607313441555
6784 -1.0501588555
6785 0.54559481049
6786 0.504564045009
6787 -0.998637110306
6788 0.542703393737
6789 0.455933716568
6790 -1.15578758225
6791 0.595037241653
6792 0.560750340596
6793 -1.12066834802
6794 0.626724770578
6795 0.493943577439
6796 -1.25058330277
6797 0.588222976619
6798 0.662360326151
6799 -1.15116638018
6800 0.574991989793
6801 0.576174390389
6802 -1.08712579852
6803 0.49328348892
6804 0.593842309599
6805 -1.0661671604
6806 0.518534062198
6807 0.547633098203
6808 -1.06981073223
6809 0.580455623686
6810 0.489355108545
6811 -1.29685134586
6812 0.696035602531
6813 0.600815743328
6814 -1.1353638187
6815 0.573616816658
6816 0.561747002044
6817 -1.19203546705
6818 0.561522089543
6819 0.630513377511
6820 -1.0891739175
6821 0.507733075771
6822 0.581440841734
6823 -1.05917996609
6824 0.588006643409
6825 0.471173322681
6826 -1.03093100004
6827 0.516142848321
6828 0.514788151716
6829 -0.95620090654
6830 0.528072874745
6831 0.428128031795
6832 -1.06659112028
6833 0.568750915702
6834 0.497840204578
6835 -1.14145355113
6836 0.640816612748
6837 0.500636938383
6838 -1.08314162979
6839 0.521354048754
6840 0.561787581035
6841 -1.14151269954
6842 0.54418975325
6843 0.597322946293
6844 -1.40480100146
6845 0.772552158504
6846 0.632248842954
6847 -1.3848368421
6848 0.644244427937
6849 0.74059241416
6850 -1.13217506817
6851 0.541599851954
6852 0.590575216214
6853 -1.02958157463
6854 0.433717199103
6855 0.595864375523
6856 -1.16230629799
6857 0.621086088265
6858 0.541220209722
6859 -1.32899961614
6860 0.671319054258
6861 0.657680561883
6862 -1.02806907362
6863 0.58829149925
6864 0.439777574374
6865 -1.36638418986
6866 0.664509561825
6867 0.701874628032
6868 -1.05137720169
6869 0.528849978111
6870 0.522527223577
6871 -1.17278841381
6872 0.442204544153
6873 0.730583869655
6874 -1.04226952294
6875 0.61690313446
6876 0.425366388483
6877 -1.13705902205
6878 0.609129288254
6879 0.527929733797
6880 -1.06486551365
6881 0.482230033341
6882 0.582635480309
6883 -1.34476329416
6884 0.740174839121
6885 0.604588455038
6886 -0.996891967531
6887 0.511348061151
6888 0.48554390638
6889 -1.08133706518
6890 0.461080025613
6891 0.620257039569
6892 -1.08253575203
6893 0.535304088088
6894 0.547231663941
6895 -1.03465711621
6896 0.458709714225
6897 0.575947401986
6898 -1.00795712257
6899 0.493466463486
6900 0.514490659083
6901 -1.01323044003
6902 0.523990584483
6903 0.489239855552
6904 -1.19461857255
6905 0.470908448256
6906 0.723710124296
6907 -1.1374728717
6908 0.625725301475
6909 0.511747570222
6910 -1.21675216459
6911 0.609527600681
6912 0.60722456391
6913 -1.22826664536
6914 0.55080765034
6915 0.677458995017
6916 -1.17196311123
6917 0.549463845052
6918 0.622499266179
6919 -1.07058665942
6920 0.53930556151
6921 0.531281097906
6922 -0.952691264044
6923 0.460304694812
6924 0.492386569232
6925 -1.10624180867
6926 0.618876409038
6927 0.487365399637
6928 -1.21047228005
6929 0.575053288211
6930 0.635418991844
6931 -1.42061164971
6932 0.724271739461
6933 0.696339910249
6934 -1.14598541671
6935 0.610943705343
6936 0.535041711372
6937 -1.00787783568
6938 0.524352441094
6939 0.483525394585
6940 -0.988610650322
6941 0.481838091191
6942 0.506772559131
6943 -1.11542653726
6944 0.534510347913
6945 0.580916189345
6946 -1.28065134402
6947 0.644892482771
6948 0.635758861248
6949 -1.14540882171
6950 0.579232187558
6951 0.56617663415
6952 -1.25660159445
6953 0.6943269384
6954 0.56227465605
6955 -1.2179703445
6956 0.580552418726
6957 0.637417925778
6958 -1.22330584202
6959 0.625908384663
6960 0.597397457355
6961 -1.30399546544
6962 0.625041721543
6963 0.678953743894
6964 -1.12534322021
6965 0.504732365508
6966 0.620610854701
6967 -1.16155447572
6968 0.626953345071
6969 0.534601130647
6970 -1.14689368916
6971 0.45686779959
6972 0.690025889567
6973 -1.13132494442
6974 0.50540447972
6975 0.6259204647
6976 -1.46529355977
6977 0.779108568803
6978 0.686184990969
6979 -1.09636679852
6980 0.559542779914
6981 0.536824018602
6982 -1.10280800321
6983 0.62365380871
6984 0.479154194504
6985 -1.21499367625
6986 0.668988017188
6987 0.546005659059
6988 -1.23600328075
6989 0.704206319983
6990 0.531796960765
6991 -1.15665322734
6992 0.565516785555
6993 0.591136441789
6994 -1.23265566713
6995 0.640687805388
6996 0.59196786174
6997 -1.20287446442
6998 0.64540449435
6999 0.557469970073
7000 -1.09553018619
7001 0.502184979693
7002 0.5933452065
7003 -1.43676245689
7004 0.689115065308
7005 0.747647391587
7006 -1.11851634489
7007 0.496907158299
7008 0.621609186593
7009 -1.15038079551
7010 0.693980438009
7011 0.456400357501
7012 -1.0952840148
7013 0.49600637948
7014 0.599277635324
7015 -1.30711489834
7016 0.585931877742
7017 0.721183020594
7018 -1.1972030935
7019 0.58397976595
7020 0.613223327547
7021 -1.08826209305
7022 0.561576135183
7023 0.526685957866
7024 -1.16237914257
7025 0.612445150087
7026 0.549933992481
7027 -1.25544927839
7028 0.707723313983
7029 0.547725964403
7030 -0.962058592236
7031 0.446998531984
7032 0.515060060252
7033 -1.0656359496
7034 0.503720029595
7035 0.561915920009
7036 -1.1403583364
7037 0.579317813162
7038 0.561040523242
7039 -1.48922339997
7040 0.707653448231
7041 0.781569951742
7042 -1.21309676686
7043 0.538003952472
7044 0.675092814384
7045 -1.12500358551
7046 0.583705467945
7047 0.541298117564
7048 -0.92668578509
7049 0.451221150473
7050 0.475464634618
7051 -1.09617221112
7052 0.534275898676
7053 0.561896312444
7054 -1.2262048816
7055 0.571380271259
7056 0.65482461034
7057 -1.10245077489
7058 0.567414525444
7059 0.535036249443
7060 -1.01414691617
7061 0.472950951231
7062 0.541195964944
7063 -1.35275441312
7064 0.749735469266
7065 0.603018943855
7066 -1.01759984714
7067 0.445492806126
7068 0.572107041018
7069 -1.00661208404
7070 0.469852850376
7071 0.536759233665
7072 -0.968620192726
7073 0.501040460643
7074 0.467579732083
7075 -1.2639752475
7076 0.639473696293
7077 0.624501551203
7078 -1.05934823339
7079 0.607868871644
7080 0.45147936175
7081 -1.12647116962
7082 0.526748779516
7083 0.599722390103
7084 -1.14228048425
7085 0.575645154758
7086 0.566635329496
7087 -1.06925943288
7088 0.632728911346
7089 0.436530521533
7090 -1.11769246508
7091 0.566842953008
7092 0.55084951207
7093 -1.23874152746
7094 0.636595738862
7095 0.602145788595
7096 -1.11214973563
7097 0.553236648361
7098 0.558913087265
7099 -1.19498497986
7100 0.658835142289
7101 0.536149837573
7102 -1.13148646348
7103 0.554968167428
7104 0.576518296057
7105 -1.31080052325
7106 0.587324301911
7107 0.723476221337
7108 -1.25025384056
7109 0.633453123419
7110 0.616800717139
7111 -1.17260506923
7112 0.639051938857
7113 0.533553130374
7114 -1.10653970516
7115 0.592079816317
7116 0.514459888846
7117 -0.9242700266
7118 0.461296422369
7119 0.462973604231
7120 -1.08935482522
7121 0.607311172059
7122 0.482043653156
7123 -1.00374681982
7124 0.534442952649
7125 0.469303867166
7126 -1.10564466241
7127 0.622304561595
7128 0.483340100811
7129 -1.16773774248
7130 0.540975976192
7131 0.626761766286
7132 -1.13355761884
7133 0.560343548231
7134 0.573214070613
7135 -1.12729962193
7136 0.647282932456
7137 0.480016689469
7138 -1.04877051243
7139 0.60178240047
7140 0.446988111964
7141 -1.17282558805
7142 0.655537598419
7143 0.517287989631
7144 -0.963341118322
7145 0.508528392731
7146 0.454812725592
7147 -1.22138170012
7148 0.613116557246
7149 0.608265142878
7150 -1.00925952246
7151 0.518797729407
7152 0.490461793051
7153 -1.38872211778
7154 0.695077279454
7155 0.693644838326
7156 -1.15995137086
7157 0.582520166862
7158 0.577431203994
7159 -1.01419258166
7160 0.528307795186
7161 0.485884786477
7162 -1.13967270666
7163 0.607009483682
7164 0.532663222978
7165 -1.05939242763
7166 0.532153390341
7167 0.527239037288
7168 -1.37694654416
7169 0.77577727996
7170 0.601169264197
7171 -1.43270058777
7172 0.780256674484
7173 0.652443913283
7174 -1.16564808219
7175 0.586657768316
7176 0.578990313877
7177 -0.968555830527
7178 0.463621274526
7179 0.504934556001
7180 -0.964221229793
7181 0.445867002284
7182 0.518354227509
7183 -1.25535970681
7184 0.633341596411
7185 0.6220181104
7186 -1.23259242899
7187 0.697550769835
7188 0.535041659155
7189 -1.23855098248
7190 0.567742575849
7191 0.670808406635
7192 -1.18300907848
7193 0.559666706922
7194 0.623342371562
7195 -1.12136523492
7196 0.503893298434
7197 0.617471936487
7198 -1.0414354976
7199 0.497438512463
7200 0.543996985135
7201 -1.08065286281
7202 0.561601617959
7203 0.519051244849
7204 -1.22972720169
7205 0.640657035076
7206 0.589070166612
7207 -1.21180690567
7208 0.541175536276
7209 0.670631369394
7210 -0.984491984101
7211 0.435175801136
7212 0.549316182964
7213 -1.28931495661
7214 0.662782418933
7215 0.626532537678
7216 -1.20353138317
7217 0.605557039396
7218 0.597974343773
7219 -1.5094359127
7220 0.677223768052
7221 0.832212144646
7222 -0.877822569176
7223 0.42021999109
7224 0.457602578086
7225 -1.07891275993
7226 0.531109303085
7227 0.547803456841
7228 -1.02369073407
7229 0.522574017395
7230 0.501116716676
7231 -1.30389364354
7232 0.585385201269
7233 0.718508442272
7234 -1.32126197788
7235 0.621693417811
7236 0.699568560069
7237 -1.06734770137
7238 0.565762248624
7239 0.501585452746
7240 -1.22382506598
7241 0.573296264748
7242 0.65052880123
7243 -1.05531174289
7244 0.603658156244
7245 0.451653586644
7246 -1.32250626802
7247 0.611074183471
7248 0.711432084551
7249 -1.24889197122
7250 0.671453240661
7251 0.577438730562
7252 -1.23384870069
7253 0.6795750611
7254 0.554273639586
7255 -1.17898418928
7256 0.603724011742
7257 0.575260177535
7258 -0.972545339504
7259 0.51456105936
7260 0.457984280144
7261 -1.32380059392
7262 0.664491612582
7263 0.659308981336
7264 -1.35795130128
7265 0.657549669201
7266 0.700401632079
7267 -0.973893290881
7268 0.429369499444
7269 0.544523791436
7270 -1.00928658653
7271 0.542531018616
7272 0.466755567912
7273 -1.0470482203
7274 0.478877523148
7275 0.568170697152
7276 -1.12486471545
7277 0.577055583325
7278 0.547809132126
7279 -0.993919425565
7280 0.509207367092
7281 0.484712058473
7282 -1.17539346082
7283 0.536008800367
7284 0.639384660457
7285 -1.29796489864
7286 0.633416820216
7287 0.664548078422
7288 -1.16526333329
7289 0.630868415849
7290 0.534394917445
7291 -1.01980501578
7292 0.534607856454
7293 0.485197159326
7294 -1.28585881092
7295 0.678044286169
7296 0.607814524754
7297 -1.03854009099
7298 0.573932543954
7299 0.464607547034
7300 -1.11672600044
7301 0.594744468889
7302 0.521981531552
7303 -0.99696916133
7304 0.433449059603
7305 0.563520101727
7306 -1.18994177998
7307 0.59832467485
7308 0.591617105127
7309 -1.07396095729
7310 0.507494925332
7311 0.566466031954
7312 -0.852691051472
7313 0.457515622499
7314 0.395175428973
7315 -0.959501375241
7316 0.496686670946
7317 0.462814704295
7318 -0.766510990563
7319 0.37626806708
7320 0.390242923484
7321 -1.03531461872
7322 0.540790510695
7323 0.494524108024
7324 -1.0341743022
7325 0.502164205242
7326 0.532010096962
7327 -1.10346642038
7328 0.659772270877
7329 0.443694149499
7330 -0.960801781212
7331 0.371104256002
7332 0.589697525211
7333 -1.13076288242
7334 0.542707020458
7335 0.588055861966
7336 -1.19509169837
7337 0.547790938324
7338 0.647300760043
7339 -1.15646056781
7340 0.619171572308
7341 0.537288995502
7342 -0.879348287847
7343 0.485928154373
7344 0.393420133474
7345 -1.1197290803
7346 0.595174138005
7347 0.524554942297
7348 -0.90293073964
7349 0.504406915656
7350 0.398523823984
7351 -1.34504539475
7352 0.751488024084
7353 0.593557370669
7354 -1.23530353154
7355 0.662244964745
7356 0.573058566795
7357 -1.13030216545
7358 0.603688510207
7359 0.526613655248
7360 -1.20637550631
7361 0.615158162867
7362 0.591217343443
7363 -1.04200057227
7364 0.488327943963
7365 0.55367262831
7366 -1.09405398892
7367 0.503000753049
7368 0.591053235876
7369 -1.10034032357
7370 0.537463824983
7371 0.562876498587
7372 -1.09213594571
7373 0.559484180005
7374 0.532651765707
7375 -1.02579706362
7376 0.485833051387
7377 0.53996401223
7378 -1.1249315301
7379 0.474262614172
7380 0.650668915932
7381 -1.17799707485
7382 0.581632530776
7383 0.596364544071
7384 -1.09849363179
7385 0.413636644537
7386 0.684856987251
7387 -1.06835833772
7388 0.499892294745
7389 0.568466042975
7390 -1.0814046649
7391 0.530261821758
7392 0.551142843145
7393 -0.931141438828
7394 0.48978926641
7395 0.441352172418
7396 -1.13452207158
7397 0.553978938426
7398 0.580543133158
7399 -1.11785914922
7400 0.54406392787
7401 0.57379522135
7402 -1.15702362257
7403 0.50990311947
7404 0.647120503097
7405 -1.13988424979
7406 0.566514519884
7407 0.573369729906
7408 -1.23440632258
7409 0.67905673545
7410 0.55534958713
7411 -1.15718890945
7412 0.562173825516
7413 0.595015083937
7414 -1.18156986803
7415 0.559327740587
7416 0.622242127439
7417 -1.2695251239
7418 0.650039240652
7419 0.619485883244
7420 -1.10610963587
7421 0.536810221379
7422 0.56929941449
7423 -1.28526115906
7424 0.603161244523
7425 0.682099914542
7426 -1.30868893698
7427 0.629686708535
7428 0.679002228448
7429 -1.21603031024
7430 0.704352748331
7431 0.51167756191
7432 -1.10122767725
7433 0.547447022823
7434 0.553780654428
7435 -1.20492203497
7436 0.656263228897
7437 0.548658806069
7438 -1.36633053072
7439 0.679637216575
7440 0.686693314148
7441 -1.04377786119
7442 0.565493736365
7443 0.478284124826
7444 -1.1363228202
7445 0.633871496385
7446 0.502451323811
7447 -0.962010836688
7448 0.530177178924
7449 0.431833657764
7450 -0.887249665373
7451 0.439525208046
7452 0.447724457327
7453 -1.29069942899
7454 0.611295185336
7455 0.679404243655
7456 -1.23525246499
7457 0.556097689078
7458 0.67915477591
7459 -1.19170931768
7460 0.599578606222
7461 0.592130711454
7462 -1.33781394679
7463 0.655160335142
7464 0.682653611651
7465 -1.14056625113
7466 0.553843356578
7467 0.586722894553
7468 -1.06053620638
7469 0.593195668479
7470 0.467340537903
7471 -1.04704031911
7472 0.448794914311
7473 0.5982454048
7474 -0.933887687597
7475 0.51268566376
7476 0.421202023838
7477 -1.21667477267
7478 0.656235897343
7479 0.560438875323
7480 -0.954313828639
7481 0.472381098802
7482 0.481932729837
7483 -1.15016480802
7484 0.561074024
7485 0.589090784024
7486 -1.06463170318
7487 0.537439599698
7488 0.527192103486
7489 -1.10831747864
7490 0.624039945924
7491 0.484277532716
7492 -1.01229875252
7493 0.456193284614
7494 0.556105467907
7495 -1.37688224043
7496 0.613551724626
7497 0.763330515809
7498 -1.26760334835
7499 0.573424190575
7500 0.694179157777
7501 -1.01306477169
7502 0.490096661917
7503 0.522968109771
7504 -1.07294502867
7505 0.520630100275
7506 0.552314928392
7507 -0.899911773024
7508 0.451664972608
7509 0.448246800416
7510 -0.832362065353
7511 0.360523844728
7512 0.471838220625
7513 -1.03771516445
7514 0.485047113543
7515 0.552668050907
7516 -1.02987922064
7517 0.47114635585
7518 0.558732864791
7519 -1.21827043196
7520 0.608012720689
7521 0.610257711269
7522 -1.04264982002
7523 0.604385902509
7524 0.438263917511
7525 -1.12938008409
7526 0.588176755502
7527 0.541203328587
7528 -1.04441872413
7529 0.454684821122
7530 0.589733903008
7531 -1.18424322856
7532 0.609308002674
7533 0.574935225887
7534 -1.14388314984
7535 0.582883193041
7536 0.560999956794
7537 -1.1357493705
7538 0.607686113446
7539 0.528063257056
7540 -0.992922284192
7541 0.485450645481
7542 0.507471638711
7543 -0.88870803436
7544 0.448711503943
7545 0.439996530417
7546 -1.02271952889
7547 0.493536058766
7548 0.529183470128
7549 -1.17315561498
7550 0.587888898188
7551 0.585266716796
7552 -1.13130675927
7553 0.527738556727
7554 0.603568202546
7555 -1.22725638749
7556 0.681965532509
7557 0.545290854984
7558 -1.05091200403
7559 0.573319933776
7560 0.477592070252
7561 -1.12375822058
7562 0.502389447986
7563 0.621368772589
7564 -1.13739949894
7565 0.557348916356
7566 0.580050582587
7567 -1.09950341904
7568 0.57150330808
7569 0.528000110964
7570 -0.996915405305
7571 0.487381989602
7572 0.509533415703
7573 -1.28029008439
7574 0.654417801055
7575 0.625872283335
7576 -1.11229795251
7577 0.464249755646
7578 0.648048196862
7579 -1.19147681376
7580 0.603464994885
7581 0.588011818876
7582 -1.16099307502
7583 0.644858355241
7584 0.516134719778
7585 -1.22260454298
7586 0.602145944065
7587 0.620458598914
7588 -1.24164419827
7589 0.603151004939
7590 0.638493193327
7591 -1.02862799049
7592 0.625960211867
7593 0.402667778627
7594 -1.09349680993
7595 0.51452169937
7596 0.578975110556
7597 -1.05010162782
7598 0.484322870042
7599 0.565778757776
7600 -0.860850535923
7601 0.444016256545
7602 0.416834279377
7603 -1.38198530728
7604 0.674702750143
7605 0.70728255714
7606 -1.02903380825
7607 0.533382357453
7608 0.4956514508
7609 -1.09315584146
7610 0.538842023962
7611 0.554313817499
7612 -0.973956822699
7613 0.452367893668
7614 0.521588929031
7615 -1.25522539217
7616 0.649856706803
7617 0.605368685363
7618 -1.34327313284
7619 0.686715223247
7620 0.656557909593
7621 -0.991143777596
7622 0.425990520934
7623 0.565153256662
7624 -1.41710534064
7625 0.71416604998
7626 0.70293929066
7627 -1.26763889355
7628 0.649863099055
7629 0.617775794494
7630 -1.04821741111
7631 0.543854186372
7632 0.504363224737
7633 -1.0313074364
7634 0.618592657486
7635 0.412714778913
7636 -1.08228122154
7637 0.554976787271
7638 0.527304434269
7639 -1.08227917623
7640 0.503496292445
7641 0.578782883782
7642 -1.06465877826
7643 0.513082957355
7644 0.551575820905
7645 -1.13308006038
7646 0.578175660055
7647 0.554904400325
7648 -1.23445464951
7649 0.677213345463
7650 0.557241304044
7651 -1.27322061778
7652 0.572723961514
7653 0.700496656266
7654 -1.25891755611
7655 0.565051630015
7656 0.693865926094
7657 -0.979375678576
7658 0.527894556081
7659 0.451481122495
7660 -1.13468944981
7661 0.597897321977
7662 0.536792127829
7663 -1.08366768503
7664 0.552525367084
7665 0.531142317949
7666 -0.976765065486
7667 0.527667473791
7668 0.449097591695
7669 -1.10812325941
7670 0.552856713413
7671 0.555266545997
7672 -1.10054777537
7673 0.434585589831
7674 0.665962185539
7675 -1.03113344244
7676 0.534421069922
7677 0.49671237252
7678 -1.03119780152
7679 0.506498245209
7680 0.52469955631
7681 -1.22653145223
7682 0.527328074849
7683 0.699203377385
7684 -1.16859602449
7685 0.618080463699
7686 0.550515560792
7687 -1.2411288139
7688 0.561391357384
7689 0.679737456519
7690 -1.09502682291
7691 0.51892412938
7692 0.576102693531
7693 -0.919974682295
7694 0.448013930588
7695 0.471960751707
7696 -1.26550202171
7697 0.698634297783
7698 0.566867723928
7699 -1.17042649773
7700 0.537485289774
7701 0.63294120796
7702 -0.986899137432
7703 0.54160259695
7704 0.445296540482
7705 -1.22818887189
7706 0.579248486366
7707 0.648940385523
7708 -1.03903734293
7709 0.538229752671
7710 0.500807590262
7711 -1.30350854101
7712 0.654336254597
7713 0.649172286416
7714 -1.17896581552
7715 0.625690679846
7716 0.553275135678
7717 -1.39764545552
7718 0.696998357336
7719 0.700647098184
7720 -1.06408107438
7721 0.465657251397
7722 0.598423822985
7723 -1.0168288641
7724 0.474100634222
7725 0.542728229876
7726 -1.10745279073
7727 0.538122329112
7728 0.569330461614
7729 -0.974249825533
7730 0.446067357045
7731 0.528182468488
7732 -1.17245855916
7733 0.527515248878
7734 0.644943310286
7735 -1.06017476883
7736 0.559268279866
7737 0.500906488968
7738 -0.990282925507
7739 0.453222523542
7740 0.537060401964
7741 -1.3111027127
7742 0.659980526134
7743 0.651122186568
7744 -1.14467987779
7745 0.635739261192
7746 0.508940616602
7747 -1.17847361585
7748 0.567144183128
7749 0.611329432726
7750 -1.23993791586
7751 0.600616662465
7752 0.639321253393
7753 -0.92549757235
7754 0.454183866391
7755 0.47131370596
7756 -1.20353433895
7757 0.547906152983
7758 0.655628185971
7759 -0.940450342723
7760 0.565006711214
7761 0.375443631509
7762 -1.04199865229
7763 0.507076618451
7764 0.534922033839
7765 -1.10637657302
7766 0.598511547262
7767 0.50786502576
7768 -1.203861444
7769 0.724900817547
7770 0.478960626455
7771 -1.06750915651
7772 0.524709121963
7773 0.542800034543
7774 -1.22847211201
7775 0.576340597787
7776 0.652131514222
7777 -1.26517100309
7778 0.599792399348
7779 0.66537860374
7780 -1.21800100228
7781 0.557668396321
7782 0.660332605956
7783 -1.08925911847
7784 0.552435328061
7785 0.53682379041
7786 -0.890897581092
7787 0.405846050457
7788 0.485051530635
7789 -1.07499241491
7790 0.587165470737
7791 0.487826944173
7792 -1.02085598584
7793 0.455816843743
7794 0.565039142099
7795 -0.921312827398
7796 0.470673608329
7797 0.450639219068
7798 -1.19974760421
7799 0.574765209759
7800 0.624982394448
7801 -1.09294849769
7802 0.549220898444
7803 0.543727599247
7804 -1.05450953924
7805 0.490272940488
7806 0.564236598749
7807 -1.25947724065
7808 0.666607891963
7809 0.592869348684
7810 -0.984638508493
7811 0.481874953473
7812 0.50276355502
7813 -1.2032026372
7814 0.610180503454
7815 0.593022133741
7816 -1.08444943734
7817 0.54903037786
7818 0.53541905948
7819 -1.09616078612
7820 0.49456342385
7821 0.601597362268
7822 -0.990594806495
7823 0.4338299756
7824 0.556764830895
7825 -1.22338533115
7826 0.684123082813
7827 0.539262248341
7828 -1.13603023225
7829 0.499292681627
7830 0.636737550624
7831 -0.926032773277
7832 0.545902106401
7833 0.380130666876
7834 -1.20021777074
7835 0.602269441054
7836 0.597948329682
7837 -1.31030869799
7838 0.706398879674
7839 0.603909818318
7840 -1.2148450248
7841 0.603317614533
7842 0.611527410268
7843 -1.02977099321
7844 0.489818034051
7845 0.539952959159
7846 -1.04725918825
7847 0.504618549912
7848 0.542640638336
7849 -1.23040643984
7850 0.604874732875
7851 0.625531706966
7852 -1.14180502509
7853 0.511669097917
7854 0.630135927175
7855 -1.32154823359
7856 0.716158629461
7857 0.605389604128
7858 -1.08780238673
7859 0.536886849394
7860 0.550915537335
7861 -1.19606629505
7862 0.475774252744
7863 0.720292042307
7864 -1.26633162136
7865 0.696706275898
7866 0.569625345458
7867 -1.02712674399
7868 0.538171947819
7869 0.488954796171
7870 -1.06884532081
7871 0.469529274489
7872 0.599316046316
7873 -1.21452540967
7874 0.635198426579
7875 0.579326983087
7876 -1.13686378454
7877 0.54810989973
7878 0.588753884806
7879 -1.4121951675
7880 0.690604455188
7881 0.721590712316
7882 -1.12983955815
7883 0.542433263267
7884 0.587406294888
7885 -1.02944988838
7886 0.479324691774
7887 0.550125196608
7888 -1.11717060407
7889 0.525733013967
7890 0.591437590104
7891 -1.03795731128
7892 0.453823096623
7893 0.584134214658
7894 -1.00649015951
7895 0.465086451329
7896 0.541403708182
7897 -0.934119230623
7898 0.458677133193
7899 0.47544209743
7900 -1.19981441913
7901 0.547644158165
7902 0.652170260966
7903 -1.17504804067
7904 0.516840246386
7905 0.658207794282
7906 -1.13559994265
7907 0.497370373792
7908 0.638229568856
7909 -1.24618998843
7910 0.644284001174
7911 0.601905987254
7912 -1.03131848369
7913 0.50584998233
7914 0.525468501361
7915 -1.09317129997
7916 0.486205300395
7917 0.606965999578
7918 -0.961124317835
7919 0.488137855587
7920 0.472986462249
7921 -1.44499201661
7922 0.712916752962
7923 0.732075263645
7924 -1.25547026421
7925 0.616860777914
7926 0.638609486291
7927 -1.0329027148
7928 0.53070377513
7929 0.502198939673
7930 -1.1925084069
7931 0.503761496434
7932 0.688746910467
7933 -1.19452628406
7934 0.580874906249
7935 0.613651377812
7936 -1.31255879982
7937 0.695872892881
7938 0.616685906936
7939 -1.12398915855
7940 0.518981302938
7941 0.60500785561
7942 -1.12206867501
7943 0.598658179627
7944 0.523410495383
7945 -1.24112565943
7946 0.560349795305
7947 0.680775864127
7948 -0.980126862748
7949 0.548832163967
7950 0.431294698782
7951 -1.08788042109
7952 0.515742291339
7953 0.572138129756
7954 -1.26447432426
7955 0.67668914683
7956 0.587785177431
7957 -1.09182775188
7958 0.630660710542
7959 0.461167041338
7960 -0.907817194691
7961 0.449473310648
7962 0.458343884043
7963 -1.09339510598
7964 0.535278439969
7965 0.55811666601
7966 -1.22718043718
7967 0.62352330242
7968 0.603657134756
7969 -1.2522138898
7970 0.606951850222
7971 0.645262039574
7972 -1.12857188824
7973 0.581669671528
7974 0.546902216712
7975 -0.990408619861
7976 0.587411541899
7977 0.402997077961
7978 -1.16284339797
7979 0.556724485344
7980 0.606118912623
7981 -1.04862168824
7982 0.482382556385
7983 0.566239131854
7984 -1.01722729511
7985 0.547312581966
7986 0.469914713144
7987 -1.38405745328
7988 0.669288201717
7989 0.714769251565
7990 -1.23671252877
7991 0.635732285387
7992 0.600980243387
7993 -1.19041266555
7994 0.640231802378
7995 0.550180863173
7996 -1.12467128289
7997 0.562251858929
7998 0.562419423956
7999 -1.31748305499
8000 0.538215968444
8001 0.779267086544
8002 -1.23801448365
8003 0.633855762825
8004 0.604158720829
8005 -0.996739742791
8006 0.52773567744
8007 0.469004065352
8008 -1.01878830207
8009 0.499567667058
8010 0.51922063501
8011 -1.20902040454
8012 0.614233322592
8013 0.594787081945
8014 -1.20798346888
8015 0.61930491546
8016 0.588678553422
8017 -1.12062930232
8018 0.621631551961
8019 0.498997750356
8020 -1.23876343141
8021 0.652054985167
8022 0.586708446239
8023 -1.08489399226
8024 0.618302471553
8025 0.466591520712
8026 -1.04522525924
8027 0.62354580806
8028 0.421679451178
8029 -1.16247509842
8030 0.501028920704
8031 0.661446177718
8032 -1.16884737558
8033 0.530119579999
8034 0.638727795579
8035 -1.47883316403
8036 0.746115702197
8037 0.732717461836
8038 -1.00927303924
8039 0.566538212759
8040 0.442734826485
8041 -1.03743252692
8042 0.443377330539
8043 0.594055196384
8044 -1.14436518073
8045 0.663094504407
8046 0.481270676325
8047 -0.930675037953
8048 0.428138162144
8049 0.502536875809
8050 -1.42798054347
8051 0.661796947494
8052 0.766183595976
8053 -1.36901106752
8054 0.675052219705
8055 0.69395884782
8056 -1.10162174774
8057 0.501468457056
8058 0.600153290688
8059 -1.22613157614
8060 0.585624610457
8061 0.640506965686
8062 -1.10172902981
8063 0.482269007546
8064 0.61946002226
8065 -0.940850304121
8066 0.452537824025
8067 0.488312480096
8068 -0.954365487084
8069 0.497236116726
8070 0.457129370357
8071 -1.01006573368
8072 0.474773941776
8073 0.5352917919
8074 -1.23355072161
8075 0.580998430964
8076 0.652552290646
8077 -1.08684462857
8078 0.571857371362
8079 0.514987257206
8080 -1.01671320363
8081 0.566874187103
8082 0.449839016527
8083 -1.15781236634
8084 0.61660900403
8085 0.541203362313
8086 -1.31357622158
8087 0.647990247824
8088 0.665585973757
8089 -1.03930962641
8090 0.514183068762
8091 0.525126557646
8092 -1.19302138972
8093 0.637643281783
8094 0.555378107935
8095 -1.01827667586
8096 0.56731625603
8097 0.450960419833
8098 -1.12613845821
8099 0.586863157231
8100 0.539275300982
8101 -1.07165828706
8102 0.604762621046
8103 0.466895666016
8104 -1.2331424545
8105 0.621879405217
8106 0.611263049287
8107 -1.27014017764
8108 0.578017783553
8109 0.692122394083
8110 -1.02525687179
8111 0.510455106671
8112 0.51480176512
8113 -1.03782857905
8114 0.561957921567
8115 0.475870657482
8116 -1.24571209754
8117 0.527723146986
8118 0.717988950551
8119 -1.10322974042
8120 0.476521821588
8121 0.626707918829
8122 -0.946692414039
8123 0.47914121886
8124 0.46755119518
8125 -1.10769880633
8126 0.45310825127
8127 0.654590555057
8128 -1.04822503588
8129 0.514804082791
8130 0.533420953084
8131 -1.13990967311
8132 0.545453538601
8133 0.594456134512
8134 -1.3706620772
8135 0.662377323712
8136 0.708284753492
8137 -1.39543747819
8138 0.659742400234
8139 0.73569507796
8140 -1.05566637067
8141 0.55914882097
8142 0.496517549703
8143 -1.23656978748
8144 0.634050452447
8145 0.602519335033
8146 -1.16089059525
8147 0.53385075518
8148 0.627039840073
8149 -1.3141096502
8150 0.705567212491
8151 0.608542437714
8152 -1.01637634632
8153 0.638242788149
8154 0.378133558167
8155 -1.03038681175
8156 0.49855949188
8157 0.531827319871
8158 -1.14008122513
8159 0.606959486656
8160 0.53312173847
8161 -1.08364876619
8162 0.529014403882
8163 0.55463436231
8164 -1.15990718415
8165 0.538459055455
8166 0.621448128695
8167 -1.11960387859
8168 0.539819982609
8169 0.579783895979
8170 -1.01601511458
8171 0.583741536924
8172 0.432273577658
8173 -1.28269456745
8174 0.738343766124
8175 0.544350801326
8176 -1.14922485009
8177 0.665300376483
8178 0.483924473612
8179 -0.976286031298
8180 0.514128143434
8181 0.462157887864
8182 -0.882068962839
8183 0.395237381999
8184 0.48683158084
8185 -1.24190971102
8186 0.567227035271
8187 0.674682675745
8188 -0.950256795978
8189 0.492246891253
8190 0.458009904725
8191 -1.34785803541
8192 0.658493657992
8193 0.68936437742
8194 -1.11557194431
8195 0.56740221759
8196 0.548169726722
8197 -0.842431446009
8198 0.398938281406
8199 0.443493164603
8200 -1.1406554731
8201 0.622389648102
8202 0.518265824994
8203 -1.10531762699
8204 0.593685326768
8205 0.511632300226
8206 -1.29423737205
8207 0.685126638063
8208 0.609110733984
8209 -1.13417509289
8210 0.455096939863
8211 0.679078153029
8212 -1.1223681722
8213 0.629811104537
8214 0.49255706766
8215 -1.08359189805
8216 0.533972995814
8217 0.549618902234
8218 -1.25767718037
8219 0.658962511535
8220 0.598714668831
8221 -1.10587520325
8222 0.55344163675
8223 0.552433566498
8224 -1.03047527147
8225 0.447807080845
8226 0.58266819063
8227 -0.942576320389
8228 0.522351492112
8229 0.420224828277
8230 -1.0740491942
8231 0.569248824727
8232 0.504800369471
8233 -1.20798310414
8234 0.553453212663
8235 0.654529891475
8236 -1.14278175153
8237 0.563825152749
8238 0.578956598782
8239 -1.1249700028
8240 0.571501597993
8241 0.553468404804
8242 -0.974092599819
8243 0.511965988115
8244 0.462126611705
8245 -1.29102008551
8246 0.789786350277
8247 0.501233735233
8248 -1.03399702682
8249 0.469773015527
8250 0.564224011293
8251 -1.18238281747
8252 0.559018707784
8253 0.623364109685
8254 -1.00432503326
8255 0.523935900372
8256 0.480389132883
8257 -1.2835348426
8258 0.574407723442
8259 0.709127119158
8260 -1.17883629523
8261 0.611770996546
8262 0.567065298686
8263 -1.01871711195
8264 0.473830795224
8265 0.544886316726
8266 -1.07881320454
8267 0.527080295723
8268 0.551732908813
8269 -1.21235207883
8270 0.639561602621
8271 0.572790476207
8272 -1.01005470261
8273 0.527189373951
8274 0.482865328663
8275 -1.04756542747
8276 0.631626155201
8277 0.415939272268
8278 -1.10895495181
8279 0.60906510337
8280 0.499889848436
8281 -0.839681814742
8282 0.406982773473
8283 0.432699041269
8284 -1.24169104046
8285 0.623971207856
8286 0.617719832602
8287 -1.15329772304
8288 0.593002611194
8289 0.560295111844
8290 -1.30390753589
8291 0.656335698487
8292 0.647571837405
8293 -1.10210725745
8294 0.435364170686
8295 0.666743086766
8296 -1.24078555101
8297 0.664033211366
8298 0.576752339646
8299 -1.09553732363
8300 0.508168727823
8301 0.58736859581
8302 -1.09281713538
8303 0.537618863922
8304 0.555198271457
8305 -0.966713903052
8306 0.515752607417
8307 0.450961295635
8308 -1.21991435647
8309 0.757986115539
8310 0.461928240932
8311 -1.09530030825
8312 0.634160913072
8313 0.461139395182
8314 -1.11920374668
8315 0.528825185852
8316 0.590378560825
8317 -1.08518416944
8318 0.520160524066
8319 0.56502364537
8320 -1.08434199425
8321 0.554876755518
8322 0.529465238734
8323 -1.00984601819
8324 0.547671776594
8325 0.462174241594
8326 -1.14048601998
8327 0.602379182041
8328 0.538106837936
8329 -1.11208729338
8330 0.635068156815
8331 0.477019136567
8332 -1.22358867198
8333 0.570996861091
8334 0.652591810893
8335 -1.1242796261
8336 0.560128609787
8337 0.564151016314
8338 -1.09944668527
8339 0.499647450621
8340 0.599799234652
8341 -1.0681795235
8342 0.545465499824
8343 0.522714023675
8344 -1.07922039913
8345 0.572901827212
8346 0.506318571918
8347 -1.34680416536
8348 0.743359422864
8349 0.603444742498
8350 -1.0838012816
8351 0.552035037709
8352 0.531766243889
8353 -1.14417646299
8354 0.541018736386
8355 0.603157726602
8356 -1.08584987423
8357 0.474911289601
8358 0.610938584625
8359 -1.08446616642
8360 0.620165961431
8361 0.46430020499
8362 -1.0226815212
8363 0.494719306806
8364 0.527962214396
8365 -0.992282596136
8366 0.540727802902
8367 0.451554793235
8368 -1.11933179753
8369 0.582314044632
8370 0.537017752902
8371 -1.19130495926
8372 0.659965077145
8373 0.531339882118
8374 -1.03244626589
8375 0.488478374109
8376 0.543967891786
8377 -1.10764792868
8378 0.510721487829
8379 0.596926440852
8380 -1.37202345027
8381 0.736444953704
8382 0.635578496564
8383 -1.37919374414
8384 0.62008168566
8385 0.759112058479
8386 -1.18756439529
8387 0.591861474605
8388 0.595702920684
8389 -1.11777479304
8390 0.463771636627
8391 0.654003156418
8392 -1.20964135777
8393 0.646733296509
8394 0.562908061262
8395 -1.37409352857
8396 0.721818738159
8397 0.652274790406
8398 -1.00627673097
8399 0.56924111363
8400 0.437035617336
8401 -1.31665945723
8402 0.641370979176
8403 0.675288478056
8404 -1.0380851318
8405 0.51747489815
8406 0.520610233649
8407 -1.18551069994
8408 0.44692993322
8409 0.738580766717
8410 -1.05782381867
8411 0.616794473715
8412 0.441029344953
8413 -1.15095821476
8414 0.609335641524
8415 0.541622573235
8416 -1.06231845958
8417 0.488948045981
8418 0.573370413594
8419 -1.35514783405
8420 0.75098948596
8421 0.604158348092
8422 -1.02966384263
8423 0.533929281104
8424 0.495734561523
8425 -1.09263764836
8426 0.4555504523
8427 0.637087196064
8428 -1.07352113706
8429 0.503241403948
8430 0.570279733115
8431 -1.01295366848
8432 0.458983195543
8433 0.553970472932
8434 -1.06282780666
8435 0.55376032203
8436 0.509067484634
8437 -1.01295452784
8438 0.511705322684
8439 0.501249205158
8440 -1.16581856317
8441 0.48040105206
8442 0.685417511108
8443 -1.12045330087
8444 0.593209436908
8445 0.527243863959
8446 -1.21684050569
8447 0.60171694224
8448 0.615123563448
8449 -1.23431723752
8450 0.582660143245
8451 0.651657094277
8452 -1.18978991648
8453 0.575956632768
8454 0.613833283717
8455 -1.12524275926
8456 0.571315342833
8457 0.553927416432
8458 -0.94616659293
8459 0.435364687792
8460 0.510801905138
8461 -1.14426196487
8462 0.61736544024
8463 0.526896524628
8464 -1.19771582472
8465 0.56123915089
8466 0.636476673834
8467 -1.40358924361
8468 0.702238166899
8469 0.701351076707
8470 -1.10408271613
8471 0.558824750936
8472 0.545257965198
8473 -0.957206246539
8474 0.505605260442
8475 0.451600986097
8476 -1.02933574004
8477 0.521792696326
8478 0.507543043711
8479 -1.16611729183
8480 0.526378595245
8481 0.639738696582
8482 -1.27820776456
8483 0.665629649084
8484 0.61257811548
8485 -1.13679625089
8486 0.548062235955
8487 0.588734014933
8488 -1.19560197303
8489 0.634962130965
8490 0.560639842066
8491 -1.21749856445
8492 0.560535368482
8493 0.656963195965
8494 -1.26665757663
8495 0.639875698528
8496 0.626781878099
8497 -1.2830992206
8498 0.585278750571
8499 0.697820470033
8500 -1.16977358715
8501 0.517058986698
8502 0.65271460045
8503 -1.16583245577
8504 0.65199574609
8505 0.513836709678
8506 -1.13530951744
8507 0.439139580538
8508 0.696169936904
8509 -1.12791973469
8510 0.518214165638
8511 0.609705569051
8512 -1.48906026412
8513 0.796853803912
8514 0.692206460206
8515 -1.09293245637
8516 0.579354639871
8517 0.513577816498
8518 -1.07034749694
8519 0.590587114752
8520 0.479760382188
8521 -1.15772365933
8522 0.636036186244
8523 0.521687473082
8524 -1.16951907217
8525 0.678178088026
8526 0.491340984145
8527 -1.15402595267
8528 0.572093308523
8529 0.581932644144
8530 -1.19593517735
8531 0.604950954
8532 0.590984223354
8533 -1.18481351105
8534 0.602024342967
8535 0.582789168088
8536 -1.14169359732
8537 0.524719604535
8538 0.616973992786
8539 -1.40093625032
8540 0.661337443901
8541 0.739598806423
8542 -1.13945448819
8543 0.509194858375
8544 0.63025962982
8545 -1.18071410891
8546 0.709407742643
8547 0.471306366266
8548 -1.11541131095
8549 0.50646829435
8550 0.608943016601
8551 -1.33000308797
8552 0.619614035926
8553 0.710389052042
8554 -1.2027143003
8555 0.594793773952
8556 0.607920526344
8557 -1.04424994266
8558 0.53491749248
8559 0.509332450178
8560 -1.16861369978
8561 0.590170342012
8562 0.578443357763
8563 -1.25042523316
8564 0.69716073711
8565 0.553264496055
8566 -0.968353159221
8567 0.466474759787
8568 0.501878399434
8569 -1.04977885735
8570 0.503633892469
8571 0.546144964878
8572 -1.15635612459
8573 0.57736937719
8574 0.5789867474
8575 -1.48209905841
8576 0.74375479013
8577 0.738344268279
8578 -1.22388812066
8579 0.568188654118
8580 0.655699466544
8581 -1.11896630881
8582 0.590561991761
8583 0.528404317048
8584 -0.993159809518
8585 0.514613921219
8586 0.478545888299
8587 -1.11485060603
8588 0.525136178521
8589 0.58971442751
8590 -1.29067228709
8591 0.595095849886
8592 0.695576437207
8593 -1.0711899727
8594 0.548956983149
8595 0.522232989551
8596 -1.03227023664
8597 0.508484399979
8598 0.523785836656
8599 -1.38927562929
8600 0.782099880767
8601 0.607175748526
8602 -0.999452016006
8603 0.422244886516
8604 0.57720712949
8605 -0.97297613395
8606 0.470484611554
8607 0.502491522396
8608 -0.991287276173
8609 0.511645472113
8610 0.47964180406
8611 -1.27656357136
8612 0.643055010097
8613 0.633508561266
8614 -1.03593576263
8615 0.591746587915
8616 0.44418917472
8617 -1.08891552962
8618 0.498305023859
8619 0.590610505761
8620 -1.14113464682
8621 0.598540275
8622 0.542594371817
8623 -1.03414674465
8624 0.606796569814
8625 0.427350174837
8626 -1.1068329055
8627 0.538382568681
8628 0.568450336818
8629 -1.17366621566
8630 0.608196114846
8631 0.565470100809
8632 -1.11042304724
8633 0.544167846162
8634 0.566255201083
8635 -1.21792563616
8636 0.676889606921
8637 0.541036029242
8638 -1.14548953575
8639 0.560163610059
8640 0.585325925691
8641 -1.2966581329
8642 0.564972054042
8643 0.731686078855
8644 -1.26669160729
8645 0.637988343317
8646 0.628703263971
8647 -1.13990470419
8648 0.640792017566
8649 0.499112686621
8650 -1.10939031382
8651 0.598007026623
8652 0.511383287199
8653 -0.934228359614
8654 0.467585345536
8655 0.466643014079
8656 -1.0805934023
8657 0.58802358014
8658 0.492569822156
8659 -1.04394451389
8660 0.53583840543
8661 0.508106108457
8662 -1.12010594938
8663 0.640579296302
8664 0.479526653075
8665 -1.18042989005
8666 0.550429374663
8667 0.630000515388
8668 -1.11682006238
8669 0.565892537502
8670 0.550927524882
8671 -1.13460582808
8672 0.659307757769
8673 0.475298070312
8674 -1.0414808492
8675 0.58796464523
8676 0.45351620397
8677 -1.06589771582
8678 0.589251174137
8679 0.476646541687
8680 -0.963665619876
8681 0.522996186258
8682 0.440669433618
8683 -1.286714195
8684 0.665051061483
8685 0.621663133521
8686 -0.966973662571
8687 0.496313861187
8688 0.470659801384
8689 -1.39074958822
8690 0.702265713547
8691 0.688483874669
8692 -1.13260338821
8693 0.560195556789
8694 0.572407831425
8695 -1.02117847477
8696 0.511765022745
8697 0.509413452022
8698 -1.11737131031
8699 0.574942413928
8700 0.542428896384
8701 -1.03407150088
8702 0.519550354787
8703 0.514521146092
8704 -1.3735687608
8705 0.818640209395
8706 0.554928551402
8707 -1.43282538965
8708 0.760411487125
8709 0.672413902523
8710 -1.17673210169
8711 0.567135124274
8712 0.609596977419
8713 -0.97511252435
8714 0.493855587395
8715 0.481256936955
8716 -0.921843776016
8717 0.425345739656
8718 0.496498036359
8719 -1.23874578682
8720 0.633809484913
8721 0.604936301906
8722 -1.22672150982
8723 0.696338005586
8724 0.530383504238
8725 -1.24968799339
8726 0.559366197443
8727 0.690321795947
8728 -1.16908881857
8729 0.546017109978
8730 0.623071708594
8731 -1.17098641576
8732 0.562973309132
8733 0.608013106627
8734 -1.09033500936
8735 0.518310954762
8736 0.572024054593
8737 -1.04179240669
8738 0.49398740208
8739 0.54780500461
8740 -1.23715053711
8741 0.652434932868
8742 0.584715604247
8743 -1.18699529373
8744 0.553479101581
8745 0.633516192147
8746 -0.974427579345
8747 0.423035060132
8748 0.551392519214
8749 -1.38676164376
8750 0.684111406348
8751 0.702650237407
8752 -1.24115869723
8753 0.6027729742
8754 0.638385723025
8755 -1.47231423164
8756 0.633937400672
8757 0.838376830968
8758 -0.866625541635
8759 0.422394776974
8760 0.444230764661
8761 -1.0232402386
8762 0.477822659925
8763 0.545417578674
8764 -0.993449584401
8765 0.527010310312
8766 0.466439274089
8767 -1.29538439209
8768 0.574453156999
8769 0.720931235093
8770 -1.30852049803
8771 0.601744316566
8772 0.706776181464
8773 -1.11431929652
8774 0.600751795387
8775 0.513567501133
8776 -1.18763204149
8777 0.592145065716
8778 0.595486975778
8779 -1.06223326439
8780 0.619444624581
8781 0.442788639813
8782 -1.36271588039
8783 0.657821634513
8784 0.704894245873
8785 -1.24427863569
8786 0.684363398427
8787 0.559915237259
8788 -1.21646869446
8789 0.651929527046
8790 0.564539167409
8791 -1.14376835159
8792 0.592410802765
8793 0.551357548829
8794 -0.982555281434
8795 0.491410286874
8796 0.49114499456
8797 -1.29047199903
8798 0.631093522457
8799 0.659378476568
8800 -1.33957520619
8801 0.637292455946
8802 0.702282750244
8803 -1.01703909639
8804 0.437150610377
8805 0.579888486009
8806 -1.04204819469
8807 0.509265375894
8808 0.532782818796
8809 -1.07211687795
8810 0.493714174989
8811 0.57840270296
8812 -1.19562043822
8813 0.63215527629
8814 0.563465161927
8815 -0.979826656546
8816 0.520113951305
8817 0.459712705242
8818 -1.16108308186
8819 0.52955272816
8820 0.631530353699
8821 -1.33607026469
8822 0.667540300737
8823 0.668529963949
8824 -1.15392180601
8825 0.614402136981
8826 0.53951966903
8827 -0.990761318904
8828 0.549291904285
8829 0.44146941462
8830 -1.2657348666
8831 0.67361350478
8832 0.59212136182
8833 -1.03215242745
8834 0.557980800622
8835 0.474171626827
8836 -1.14654650861
8837 0.58969209753
8838 0.55685441108
8839 -1.02932285832
8840 0.471345539948
8841 0.557977318374
8842 -1.14415956884
8843 0.577055941729
8844 0.567103627115
8845 -1.07188668144
8846 0.511311504044
8847 0.560575177401
8848 -0.82981105051
8849 0.463063075401
8850 0.366747975109
8851 -1.01006910266
8852 0.547829419576
8853 0.462239683085
8854 -0.817981051192
8855 0.411521414404
8856 0.406459636788
8857 -0.976320426053
8858 0.502073340305
8859 0.474247085748
8860 -1.09512138881
8861 0.535127687168
8862 0.559993701646
8863 -1.15533942656
8864 0.700392305666
8865 0.454947120892
8866 -0.972250115902
8867 0.388985123284
8868 0.583264992618
8869 -1.12514193376
8870 0.520984892721
8871 0.604157041035
8872 -1.15727639173
8873 0.510856261056
8874 0.646420130671
8875 -1.17682949298
8876 0.608920359768
8877 0.567909133212
8878 -0.873805257006
8879 0.468254295542
8880 0.405550961465
8881 -1.08881203804
8882 0.579937079661
8883 0.50887495838
8884 -0.91795269471
8885 0.49990293652
8886 0.41804975819
8887 -1.33745525402
8888 0.753278558291
8889 0.584176695728
8890 -1.23323007613
8891 0.641702984439
8892 0.591527091692
8893 -1.0928280729
8894 0.591288086542
8895 0.501539986361
8896 -1.17211186004
8897 0.598947284454
8898 0.573164575591
8899 -1.03870873361
8900 0.468206235698
8901 0.570502497912
8902 -1.05750961493
8903 0.476997269035
8904 0.580512345896
8905 -1.13446269902
8906 0.573127877099
8907 0.561334821921
8908 -1.06932180229
8909 0.568917250248
8910 0.500404552045
8911 -1.01174089833
8912 0.493556025301
8913 0.518184873024
8914 -1.10473906368
8915 0.489116867841
8916 0.61562219584
8917 -1.14443425479
8918 0.59023971563
8919 0.554194539159
8920 -1.06190125519
8921 0.378997111906
8922 0.682904143281
8923 -1.03050828461
8924 0.47060839366
8925 0.559899890949
8926 -1.11134394141
8927 0.547394680667
8928 0.56394926074
8929 -0.877548133636
8930 0.440691658952
8931 0.436856474684
8932 -1.15071280131
8933 0.573180708386
8934 0.577532092928
8935 -1.15648495977
8936 0.594961875767
8937 0.561523083999
8938 -1.13692347608
8939 0.525072775686
8940 0.61185070039
8941 -1.17002186218
8942 0.542474239745
8943 0.627547622432
8944 -1.20860681869
8945 0.671846693389
8946 0.536760125304
8947 -1.20522313749
8948 0.606696301981
8949 0.598526835506
8950 -1.21659125163
8951 0.555613563197
8952 0.660977688434
8953 -1.24753366676
8954 0.645367547333
8955 0.602166119424
8956 -1.12455625183
8957 0.53352570269
8958 0.591030549136
8959 -1.31643083949
8960 0.654105158282
8961 0.662325681204
8962 -1.25425451293
8963 0.593616612211
8964 0.660637900714
8965 -1.20082769981
8966 0.707049766537
8967 0.493777933269
8968 -1.06919862571
8969 0.559628756958
8970 0.50956986875
8971 -1.20332575181
8972 0.652911927166
8973 0.550413824639
8974 -1.34863692812
8975 0.67336671286
8976 0.675270215263
8977 -1.06932259787
8978 0.605734279862
8979 0.463588318004
8980 -1.0783689954
8981 0.594472807161
8982 0.483896188244
8983 -0.972982608215
8984 0.528749922529
8985 0.444232685686
8986 -0.864594573012
8987 0.453559461034
8988 0.411035111978
8989 -1.25763150251
8990 0.621169971408
8991 0.636461531103
8992 -1.20979799987
8993 0.52593093624
8994 0.683867063631
8995 -1.20390923747
8996 0.59293093606
8997 0.61097830141
8998 -1.37026027188
8999 0.665942733113
9000 0.704317538764
9001 -1.17958377691
9002 0.591039905498
9003 0.588543871408
9004 -1.04674408424
9005 0.618491585819
9006 0.428252498418
9007 -1.03884566153
9008 0.475904344939
9009 0.562941316588
9010 -0.961930273762
9011 0.554215667648
9012 0.407714606115
9013 -1.23266868796
9014 0.64938526519
9015 0.583283422768
9016 -0.967569852308
9017 0.48198503451
9018 0.485584817798
9019 -1.16980581726
9020 0.571787777637
9021 0.598018039625
9022 -1.05773700724
9023 0.513895448961
9024 0.543841558276
9025 -1.14334567394
9026 0.614897909236
9027 0.528447764699
9028 -0.99203755487
9029 0.46908583696
9030 0.52295171791
9031 -1.36756890338
9032 0.598491186331
9033 0.769077717044
9034 -1.26358043044
9035 0.590043352965
9036 0.673537077477
9037 -1.0071322953
9038 0.466908123149
9039 0.54022417215
9040 -1.10303371094
9041 0.512832342546
9042 0.590201368399
9043 -0.860263805408
9044 0.419650672663
9045 0.440613132746
9046 -0.862071292552
9047 0.373403249117
9048 0.488668043435
9049 -1.01687995995
9050 0.506144094981
9051 0.510735864965
9052 -1.04931719278
9053 0.50165893801
9054 0.547658254768
9055 -1.2102029385
9056 0.594138041832
9057 0.616064896668
9058 -0.982946191922
9059 0.562282533312
9060 0.42066365861
9061 -1.11009452471
9062 0.581645914929
9063 0.528448609781
9064 -1.04802601938
9065 0.448249063316
9066 0.599776956064
9067 -1.15726499616
9068 0.621438816077
9069 0.535826180082
9070 -1.2152665929
9071 0.624377910268
9072 0.59088868263
9073 -1.1621286312
9074 0.617475466701
9075 0.544653164496
9076 -0.982157227655
9077 0.45851879169
9078 0.523638435965
9079 -0.939520637835
9080 0.480535022266
9081 0.458985615569
9082 -1.00083509318
9083 0.459470251204
9084 0.541364841978
9085 -1.12785297096
9086 0.539138159412
9087 0.58871481155
9088 -1.16158562309
9089 0.536767926124
9090 0.624817696966
9091 -1.18063933225
9092 0.665721680855
9093 0.514917651391
9094 -1.10223404055
9095 0.608481948325
9096 0.493752092228
9097 -1.12349498899
9098 0.491662492743
9099 0.631832496247
9100 -1.11933506249
9101 0.573265808162
9102 0.546069254325
9103 -1.09620971855
9104 0.562329513265
9105 0.533880205288
9106 -0.980122441536
9107 0.443624018694
9108 0.536498422843
9109 -1.27967153458
9110 0.673766321193
9111 0.605905213391
9112 -1.14546605533
9113 0.499096349673
9114 0.646369705657
9115 -1.21032766446
9116 0.630681721215
9117 0.57964594325
9118 -1.12932616025
9119 0.598718184598
9120 0.530607975647
9121 -1.22872660035
9122 0.609553483551
9123 0.619173116794
9124 -1.2363674665
9125 0.615337058318
9126 0.621030408182
9127 -1.09688732795
9128 0.6298521179
9129 0.467035210045
9130 -1.07363813458
9131 0.481500349955
9132 0.592137784622
9133 -1.04847929949
9134 0.466088246457
9135 0.582391053035
9136 -0.893394958001
9137 0.440893731484
9138 0.452501226517
9139 -1.39606538775
9140 0.693354151223
9141 0.702711236526
9142 -1.03756071668
9143 0.538199237298
9144 0.499361479382
9145 -1.06186870501
9146 0.540592670364
9147 0.521276034649
9148 -1.03672629296
9149 0.480664831928
9150 0.556061461034
9151 -1.32187240269
9152 0.681719652742
9153 0.640152749952
9154 -1.31646864875
9155 0.656988957173
9156 0.659479691578
9157 -0.965064753103
9158 0.455759060036
9159 0.509305693066
9160 -1.43452754094
9161 0.752071532528
9162 0.682456008413
9163 -1.28823915933
9164 0.633823453721
9165 0.654415705606
9166 -1.00808608556
9167 0.524189031762
9168 0.483897053803
9169 -1.03492585774
9170 0.61231855093
9171 0.422607306808
9172 -1.13645678056
9173 0.595387408846
9174 0.541069371718
9175 -1.10991239369
9176 0.53414764543
9177 0.57576474826
9178 -1.08820459618
9179 0.544324856143
9180 0.543879740042
9181 -1.14090198852
9182 0.594135556491
9183 0.546766432031
9184 -1.23351823313
9185 0.725140169707
9186 0.508378063419
9187 -1.28732085372
9188 0.541696712133
9189 0.745624141588
9190 -1.25084176334
9191 0.588831728727
9192 0.66201003461
9193 -0.965382919828
9194 0.544422136953
9195 0.420960782876
9196 -1.13555915724
9197 0.571853584032
9198 0.563705573212
9199 -1.11631119315
9200 0.568159324673
9201 0.548151868472
9202 -0.997774720328
9203 0.515411779277
9204 0.482362941051
9205 -1.11109753529
9206 0.554894051513
9207 0.556203483774
9208 -1.10590691647
9209 0.460175386391
9210 0.645731530082
9211 -1.0152810716
9212 0.548465437246
9213 0.466815634355
9214 -1.08193783675
9215 0.51161250872
9216 0.570325328034
9217 -1.27816014597
9218 0.572689638549
9219 0.705470507417
9220 -1.19583049529
9221 0.656571324651
9222 0.539259170643
9223 -1.2420369404
9224 0.551476212627
9225 0.690560727776
9226 -1.10124768914
9227 0.564525881966
9228 0.536721807175
9229 -0.933038781514
9230 0.462355574359
9231 0.470683207155
9232 -1.28802916071
9233 0.692944409572
9234 0.595084751134
9235 -1.16360989453
9236 0.540752540736
9237 0.622857353794
9238 -0.967819618406
9239 0.524632565309
9240 0.443187053097
9241 -1.20797235151
9242 0.584642774222
9243 0.623329577289
9244 -1.00711522263
9245 0.503372378222
9246 0.50374284441
9247 -1.31708941858
9248 0.662408673977
9249 0.654680744606
9250 -1.15795660343
9251 0.632588168548
9252 0.525368434882
9253 -1.38353662804
9254 0.693675477317
9255 0.689861150722
9256 -1.06659819887
9257 0.489473001067
9258 0.577125197803
9259 -0.998516769639
9260 0.461021074418
9261 0.537495695221
9262 -1.12844100409
9263 0.574217807313
9264 0.554223196773
9265 -0.990488244746
9266 0.466434877186
9267 0.52405336756
9268 -1.20298583992
9269 0.55781675192
9270 0.645169087997
9271 -1.09157045798
9272 0.555641914295
9273 0.535928543689
9274 -1.03155320484
9275 0.454239786544
9276 0.577313418298
9277 -1.32742685634
9278 0.662077087819
9279 0.665349768524
9280 -1.15055334945
9281 0.614146579725
9282 0.536406769722
9283 -1.21020422614
9284 0.616666855037
9285 0.593537371104
9286 -1.22787707719
9287 0.597429034506
9288 0.630448042681
9289 -0.920888090587
9290 0.481501627986
9291 0.439386462601
9292 -1.22194263742
9293 0.527258648142
9294 0.69468398928
9295 -0.948603994631
9296 0.570147020508
9297 0.378456974122
9298 -0.990440826287
9299 0.45821444518
9300 0.532226381107
9301 -1.0728533193
9302 0.585197250662
9303 0.487656068633
9304 -1.15893536762
9305 0.659005667734
9306 0.499929699887
9307 -1.08782031466
9308 0.509017328471
9309 0.578802986194
9310 -1.25719170492
9311 0.592029757668
9312 0.665161947254
9313 -1.28319874605
9314 0.605225773121
9315 0.677972972928
9316 -1.2013951034
9317 0.579133044903
9318 0.622262058501
9319 -1.08080122436
9320 0.540391651868
9321 0.540409572496
9322 -0.884348554637
9323 0.404636459329
9324 0.479712095308
9325 -1.11687598293
9326 0.579614281497
9327 0.537261701435
9328 -1.06585253112
9329 0.441972234803
9330 0.623880296313
9331 -0.98558702786
9332 0.507596366278
9333 0.477990661581
9334 -1.20589040015
9335 0.549817992603
9336 0.656072407551
9337 -1.12647029316
9338 0.582703776327
9339 0.54376651683
9340 -1.08029955669
9341 0.505953116819
9342 0.574346439869
9343 -1.23824125009
9344 0.688935287949
9345 0.549305962139
9346 -0.99819509534
9347 0.486021494435
9348 0.512173600905
9349 -1.19248550474
9350 0.6148075312
9351 0.577677973538
9352 -1.06773757746
9353 0.515317344262
9354 0.552420233195
9355 -1.08504016879
9356 0.491015405085
9357 0.594024763702
9358 -1.00281382595
9359 0.440750158853
9360 0.562063667101
9361 -1.21240439722
9362 0.638326710076
9363 0.574077687146
9364 -1.21686782064
9365 0.510586692593
9366 0.70628112805
9367 -0.925875670897
9368 0.52636048309
9369 0.399515187807
9370 -1.22447364672
9371 0.611479479923
9372 0.6129941668
9373 -1.2616504919
9374 0.739010211483
9375 0.522640280413
9376 -1.1959741973
9377 0.58076225614
9378 0.615211941159
9379 -1.132423516
9380 0.558400928907
9381 0.574022587092
9382 -1.02735646148
9383 0.482919823846
9384 0.544436637635
9385 -1.29540302211
9386 0.678968293795
9387 0.616434728311
9388 -1.17832461686
9389 0.543873397522
9390 0.634451219343
9391 -1.42570253034
9392 0.73953855503
9393 0.686163975313
9394 -1.12499983883
9395 0.559683523506
9396 0.565316315319
9397 -1.19352385163
9398 0.479080209699
9399 0.71444364193
9400 -1.2191679648
9401 0.68792158177
9402 0.531246383034
9403 -1.03685228217
9404 0.528447812362
9405 0.508404469807
9406 -1.04155751654
9407 0.475743610548
9408 0.565813905992
9409 -1.22487883005
9410 0.601993604038
9411 0.622885226012
9412 -1.11841413068
9413 0.550613938449
9414 0.567800192232
9415 -1.38047837667
9416 0.644953370554
9417 0.735525006113
9418 -1.13344290388
9419 0.558235656153
9420 0.575207247732
9421 -1.04816289496
9422 0.483033848383
9423 0.565129046581
9424 -1.13450573565
9425 0.517959673893
9426 0.616546061754
9427 -1.02890465435
9428 0.425788146514
9429 0.603116507838
9430 -0.969946431416
9431 0.457701225009
9432 0.512245206406
9433 -0.941908624858
9434 0.47032103561
9435 0.471587589247
9436 -1.18560211481
9437 0.523707209359
9438 0.661894905453
9439 -1.10996855834
9440 0.516396210198
9441 0.593572348137
9442 -1.10795358285
9443 0.466090076615
9444 0.641863506235
9445 -1.27471735836
9446 0.625760670933
9447 0.648956687428
9448 -1.05493009659
9449 0.500043128582
9450 0.554886968011
9451 -1.04242217719
9452 0.457855783567
9453 0.584566393619
9454 -0.93931539725
9455 0.488709861735
9456 0.450605535515
9457 -1.43337438156
9458 0.721362223253
9459 0.712012158309
9460 -1.18959354967
9461 0.549235595421
9462 0.640357954249
9463 -1.06543725295
9464 0.549163508063
9465 0.516273744883
9466 -1.22022381392
9467 0.539445275647
9468 0.68077853827
9469 -1.21583820405
9470 0.587744280605
9471 0.628093923442
9472 -1.29186878511
9473 0.695132701706
9474 0.5967360834
9475 -1.11400204621
9476 0.520922660907
9477 0.593079385306
9478 -1.10554935197
9479 0.598413487753
9480 0.50713586422
9481 -1.22538927092
9482 0.572179217507
9483 0.653210053415
9484 -0.937151358379
9485 0.517402072694
9486 0.419749285685
9487 -1.1041230243
9488 0.534884024918
9489 0.569238999381
9490 -1.30383843464
9491 0.677111256027
9492 0.626727178616
9493 -1.06294355448
9494 0.581375103596
9495 0.481568450882
9496 -0.919927981079
9497 0.452267975562
9498 0.467660005517
9499 -1.08199125208
9500 0.53584978868
9501 0.546141463396
9502 -1.17382204483
9503 0.585008543738
9504 0.588813501092
9505 -1.17048223309
9506 0.536909859915
9507 0.633572373176
9508 -1.12345164849
9509 0.581161895027
9510 0.542289753464
9511 -1.04116803326
9512 0.586654081616
9513 0.454513951642
9514 -1.20013693402
9515 0.565440463898
9516 0.634696470119
9517 -1.04029958032
9518 0.464658752042
9519 0.575640828282
9520 -1.04895434165
9521 0.557467161341
9522 0.491487180311
9523 -1.35863225418
9524 0.665098093291
9525 0.693534160892
9526 -1.2243660973
9527 0.648920471661
9528 0.575445625642
9529 -1.19902299557
9530 0.616953344228
9531 0.582069651339
9532 -1.08001923145
9533 0.560683106471
9534 0.51933612498
9535 -1.3041429847
9536 0.593008861363
9537 0.711134123339
9538 -1.26001818097
9539 0.631605893762
9540 0.62841228721
9541 -1.01802621635
9542 0.522857875838
9543 0.495168340514
9544 -0.99724381923
9545 0.48643831662
9546 0.51080550261
9547 -1.19971415585
9548 0.614911820938
9549 0.584802334911
9550 -1.212092295
9551 0.625285603497
9552 0.586806691499
9553 -1.13345564344
9554 0.639130192041
9555 0.494325451396
9556 -1.3024833138
9557 0.682912496322
9558 0.619570817475
9559 -1.11112073667
9560 0.657294245058
9561 0.45382649161
9562 -1.00189754484
9563 0.623420250416
9564 0.378477294419
9565 -1.17307400745
9566 0.526641968298
9567 0.646432039153
9568 -1.18328212265
9569 0.566776207336
9570 0.616505915314
9571 -1.42984936858
9572 0.695618157563
9573 0.73423121102
9574 -1.059463843
9575 0.530720387682
9576 0.528743455315
9577 -1.08316824855
9578 0.479794573622
9579 0.603373674932
9580 -1.18012132296
9581 0.6934822932
9582 0.486639029757
9583 -0.967018881143
9584 0.451981452006
9585 0.515037429138
9586 -1.41232181871
9587 0.650834860127
9588 0.761486958581
9589 -1.38081094405
9590 0.671067444175
9591 0.709743499873
9592 -1.082805786
9593 0.502823377296
9594 0.579982408702
9595 -1.26963891539
9596 0.615882032881
9597 0.653756882509
9598 -1.1291220569
9599 0.504917576291
9600 0.624204480612
9601 -0.940539703612
9602 0.484857749784
9603 0.455681953828
9604 -0.909006629261
9605 0.464601139535
9606 0.444405489726
9607 -1.01050506064
9608 0.451569530877
9609 0.558935529761
9610 -1.19284849263
9611 0.535687384355
9612 0.657161108273
9613 -1.07969161971
9614 0.576999975189
9615 0.502691644519
9616 -1.0169294497
9617 0.575306465324
9618 0.441622984371
9619 -1.15465629517
9620 0.64013461228
9621 0.514521682886
9622 -1.32714114277
9623 0.631518266621
9624 0.695622876149
9625 -1.04352530053
9626 0.505003450856
9627 0.538521849676
9628 -1.14983777522
9629 0.581607555068
9630 0.56823022015
9631 -1.02286608579
9632 0.5532340845
9633 0.469632001293
9634 -1.12859041062
9635 0.584833461322
9636 0.543756949296
9637 -1.07705825788
9638 0.586248469205
9639 0.490809788679
9640 -1.21252703676
9641 0.603047056188
9642 0.609479980571
9643 -1.20947024763
9644 0.578066074601
9645 0.631404173027
9646 -1.0087654551
9647 0.519994141235
9648 0.488771313865
9649 -1.0190813983
9650 0.542794933618
9651 0.476286464679
9652 -1.25656986284
9653 0.5386998577
9654 0.717870005144
9655 -1.09728198963
9656 0.459846970154
9657 0.637435019478
9658 -0.892179627565
9659 0.467909709232
9660 0.424269918333
9661 -1.13447320646
9662 0.500392769916
9663 0.634080436542
9664 -1.04004535194
9665 0.50320901304
9666 0.536836338901
9667 -1.17000793797
9668 0.573302419517
9669 0.596705518458
9670 -1.29920787239
9671 0.598115247266
9672 0.701092625122
9673 -1.39159280611
9674 0.625769316036
9675 0.765823490071
9676 -1.04024767573
9677 0.537492477866
9678 0.502755197864
9679 -1.21361013454
9680 0.63820799154
9681 0.575402143003
9682 -1.18047243887
9683 0.581818004726
9684 0.598654434145
9685 -1.34018466676
9686 0.697457712257
9687 0.642726954504
9688 -1.00320253058
9689 0.62114804562
9690 0.382054484958
9691 -0.993096600419
9692 0.490846790611
9693 0.502249809809
9694 -1.10704680733
9695 0.589856554951
9696 0.517190252376
9697 -1.08015273471
9698 0.534612392743
9699 0.545540341965
9700 -1.20597154535
9701 0.52570364052
9702 0.680267904828
9703 -1.14904553921
9704 0.564654416627
9705 0.584391122579
9706 -1.08748920536
9707 0.609907441666
9708 0.477581763696
9709 -1.31360042943
9710 0.747799765744
9711 0.565800663686
9712 -1.1204809849
9713 0.666188961355
9714 0.454292023543
9715 -0.992598323026
9716 0.533668251702
9717 0.458930071324
9718 -0.826300612011
9719 0.387116148065
9720 0.439184463947
9721 -1.21293284469
9722 0.527053816737
9723 0.68587902795
9724 -0.935387128222
9725 0.498877698212
9726 0.43650943001
9727 -1.31645120374
9728 0.630571053316
9729 0.685880150425
9730 -1.20433517591
9731 0.620529788416
9732 0.583805387498
9733 -0.884909485046
9734 0.419327091679
9735 0.465582393367
9736 -1.10855336238
9737 0.626865048366
9738 0.481688314015
9739 -1.07999685365
9740 0.577728664885
9741 0.502268188767
9742 -1.30266487399
9743 0.688305802526
9744 0.614359071468
9745 -1.1357633455
9746 0.407602209486
9747 0.728161136013
9748 -1.16668892521
9749 0.632166771219
9750 0.534522153987
9751 -1.07589995268
9752 0.498538851279
9753 0.577361101404
9754 -1.26441021117
9755 0.65902757472
9756 0.605382636449
9757 -1.09005402856
9758 0.541044762558
9759 0.549009265998
9760 -1.0239882333
9761 0.449564049143
9762 0.574424184161
9763 -0.948744740707
9764 0.530738766203
9765 0.418005974503
9766 -1.06568256848
9767 0.555395651183
9768 0.510286917296
9769 -1.26415314094
9770 0.583853294697
9771 0.680299846241
9772 -1.13669385493
9773 0.545748456438
9774 0.590945398495
9775 -1.13602642547
9776 0.543902553558
9777 0.592123871913
9778 -1.01116826987
9779 0.531677489061
9780 0.479490780807
9781 -1.29192861442
9782 0.799853725675
9783 0.49207488875
9784 -1.00402984466
9785 0.460775628424
9786 0.543254216236
9787 -1.15092255525
9788 0.556429384981
9789 0.59449317027
9790 -1.02605509151
9791 0.511748889139
9792 0.514306202374
9793 -1.27243653683
9794 0.543134219515
9795 0.729302317317
9796 -1.14657705106
9797 0.60449979141
9798 0.54207725965
9799 -1.06268672551
9800 0.494814262766
9801 0.56787246274
9802 -1.05879570281
9803 0.532309290645
9804 0.52648641216
9805 -1.25540697119
9806 0.638874908967
9807 0.616532062223
9808 -0.970141755531
9809 0.494580438906
9810 0.475561316625
9811 -1.05714918133
9812 0.630889281195
9813 0.426259900131
9814 -1.14785423453
9815 0.636688590838
9816 0.511165643691
9817 -0.84624134812
9818 0.39591326716
9819 0.45032808096
9820 -1.22571801101
9821 0.65560696554
9822 0.57011104547
9823 -1.13922036499
9824 0.601133795457
9825 0.538086569531
9826 -1.38135685277
9827 0.660393781003
9828 0.720963071766
9829 -1.0631828109
9830 0.438755812411
9831 0.624426998485
9832 -1.21728590802
9833 0.662665319654
9834 0.554620588364
9835 -1.12574384131
9836 0.580839590245
9837 0.544904251064
9838 -1.10957066314
9839 0.576497100961
9840 0.533073562179
9841 -1.0014162014
9842 0.502288275972
9843 0.499127925427
9844 -1.20021300377
9845 0.723783437645
9846 0.476429566121
9847 -1.02021796179
9848 0.572078074384
9849 0.448139887403
9850 -1.09317728496
9851 0.495026272585
9852 0.598151012372
9853 -1.04190478043
9854 0.485959868989
9855 0.555944911444
9856 -1.13027544376
9857 0.58945846472
9858 0.540816979036
9859 -1.01013604818
9860 0.564955627306
9861 0.445180420876
9862 -1.17660924863
9863 0.580530327187
9864 0.596078921448
9865 -1.08854276596
9866 0.613912852608
9867 0.474629913356
9868 -1.23051481854
9869 0.55520419748
9870 0.675310621056
9871 -1.12920960694
9872 0.586692815352
9873 0.542516791591
9874 -1.07019571436
9875 0.468851551277
9876 0.601344163079
9877 -1.08065615456
9878 0.521334199901
9879 0.559321954654
9880 -1.06626185069
9881 0.573906059071
9882 0.492355791621
9883 -1.31881566797
9884 0.690603602727
9885 0.62821206524
9886 -1.10642152023
9887 0.557689236749
9888 0.548732283484
9889 -1.16842884956
9890 0.572900739411
9891 0.595528110148
9892 -1.09354006926
9893 0.530655027996
9894 0.562885041267
9895 -1.07297840869
9896 0.596178698973
9897 0.47679970972
9898 -1.03550523062
9899 0.529185599446
9900 0.506319631176
9901 -0.966463599913
9902 0.498462602456
9903 0.468000997458
9904 -1.06912975673
9905 0.579965068044
9906 0.489164688688
9907 -1.14763121268
9908 0.640581451006
9909 0.507049761672
9910 -1.06245929515
9911 0.530972315925
9912 0.531486979223
9913 -1.08300577532
9914 0.517231734317
9915 0.565774041007
9916 -1.40435355725
9917 0.770907504895
9918 0.633446052357
9919 -1.37260267975
9920 0.650304079037
9921 0.722298600718
9922 -1.15215613983
9923 0.606930304792
9924 0.545225835034
9925 -1.0727395594
9926 0.437812515702
9927 0.634927043698
9928 -1.1583840554
9929 0.62979810097
9930 0.528585954434
9931 -1.33368138493
9932 0.692668119208
9933 0.641013265722
9934 -1.02557845287
9935 0.593758706643
9936 0.431819746226
9937 -1.31606378659
9938 0.660947261529
9939 0.655116525066
9940 -1.05888167308
9941 0.542350238403
9942 0.516531434681
9943 -1.15043420938
9944 0.457040321974
9945 0.693393887404
9946 -1.07575626585
9947 0.630763415324
9948 0.444992850527
9949 -1.12098728583
9950 0.589675471706
9951 0.531311814123
9952 -1.06401950907
9953 0.489289188296
9954 0.574730320772
9955 -1.27924728779
9956 0.66988662669
9957 0.609360661099
9958 -1.03847574964
9959 0.537815596595
9960 0.500660153044
9961 -1.11030573084
9962 0.476300647998
9963 0.634005082838
9964 -1.10871625556
9965 0.528110104264
9966 0.580606151299
9967 -1.04084569779
9968 0.460339324845
9969 0.58050637295
9970 -1.0265200144
9971 0.502791590418
9972 0.523728423981
9973 -1.04340026515
9974 0.519669716399
9975 0.523730548749
9976 -1.22476163523
9977 0.499111397891
9978 0.725650237338
9979 -1.12389739944
9980 0.606710872171
9981 0.517186527272
9982 -1.19015655309
9983 0.59269274972
9984 0.597463803372
9985 -1.28232878671
9986 0.596425409973
9987 0.685903376737
9988 -1.20313700976
9989 0.593942759479
9990 0.609194250285
9991 -1.08138895455
9992 0.551712207201
9993 0.529676747353
9994 -0.961908867624
9995 0.498108949661
9996 0.463799917963
9997 -1.09091562803
9998 0.616513853621
9999 0.47440177441
10000 -1.20063470012
10001 0.590919864233
10002 0.609714835883
10003 -1.3775317638
10004 0.700752619815
10005 0.676779143988
10006 -1.08648856013
10007 0.608353312921
10008 0.478135247212
10009 -0.946874810768
10010 0.486693138141
10011 0.460181672627
10012 -1.03849322039
10013 0.515758130984
10014 0.522735089409
10015 -1.17806648925
10016 0.554934064721
10017 0.623132424529
10018 -1.28186618363
10019 0.657633200739
10020 0.624232982889
10021 -1.12270793797
10022 0.559067220822
10023 0.563640717146
10024 -1.19226558745
10025 0.641330848354
10026 0.550934739099
10027 -1.2102923366
10028 0.562164783697
10029 0.648127552901
10030 -1.20952639905
10031 0.622700168337
10032 0.586826230711
10033 -1.30638709535
10034 0.621676543423
10035 0.684710551926
10036 -1.12101098115
10037 0.491448956175
10038 0.629562024977
10039 -1.16537434041
10040 0.618361117933
10041 0.547013222482
10042 -1.12796123428
10043 0.450165403123
10044 0.677795831161
10045 -1.19211651965
10046 0.566249432504
10047 0.625867087147
10048 -1.43169862413
10049 0.77844588282
10050 0.653252741307
10051 -1.11145021812
10052 0.590052240828
10053 0.521397977292
10054 -1.07434793239
10055 0.569935523839
10056 0.504412408551
10057 -1.17424593687
10058 0.635250807295
10059 0.538995129572
10060 -1.20380016251
10061 0.669181689576
10062 0.534618472937
10063 -1.14781499822
10064 0.550783095631
10065 0.597031902587
10066 -1.18392486678
10067 0.607110951018
10068 0.576813915766
10069 -1.15306359153
10070 0.618499923018
10071 0.534563668513
10072 -1.12679657519
10073 0.509937259246
10074 0.616859315944
10075 -1.44484169323
10076 0.676907468496
10077 0.767934224739
10078 -1.13810854094
10079 0.492790526141
10080 0.6453180148
10081 -1.14256269431
10082 0.657198899451
10083 0.485363794862
10084 -1.12228975456
10085 0.515578877329
10086 0.606710877236
10087 -1.32599149282
10088 0.58027002351
10089 0.745721469305
10090 -1.2003711581
10091 0.598190201162
10092 0.602180956937
10093 -1.07692252463
10094 0.542549939977
10095 0.534372584651
10096 -1.17421046695
10097 0.593797042951
10098 0.580413424002
10099 -1.24146932476
10100 0.696744713671
10101 0.544724611091
10102 -0.956604993545
10103 0.44619291289
10104 0.510412080655
10105 -1.05715600805
10106 0.505144031821
10107 0.552011976229
10108 -1.18009360023
10109 0.611746057338
10110 0.568347542896
10111 -1.5071751539
10112 0.729469535136
10113 0.777705618765
10114 -1.21622577084
10115 0.55268569476
10116 0.663540076084
10117 -1.14729991185
10118 0.580827235004
10119 0.566472676844
10120 -0.98131038809
10121 0.497667355353
10122 0.483643032737
10123 -1.09114348902
10124 0.531882985825
10125 0.559260503195
10126 -1.25583328469
10127 0.534157662942
10128 0.721675621746
10129 -1.0831648952
10130 0.549636073645
10131 0.533528821558
10132 -1.02224271008
10133 0.49702354386
10134 0.525219166222
10135 -1.31371554472
10136 0.736659337286
10137 0.577056207435
10138 -1.01265159657
10139 0.428548831423
10140 0.584102765143
10141 -0.95515987374
10142 0.465743009436
10143 0.489416864303
10144 -0.977367950715
10145 0.500254908092
10146 0.477113042622
10147 -1.23942381568
10148 0.631211757598
10149 0.608212058083
10150 -1.03887649938
10151 0.601785081814
10152 0.437091417566
10153 -1.1253841518
10154 0.519945738767
10155 0.605438413031
10156 -1.12836592632
10157 0.561437173147
10158 0.56692875317
10159 -1.04245380814
10160 0.573631590675
10161 0.468822217468
10162 -1.15329586387
10163 0.581112391005
10164 0.572183472864
10165 -1.21832997834
10166 0.61821185306
10167 0.600118125283
10168 -1.13313414647
10169 0.556499457392
10170 0.576634689074
10171 -1.19038858733
10172 0.637384336727
10173 0.5530042506
10174 -1.1389908883
10175 0.549408131161
10176 0.589582757137
10177 -1.29268647183
10178 0.562517817437
10179 0.730168654391
10180 -1.18905274546
10181 0.59164957532
10182 0.597403170144
10183 -1.11933482701
10184 0.629475036624
10185 0.489859790388
10186 -1.10072436927
10187 0.601167980756
10188 0.499556388516
10189 -0.941220918933
10190 0.476872671796
10191 0.464348247137
10192 -1.07810331291
10193 0.577109940394
10194 0.500993372519
10195 -1.01705502058
10196 0.550496753834
10197 0.466558266745
10198 -1.10109081675
10199 0.59006231314
10200 0.511028503606
10201 -1.17725131792
10202 0.554113480841
10203 0.62313783708
10204 -1.11078117235
10205 0.567087826045
10206 0.543693346305
10207 -1.13118018265
10208 0.631752573494
10209 0.499427609155
10210 -1.05862686614
10211 0.585524480476
10212 0.473102385663
10213 -1.10369703021
10214 0.58652041865
10215 0.517176611562
10216 -0.995843275594
10217 0.52656098767
10218 0.469282287923
10219 -1.33769272597
10220 0.685694232729
10221 0.651998493241
10222 -0.999918642494
10223 0.458429456382
10224 0.541489186112
10225 -1.37390026371
10226 0.678461973031
10227 0.69543829068
10228 -1.13783695742
10229 0.584718440415
10230 0.553118517004
10231 -1.00257634981
10232 0.509897999639
10233 0.492678350176
10234 -1.14210816282
10235 0.586066319291
10236 0.556041843529
10237 -1.0093642046
10238 0.516801557956
10239 0.492562646643
10240 -1.34222734952
10241 0.787074020261
10242 0.555153329258
10243 -1.43856515183
10244 0.777685460101
10245 0.660879691728
10246 -1.23968539363
10247 0.616722171838
10248 0.622963221789
10249 -0.993706374177
10250 0.524986383484
10251 0.468719990693
10252 -0.949068382941
10253 0.450628731984
10254 0.498439650957
10255 -1.21560345079
10256 0.596504286348
10257 0.619099164444
10258 -1.23331284991
10259 0.698847724853
10260 0.534465125057
10261 -1.2480974675
10262 0.570338485916
10263 0.677758981582
10264 -1.1926790013
10265 0.570123567261
10266 0.622555434044
10267 -1.14724272676
10268 0.554184783923
10269 0.593057942837
10270 -1.05028714763
10271 0.484857829642
10272 0.565429317986
10273 -1.0695181989
10274 0.51948973999
10275 0.550028458907
10276 -1.24938391165
10277 0.644966005589
10278 0.604417906056
10279 -1.16425497913
10280 0.494850999321
10281 0.66940397981
10282 -1.01412912389
10283 0.446234430881
10284 0.567894693006
10285 -1.26594819836
10286 0.608500523828
10287 0.657447674535
10288 -1.17170949813
10289 0.560681267667
10290 0.61102823046
10291 -1.46565013904
10292 0.642848607522
10293 0.822801531521
10294 -0.853916361162
10295 0.398116026719
10296 0.455800334443
10297 -1.0735478891
10298 0.510252885751
10299 0.563295003351
10300 -1.05398250653
10301 0.519017576311
10302 0.534964930217
10303 -1.26693406939
10304 0.601361163409
10305 0.665572905982
10306 -1.31148624582
10307 0.593852039496
10308 0.71763420632
10309 -1.06520671821
10310 0.540633818141
10311 0.524572900072
10312 -1.19088964008
10313 0.5606013253
10314 0.630288314782
10315 -1.08959228734
10316 0.632590985838
10317 0.457001301505
10318 -1.33414216186
10319 0.6365448833
10320 0.697597278563
10321 -1.23611782759
10322 0.680124404639
10323 0.555993422947
10324 -1.18053260072
10325 0.617712779373
10326 0.562819821345
10327 -1.14087633984
10328 0.56895832643
10329 0.571918013408
10330 -0.985163909956
10331 0.527984147464
10332 0.457179762492
10333 -1.310284108
10334 0.645958573934
10335 0.664325534066
10336 -1.29927984806
10337 0.627232842598
10338 0.672047005463
10339 -1.04539572602
10340 0.4704557176
10341 0.574940008419
10342 -1.04566297925
10343 0.512507083249
10344 0.533155895998
10345 -1.05633254827
10346 0.464070730538
10347 0.592261817727
10348 -1.1931656203
10349 0.623956646774
10350 0.569208973527
10351 -0.942902236286
10352 0.486091490601
10353 0.456810745685
10354 -1.16853911808
10355 0.537557958638
10356 0.630981159445
10357 -1.2961681841
10358 0.629565057501
10359 0.666603126595
10360 -1.18468336415
10361 0.654206047167
10362 0.530477316983
10363 -1.05678110527
10364 0.544203872222
10365 0.51257723305
10366 -1.25938450449
10367 0.679836061696
10368 0.57954844279
10369 -1.04838533618
10370 0.561583439573
10371 0.486801896607
10372 -1.11604876085
10373 0.552845248691
10374 0.563203512159
10375 -1.00191724439
10376 0.437347073735
10377 0.564570170658
10378 -1.18440784964
10379 0.650285798424
10380 0.534122051211
10381 -1.0871177201
10382 0.516499938649
10383 0.570617781452
10384 -0.859243959849
10385 0.457291714191
10386 0.401952245658
10387 -0.9647455892
10388 0.495012879715
10389 0.469732709485
10390 -0.804970443004
10391 0.390454397418
10392 0.414516045586
10393 -1.020044012
10394 0.531805585069
10395 0.488238426935
10396 -1.01807295693
10397 0.513658869673
10398 0.50441408726
10399 -1.11914948567
10400 0.666912559443
10401 0.452236926225
10402 -0.967654801261
10403 0.366820313425
10404 0.600834487836
10405 -1.09327805403
10406 0.53274331458
10407 0.560534739449
10408 -1.13184662721
10409 0.512431380761
10410 0.619415246449
10411 -1.13859425621
10412 0.617846394462
10413 0.520747861749
10414 -0.945803119885
10415 0.516542291729
10416 0.429260828156
10417 -1.0480652471
10418 0.558357642429
10419 0.489707604671
10420 -0.922943870078
10421 0.503737568914
10422 0.419206301164
10423 -1.27283748946
10424 0.757538759192
10425 0.515298730267
10426 -1.24959738693
10427 0.650471454443
10428 0.599125932486
10429 -1.04618388823
10430 0.542585618698
10431 0.503598269536
10432 -1.22834209527
10433 0.641135535179
10434 0.58720656009
10435 -1.04134764942
10436 0.487652379228
10437 0.553695270188
10438 -1.05779731654
10439 0.484513210689
10440 0.573284105851
10441 -1.14527172183
10442 0.555874027983
10443 0.58939769385
10444 -1.07672049383
10445 0.553642324614
10446 0.523078169212
10447 -1.01555155392
10448 0.484505172655
10449 0.531046381262
10450 -1.10418811706
10451 0.491153255229
10452 0.613034861831
10453 -1.19031976571
10454 0.62582846371
10455 0.564491301999
10456 -1.05779777758
10457 0.404002844107
10458 0.653794933474
10459 -1.04569302997
10460 0.458952748399
10461 0.586740281571
10462 -1.09297290271
10463 0.516366364006
10464 0.576606538701
10465 -0.888714833479
10466 0.458045841944
10467 0.430668991534
10468 -1.16228131218
10469 0.571225713406
10470 0.591055598775
10471 -1.17596795789
10472 0.632299638731
10473 0.543668319159
10474 -1.1376913499
10475 0.555342520183
10476 0.582348829718
10477 -1.18375888011
10478 0.562888289118
10479 0.620870590989
10480 -1.23481757801
10481 0.688831285667
10482 0.545986292347
10483 -1.15931339301
10484 0.592058893247
10485 0.567254499763
10486 -1.12695062401
10487 0.511076601323
10488 0.615874022683
10489 -1.24856145264
10490 0.654142957191
10491 0.594418495451
10492 -1.1450341564
10493 0.578024778213
10494 0.567009378189
10495 -1.34228255469
10496 0.674329126296
10497 0.66795342839
10498 -1.26755797197
10499 0.619648010061
10500 0.647909961912
10501 -1.21517385608
10502 0.678619893881
10503 0.536553962196
10504 -1.0866464049
10505 0.555384811343
10506 0.531261593554
10507 -1.21252236696
10508 0.64169033612
10509 0.570832030837
10510 -1.33901261035
10511 0.672457485212
10512 0.666555125139
10513 -1.09319726495
10514 0.618849535652
10515 0.474347729302
10516 -1.10153663174
10517 0.586088108791
10518 0.515448522948
10519 -0.998451147676
10520 0.562982660748
10521 0.435468486928
10522 -0.883348933853
10523 0.465951194824
10524 0.417397739029
10525 -1.31439485429
10526 0.645665603023
10527 0.66872925127
10528 -1.23946983177
10529 0.531875360295
10530 0.707594471477
10531 -1.23507098767
10532 0.58716256802
10533 0.647908419646
10534 -1.33500027502
10535 0.656856710309
10536 0.678143564708
10537 -1.1925804041
10538 0.630398170287
10539 0.562182233812
10540 -1.00114194712
10541 0.593057622023
10542 0.408084325097
10543 -1.03769640354
10544 0.459286656791
10545 0.578409746744
10546 -1.00917755574
10547 0.568050618749
10548 0.441126936992
10549 -1.22222234572
10550 0.62576790368
10551 0.596454442036
10552 -0.94640751332
10553 0.48686928
10554 0.45953823332
10555 -1.16214735718
10556 0.563472745017
10557 0.598674612165
10558 -1.0389485391
10559 0.549468167998
10560 0.489480371105
10561 -1.10655093838
10562 0.613468116346
10563 0.493082822037
10564 -1.00502439589
10565 0.463030469553
10566 0.541993926335
10567 -1.37539277587
10568 0.636193763362
10569 0.739199012508
10570 -1.28392032178
10571 0.596144000412
10572 0.687776321371
10573 -1.00759476884
10574 0.465767647558
10575 0.541827121285
10576 -1.05149634261
10577 0.502235852229
10578 0.54926049038
10579 -0.895316698188
10580 0.417482173051
10581 0.477834525136
10582 -0.892093492953
10583 0.388190754125
10584 0.503902738828
10585 -0.963636072168
10586 0.493990405713
10587 0.469645666456
10588 -1.06560182979
10589 0.485537176222
10590 0.580064653568
10591 -1.27291032956
10592 0.594277868873
10593 0.678632460683
10594 -1.07444535876
10595 0.6026584207
10596 0.471786938064
10597 -1.09631961871
10598 0.578124462721
10599 0.518195155992
10600 -1.0548795764
10601 0.455817715576
10602 0.59906186082
10603 -1.16599467703
10604 0.599144875397
10605 0.566849801631
10606 -1.21663896344
10607 0.626508655045
10608 0.590130308395
10609 -1.15408462621
10610 0.639297506636
10611 0.51478711957
10612 -0.987741581005
10613 0.462349231321
10614 0.525392349684
10615 -0.911514945534
10616 0.467614197566
10617 0.443900747969
10618 -1.02237337779
10619 0.493788833258
10620 0.528584544534
10621 -1.14513713048
10622 0.578757611
10623 0.566379519481
10624 -1.18763605023
10625 0.557126728727
10626 0.630509321506
10627 -1.20401387842
10628 0.693824045982
10629 0.510189832443
10630 -1.12030345722
10631 0.609353406721
10632 0.510950050502
10633 -1.11726119144
10634 0.509668883615
10635 0.607592307822
10636 -1.12739382349
10637 0.545805076572
10638 0.581588746917
10639 -1.10068322144
10640 0.579236637333
10641 0.52144658411
10642 -0.976873174856
10643 0.42665938563
10644 0.550213789226
10645 -1.24472751612
10646 0.618030685597
10647 0.626696830527
10648 -1.12074310809
10649 0.482524412333
10650 0.638218695759
10651 -1.19985950411
10652 0.621205339303
10653 0.578654164802
10654 -1.1235376389
10655 0.584276552097
10656 0.539261086801
10657 -1.25719183171
10658 0.610036457466
10659 0.647155374243
10660 -1.20469364131
10661 0.626252049834
10662 0.578441591474
10663 -1.04920270838
10664 0.620316539551
10665 0.428886168827
10666 -1.0561183428
10667 0.483338531982
10668 0.572779810819
10669 -1.05372754388
10670 0.503265298363
10671 0.550462245518
10672 -0.888492652701
10673 0.432958222086
10674 0.455534430615
10675 -1.39545844388
10676 0.683826376866
10677 0.711632067015
10678 -1.07643409108
10679 0.547903936346
10680 0.528530154729
10681 -1.0224272872
10682 0.515851102666
10683 0.506576184533
10684 -1.02237621187
10685 0.474796907968
10686 0.547579303899
10687 -1.35163024758
10688 0.690114399902
10689 0.661515847676
10690 -1.32713858263
10691 0.692885738659
10692 0.634252843973
10693 -0.964839154639
10694 0.457064128403
10695 0.507775026237
10696 -1.44670766412
10697 0.704946558335
10698 0.741761105788
10699 -1.24033376703
10700 0.643646470157
10701 0.59668729687
10702 -1.0359065424
10703 0.521844401191
10704 0.514062141208
10705 -1.03309420541
10706 0.599512514374
10707 0.433581691038
10708 -1.118579795
10709 0.564233607595
10710 0.554346187405
10711 -1.12087865288
10712 0.544377574094
10713 0.57650107879
10714 -1.11680677173
10715 0.520931333497
10716 0.595875438231
10717 -1.10494209277
10718 0.571101519509
10719 0.533840573262
10720 -1.233744767
10721 0.734299479354
10722 0.499445287646
10723 -1.3316685589
10724 0.593422405648
10725 0.73824615325
10726 -1.28495855938
10727 0.590208559815
10728 0.694749999565
10729 -1.00425967834
10730 0.530967424477
10731 0.473292253866
10732 -1.13564623967
10733 0.604655150575
10734 0.530991089094
10735 -1.13164647598
10736 0.573720089394
10737 0.557926386586
10738 -0.997706905383
10739 0.52529940997
10740 0.472407495414
10741 -1.1132948855
10742 0.553029551027
10743 0.560265334477
10744 -1.07621008289
10745 0.437800511128
10746 0.638409571759
10747 -1.04486097119
10748 0.549717127364
10749 0.495143843827
10750 -1.08186440859
10751 0.516267038041
10752 0.565597370546
10753 -1.2443337347
10754 0.559307626293
10755 0.685026108412
10756 -1.14861229064
10757 0.629798366702
10758 0.51881392394
10759 -1.22289142222
10760 0.563043050387
10761 0.659848371837
10762 -1.10815394679
10763 0.568772731135
10764 0.539381215658
10765 -0.919225341257
10766 0.452136905262
10767 0.467088435995
10768 -1.27492298203
10769 0.708940698462
10770 0.565982283568
10771 -1.14209484531
10772 0.557404215078
10773 0.584690630236
10774 -0.94838479593
10775 0.522530584248
10776 0.425854211682
10777 -1.23057790081
10778 0.589567503705
10779 0.64101039711
10780 -1.10089935647
10781 0.561240585853
10782 0.539658770618
10783 -1.33966000321
10784 0.692593327511
10785 0.647066675696
10786 -1.12168617219
10787 0.62017882394
10788 0.501507348253
10789 -1.3727095773
10790 0.683177529916
10791 0.689532047389
10792 -1.04624789323
10793 0.463397805002
10794 0.582850088233
10795 -1.00444294661
10796 0.466339983142
10797 0.538102963468
10798 -1.0529051264
10799 0.520706787893
10800 0.532198338502
10801 -0.974477130274
10802 0.482629032047
10803 0.491848098227
10804 -1.17217460597
10805 0.49608992788
10806 0.676084678086
10807 -1.1128134188
10808 0.565278850275
10809 0.54753456852
10810 -1.01367719155
10811 0.463566422281
10812 0.550110769268
10813 -1.29837847275
10814 0.665133392878
10815 0.633245079871
10816 -1.12170733532
10817 0.60350473382
10818 0.518202601501
10819 -1.14943157559
10820 0.550392937873
10821 0.599038637715
10822 -1.25314829347
10823 0.594285273327
10824 0.658863020145
10825 -0.937644253542
10826 0.493210280627
10827 0.444433972915
10828 -1.2392478565
10829 0.549041509383
10830 0.690206347118
10831 -0.947762083073
10832 0.584259191445
10833 0.363502891628
10834 -1.06811127889
10835 0.550319149117
10836 0.517792129774
10837 -1.07033406859
10838 0.590627479942
10839 0.479706588649
10840 -1.2093098623
10841 0.702150738642
10842 0.507159123659
10843 -1.10494657478
10844 0.551597192626
10845 0.55334938215
10846 -1.21169502611
10847 0.597030980386
10848 0.614664045728
10849 -1.25203612412
10850 0.589535809661
10851 0.662500314462
10852 -1.18361971713
10853 0.555604688648
10854 0.628015028485
10855 -1.10272352221
10856 0.520845128833
10857 0.581878393375
10858 -0.879334531853
10859 0.416460522129
10860 0.462874009725
10861 -1.1080246299
10862 0.575253905462
10863 0.532770724434
10864 -1.0620690005
10865 0.517170110673
10866 0.544898889827
10867 -0.847666654458
10868 0.466112759227
10869 0.381553895231
10870 -1.207013293
10871 0.546709007891
10872 0.660304285105
10873 -1.04721801021
10874 0.518880404728
10875 0.52833760548
10876 -1.12677834514
10877 0.53905745566
10878 0.587720889477
10879 -1.26430831216
10880 0.672303899637
10881 0.592004412521
10882 -0.993215091837
10883 0.477613474346
10884 0.51560161749
10885 -1.20603606252
10886 0.631876596575
10887 0.574159465945
10888 -1.0475523304
10889 0.515336754997
10890 0.532215575406
10891 -1.11396492273
10892 0.558926040263
10893 0.555038882472
10894 -0.965633209068
10895 0.418661664744
10896 0.546971544324
10897 -1.22333010592
10898 0.650275471479
10899 0.573054634438
10900 -1.21453710462
10901 0.551126221334
10902 0.663410883289
10903 -0.947229565102
10904 0.556259960358
10905 0.390969604744
10906 -1.16711817631
10907 0.57734592668
10908 0.589772249629
10909 -1.26004908263
10910 0.691638986943
10911 0.56841009569
10912 -1.23647043388
10913 0.596143755597
10914 0.640326678283
10915 -1.08324920179
10916 0.519079527553
10917 0.564169674233
10918 -1.00705495401
10919 0.462412622595
10920 0.544642331415
10921 -1.23913833712
10922 0.641877842957
10923 0.597260494166
10924 -1.17966187726
10925 0.545206910472
10926 0.634454966786
10927 -1.34661428566
10928 0.716461196523
10929 0.630153089136
10930 -1.12466228255
10931 0.576791333487
10932 0.547870949068
10933 -1.19556138842
10934 0.49687700809
10935 0.698684380325
10936 -1.2432441266
10937 0.695880172369
10938 0.547363954232
10939 -1.04786500192
10940 0.543564960895
10941 0.504300041026
10942 -1.10095496031
10943 0.500462975763
10944 0.600491984549
10945 -1.21783537671
10946 0.59966151713
10947 0.618173859575
10948 -1.10605642966
10949 0.502360010654
10950 0.603696419002
10951 -1.33939897705
10952 0.62415528837
10953 0.715243688684
10954 -1.12203615672
10955 0.527830968843
10956 0.594205187873
10957 -1.0209920232
10958 0.482072145742
10959 0.53891987746
10960 -1.16705604769
10961 0.516464978356
10962 0.650591069338
10963 -1.05216540442
10964 0.472311407717
10965 0.579853996698
10966 -0.994484390844
10967 0.470348898911
10968 0.524135491933
10969 -0.935565374333
10970 0.468786736392
10971 0.466778637941
10972 -1.17930194039
10973 0.52573099633
10974 0.653570944058
10975 -1.15380902554
10976 0.547986983556
10977 0.60582204198
10978 -1.06520244268
10979 0.495697570928
10980 0.569504871748
10981 -1.22103142758
10982 0.608541113502
10983 0.612490314079
10984 -1.03169323464
10985 0.51056860503
10986 0.521124629611
10987 -1.09110241992
10988 0.503472565482
10989 0.587629854434
10990 -0.944501268886
10991 0.466039938288
10992 0.478461330598
10993 -1.37429776328
10994 0.705454844407
10995 0.668842918869
10996 -1.21675986013
10997 0.570220188307
10998 0.646539671825
10999 -1.04433895774
11000 0.537875209661
11001 0.506463748081
11002 -1.1466078852
11003 0.451741776323
11004 0.694866108877
11005 -1.20826121083
11006 0.637471875061
11007 0.570789335771
11008 -1.24605104757
11009 0.661970934077
11010 0.584080113492
11011 -1.10799629148
11012 0.507838773333
11013 0.600157518149
11014 -1.1545942174
11015 0.619850527597
11016 0.534743689803
11017 -1.18829256233
11018 0.541945528604
11019 0.646347033729
11020 -1.01885330018
11021 0.57186068643
11022 0.446992613749
11023 -1.05003995097
11024 0.510412274089
11025 0.539627676884
11026 -1.27614004086
11027 0.645649680204
11028 0.630490360657
11029 -1.06892528174
11030 0.580596918291
11031 0.488328363447
11032 -0.941820464156
11033 0.481343232847
11034 0.460477231309
11035 -1.10567697678
11036 0.540474483239
11037 0.565202493543
11038 -1.21900365283
11039 0.621057144072
11040 0.597946508755
11041 -1.17475808673
11042 0.587091077831
11043 0.587667008895
11044 -1.10579159751
11045 0.590305043314
11046 0.515486554198
11047 -0.996498132943
11048 0.56857908263
11049 0.427919050313
11050 -1.19840893976
11051 0.580158809498
11052 0.618250130257
11053 -1.04873465389
11054 0.486365427826
11055 0.562369226062
11056 -1.03296193028
11057 0.575356539408
11058 0.457605390874
11059 -1.34261360786
11060 0.623003422938
11061 0.719610184921
11062 -1.22594412766
11063 0.638362376253
11064 0.587581751402
11065 -1.23307732212
11066 0.611968951658
11067 0.621108370464
11068 -1.0608092357
11069 0.539418763416
11070 0.521390472288
11071 -1.31041918225
11072 0.551463339204
11073 0.758955843047
11074 -1.22924377788
11075 0.620271263248
11076 0.608972514628
11077 -1.0279790481
11078 0.538828931498
11079 0.489150116601
11080 -1.01875069238
11081 0.492828922544
11082 0.525921769839
11083 -1.20471106751
11084 0.579821337049
11085 0.624889730465
11086 -1.20289319311
11087 0.619026363464
11088 0.583866829648
11089 -1.12164249533
11090 0.62169907973
11091 0.499943415602
11092 -1.2641178334
11093 0.640321400879
11094 0.623796432525
11095 -1.10532736674
11096 0.611846216922
11097 0.493481149823
11098 -1.05183974076
11099 0.630940206063
11100 0.420899534698
11101 -1.18383941127
11102 0.540743354382
11103 0.643096056883
11104 -1.17170602031
11105 0.521929294956
11106 0.64977672535
11107 -1.44564305338
11108 0.724897841824
11109 0.720745211554
11110 -1.02897067545
11111 0.551864307551
11112 0.477106367896
11113 -1.04551251222
11114 0.426156236494
11115 0.619356275723
11116 -1.19526568414
11117 0.685377683534
11118 0.509888000607
11119 -0.946573817005
11120 0.439166886595
11121 0.50740693041
11122 -1.45407583751
11123 0.654702547973
11124 0.799373289535
11125 -1.33803713512
11126 0.648701587313
11127 0.689335547806
11128 -1.05044580856
11129 0.508652295573
11130 0.541793512982
11131 -1.28277980264
11132 0.60559080974
11133 0.677188992896
11134 -1.09866586462
11135 0.492858701083
11136 0.605807163542
11137 -0.945122688013
11138 0.470588070534
11139 0.474534617479
11140 -0.906688307966
11141 0.456603233347
11142 0.450085074618
11143 -1.08202677952
11144 0.495185844047
11145 0.58684093547
11146 -1.26539807794
11147 0.598564753941
11148 0.666833323996
11149 -1.08973655476
11150 0.569292895051
11151 0.520443659711
11152 -1.03765960976
11153 0.561331441296
11154 0.47632816846
11155 -1.12201609793
11156 0.605421041915
11157 0.516595056013
11158 -1.3178098791
11159 0.661308194784
11160 0.656501684318
11161 -1.05497961675
11162 0.519842119375
11163 0.535137497375
11164 -1.17153340382
11165 0.600631466587
11166 0.570901937233
11167 -0.994820589945
11168 0.548433983369
11169 0.446386606576
11170 -1.10788179532
11171 0.60401644183
11172 0.503865353494
11173 -1.03807406217
11174 0.577797583934
11175 0.460276478236
11176 -1.23773089523
11177 0.60306207266
11178 0.63466882257
11179 -1.23608372494
11180 0.569735446497
11181 0.666348278439
11182 -1.00192073124
11183 0.531869771447
11184 0.470050959794
11185 -0.996557641817
11186 0.544611462581
11187 0.451946179235
11188 -1.28062487211
11189 0.581186813701
11190 0.699438058411
11191 -1.08980578408
11192 0.477003402088
11193 0.612802381993
11194 -0.889474921054
11195 0.450299238169
11196 0.439175682885
11197 -1.11492807473
11198 0.461565610206
11199 0.65336246452
11200 -1.07199593736
11201 0.522127680455
11202 0.54986825691
11203 -1.16469283722
11204 0.571649382882
11205 0.593043454333
11206 -1.33834596333
11207 0.630363740417
11208 0.707982222916
11209 -1.40278001406
11210 0.662445274796
11211 0.740334739268
11212 -1.05282545041
11213 0.49464277198
11214 0.558182678434
11215 -1.25766159526
11216 0.652864972096
11217 0.604796623167
11218 -1.13519924311
11219 0.568121227229
11220 0.567078015885
11221 -1.33052308786
11222 0.694012548082
11223 0.63651053978
11224 -1.01124582573
11225 0.65473028577
11226 0.356515539964
11227 -0.995269760698
11228 0.492637515135
11229 0.502632245563
11230 -1.15300540885
11231 0.64748156728
11232 0.50552384157
11233 -1.06466669144
11234 0.564357563286
11235 0.500309128158
11236 -1.11062230707
11237 0.494246251299
11238 0.616376055768
11239 -1.16401304681
11240 0.616402744449
11241 0.547610302359
11242 -1.03680632233
11243 0.594458838705
11244 0.442347483623
11245 -1.2850462678
11246 0.764437334798
11247 0.520608932997
11248 -1.0697383402
11249 0.641292333668
11250 0.428446006534
11251 -0.997034114371
11252 0.543782450503
11253 0.453251663868
11254 -0.838356991082
11255 0.396122744535
11256 0.442234246547
11257 -1.19867636416
11258 0.54883998351
11259 0.649836380647
11260 -0.937840944032
11261 0.487737152305
11262 0.450103791727
11263 -1.296324992
11264 0.641704926726
11265 0.654620065273
11266 -1.17296195926
11267 0.57009728573
11268 0.602864673525
11269 -0.862522836973
11270 0.405116429336
11271 0.457406407637
11272 -1.10231600096
11273 0.604479050672
11274 0.497836950284
11275 -1.14309490458
11276 0.619332103564
11277 0.523762801019
11278 -1.30075519326
11279 0.666469649865
11280 0.634285543393
11281 -1.10667414312
11282 0.443451595022
11283 0.663222548095
11284 -1.09356513096
11285 0.61860679744
11286 0.474958333523
11287 -1.05682109372
11288 0.494542199632
11289 0.562278894092
11290 -1.31137667795
11291 0.661697419253
11292 0.649679258698
11293 -1.07996867045
11294 0.573382528827
11295 0.506586141619
11296 -1.00847820143
11297 0.425122191481
11298 0.583356009947
11299 -0.920739398067
11300 0.515852956946
11301 0.40488644112
11302 -1.09535385309
11303 0.586452506235
11304 0.508901346854
11305 -1.27215519267
11306 0.582071245801
11307 0.690083946868
11308 -1.12267324539
11309 0.542128773925
11310 0.58054447147
11311 -1.12868929014
11312 0.524415619719
11313 0.604273670421
11314 -0.989200615143
11315 0.502414770361
11316 0.486785844782
11317 -1.27167861481
11318 0.780426363568
11319 0.491252251247
11320 -1.00566974258
11321 0.467300427935
11322 0.538369314647
11323 -1.12366101407
11324 0.531763755487
11325 0.591897258587
11326 -1.09690515198
11327 0.558615491206
11328 0.538289660779
11329 -1.1836967541
11330 0.520236498759
11331 0.663460255341
11332 -1.13376259264
11333 0.598691525038
11334 0.535071067599
11335 -1.05867946248
11336 0.480703147436
11337 0.577976315047
11338 -1.09182143211
11339 0.516598031434
11340 0.575223400678
11341 -1.24575037506
11342 0.64005880933
11343 0.605691565735
11344 -0.980744854053
11345 0.48731007995
11346 0.493434774102
11347 -1.10574720763
11348 0.628989146098
11349 0.476758061535
11350 -1.12677522042
11351 0.608095978365
11352 0.518679242055
11353 -0.824835140015
11354 0.406876709805
11355 0.41795843021
11356 -1.25613755365
11357 0.656668342438
11358 0.599469211207
11359 -1.11550211223
11360 0.597110617894
11361 0.518391494334
11362 -1.31427481766
11363 0.659628111069
11364 0.65464670659
11365 -1.11258124699
11366 0.467515492853
11367 0.645065754134
11368 -1.21575355307
11369 0.632819562462
11370 0.582933990607
11371 -1.14753146414
11372 0.591788698603
11373 0.555742765537
11374 -1.0645466149
11375 0.503322258061
11376 0.561224356842
11377 -1.00786871895
11378 0.508642680169
11379 0.499226038784
11380 -1.22011123537
11381 0.72332541938
11382 0.496785815991
11383 -1.06369225732
11384 0.594800552129
11385 0.468891705193
11386 -1.08458305064
11387 0.489732068805
11388 0.594850981834
11389 -1.06887612891
11390 0.476317781253
11391 0.592558347657
11392 -1.05426600663
11393 0.544710174123
11394 0.509555832507
11395 -0.974090984383
11396 0.535159946187
11397 0.438931038196
11398 -1.13089277826
11399 0.539094149211
11400 0.591798629049
11401 -1.10249733368
11402 0.577522603469
11403 0.524974730216
11404 -1.24854630475
11405 0.558827912933
11406 0.689718391818
11407 -1.10192157576
11408 0.570656508244
11409 0.531265067512
11410 -1.11947776218
11411 0.514220004221
11412 0.605257757955
11413 -1.09759850864
11414 0.55435169868
11415 0.543246809959
11416 -1.04891060264
11417 0.574915629016
11418 0.473994973628
11419 -1.31437177794
11420 0.724256897731
11421 0.590114880209
11422 -1.08294302551
11423 0.528086699444
11424 0.554856326066
11425 -1.20435118673
11426 0.559569173482
11427 0.644782013249
11428 -1.12145507915
11429 0.517265551528
11430 0.604189527621
11431 -1.05952191523
11432 0.576680690787
11433 0.48284122444
11434 -1.06332476307
11435 0.52225141199
11436 0.541073351083
11437 -0.960386416025
11438 0.547393086678
11439 0.412993329347
11440 -1.06727347896
11441 0.548092730439
11442 0.519180748523
11443 -1.1434667935
11444 0.677862189142
11445 0.465604604357
11446 -1.04624744549
11447 0.49062673149
11448 0.555620714002
11449 -1.12036491425
11450 0.546691502291
11451 0.573673411958
11452 -1.38498159993
11453 0.765522851299
11454 0.619458748635
11455 -1.33730019456
11456 0.613141079254
11457 0.724159115303
11458 -1.13447265969
11459 0.60594241183
11460 0.528530247855
11461 -0.99980843808
11462 0.424180606188
11463 0.575627831891
11464 -1.20164443395
11465 0.644891605777
11466 0.556752828177
11467 -1.3367871419
11468 0.71092390434
11469 0.625863237557
11470 -0.984116580702
11471 0.565022913436
11472 0.419093667266
11473 -1.34544279927
11474 0.656594781852
11475 0.688848017414
11476 -1.05278272778
11477 0.513062156677
11478 0.539720571098
11479 -1.13960018237
11480 0.434162630285
11481 0.705437552081
11482 -1.0729357809
11483 0.648582314647
11484 0.424353466251
11485 -1.11433684406
11486 0.603526313736
11487 0.510810530322
11488 -1.08024670848
11489 0.52548859564
11490 0.554758112838
11491 -1.32529395064
11492 0.699283404308
11493 0.626010546331
11494 -1.0307606831
11495 0.548646908927
11496 0.482113774173
11497 -1.07322917201
11498 0.454760970732
11499 0.61846820128
11500 -1.10939428522
11501 0.560046120698
11502 0.549348164526
11503 -1.0021380655
11504 0.49241282503
11505 0.509725240466
11506 -1.04998598963
11507 0.549977286006
11508 0.500008703626
11509 -1.01024913486
11510 0.549129837465
11511 0.461119297395
11512 -1.19582574007
11513 0.502336531872
11514 0.693489208201
11515 -1.09600495184
11516 0.609958578795
11517 0.486046373047
11518 -1.19426612423
11519 0.598552890865
11520 0.595713233368
11521 -1.25313193465
11522 0.595843845608
11523 0.657288089045
11524 -1.2331559653
11525 0.590611297503
11526 0.642544667795
11527 -1.06693129595
11528 0.511587620135
11529 0.555343675819
11530 -0.952097632058
11531 0.451391535206
11532 0.500706096852
11533 -1.17689278178
11534 0.641339458053
11535 0.535553323727
11536 -1.17878026311
11537 0.564304739494
11538 0.614475523613
11539 -1.38135815446
11540 0.700485581054
11541 0.680872573404
11542 -1.09317918176
11543 0.587315624821
11544 0.505863556943
11545 -0.896342620526
11546 0.478639464563
11547 0.417703155963
11548 -1.01530583853
11549 0.482879779904
11550 0.532426058628
11551 -1.11866490545
11552 0.524819764235
11553 0.593845141218
11554 -1.25374011106
11555 0.635429516199
11556 0.618310594861
11557 -1.14859816698
11558 0.555683125338
11559 0.592915041642
11560 -1.15715992176
11561 0.633368708184
11562 0.523791213576
11563 -1.22284185953
11564 0.559561107862
11565 0.663280751672
11566 -1.2390346811
11567 0.650062826272
11568 0.588971854831
11569 -1.28369616446
11570 0.623017576033
11571 0.660678588429
11572 -1.14993088988
11573 0.524461286779
11574 0.625469603103
11575 -1.13767530859
11576 0.645442837123
11577 0.492232471463
11578 -1.13855040776
11579 0.449952539027
11580 0.688597868728
11581 -1.10880532226
11582 0.494292650239
11583 0.614512672021
11584 -1.44664974551
11585 0.814271155122
11586 0.632378590384
11587 -1.06736102075
11588 0.55455869592
11589 0.512802324833
11590 -1.05011743886
11591 0.585715102103
11592 0.46440233676
11593 -1.17407397152
11594 0.634380757731
11595 0.539693213785
11596 -1.18524827219
11597 0.66374727821
11598 0.521500993979
11599 -1.14522908994
11600 0.568110697224
11601 0.577118392716
11602 -1.225130173
11603 0.6236046978
11604 0.601525475204
11605 -1.18889579262
11606 0.619514962592
11607 0.569380830028
11608 -1.13733556786
11609 0.531344777474
11610 0.605990790381
11611 -1.4269368505
11612 0.676072850304
11613 0.750864000199
11614 -1.15729864273
11615 0.512849726037
11616 0.64444891669
11617 -1.18439186848
11618 0.673665350679
11619 0.510726517801
11620 -1.09382051677
11621 0.474625939765
11622 0.619194577009
11623 -1.27318331465
11624 0.555266793579
11625 0.71791652107
11626 -1.20705568941
11627 0.574699647468
11628 0.63235604194
11629 -1.09604358266
11630 0.538280690603
11631 0.557762892053
11632 -1.17507612994
11633 0.608374383869
11634 0.566701746069
11635 -1.24187654923
11636 0.670380500106
11637 0.571496049128
11638 -0.909356985784
11639 0.4290963812
11640 0.480260604583
11641 -1.03879019196
11642 0.477744445386
11643 0.561045746573
11644 -1.19118748173
11645 0.615739328962
11646 0.575448152763
11647 -1.44157079279
11648 0.656151419283
11649 0.785419373506
11650 -1.2328252538
11651 0.561458241412
11652 0.671367012386
11653 -1.18399252106
11654 0.593551067968
11655 0.590441453095
11656 -0.990824153868
11657 0.488167377606
11658 0.502656776262
11659 -1.07819819435
11660 0.510843634833
11661 0.567354559513
11662 -1.20632501066
11663 0.533612369185
11664 0.672712641475
11665 -1.09818169252
11666 0.560463858386
11667 0.537717834132
11668 -1.02367956325
11669 0.480987580723
11670 0.542691982529
11671 -1.33046045091
11672 0.742391622467
11673 0.588068828445
11674 -1.00935456055
11675 0.432466653976
11676 0.576887906573
11677 -0.981468676547
11678 0.463404032358
11679 0.518064644189
11680 -1.00708523319
11681 0.534801739131
11682 0.472283494056
11683 -1.20922445363
11684 0.610927665773
11685 0.59829678786
11686 -1.07793487404
11687 0.61549092616
11688 0.462443947883
11689 -1.10614280343
11690 0.510263971967
11691 0.595878831464
11692 -1.11921384895
11693 0.588458709225
11694 0.530755139722
11695 -1.04647626554
11696 0.58685323555
11697 0.459623029987
11698 -1.15739310976
11699 0.585604881244
11700 0.571788228513
11701 -1.17206697654
11702 0.593851848521
11703 0.578215128014
11704 -1.14184167077
11705 0.563334096991
11706 0.578507573775
11707 -1.18968517369
11708 0.639119284573
11709 0.550565889114
11710 -1.08253517536
11711 0.479123056278
11712 0.603412119083
11713 -1.34189042532
11714 0.60781161334
11715 0.734078811979
11716 -1.22091902514
11717 0.573323409433
11718 0.647595615707
11719 -1.09414803489
11720 0.624257742531
11721 0.469890292358
11722 -1.10081719964
11723 0.588054398526
11724 0.512762801118
11725 -0.92399859363
11726 0.432524197419
11727 0.491474396211
11728 -1.08844707772
11729 0.587896673404
11730 0.500550404318
11731 -1.006534035
11732 0.54680296224
11733 0.459731072757
11734 -1.12589824444
11735 0.634193766832
11736 0.491704477606
11737 -1.18831582464
11738 0.545208370951
11739 0.643107453686
11740 -1.12734727678
11741 0.553683875334
11742 0.573663401442
11743 -1.15121060668
11744 0.656761396781
11745 0.494449209896
11746 -1.06973679764
11747 0.613885891365
11748 0.455850906271
11749 -1.08450528525
11750 0.605718414873
11751 0.478786870378
11752 -0.939546508482
11753 0.490699944035
11754 0.448846564447
11755 -1.30422539193
11756 0.668285269264
11757 0.635940122671
11758 -0.971216720324
11759 0.471728648747
11760 0.499488071577
11761 -1.4161251334
11762 0.699565482958
11763 0.716559650437
11764 -1.12619838859
11765 0.5429166759
11766 0.583281712691
11767 -1.02373399059
11768 0.523477897013
11769 0.500256093578
11770 -1.12527995216
11771 0.619092884981
11772 0.50618706718
11773 -1.06255875745
11774 0.516009643706
11775 0.546549113747
11776 -1.40207634842
11777 0.783912310912
11778 0.61816403751
11779 -1.46557179406
11780 0.805684818527
11781 0.659886975536
11782 -1.19955308445
11783 0.604143755525
11784 0.595409328927
11785 -0.978316314855
11786 0.501315747958
11787 0.477000566898
11788 -0.96115373088
11789 0.452074437668
11790 0.509079293213
11791 -1.22956862857
11792 0.667297338633
11793 0.562271289935
11794 -1.24849304864
11795 0.706152738984
11796 0.54234030966
11797 -1.21721133225
11798 0.555833966996
11799 0.661377365254
11800 -1.18611103934
11801 0.565524160314
11802 0.620586879024
11803 -1.2175295809
11804 0.568074822286
11805 0.649454758615
11806 -1.08328666775
11807 0.501193599527
11808 0.582093068219
11809 -1.07644425858
11810 0.537580726733
11811 0.538863531845
11812 -1.24814806163
11813 0.672141675241
11814 0.576006386391
11815 -1.16921500441
11816 0.503412974212
11817 0.665802030193
11818 -0.972501212312
11819 0.42581511225
11820 0.546686100062
11821 -1.37570817636
11822 0.706257565671
11823 0.669450610686
11824 -1.1940514646
11825 0.592681106654
11826 0.601370357945
11827 -1.43066774393
11828 0.620881910531
11829 0.809785833403
11830 -0.856851630891
11831 0.393107643667
11832 0.463743987223
11833 -1.04429856634
11834 0.490307036024
11835 0.553991530313
11836 -1.05149055859
11837 0.534144996057
11838 0.517345562531
11839 -1.29808435247
11840 0.61132691625
11841 0.686757436217
11842 -1.28530462149
11843 0.562928446946
11844 0.722376174545
11845 -1.08861177493
11846 0.590447656857
11847 0.498164118077
11848 -1.17126316896
11849 0.594625434979
11850 0.576637733979
11851 -1.06370149988
11852 0.612519963261
11853 0.45118153662
11854 -1.33673233524
11855 0.647643036604
11856 0.689089298638
11857 -1.25000058075
11858 0.673305845118
11859 0.57669473563
11860 -1.22267739582
11861 0.642295095411
11862 0.580382300406
11863 -1.1026621875
11864 0.567296531746
11865 0.535365655759
11866 -0.973356899839
11867 0.509968318943
11868 0.463388580896
11869 -1.26962101802
11870 0.601571528062
11871 0.668049489955
11872 -1.32952480623
11873 0.637611617038
11874 0.691913189194
11875 -1.01342151298
11876 0.450061428745
11877 0.56336008424
11878 -1.00697492449
11879 0.529893764215
11880 0.477081160278
11881 -1.08104446515
11882 0.506571383134
11883 0.574473082015
11884 -1.17951785994
11885 0.626995896499
11886 0.552521963446
11887 -0.942478518707
11888 0.510747566426
11889 0.431730952281
11890 -1.17069111631
11891 0.519743010666
11892 0.650948105647
11893 -1.29665231886
11894 0.638157114695
11895 0.658495204164
11896 -1.19339624739
11897 0.614542854604
11898 0.578853392787
11899 -1.02415581764
11900 0.533841291734
11901 0.490314525902
11902 -1.27050641433
11903 0.701239970712
11904 0.569266443617
11905 -0.991441551719
11906 0.530748055675
11907 0.460693496045
11908 -1.1214586362
11909 0.575494153395
11910 0.545964482809
11911 -1.00071091684
11912 0.467855647794
11913 0.532855269043
11914 -1.16117695148
11915 0.614612193895
11916 0.546564757582
11917 -1.11577763749
11918 0.525089254256
11919 0.590688383231
11920 -0.874634397563
11921 0.472046867719
11922 0.402587529843
11923 -0.971136841228
11924 0.492664098828
11925 0.4784727424
11926 -0.790105673478
11927 0.403864717296
11928 0.386240956181
11929 -1.00540642194
11930 0.515947389915
11931 0.489459032024
11932 -1.06958439829
11933 0.523268261984
11934 0.546316136305
11935 -1.13081796379
11936 0.670415534516
11937 0.460402429269
11938 -0.999123452131
11939 0.410105671741
11940 0.589017780391
11941 -1.1622052029
11942 0.55030945892
11943 0.611895743976
11944 -1.1630986751
11945 0.547158259769
11946 0.615940415326
11947 -1.16364003726
11948 0.603349492683
11949 0.560290544581
11950 -0.908351520643
11951 0.47740876659
11952 0.430942754053
11953 -1.08826117158
11954 0.585707608489
11955 0.502553563086
11956 -0.909290814625
11957 0.484839812929
11958 0.424451001697
11959 -1.33064702893
11960 0.745245100187
11961 0.58540192874
11962 -1.23667461909
11963 0.679500222044
11964 0.557174397042
11965 -1.090311873
11966 0.556195335156
11967 0.534116537849
11968 -1.21424581882
11969 0.602477986418
11970 0.611767832405
11971 -1.03367032161
11972 0.470430641837
11973 0.563239679773
11974 -1.07913424483
11975 0.486268566008
11976 0.592865678825
11977 -1.08768602658
11978 0.514760255258
11979 0.572925771325
11980 -1.08870032889
11981 0.584124272217
11982 0.504576056669
11983 -1.02269636914
11984 0.48190583825
11985 0.540790530886
11986 -1.09166456522
11987 0.463784969221
11988 0.627879595997
11989 -1.17007887129
11990 0.585637496726
11991 0.584441374563
11992 -1.10324512527
11993 0.421687600928
11994 0.681557524342
11995 -1.03640196459
11996 0.439048696088
11997 0.597353268501
11998 -1.10090467066
11999 0.530542879039
12000 0.570361791624
12001 -0.925118801424
12002 0.499526833684
12003 0.42559196774
12004 -1.10755143983
12005 0.540217460753
12006 0.567333979075
12007 -1.08551062664
12008 0.54783516672
12009 0.537675459918
12010 -1.17078975308
12011 0.567773942315
12012 0.603015810769
12013 -1.21588304765
12014 0.583543039365
12015 0.632340008288
12016 -1.23754302921
12017 0.687257682422
12018 0.550285346789
12019 -1.17934191165
12020 0.595367716448
12021 0.583974195203
12022 -1.15392958416
12023 0.544487125715
12024 0.609442458448
12025 -1.24906046331
12026 0.616521664333
12027 0.632538798981
12028 -1.1187668858
12029 0.537552725844
12030 0.581214159956
12031 -1.30180357119
12032 0.632322600133
12033 0.669480971053
12034 -1.33367911507
12035 0.664917211557
12036 0.668761903515
12037 -1.22357781965
12038 0.739662042445
12039 0.483915777208
12040 -1.08382941444
12041 0.549616337512
12042 0.534213076924
12043 -1.17387826879
12044 0.656288720141
12045 0.517589548649
12046 -1.32647312063
12047 0.671437602758
12048 0.655035517871
12049 -1.07440859507
12050 0.589186702988
12051 0.48522189208
12052 -1.06243217245
12053 0.57015841911
12054 0.492273753344
12055 -0.995771816718
12056 0.552436731638
12057 0.44333508508
12058 -0.891769128322
12059 0.447592841638
12060 0.444176286685
12061 -1.26937152976
12062 0.629492446174
12063 0.639879083582
12064 -1.25833670451
12065 0.573716244864
12066 0.684620459644
12067 -1.15117941702
12068 0.565669119308
12069 0.585510297714
12070 -1.34962247161
12071 0.632573347979
12072 0.717049123633
12073 -1.19662669408
12074 0.590668754789
12075 0.60595793929
12076 -1.05476835563
12077 0.639470474993
12078 0.415297880639
12079 -1.05439785778
12080 0.49569028733
12081 0.55870757045
12082 -0.993461305247
12083 0.576125378453
12084 0.417335926794
12085 -1.23870382652
12086 0.653054310123
12087 0.585649516392
12088 -0.929158345954
12089 0.488658690865
12090 0.440499655089
12091 -1.14687548646
12092 0.544261512336
12093 0.602613974128
12094 -1.05069688785
12095 0.53377918665
12096 0.516917701196
12097 -1.09582353114
12098 0.600553793359
12099 0.495269737781
12100 -1.02157382369
12101 0.467771761579
12102 0.553802062108
12103 -1.34798501899
12104 0.627416632869
12105 0.720568386123
12106 -1.27958711775
12107 0.605426686915
12108 0.674160430833
12109 -1.008987497
12110 0.480130322762
12111 0.528857174238
12112 -1.07533748023
12113 0.524764294632
12114 0.550573185603
12115 -0.887628442431
12116 0.428210042337
12117 0.459418400095
12118 -0.876579705723
12119 0.374939597512
12120 0.501640108211
12121 -1.02068481553
12122 0.511331203974
12123 0.509353611553
12124 -1.03466007197
12125 0.474077286591
12126 0.560582785379
12127 -1.20649037207
12128 0.600281792424
12129 0.606208579644
12130 -1.06954726623
12131 0.586149868622
12132 0.483397397605
12133 -1.10519532391
12134 0.562784160858
12135 0.542411163047
12136 -1.10186409265
12137 0.461499774321
12138 0.640364318327
12139 -1.17135607615
12140 0.588684825017
12141 0.582671251134
12142 -1.14656772462
12143 0.597492572365
12144 0.549075152259
12145 -1.15055444688
12146 0.606534185759
12147 0.544020261121
12148 -0.980553816856
12149 0.455419405376
12150 0.52513441148
12151 -0.915302237004
12152 0.469024266451
12153 0.446277970553
12154 -1.02635856341
12155 0.468271348685
12156 0.558087214722
12157 -1.12312450054
12158 0.513228774518
12159 0.60989572602
12160 -1.15218181086
12161 0.53186016279
12162 0.620321648071
12163 -1.25234288068
12164 0.702074645187
12165 0.550268235493
12166 -1.07579671083
12167 0.590932461417
12168 0.484864249414
12169 -1.14625154856
12170 0.527597772229
12171 0.618653776327
12172 -1.11874560487
12173 0.582489678708
12174 0.536255926165
12175 -1.13056043215
12176 0.58507037975
12177 0.545490052404
12178 -0.996420017509
12179 0.471644425228
12180 0.524775592281
12181 -1.33173062634
12182 0.699221023562
12183 0.63250960278
12184 -1.09943543244
12185 0.464658223665
12186 0.634777208775
12187 -1.1979188477
12188 0.628893047753
12189 0.569025799945
12190 -1.13001619788
12191 0.598066233068
12192 0.531949964812
12193 -1.22874550198
12194 0.598056850313
12195 0.630688651668
12196 -1.21606847656
12197 0.619823735933
12198 0.596244740629
12199 -1.02980967634
12200 0.610797466934
12201 0.419012209405
12202 -1.0542372536
12203 0.480980528011
12204 0.573256725585
12205 -1.06313374887
12206 0.48863297272
12207 0.574500776146
12208 -0.886289062246
12209 0.466143424625
12210 0.420145637621
12211 -1.41308349244
12212 0.702322523051
12213 0.710760969388
12214 -1.07415825005
12215 0.551965170221
12216 0.522193079826
12217 -1.08891659106
12218 0.556274782219
12219 0.532641808839
12220 -0.956535105956
12221 0.454173459385
12222 0.502361646571
12223 -1.28750054405
12224 0.655304373296
12225 0.632196170754
12226 -1.34392118134
12227 0.710033050442
12228 0.633888130895
12229 -0.992848892249
12230 0.468470103853
12231 0.524378788395
12232 -1.4276841906
12233 0.739689199791
12234 0.687994990812
12235 -1.27103020547
12236 0.671415832827
12237 0.599614372645
12238 -0.998710530395
12239 0.487388359031
12240 0.511322171364
12241 -1.05572830499
12242 0.618509581755
12243 0.437218723237
12244 -1.16277138755
12245 0.603597096721
12246 0.559174290832
12247 -1.12785887152
12248 0.530757643328
12249 0.59710122819
12250 -1.05044944013
12251 0.472159959664
12252 0.578289480464
12253 -1.12250268008
12254 0.571476949088
12255 0.551025730987
12256 -1.18746626322
12257 0.673257633262
12258 0.514208629956
12259 -1.29342948444
12260 0.561704376438
12261 0.731725108005
12262 -1.25007353453
12263 0.577860205527
12264 0.672213329006
12265 -1.03107123974
12266 0.555016742189
12267 0.476054497549
12268 -1.1059745125
12269 0.553020874531
12270 0.552953637966
12271 -1.11522230921
12272 0.559590788205
12273 0.555631521004
12274 -0.964884750343
12275 0.489267809693
12276 0.47561694065
12277 -1.05379274152
12278 0.526152503024
12279 0.527640238494
12280 -1.11967027294
12281 0.43715877145
12282 0.682511501486
12283 -1.02172960917
12284 0.537960496496
12285 0.483769112674
12286 -1.05979338914
12287 0.518971191067
12288 0.540822198071
