LAMMPS (2 Sep 2026)
OMP_NUM_THREADS environment is not set. Defaulting to 1 thread.
  using 1 OpenMP thread(s) per MPI task
units metal
atom_style full
boundary p p p
lattice sc 3.1
Lattice spacing in x,y,z = 3.1 3.1 3.1
region box block 0 8 0 8 0 8
create_box 2 box
Created orthogonal box = (0 0 0) to (24.8 24.8 24.8)
  1 by 1 by 3 MPI processor grid
mass 1 15.9994
mass 2 1.008
molecule h2o spcfq.mol
Read molecule template h2o:
# SPC-FQ 3-site water: O(type1) + 2H(type2), all charged via samqeq. SPC geom rOH=1.0 theta=109.47.
  1 molecules
  0 fragments
  0 bodies
  3 atoms with max type 2
  0 bonds with max type 0
  0 angles with max type 0
  0 dihedrals with max type 0
  0 impropers with max type 0
create_atoms 0 box mol h2o 12345
Created 1536 atoms
  using lattice units in orthogonal box = (0 0 0) to (24.8 24.8 24.8)
  create_atoms CPU = 0.006 seconds
group fq type 1 2
1536 atoms in group fq
set type 1 charge -0.85
Setting atom values ...
  512 settings made for charge
set type 2 charge 0.425
Setting atom values ...
  1024 settings made for charge
pair_style hybrid/overlay lj/cut 12.0 coul/long 12.0 coul/shield/intra 12.0 all
pair_coeff 1 1 lj/cut 0.01275 3.144
pair_coeff 1 2 lj/cut 0.0 1.0
pair_coeff 2 2 lj/cut 0.0 1.0
pair_coeff * * coul/long
pair_coeff * * coul/shield/intra 1.11
kspace_style pppm/samqeq 1.0e-6
neighbor 2.0 bin
velocity all create 298 4928459 mom yes rot yes
timestep 0.001
fix chg fq qeq/sam 1 0.0 12.0 1.0e-5 spcfq_expt.param
fix_modify chg recip_self 0.37933
samqeq: grid reciprocal self-term PINNED at recip_self=0.37933 (raw) = 5.4622 eV/e (not measured; operator is decomposition- and atom-order-independent)
fix integ all rigid/nvt/small molecule temp 298 298 0.1
Fix rigid/nvt/small setup ...
  create bodies CPU = 0.001 seconds
  512 rigid bodies with 1536 atoms
  1.0000026 = max distance from body owner to body atom
variable aq atom abs(q)
compute qmax fq reduce max v_aq
thermo_style custom step temp pe c_qmax
thermo 200
run 3000

CITE-CITE-CITE-CITE-CITE-CITE-CITE-CITE-CITE-CITE-CITE-CITE-CITE

Your simulation uses code contributions which should be cited:

- fix acks2/reaxff command: https://doi.org/10.1137/18M1224684

@Article{O'Hearn2020,
 author = {K. A. {O'Hearn} and A. Alperen and H. M. Aktulga},
 title = {Fast Solvers for Charge Distribution Models on Shared Memory Platforms},
 journal = {SIAM J.\ Sci.\ Comput.},
 year =    2020,
 volume =  42,
 number =  1,
 pages =   {1--22}
}

CITE-CITE-CITE-CITE-CITE-CITE-CITE-CITE-CITE-CITE-CITE-CITE-CITE

PPPM initialization ...
  using 12-bit tables for long-range coulomb
  G vector (1/distance) = 0.28264241
  grid = 30 30 30
  stencil order = 5
  estimated absolute RMS force accuracy = 1.2985301e-05
  estimated relative force accuracy = 9.0177926e-07
  using double precision FFTW3
  3d grid and FFT values/proc = 23273 9000
Generated 0 of 1 mixed pair_coeff terms from geometric mixing rule
samqeq: E_self = sum(chi q + 1/2 eta qs^2) INCLUDED in pe/etotal (fix_modify chg energy yes; eselfref qs = q - q0) -- pe + E_self is the energy the forces integrate
Neighbor list info ...
  update: every = 1 steps, delay = 0 steps, check = yes
  max neighbors/atom: 2000, page size: 100000
  master list distance cutoff = 14
  ghost atom cutoff = 14
  binsize = 7, bins = 4 4 4
  5 neighbor lists, perpetual/occasional/extra = 5 0 0
  (1) pair lj/cut, perpetual, half/full from (5)
      attributes: half, newton on
      pair build: halffull/newton
      stencil: none
      bin: none
  (2) pair coul/long, perpetual, copy from (1)
      attributes: half, newton on
      pair build: copy
      stencil: none
      bin: none
  (3) pair coul/shield/intra, perpetual, copy from (1)
      attributes: half, newton on
      pair build: copy
      stencil: none
      bin: none
  (4) fix qeq/sam, perpetual, half/full from (5)
      attributes: half, newton off
      pair build: halffull/newtoff
      stencil: none
      bin: none
  (5) fix qeq/sam, perpetual
      attributes: full, newton on
      pair build: full/bin
      stencil: full/bin/3d
      bin: standard
samqeq: recip_self ACTIVE at run start (step 0): 0.37933 raw = 5.4622 eV/e, PINNED (fix_modify recip_self)
samqeq SOLVER-DIAG step 0: CG 18 iters (=18 matvecs), resid/b=4.90e-06
Per MPI rank memory allocation (min/avg/max) = 42.09 | 43.46 | 46.06 Mbytes
   Step          Temp          PotEng         c_qmax    
         0   299.10164     -144.68027      1.9690157    
WARNING: samqeq: near-critical config at step 21 bounded with adaptive ridge=0.5 eV (max|q|=1.989) [1 engaged solves so far] (src/SAMQEQ/fix_qeq_sam_lr.cpp:2197)
WARNING: samqeq: near-critical config at step 22 bounded with adaptive ridge=0.5 eV (max|q|=2.130) [2 engaged solves so far] (src/SAMQEQ/fix_qeq_sam_lr.cpp:2197)
WARNING: samqeq: near-critical config at step 23 bounded with adaptive ridge=0.5 eV (max|q|=2.234) [3 engaged solves so far] (src/SAMQEQ/fix_qeq_sam_lr.cpp:2197)
WARNING: samqeq: near-critical config at step 24 bounded with adaptive ridge=0.5 eV (max|q|=2.292) [4 engaged solves so far] (src/SAMQEQ/fix_qeq_sam_lr.cpp:2197)
WARNING: samqeq: near-critical config at step 25 bounded with adaptive ridge=0.5 eV (max|q|=2.324) [5 engaged solves so far] (src/SAMQEQ/fix_qeq_sam_lr.cpp:2197)
WARNING: samqeq: near-critical config at step 126 bounded with adaptive ridge=0.5 eV (max|q|=2.095) [100 engaged solves so far] (src/SAMQEQ/fix_qeq_sam_lr.cpp:2197)
samqeq SOLVER-DIAG step 200: CG 35 iters (=35 matvecs), resid/b=6.50e-06, ridge=0 (engaged 173 solves)
samqeq SOLVER-DIAG step 200: CG 21 iters (=21 matvecs), resid/b=4.80e-06, ridge=0.5 (engaged 173 solves)
samqeq SOLVER-DIAG step 200: CG 12 iters (=12 matvecs), resid/b=8.29e-06, ridge=2 (engaged 173 solves)
       200   1250.7489     -382.11677      0.92442892   
WARNING: samqeq: near-critical config at step 226 bounded with adaptive ridge=2 eV (max|q|=0.949) [200 engaged solves so far] (src/SAMQEQ/fix_qeq_sam_lr.cpp:2197)
WARNING: samqeq: near-critical config at step 326 bounded with adaptive ridge=0.5 eV (max|q|=3.347) [300 engaged solves so far] (src/SAMQEQ/fix_qeq_sam_lr.cpp:2197)
samqeq SOLVER-DIAG step 400: CG 31 iters (=31 matvecs), resid/b=9.13e-06, ridge=0 (engaged 373 solves)
samqeq SOLVER-DIAG step 400: CG 19 iters (=19 matvecs), resid/b=8.24e-06, ridge=0.5 (engaged 373 solves)
       400   828.50109     -437.27166      3.6142763    
WARNING: samqeq: near-critical config at step 426 bounded with adaptive ridge=0.5 eV (max|q|=3.544) [400 engaged solves so far] (src/SAMQEQ/fix_qeq_sam_lr.cpp:2197)
WARNING: samqeq: near-critical config at step 526 bounded with adaptive ridge=0.5 eV (max|q|=3.741) [500 engaged solves so far] (src/SAMQEQ/fix_qeq_sam_lr.cpp:2197)
samqeq SOLVER-DIAG step 600: CG 30 iters (=30 matvecs), resid/b=8.89e-06, ridge=0 (engaged 573 solves)
samqeq SOLVER-DIAG step 600: CG 19 iters (=19 matvecs), resid/b=7.53e-06, ridge=0.5 (engaged 573 solves)
       600   926.30394     -449.53455      3.3436328    
WARNING: samqeq: near-critical config at step 626 bounded with adaptive ridge=2 eV (max|q|=0.864) [600 engaged solves so far] (src/SAMQEQ/fix_qeq_sam_lr.cpp:2197)
WARNING: samqeq: near-critical config at step 726 bounded with adaptive ridge=2 eV (max|q|=0.935) [700 engaged solves so far] (src/SAMQEQ/fix_qeq_sam_lr.cpp:2197)
samqeq SOLVER-DIAG step 800: CG 45 iters (=45 matvecs), resid/b=7.87e-06, ridge=0 (engaged 773 solves)
samqeq SOLVER-DIAG step 800: CG 21 iters (=21 matvecs), resid/b=9.54e-06, ridge=0.5 (engaged 773 solves)
       800   954.60364     -424.97172      3.9153818    
WARNING: samqeq: near-critical config at step 826 bounded with adaptive ridge=0.5 eV (max|q|=2.702) [800 engaged solves so far] (src/SAMQEQ/fix_qeq_sam_lr.cpp:2197)
WARNING: samqeq: near-critical config at step 926 bounded with adaptive ridge=0.5 eV (max|q|=3.948) [900 engaged solves so far] (src/SAMQEQ/fix_qeq_sam_lr.cpp:2197)
samqeq SOLVER-DIAG step 1000: CG 32 iters (=32 matvecs), resid/b=7.36e-06, ridge=0 (engaged 973 solves)
samqeq SOLVER-DIAG step 1000: CG 19 iters (=19 matvecs), resid/b=8.08e-06, ridge=0.5 (engaged 973 solves)
samqeq SOLVER-DIAG step 1000: CG 12 iters (=12 matvecs), resid/b=5.50e-06, ridge=2 (engaged 973 solves)
      1000   778.68357     -418.99876      0.93288011   
WARNING: samqeq: near-critical config at step 1026 bounded with adaptive ridge=0.5 eV (max|q|=3.886) [1000 engaged solves so far] (src/SAMQEQ/fix_qeq_sam_lr.cpp:2197)
WARNING: samqeq: near-critical config at step 1126 bounded with adaptive ridge=0.5 eV (max|q|=3.883) [1100 engaged solves so far] (src/SAMQEQ/fix_qeq_sam_lr.cpp:2197)
samqeq SOLVER-DIAG step 1200: CG 34 iters (=34 matvecs), resid/b=6.51e-06, ridge=0 (engaged 1173 solves)
samqeq SOLVER-DIAG step 1200: CG 19 iters (=19 matvecs), resid/b=7.73e-06, ridge=0.5 (engaged 1173 solves)
samqeq SOLVER-DIAG step 1200: CG 12 iters (=12 matvecs), resid/b=4.93e-06, ridge=2 (engaged 1173 solves)
      1200   712.58511     -423.30227      0.89653705   
WARNING: samqeq: near-critical config at step 1226 bounded with adaptive ridge=0.5 eV (max|q|=3.838) [1200 engaged solves so far] (src/SAMQEQ/fix_qeq_sam_lr.cpp:2197)
WARNING: samqeq: near-critical config at step 1326 bounded with adaptive ridge=0.5 eV (max|q|=3.882) [1300 engaged solves so far] (src/SAMQEQ/fix_qeq_sam_lr.cpp:2197)
samqeq SOLVER-DIAG step 1400: CG 33 iters (=33 matvecs), resid/b=9.02e-06, ridge=0 (engaged 1373 solves)
samqeq SOLVER-DIAG step 1400: CG 20 iters (=20 matvecs), resid/b=7.44e-06, ridge=0.5 (engaged 1373 solves)
      1400   767.15188     -437.97349      3.7858054    
WARNING: samqeq: near-critical config at step 1426 bounded with adaptive ridge=0.5 eV (max|q|=3.319) [1400 engaged solves so far] (src/SAMQEQ/fix_qeq_sam_lr.cpp:2197)
WARNING: samqeq: near-critical config at step 1526 bounded with adaptive ridge=0.5 eV (max|q|=3.502) [1500 engaged solves so far] (src/SAMQEQ/fix_qeq_sam_lr.cpp:2197)
samqeq SOLVER-DIAG step 1600: CG 39 iters (=39 matvecs), resid/b=9.34e-06, ridge=0 (engaged 1573 solves)
samqeq SOLVER-DIAG step 1600: CG 21 iters (=21 matvecs), resid/b=6.86e-06, ridge=0.5 (engaged 1573 solves)
samqeq SOLVER-DIAG step 1600: CG 12 iters (=12 matvecs), resid/b=9.45e-06, ridge=2 (engaged 1573 solves)
      1600   956.44833     -394.61715      0.8917402    
WARNING: samqeq: near-critical config at step 1626 bounded with adaptive ridge=0.5 eV (max|q|=3.915) [1600 engaged solves so far] (src/SAMQEQ/fix_qeq_sam_lr.cpp:2197)
WARNING: samqeq: near-critical config at step 1726 bounded with adaptive ridge=0.5 eV (max|q|=3.717) [1700 engaged solves so far] (src/SAMQEQ/fix_qeq_sam_lr.cpp:2197)
samqeq SOLVER-DIAG step 1800: CG 36 iters (=36 matvecs), resid/b=6.17e-06, ridge=0 (engaged 1773 solves)
samqeq SOLVER-DIAG step 1800: CG 20 iters (=20 matvecs), resid/b=9.42e-06, ridge=0.5 (engaged 1773 solves)
      1800   750.24749     -441.30477      3.8306251    
WARNING: samqeq: near-critical config at step 1826 bounded with adaptive ridge=2 eV (max|q|=0.929) [1800 engaged solves so far] (src/SAMQEQ/fix_qeq_sam_lr.cpp:2197)
WARNING: samqeq: near-critical config at step 1926 bounded with adaptive ridge=0.5 eV (max|q|=3.829) [1900 engaged solves so far] (src/SAMQEQ/fix_qeq_sam_lr.cpp:2197)
samqeq SOLVER-DIAG step 2000: CG 32 iters (=32 matvecs), resid/b=6.26e-06, ridge=0 (engaged 1973 solves)
samqeq SOLVER-DIAG step 2000: CG 19 iters (=19 matvecs), resid/b=8.57e-06, ridge=0.5 (engaged 1973 solves)
      2000   831.12805     -445.51567      3.7424573    
WARNING: samqeq: near-critical config at step 2026 bounded with adaptive ridge=2 eV (max|q|=0.920) [2000 engaged solves so far] (src/SAMQEQ/fix_qeq_sam_lr.cpp:2197)
WARNING: samqeq: near-critical config at step 2126 bounded with adaptive ridge=0.5 eV (max|q|=3.832) [2100 engaged solves so far] (src/SAMQEQ/fix_qeq_sam_lr.cpp:2197)
samqeq SOLVER-DIAG step 2200: CG 35 iters (=35 matvecs), resid/b=9.98e-06, ridge=0 (engaged 2173 solves)
samqeq SOLVER-DIAG step 2200: CG 21 iters (=21 matvecs), resid/b=7.76e-06, ridge=0.5 (engaged 2173 solves)
      2200   816.63431     -425.87027      3.8914896    
WARNING: samqeq: near-critical config at step 2226 bounded with adaptive ridge=0.5 eV (max|q|=3.604) [2200 engaged solves so far] (src/SAMQEQ/fix_qeq_sam_lr.cpp:2197)
WARNING: samqeq: near-critical config at step 2326 bounded with adaptive ridge=0.5 eV (max|q|=3.785) [2300 engaged solves so far] (src/SAMQEQ/fix_qeq_sam_lr.cpp:2197)
samqeq SOLVER-DIAG step 2400: CG 30 iters (=30 matvecs), resid/b=8.48e-06, ridge=0 (engaged 2373 solves)
samqeq SOLVER-DIAG step 2400: CG 18 iters (=18 matvecs), resid/b=9.69e-06, ridge=0.5 (engaged 2373 solves)
      2400   955.59406     -454.79035      2.8010374    
WARNING: samqeq: near-critical config at step 2426 bounded with adaptive ridge=0.5 eV (max|q|=3.973) [2400 engaged solves so far] (src/SAMQEQ/fix_qeq_sam_lr.cpp:2197)
WARNING: samqeq: near-critical config at step 2526 bounded with adaptive ridge=0.5 eV (max|q|=3.030) [2500 engaged solves so far] (src/SAMQEQ/fix_qeq_sam_lr.cpp:2197)
samqeq SOLVER-DIAG step 2600: CG 38 iters (=38 matvecs), resid/b=7.63e-06, ridge=0 (engaged 2573 solves)
samqeq SOLVER-DIAG step 2600: CG 21 iters (=21 matvecs), resid/b=5.49e-06, ridge=0.5 (engaged 2573 solves)
      2600   831.66525     -446.91213      3.7266844    
WARNING: samqeq: near-critical config at step 2626 bounded with adaptive ridge=2 eV (max|q|=0.880) [2600 engaged solves so far] (src/SAMQEQ/fix_qeq_sam_lr.cpp:2197)
WARNING: samqeq: near-critical config at step 2726 bounded with adaptive ridge=0.5 eV (max|q|=2.969) [2700 engaged solves so far] (src/SAMQEQ/fix_qeq_sam_lr.cpp:2197)
samqeq SOLVER-DIAG step 2800: CG 30 iters (=30 matvecs), resid/b=6.73e-06, ridge=0 (engaged 2773 solves)
samqeq SOLVER-DIAG step 2800: CG 19 iters (=19 matvecs), resid/b=6.96e-06, ridge=0.5 (engaged 2773 solves)
      2800   988.26901     -455.33928      3.7335985    
WARNING: samqeq: near-critical config at step 2826 bounded with adaptive ridge=2 eV (max|q|=0.922) [2800 engaged solves so far] (src/SAMQEQ/fix_qeq_sam_lr.cpp:2197)
WARNING: samqeq: near-critical config at step 2926 bounded with adaptive ridge=2 eV (max|q|=0.877) [2900 engaged solves so far] (src/SAMQEQ/fix_qeq_sam_lr.cpp:2197)
samqeq SOLVER-DIAG step 3000: CG 30 iters (=30 matvecs), resid/b=5.80e-06, ridge=0 (engaged 2973 solves)
samqeq SOLVER-DIAG step 3000: CG 19 iters (=19 matvecs), resid/b=6.19e-06, ridge=0.5 (engaged 2973 solves)
      3000   814.01793     -452.64102      3.7291848    
Loop time of 695.229 on 3 procs for 3000 steps with 1536 atoms

Performance: 0.373 ns/day, 64.373 hours/ns, 4.315 timesteps/s, 6.628 katom-step/s
89.1% CPU use with 3 MPI tasks x 1 OpenMP threads

MPI task timing breakdown:
Section |  min time  |  avg time  |  max time  |%varavg| %total
---------------------------------------------------------------
Pair    | 50.106     | 50.509     | 51.254     |   7.4 |  7.27
Bond    | 0.0022803  | 0.0023585  | 0.0024835  |   0.2 |  0.00
Kspace  | 18.111     | 18.874     | 19.299     |  12.4 |  2.71
Neigh   | 4.6285     | 4.7299     | 4.8033     |   3.4 |  0.68
Comm    | 1.5828     | 1.6493     | 1.7068     |   4.0 |  0.24
Output  | 0.0011736  | 0.0012232  | 0.0012558  |   0.1 |  0.00
Modify  | 619.04     | 619.12     | 619.24     |   0.4 | 89.05
Other   |            | 0.3433     |            |       |  0.05

Nlocal:            512 ave         517 max         509 min
Histogram: 1 1 0 0 0 0 0 0 0 1
Nghost:        9745.33 ave        9824 max        9655 min
Histogram: 1 0 0 0 0 0 1 0 0 1
Neighs:         296018 ave      301758 max      290250 min
Histogram: 1 0 0 0 0 1 0 0 0 1
FullNghs:       592037 ave      600768 max      586047 min
Histogram: 1 0 1 0 0 0 0 0 0 1

Total # of neighbors = 1776110
Ave neighs/atom = 1156.3216
Ave special neighs/atom = 0
Neighbor list builds = 267
Dangerous builds = 0
Total wall time: 0:11:35
