TD.TimeStep             0.04
TD.NumberOfTimeSteps    1500
TD_mxPC                 2
TD.Gauge                velocity
TD.ShapeOfEfield        Esin2sin 

TD.ExternalFrequency    30.0000 eV
TD.ExternalPacket       T
TD.ExternalPacketCenter  0.52656 eV   # (1/(x/13.6058) will give the time in 1/Ry units)
TD.ExternalPacketSigma   1.05312 eV # Centered at 1.25 fs with 0.625*4 legnth = 2.5 fs


SystemName LLTO
SystemLabel LLTO

NumberOfAtoms   78
NumberOfSpecies 5

%block ChemicalSpeciesLabel
1  3   Li1s
2  57  La
3  8   O
4  22  Tisc
5  3   Li
%endblock ChemicalSpeciesLabel

PAO.BasisSize  DZP
PAO.EnergyShift  10 meV

%block PS.Lmax
#Ti  3
Li1s 2
La   3
%endblock PS.Lmax

#PAO.BasisType    split
%block PAO.Basis
Li1s    5
 n=1   0   2  P   0
   0.000      1.700
   1.000      1.000
 n=2   0   2  P   0                       # n, l, Nzeta
   5.965      3.998
   1.000      1.000
 n=3   0   2  P   0                       # n, l, Nzeta
   7.106      6.106
   1.000      1.000
 n=2   1   2  P   0                       # n, l, Nzeta
   6.930      4.310
   1.000      1.000
 n=3   2   2  P   0                       # n, l, Nzeta
   7.106      5.134
   1.000      1.000
Tisc    5      1.91
 n=3    0    1   E     93.95      5.20
   5.69946662616249
   1.00000000000000
 n=3    1    1   E     95.47      5.20
   5.69941339465994
   1.00000000000000
 n=4    0    2   E     96.47      5.60
   6.09996398975307        5.09944363262274
   1.00000000000000        1.00000000000000
 n=3    2    2   E     46.05      4.95
   5.94327035784617        4.70009988294302
   1.00000000000000        1.00000000000000
 n=4    1    1   E      0.50      1.77
   3.05365979938936
   1.00000000000000
La          4                    # Species label, number of l-shells
 n=5   0   2 P   1                   # n, l, Nzeta, Polarization, NzetaPol
   3.025      2.028
   1.000      1.000
 n=6   0   2 P   1                   # n, l, Nzeta, Polarization, NzetaPol
  11.381      1.113
   1.000      1.000
 n=5   1   2 P   1                   # n, l, Nzeta, Polarization, NzetaPol
   2.028      1.007
   1.000      1.000
 n=5   2   2 P   1                   # n, l, Nzeta, Polarization, NzetaPol
   3.025      1.702
   1.000      1.000
#Nb    5      
# n=4    0    1   
#   0.0
#   1.00000000000000
# n=4    1    1   
#   0.0
#   1.00000000000000
# n=5    0    2  
#   8.09996398975307        7.09944363262274
#   1.00000000000000        1.00000000000000
# n=4    2    2   
#   7.94327035784617        6.70009988294302
#   1.00000000000000        1.00000000000000
# n=5    1    1   
#   4.05365979938936
#   1.00000000000000
%endblock PAO.Basis

LatticeConstant 1.000000 Ang
%block LatticeVectors
7.8280000000 0.0000000000 0.0000000000
0.0000000000 7.7540000000 0.0000000000
0.0000000000 0.0000000000 25.56799984
%endblock LatticeVectors

AtomicCoordinatesFormat Ang
%block AtomicCoordinatesAndAtomicSpecies
 0.000000  2.410872  0.793968 1
 0.000000  1.957380  0.000000 2
 0.000000  5.794620  0.000000 2
 3.865650  1.918620  0.000000 2
 3.865650  5.833380  0.000000 2
 0.000000  1.976760  3.892000 2
 0.000000  1.957380  7.784000 2
 0.000000  5.794620  7.784000 2
 3.865650  1.918620  7.784000 2
 3.865650  5.833380  7.784000 2
 2.102914  0.000000  0.000000 3
 2.102914  0.000000  7.784000 3
 5.628386  0.000000  0.000000 3
 5.628386  0.000000  7.784000 3
 5.968564  3.876000  0.000000 3
 5.968564  3.876000  7.784000 3
 1.762736  3.876000  0.000000 3
 1.762736  3.876000  7.784000 3
 0.000000  0.000000  1.667333 3
 0.000000  0.000000  9.451333 3
 0.000000  0.000000  6.116667 3
 0.000000  0.000000 13.900667 3
 3.865650  3.876000  1.667333 3
 3.865650  3.876000  9.451333 3
 3.865650  3.876000  6.116667 3
 3.865650  3.876000 13.900667 3
 0.000000  3.876000  2.019948 3
 0.000000  3.876000  9.803948 3
 0.000000  3.876000  5.764052 3
 0.000000  3.876000 13.548052 3
 3.865650  0.000000  2.019948 3
 3.865650  0.000000  9.803948 3
 3.865650  0.000000  5.764052 3
 3.865650  0.000000 13.548052 3
 1.932825  1.938000  1.825348 3
 1.932825  1.938000  9.609348 3
 5.798475  5.814000  5.958652 3
 5.798475  5.814000 13.742652 3
 5.798475  5.814000  1.825348 3
 5.798475  5.814000  9.609348 3
 1.932825  1.938000  5.958652 3
 1.932825  1.938000 13.742652 3
 5.798475  1.938000  5.958652 3
 5.798475  1.938000 13.742652 3
 1.932825  5.814000  1.825348 3
 1.932825  5.814000  9.609348 3
 1.932825  5.814000  5.958652 3
 1.932825  5.814000 13.742652 3
 5.798475  1.938000  1.825348 3
 5.798475  1.938000  9.609348 3
 1.792889  0.000000  3.892000 3
 1.792889  0.000000 11.676000 3
 5.938412  0.000000  3.892000 3
 5.938412  0.000000 11.676000 3
 5.658538  3.876000  3.892000 3
 5.658538  3.876000 11.676000 3
 2.072762  3.876000  3.892000 3
 2.072762  3.876000 11.676000 3
 1.920455  0.000000  2.023062 4
 1.920455  0.000000  9.807061 4
 5.810845  0.000000  5.760939 4
 5.810845  0.000000 13.544938 4
 5.810845  0.000000  2.023062 4
 5.810845  0.000000  9.807061 4
 1.920455  0.000000  5.760939 4
 1.920455  0.000000 13.544938 4
 5.786105  3.876000  2.023062 4
 5.786105  3.876000  9.807061 4
 1.945195  3.876000  5.760939 4
 1.945195  3.876000 13.544938 4
 1.945195  3.876000  2.023062 4
 1.945195  3.876000  9.807061 4
 5.786105  3.876000  5.760939 4
 5.786105  3.876000 13.544938 4
 0.000000  5.341128  6.990032 5
 0.000000  5.341128  8.577968 5
 0.000000  6.286872 10.811975 5
 0.000000  6.286872 12.540025 5
%endblock AtomicCoordinatesAndAtomicSpecies

Kgrid_NoTRS  T
%block kgrid_MonkhorstPack
8	0	0	0.0
0	8	0	0.0	
0	0	1 	0.0
%endblock kgrid_MonkhorstPack

DM.MixingWeight 0.01
MaxSCFIterations 500

BlockSize 1
#ProcessorY 12
Diag.ParallelOverK   T
Diag.DivideAndConquer F

MeshCutoff   200 Ry

DM.Tolerance  1E-5
DM.Require.Energy.Convergence T
DM.NumberPulay 4

UseSaveData        F

MD.TypeOfRun       CG
MD.VariableCell    F
MD.NumCGsteps      00
MD.MaxCGDispl      0.200000 Bohr
MD.MaxStressTol    1.000000 GPa
MD.MaxForceTol     0.010000 eV/Ang

WriteCoorStep    T
WriteEigenValues T

WriteDM    T
DM.UseSaveDM T #Run SCF first to save time
TD.WriteDM F


%block ExternalElectricField
0.0000 0.0000 0.053384 Har/Bohr/e
%endblock ExternalElectricField
