TIP4P-FQ (Rick/Stuart/Berne JCP 101 6141) 256-mol liquid, samQEq kernel-refit port

1024 atoms
512 bonds
256 angles

3 atom types
2 bond types
1 angle types

0.0 19.71282464 xlo xhi
0.0 19.71282464 ylo yhi
0.0 19.71282464 zlo zhi

Masses

1 15.9994
2 1.008
3 1.0e-6

Atoms # full

1 1 1 0.000000 13.125328 9.430146 17.826731
2 1 2 0.543968 12.450895 8.868509 18.208747
3 1 2 0.577837 13.748149 9.575644 18.538881
4 1 3 -1.121805 13.118721 9.376875 17.966797
5 2 1 0.000000 0.211954 1.707984 9.290943
6 2 2 0.710149 1.013772 1.567007 8.787509
7 2 2 0.523736 -0.307116 0.917692 9.141823
8 2 3 -1.233885 0.248149 1.588771 9.207408
9 3 1 0.000000 0.849383 5.705153 6.930450
10 3 2 0.565896 1.032481 6.592297 7.239779
11 3 2 0.598332 1.581630 5.181598 7.255929
12 3 3 -1.164228 0.966558 5.751697 7.011713
13 4 1 0.000000 13.086362 14.702480 9.151172
14 4 2 0.652660 13.849545 14.833730 9.713806
15 4 2 0.763341 12.891620 13.768211 9.224989
16 4 3 -1.416001 13.159129 14.599684 9.232645
17 5 1 0.000000 7.466199 7.116335 14.834261
18 5 2 0.557662 7.067929 7.017401 13.969492
19 5 2 0.576885 7.790325 8.016889 14.847593
20 5 3 -1.134547 7.456708 7.218952 14.725266
21 6 1 0.000000 1.728078 1.952923 12.816936
22 6 2 0.650396 1.903455 1.421911 13.593790
23 6 2 0.707635 2.582135 2.308860 12.571729
24 6 3 -1.358032 1.859858 1.930511 12.884994
25 7 1 0.000000 13.328136 15.905424 6.610934
26 7 2 0.608709 13.855499 16.613355 6.981008
27 7 2 0.620383 12.972394 15.447749 7.372651
28 7 3 -1.229092 13.350106 15.937460 6.755817
29 8 1 0.000000 4.130079 3.034551 12.193092
30 8 2 0.692173 4.131041 3.879030 11.742441
31 8 2 0.755197 4.244776 2.389835 11.494938
32 8 3 -1.447371 4.144885 3.060123 12.046031
33 9 1 0.000000 10.750974 11.254231 0.083553
34 9 2 0.671038 11.115147 10.505599 0.555953
35 9 2 0.631742 11.277066 11.999659 0.373027
36 9 3 -1.302780 10.864939 11.253821 0.181082
37 10 1 0.000000 15.406287 0.354176 0.340522
38 10 2 0.743291 15.022880 0.248384 1.211177
39 10 2 0.633037 16.029543 1.074011 0.438606
40 10 3 -1.376328 15.436990 0.432781 0.464532
41 11 1 0.000000 2.774872 2.139630 5.200203
42 11 2 0.520317 1.875630 2.202411 5.522158
43 11 2 0.580099 3.061426 1.263446 5.457925
44 11 3 -1.100416 2.696440 2.035504 5.274408
45 12 1 0.000000 6.693669 8.819581 8.088622
46 12 2 0.704004 6.662061 9.562837 7.486289
47 12 2 0.603364 7.492097 8.349573 7.848127
48 12 3 -1.307368 6.791831 8.854560 7.980730
49 13 1 0.000000 19.232080 14.306922 5.050963
50 13 2 0.683694 20.147008 14.462038 5.285651
51 13 2 0.617234 18.753517 14.402935 5.874366
52 13 3 -1.300928 19.287940 14.339069 5.186411
53 14 1 0.000000 2.293039 11.784937 12.805677
54 14 2 0.679460 2.283284 11.854979 13.760261
55 14 2 0.503053 1.904468 12.604908 12.500896
56 14 3 -1.182513 2.242048 11.898870 12.888859
57 15 1 0.000000 16.408403 19.457418 6.658907
58 15 2 0.718353 16.459522 20.397280 6.484900
59 15 2 0.671994 16.016836 19.087786 5.867529
60 15 3 -1.390347 16.364822 19.530414 6.535326
61 16 1 0.000000 13.372792 5.396281 14.680918
62 16 2 0.686529 13.241899 5.001340 13.818874
63 16 2 0.671398 13.772872 4.702126 15.204671
64 16 3 -1.357927 13.407252 5.256864 14.637613
65 17 1 0.000000 15.298789 14.088842 6.154659
66 17 2 0.711543 14.609409 14.745761 6.251843
67 17 2 0.735756 16.085988 14.515123 6.493532
68 17 3 -1.447299 15.311311 14.227505 6.210480
69 18 1 0.000000 7.431604 1.552903 2.332900
70 18 2 0.683821 7.796802 2.149556 2.986252
71 18 2 0.620593 6.493444 1.535026 2.522026
72 18 3 -1.304414 7.358258 1.626994 2.440747
73 19 1 0.000000 12.560813 14.660867 18.083539
74 19 2 0.651882 11.885437 14.606836 17.407388
75 19 2 0.536536 12.579964 15.585525 18.330262
76 19 3 -1.188418 12.476809 14.772317 18.028567
77 20 1 0.000000 7.654952 9.211833 10.759996
78 20 2 0.660225 8.274864 9.815409 11.169431
79 20 2 0.657961 7.813348 9.305743 9.820676
80 20 3 -1.318186 7.754585 9.301119 10.692164
81 21 1 0.000000 6.034805 13.529623 3.464392
82 21 2 0.772920 6.314789 12.614321 3.472367
83 21 2 0.610264 6.765671 14.007576 3.856344
84 21 3 -1.383183 6.164206 13.473637 3.515587
85 22 1 0.000000 16.161088 12.272671 11.007269
86 22 2 0.754588 15.738690 13.128774 11.077272
87 22 2 0.632974 15.847508 11.917639 10.175492
88 22 3 -1.387563 16.066874 12.336814 10.909753
89 23 1 0.000000 16.470367 17.286220 11.754298
90 23 2 0.737818 16.158495 18.157240 11.508750
91 23 2 0.506172 17.414193 17.316285 11.597705
92 23 3 -1.243990 16.551264 17.401570 11.702819
93 24 1 0.000000 10.492983 1.303519 14.829600
94 24 2 0.615057 10.119860 0.867596 15.595749
95 24 2 0.641130 9.961162 0.995751 14.095653
96 24 3 -1.256188 10.377140 1.208317 14.833722
97 25 1 0.000000 18.119806 19.101897 9.113671
98 25 2 0.577953 18.015764 19.284160 10.047581
99 25 2 0.529367 17.237019 19.185087 8.753118
100 25 3 -1.107320 17.993480 19.135878 9.187068
101 26 1 0.000000 10.162581 5.479864 10.351560
102 26 2 0.590454 9.460829 5.869924 10.872741
103 26 2 0.600300 10.784445 5.145887 10.998071
104 26 3 -1.190753 10.152354 5.487043 10.501039
105 27 1 0.000000 18.486957 6.667652 1.296234
106 27 2 0.707265 19.392036 6.589982 1.597947
107 27 2 0.501647 18.522409 7.319697 0.596369
108 27 3 -1.208912 18.607356 6.741179 1.245266
109 28 1 0.000000 3.214648 4.260276 7.887973
110 28 2 0.500821 3.371914 4.893792 8.588084
111 28 2 0.639940 3.822208 4.514476 7.193362
112 28 3 -1.140761 3.312555 4.373914 7.888677
113 29 1 0.000000 7.871190 18.639322 1.694017
114 29 2 0.516219 8.262763 18.362914 2.522572
115 29 2 0.709203 7.785471 19.589299 1.774195
116 29 3 -1.225423 7.910343 18.725547 1.810346
117 30 1 0.000000 18.837386 13.701719 12.989672
118 30 2 0.706832 18.921373 13.426428 12.076769
119 30 2 0.483170 19.364327 14.498580 13.049485
120 30 3 -1.190002 18.915593 13.768487 12.880466
121 31 1 0.000000 17.169644 2.676355 -0.066956
122 31 2 0.654798 18.064991 2.469848 0.201262
123 31 2 0.605808 16.772282 3.072892 0.708346
124 31 3 -1.260605 17.233392 2.700681 0.066627
125 32 1 0.000000 2.852304 10.718943 18.985538
126 32 2 0.642454 3.018170 11.499967 18.457598
127 32 2 0.573107 1.936671 10.799783 19.252582
128 32 3 -1.215561 2.756325 10.829272 18.952140
129 33 1 0.000000 6.981721 0.269403 17.794300
130 33 2 0.626737 6.584904 0.500717 18.634099
131 33 2 0.663060 6.313221 0.487431 17.144835
132 33 3 -1.289797 6.845347 0.326924 17.818665
133 34 1 0.000000 8.660853 7.033369 7.444320
134 34 2 0.625073 8.595355 6.078718 7.468462
135 34 2 0.645123 9.586792 7.214549 7.605698
136 34 3 -1.270196 8.771000 6.934356 7.468069
137 35 1 0.000000 15.060709 7.576094 14.612700
138 35 2 0.567337 15.223173 7.781488 13.692020
139 35 2 0.730947 14.401400 6.882496 14.591130
140 35 3 -1.298284 14.997107 7.513598 14.492081
141 36 1 0.000000 5.786754 16.926928 4.491058
142 36 2 0.574601 5.283230 16.475804 5.168689
143 36 2 0.549463 5.176778 17.017244 3.758935
144 36 3 -1.124063 5.644213 16.880740 4.484082
145 37 1 0.000000 13.227243 18.788454 13.076383
146 37 2 0.656910 12.364189 18.376764 13.119748
147 37 2 0.487226 13.700264 18.434120 13.829331
148 37 3 -1.144137 13.177314 18.690394 13.178321
149 38 1 0.000000 15.361352 15.599612 3.681721
150 38 2 0.575599 15.278316 15.079356 2.882552
151 38 2 0.659380 15.450556 14.952362 4.381251
152 38 3 -1.234980 15.362141 15.450157 3.668966
153 39 1 0.000000 8.148231 9.267226 19.251705
154 39 2 0.607010 8.130552 9.633712 20.135790
155 39 2 0.518591 7.266372 8.919725 19.118287
156 39 3 -1.125601 8.033079 9.269656 19.347799
157 40 1 0.000000 1.349383 4.556031 4.201288
158 40 2 0.594189 2.253034 4.295375 4.023229
159 40 2 0.582915 1.361248 4.858027 5.109523
160 40 3 -1.177104 1.466580 4.561323 4.294759
161 41 1 0.000000 11.121485 8.523365 15.198408
162 41 2 0.466296 11.988889 8.830743 15.461775
163 41 2 0.637896 11.137378 7.582220 15.372262
164 41 3 -1.104192 11.234558 8.442235 15.254378
165 42 1 0.000000 4.723286 9.793310 1.150395
166 42 2 0.746617 3.998898 10.123865 0.619144
167 42 2 0.594135 5.193518 9.195258 0.569493
168 42 3 -1.340752 4.690751 9.759067 1.008026
169 43 1 0.000000 1.914867 13.238451 10.055062
170 43 2 0.512852 1.833672 12.464389 9.497866
171 43 2 0.565741 1.066281 13.675546 9.983773
172 43 3 -1.078592 1.795844 13.195315 9.974609
173 44 1 0.000000 19.378011 14.510848 17.817312
174 44 2 0.671664 18.497690 14.605621 17.453600
175 44 2 0.748799 19.272347 14.690698 18.751508
176 44 3 -1.420463 19.251793 14.546003 17.890341
177 45 1 0.000000 13.815094 6.933517 11.453139
178 45 2 0.711614 14.519255 6.385280 11.799299
179 45 2 0.557306 13.150289 6.311722 11.157104
180 45 3 -1.268920 13.820132 6.783738 11.459556
181 46 1 0.000000 13.839393 4.817610 19.056525
182 46 2 0.616137 14.762226 5.029640 18.916329
183 46 2 0.514287 13.661509 4.103616 18.444314
184 46 3 -1.130424 13.934755 4.753353 18.960208
185 47 1 0.000000 10.628274 13.215341 14.163122
186 47 2 0.584296 11.135355 12.423166 14.340773
187 47 2 0.591373 10.792999 13.780097 14.918204
188 47 3 -1.175669 10.714273 13.186229 14.282523
189 48 1 0.000000 3.629785 8.714622 7.473619
190 48 2 0.643056 4.199717 8.106100 7.943843
191 48 2 0.626383 3.814991 8.550999 6.548872
192 48 3 -1.269438 3.726452 8.615778 7.415435
193 49 1 0.000000 15.193340 8.745811 6.929967
194 49 2 0.619882 15.441040 8.064984 7.555548
195 49 2 0.604495 15.783280 9.474636 7.122365
196 49 3 -1.224377 15.300568 8.751955 7.034678
197 50 1 0.000000 4.317148 14.065870 5.784652
198 50 2 0.663181 4.789886 13.850994 4.980550
199 50 2 0.599761 4.047665 13.218244 6.138406
200 50 3 -1.262943 4.343167 13.929857 5.727002
201 51 1 0.000000 4.785704 1.115991 19.601170
202 51 2 0.770154 4.465552 1.968292 19.305673
203 51 2 0.578611 4.021419 0.541916 19.550809
204 51 3 -1.348765 4.646883 1.151608 19.556896
205 52 1 0.000000 6.701886 10.488900 5.967001
206 52 2 0.649478 6.460101 10.318783 5.056599
207 52 2 0.631855 7.312965 11.224137 5.919646
208 52 3 -1.281333 6.749160 10.561242 5.844397
209 53 1 0.000000 19.726046 11.967921 16.557958
210 53 2 0.582498 19.542555 12.783490 17.024231
211 53 2 0.625693 18.862611 11.610383 16.350888
212 53 3 -1.208191 19.592027 12.026555 16.591139
213 54 1 0.000000 12.649838 9.362264 11.581088
214 54 2 0.540023 12.547049 9.551753 10.648478
215 54 2 0.664483 13.009516 8.475607 11.607607
216 54 3 -1.204507 12.682723 9.273018 11.465098
217 55 1 0.000000 1.915601 18.554784 17.287639
218 55 2 0.591139 2.366994 18.547412 18.131690
219 55 2 0.711456 1.787930 17.630118 17.075682
220 55 3 -1.302595 1.957041 18.435472 17.368554
221 56 1 0.000000 4.183978 8.359527 4.659553
222 56 2 0.619354 5.052291 7.961430 4.721070
223 56 2 0.574560 3.815279 8.007196 3.849518
224 56 3 -1.193914 4.247934 8.263463 4.563733
225 57 1 0.000000 2.562071 1.317797 8.256010
226 57 2 0.593585 2.864734 2.032511 7.695821
227 57 2 0.666586 3.103426 1.383712 9.042662
228 57 3 -1.260170 2.670116 1.417727 8.285000
229 58 1 0.000000 18.202952 0.270609 11.860428
230 58 2 0.551692 19.128984 0.068417 11.726954
231 58 2 0.606716 18.122957 0.418280 12.802779
232 58 3 -1.158408 18.311255 0.263630 11.963974
233 59 1 0.000000 19.757404 10.943442 0.202004
234 59 2 0.604255 19.146325 11.229463 0.880980
235 59 2 0.469815 19.441243 11.363575 -0.597848
236 59 3 -1.074070 19.638706 11.033838 0.186530
237 60 1 0.000000 8.946241 2.857035 0.259740
238 60 2 0.623266 8.457168 2.390585 0.937578
239 60 2 0.741311 9.858354 2.606625 0.406636
240 60 3 -1.364577 9.000395 2.765268 0.365316
241 61 1 0.000000 18.778423 15.447462 9.528440
242 61 2 0.578899 18.529199 14.576960 9.838837
243 61 2 0.638843 18.886871 15.964842 10.326431
244 61 3 -1.217742 18.760402 15.402258 9.670327
245 62 1 0.000000 14.767901 10.027713 15.622757
246 62 2 0.672219 14.246395 9.961282 16.422664
247 62 2 0.747179 14.772325 9.139998 15.264741
248 62 3 -1.419398 14.701708 9.905571 15.679325
249 63 1 0.000000 16.835929 15.604139 17.084864
250 63 2 0.581298 16.844096 15.848093 16.159310
251 63 2 0.635931 16.474165 16.369506 17.531598
252 63 3 -1.217228 16.790664 15.733344 17.023569
253 64 1 0.000000 7.129147 6.637952 11.952160
254 64 2 0.602364 7.206830 7.535533 11.628823
255 64 2 0.524962 6.684313 6.166743 11.247663
256 64 3 -1.127326 7.082147 6.692533 11.820585
257 65 1 0.000000 15.097329 11.545175 4.892050
258 65 2 0.631474 15.288486 12.429442 5.204718
259 65 2 0.657468 15.911831 11.254349 4.481881
260 65 3 -1.288942 15.226065 11.621142 4.879568
261 66 1 0.000000 6.301708 2.231700 6.380674
262 66 2 0.627120 5.832337 3.001064 6.058180
263 66 2 0.653712 6.332700 1.637677 5.630734
264 66 3 -1.280832 6.245590 2.254146 6.243390
265 67 1 0.000000 1.387935 16.008386 16.603872
266 67 2 0.615735 0.872577 16.399017 15.898150
267 67 2 0.805741 0.787731 15.395361 17.028356
268 67 3 -1.421476 1.245129 15.979917 16.567870
269 68 1 0.000000 10.920970 4.499397 4.971353
270 68 2 0.593284 10.733345 5.437840 4.990154
271 68 2 0.743849 11.439922 4.374287 4.176829
272 68 3 -1.337133 10.963384 4.603513 4.872051
273 69 1 0.000000 2.525824 9.949334 10.727083
274 69 2 0.666898 2.514482 10.632519 11.397428
275 69 2 0.592563 3.455181 9.792564 10.559898
276 69 3 -1.259461 2.643341 10.016721 10.791494
277 70 1 0.000000 4.879417 3.020425 14.845998
278 70 2 0.740007 4.512219 2.958587 13.964196
279 70 2 0.651574 5.735701 3.429625 14.721237
280 70 3 -1.391581 4.942026 3.064891 14.717146
281 71 1 0.000000 11.981813 17.263253 19.503603
282 71 2 0.629506 11.072518 16.970849 19.441039
283 71 2 0.648148 12.234031 17.071283 20.406801
284 71 3 -1.277655 11.897699 17.201248 19.611214
285 72 1 0.000000 -0.001319 2.334178 1.570381
286 72 2 0.666597 0.532639 3.108715 1.393705
287 72 2 0.597571 -0.459906 2.539577 2.385085
288 72 3 -1.264168 0.008329 2.459622 1.652056
289 73 1 0.000000 11.249786 7.429061 8.423271
290 73 2 0.592978 11.655191 6.829771 7.796589
291 73 2 0.635645 10.987772 6.870130 9.154830
292 73 3 -1.228622 11.268142 7.280795 8.436697
293 74 1 0.000000 4.704506 18.280401 11.077966
294 74 2 0.749967 5.626638 18.040255 10.987209
295 74 2 0.693691 4.319257 18.080038 10.224930
296 74 3 -1.443658 4.773234 18.224010 10.957149
297 75 1 0.000000 10.327133 2.908821 8.948125
298 75 2 0.746102 9.596377 2.712132 9.534250
299 75 2 0.646788 10.470859 3.849553 9.051081
300 75 3 -1.392890 10.251986 3.004068 9.036336
301 76 1 0.000000 8.830433 2.858158 4.588999
302 76 2 0.564591 9.217690 2.022056 4.848223
303 76 2 0.668985 9.566485 3.469962 4.576558
304 76 3 -1.233576 8.974230 2.829445 4.620590
305 77 1 0.000000 7.396818 12.825259 8.912399
306 77 2 0.583827 6.443571 12.881462 8.978686
307 77 2 0.549902 7.673117 12.442280 9.744996
308 77 3 -1.133729 7.310161 12.783428 9.027467
309 78 1 0.000000 15.947395 18.398651 4.084997
310 78 2 0.654015 16.717656 18.460888 3.520146
311 78 2 0.618212 15.551653 17.556827 3.859269
312 78 3 -1.272227 15.995338 18.298854 3.983793
313 79 1 0.000000 18.668478 10.684594 13.685159
314 79 2 0.568715 19.320190 10.052630 13.381638
315 79 2 0.546101 18.995695 11.531345 13.381556
316 79 3 -1.114817 18.793793 10.712090 13.607440
317 80 1 0.000000 11.386636 16.465980 10.272259
318 80 2 0.730967 12.149391 16.007508 9.919782
319 80 2 0.657846 11.221853 16.044438 11.115693
320 80 3 -1.388814 11.463183 16.353328 10.335107
321 81 1 0.000000 0.308243 16.840676 11.718076
322 81 2 0.659309 0.770063 17.651284 11.503901
323 81 2 0.577546 0.216243 16.861382 12.670620
324 81 3 -1.236854 0.355585 16.947094 11.812596
325 82 1 0.000000 11.224795 18.682203 6.993480
326 82 2 0.619060 11.223287 19.602107 6.728890
327 82 2 0.621866 12.039224 18.575164 7.484886
328 82 3 -1.240926 11.328858 18.786260 7.022515
329 83 1 0.000000 15.911137 5.428561 12.181092
330 83 2 0.591199 16.440546 6.201394 12.377788
331 83 2 0.669037 16.425430 4.693862 12.515686
332 83 3 -1.260236 16.044744 5.433443 12.249104
333 84 1 0.000000 16.758931 13.479622 15.007652
334 84 2 0.541549 16.593621 12.704869 15.544926
335 84 2 0.603226 17.535477 13.254967 14.495071
336 84 3 -1.144776 16.837177 13.351686 15.010813
337 85 1 0.000000 12.399972 12.202472 9.472694
338 85 2 0.677911 13.063496 11.588256 9.158517
339 85 2 0.553542 11.638542 12.038515 8.916300
340 85 3 -1.231453 12.387439 12.102857 9.361251
341 86 1 0.000000 11.504189 2.066592 0.866142
342 86 2 0.661164 12.198013 2.058442 0.206768
343 86 2 0.601681 11.471490 1.166884 1.191239
344 86 3 -1.262845 11.588821 1.950375 0.823351
345 87 1 0.000000 8.475177 18.061317 6.817418
346 87 2 0.573164 9.374818 18.029960 7.142834
347 87 2 0.652798 8.146068 17.170262 6.935496
348 87 3 -1.225962 8.548212 17.943237 6.874191
349 88 1 0.000000 5.416415 0.442354 15.507169
350 88 2 0.562745 4.535561 0.158589 15.751721
351 88 2 0.721570 5.300874 1.338656 15.191693
352 88 3 -1.284314 5.288864 0.520766 15.498090
353 89 1 0.000000 6.346572 11.651147 17.300039
354 89 2 0.618689 6.864313 10.892958 17.029248
355 89 2 0.665051 6.797459 11.985034 18.075573
356 89 3 -1.283739 6.470568 11.596831 17.364652
357 90 1 0.000000 6.027842 0.121735 4.601656
358 90 2 0.551744 5.478216 0.331622 3.846612
359 90 2 0.632574 5.791979 -0.778048 4.827469
360 90 3 -1.184317 5.927290 0.033420 4.533908
361 91 1 0.000000 15.202940 12.008417 8.390411
362 91 2 0.571489 16.024400 11.636254 8.069583
363 91 2 0.632378 15.019141 12.734151 7.793954
364 91 3 -1.203867 15.284568 12.053678 8.272987
365 92 1 0.000000 18.009185 15.767218 3.083891
366 92 2 0.639830 17.121874 15.900458 3.417297
367 92 2 0.749505 18.470040 15.326261 3.797616
368 92 3 -1.389335 17.954593 15.727826 3.217936
369 93 1 0.000000 16.379897 8.060603 2.818938
370 93 2 0.742753 15.722440 8.478169 2.262503
371 93 2 0.667634 16.984071 7.643391 2.204820
372 93 3 -1.410387 16.373076 8.060648 2.669093
373 94 1 0.000000 17.663112 5.017717 7.535254
374 94 2 0.607262 18.558637 5.349985 7.473098
375 94 2 0.564377 17.266500 5.527458 8.241720
376 94 3 -1.171639 17.726979 5.125504 7.617734
377 95 1 0.000000 17.231416 10.716451 16.140924
378 95 2 0.607170 17.664070 10.506651 15.313260
379 95 2 0.723494 16.339467 10.385266 16.036162
380 95 3 -1.330663 17.172621 10.647199 16.021562
381 96 1 0.000000 4.829406 12.940863 9.857700
382 96 2 0.772725 5.040591 12.137891 10.334008
383 96 2 0.657777 3.908015 13.104149 10.059215
384 96 3 -1.430502 4.738491 12.858975 9.944469
385 97 1 0.000000 15.038300 14.715036 11.145529
386 97 2 0.684539 14.670174 14.494727 12.001204
387 97 2 0.668961 15.678614 15.402339 11.329502
388 97 3 -1.353500 15.073143 14.774817 11.278617
389 98 1 0.000000 5.113444 6.804459 9.273656
390 98 2 0.636925 5.755857 7.325986 8.792462
391 98 2 0.574384 5.577385 5.997103 9.495394
392 98 3 -1.211310 5.255070 6.767870 9.240442
393 99 1 0.000000 14.908629 1.379583 14.098649
394 99 2 0.524506 15.018998 0.493102 14.442455
395 99 2 0.679037 14.198873 1.303040 13.460982
396 99 3 -1.203543 14.831900 1.256305 14.061032
397 100 1 0.000000 3.697317 5.736537 11.565263
398 100 2 0.674760 3.846169 6.004257 12.472126
399 100 2 0.587993 4.289695 6.286357 11.052408
400 100 3 -1.262753 3.792203 5.841192 11.615701
401 101 1 0.000000 0.615809 1.064283 18.394453
402 101 2 0.556189 0.542700 0.788374 19.308106
403 101 2 0.598346 0.965884 0.298204 17.939697
404 101 3 -1.154535 0.651264 0.930896 18.453198
405 102 1 0.000000 19.783410 17.309705 14.538815
406 102 2 0.650945 18.831003 17.257247 14.618824
407 102 2 0.558715 20.006368 18.172766 14.887596
408 102 3 -1.209660 19.690032 17.413472 14.593705
409 103 1 0.000000 5.757666 5.411188 0.752996
410 103 2 0.656098 6.711693 5.413814 0.675169
411 103 2 0.654204 5.461897 4.821890 0.059108
412 103 3 -1.310302 5.841931 5.336087 0.654207
413 104 1 0.000000 1.933686 15.474947 5.712323
414 104 2 0.612567 2.650421 14.867518 5.895498
415 104 2 0.695491 2.235955 15.982705 4.959297
416 104 3 -1.308057 2.064130 15.462188 5.639375
417 105 1 0.000000 9.636700 9.698341 5.713191
418 105 2 0.577741 8.680035 9.723516 5.693400
419 105 2 0.652102 9.907545 10.408372 5.131185
420 105 3 -1.229844 9.548906 9.792456 5.636154
421 106 1 0.000000 18.559608 18.481488 2.883505
422 106 2 0.605379 18.570363 17.536221 3.033800
423 106 2 0.780655 19.099796 18.842419 3.586469
424 106 3 -1.386034 18.630136 18.406686 2.992732
425 107 1 0.000000 10.116192 4.086666 14.336506
426 107 2 0.644661 10.277452 3.189962 14.630018
427 107 2 0.682832 9.173952 4.210745 14.450616
428 107 3 -1.327493 10.016217 3.987760 14.388686
429 108 1 0.000000 3.008726 18.677967 0.237599
430 108 2 0.675479 2.605599 18.951939 1.061406
431 108 2 0.683586 3.888506 18.392618 0.484167
432 108 3 -1.359065 3.069744 18.676510 0.374620
433 109 1 0.000000 5.496191 10.623003 11.015885
434 109 2 0.564128 5.518677 10.869368 11.940564
435 109 2 0.796653 6.253936 10.049370 10.901867
436 109 3 -1.360781 5.596070 10.581109 11.119659
437 110 1 0.000000 7.294562 14.870346 11.450053
438 110 2 0.499160 7.345517 14.317435 10.670358
439 110 2 0.701833 6.749453 14.374302 12.060814
440 110 3 -1.200992 7.231305 14.736067 11.428428
441 111 1 0.000000 14.599726 6.003612 2.875833
442 111 2 0.597187 15.336769 6.608789 2.958054
443 111 2 0.549955 13.877641 6.546451 2.559366
444 111 3 -1.147142 14.601641 6.150572 2.845847
445 112 1 0.000000 11.936564 8.943837 0.877708
446 112 2 0.554629 11.919813 7.986880 0.891253
447 112 2 0.643455 12.802336 9.173507 1.215232
448 112 3 -1.198084 12.045249 8.850736 0.922649
449 113 1 0.000000 6.252948 10.846203 13.829885
450 113 2 0.497790 5.366314 10.623492 14.113630
451 113 2 0.682400 6.816201 10.541918 14.541495
452 113 3 -1.180190 6.211551 10.778741 13.957302
453 114 1 0.000000 0.411834 11.557877 7.000523
454 114 2 0.577211 0.646138 10.641464 7.147223
455 114 2 0.533352 1.168051 11.929140 6.546065
456 114 3 -1.110564 0.538633 11.488091 6.961127
457 115 1 0.000000 16.806829 5.393859 18.658544
458 115 2 0.592195 17.125484 4.526870 18.909586
459 115 2 0.571569 17.166856 5.983086 19.321436
460 115 3 -1.163764 16.893708 5.358302 18.775539
461 116 1 0.000000 0.969662 6.636032 19.143860
462 116 2 0.673510 1.692338 6.933853 18.591344
463 116 2 0.500752 0.289913 7.299996 19.028423
464 116 3 -1.174262 0.975157 6.759152 19.058354
465 117 1 0.000000 18.288857 0.531085 14.883417
466 117 2 0.688292 17.890213 1.146358 15.498848
467 117 2 0.424009 18.200820 -0.322843 15.306843
468 117 3 -1.112300 18.226556 0.500534 15.016403
469 118 1 0.000000 19.652997 4.357981 10.555994
470 118 2 0.635654 19.888463 3.601330 10.019089
471 118 2 0.430675 18.724856 4.503072 10.372323
472 118 3 -1.066329 19.564326 4.279694 10.463752
473 119 1 0.000000 5.542121 17.556009 0.579911
474 119 2 0.673258 5.920516 17.393510 -0.284174
475 119 2 0.617149 6.279902 17.851810 1.113215
476 119 3 -1.290407 5.685005 17.573073 0.537567
477 120 1 0.000000 18.344020 12.223976 2.592937
478 120 2 0.619958 18.036649 11.450460 3.065619
479 120 2 0.551915 18.666045 12.811003 3.276992
480 120 3 -1.171873 18.345896 12.200103 2.741013
481 121 1 0.000000 4.036152 3.553475 18.951060
482 121 2 0.713146 3.194669 3.734305 19.369916
483 121 2 0.671603 3.891790 3.753588 18.026210
484 121 3 -1.384749 3.909952 3.602241 18.886287
485 122 1 0.000000 7.569088 15.364481 7.232756
486 122 2 0.640377 8.225382 15.139237 7.892131
487 122 2 0.610325 6.730501 15.249063 7.679614
488 122 3 -1.250702 7.545752 15.320872 7.374367
489 123 1 0.000000 13.027570 9.706430 8.467465
490 123 2 0.650920 12.452327 8.956026 8.318395
491 123 2 0.618350 13.843206 9.475633 8.022827
492 123 3 -1.269270 13.058343 9.580825 8.391464
493 124 1 0.000000 13.213762 11.730522 2.943136
494 124 2 0.620165 13.904673 11.771671 3.604333
495 124 2 0.687488 13.201834 12.604865 2.553762
496 124 3 -1.307652 13.300680 11.847716 2.977932
497 125 1 0.000000 16.237903 2.026932 10.247488
498 125 2 0.534913 16.957990 1.931318 9.624138
499 125 2 0.761045 16.657387 2.323719 11.055066
500 125 3 -1.295958 16.383782 2.052685 10.271071
501 126 1 0.000000 1.447402 7.344881 11.289052
502 126 2 0.611680 1.815135 8.196981 11.054679
503 126 2 0.695080 2.186697 6.739814 11.229316
504 126 3 -1.306760 1.589115 7.376504 11.251402
505 127 1 0.000000 17.980408 3.641150 3.474864
506 127 2 0.612782 17.084961 3.648661 3.136705
507 127 2 0.584313 18.096153 4.506678 3.866906
508 127 3 -1.197096 17.880596 3.752909 3.481761
509 128 1 0.000000 8.245122 15.581079 4.002446
510 128 2 0.629970 8.999307 15.994946 4.422149
511 128 2 0.602813 7.503806 16.139554 4.236516
512 128 3 -1.232783 8.246769 15.705550 4.086137
513 129 1 0.000000 1.379118 19.482219 11.326483
514 129 2 0.710989 1.615668 20.160804 11.958780
515 129 2 0.535470 1.062344 19.965295 10.563251
516 129 3 -1.246459 1.368849 19.630926 11.309722
517 130 1 0.000000 2.560227 16.852524 3.377650
518 130 2 0.482353 2.403687 17.790265 3.266430
519 130 2 0.772535 2.390627 16.476786 2.513770
520 130 3 -1.254888 2.518477 16.924467 3.252826
521 131 1 0.000000 12.366403 16.900940 2.509358
522 131 2 0.675720 11.871207 16.435439 3.183392
523 131 2 0.480744 13.228204 16.484394 2.514021
524 131 3 -1.156464 12.413333 16.788027 2.596239
525 132 1 0.000000 4.507525 1.148061 10.339703
526 132 2 0.653306 5.278619 1.262478 9.784225
527 132 2 0.760320 4.528039 0.224816 10.591553
528 132 3 -1.413626 4.608861 1.044521 10.300835
529 133 1 0.000000 6.342778 16.159105 15.553944
530 133 2 0.728749 5.666432 15.505522 15.376130
531 133 2 0.501001 5.945567 16.991388 15.297505
532 133 3 -1.229750 6.205350 16.181981 15.498354
533 134 1 0.000000 16.912676 2.623130 6.364530
534 134 2 0.755724 16.999127 3.506382 6.723172
535 134 2 0.545112 16.309217 2.721177 5.628013
536 134 3 -1.300835 16.846493 2.748748 6.316157
537 135 1 0.000000 3.838657 7.289121 2.043021
538 135 2 0.679231 4.134876 8.174128 1.830303
539 135 2 0.625019 4.454550 6.714217 1.588717
540 135 3 -1.304250 3.955418 7.328818 1.957634
541 136 1 0.000000 12.050661 13.525381 1.127700
542 136 2 0.555826 12.372086 14.126616 0.455811
543 136 2 0.739252 11.241378 13.927966 1.442692
544 136 3 -1.295079 11.988209 13.653882 1.082013
545 137 1 0.000000 9.816516 18.751514 10.097123
546 137 2 0.635965 10.301039 17.983855 10.400716
547 137 2 0.597827 10.406743 19.177436 9.475467
548 137 3 -1.233792 9.954097 18.707768 10.056407
549 138 1 0.000000 11.011340 1.832472 6.597910
550 138 2 0.638992 10.719993 2.016796 7.490868
551 138 2 0.581011 11.106503 2.694898 6.193685
552 138 3 -1.220004 10.986226 1.966469 6.660474
553 139 1 0.000000 0.455538 19.514834 4.767737
554 139 2 0.842401 0.121261 20.358016 5.073574
555 139 2 0.635603 0.154066 18.885297 5.422741
556 139 3 -1.478004 0.374155 19.542183 4.890737
557 140 1 0.000000 0.456705 8.814116 4.470899
558 140 2 0.671769 0.640184 8.134769 3.822011
559 140 2 0.598502 1.109650 9.492645 4.299159
560 140 3 -1.270271 0.563777 8.814011 4.365849
561 141 1 0.000000 17.111311 2.933736 12.710725
562 141 2 0.599926 16.697857 2.347805 13.344736
563 141 2 0.693931 17.889755 3.262792 13.160147
564 141 3 -1.293856 17.158034 2.900853 12.849417
565 142 1 0.000000 9.319732 0.664170 12.486087
566 142 2 0.650908 9.751489 0.021909 11.922775
567 142 2 0.696234 8.538076 0.214646 12.807296
568 142 3 -1.347142 9.274941 0.524408 12.455095
569 143 1 0.000000 15.594086 10.605978 18.695377
570 143 2 0.660547 15.467213 11.493118 18.359047
571 143 2 0.602188 16.318595 10.254476 18.177917
572 143 3 -1.262735 15.670591 10.674546 18.586082
573 144 1 0.000000 12.130029 1.099277 9.731839
574 144 2 0.577546 12.997243 1.383195 9.442764
575 144 2 0.635792 11.534625 1.771617 9.400652
576 144 3 -1.213338 12.164824 1.221690 9.652438
577 145 1 0.000000 17.417580 7.574179 12.991666
578 145 2 0.589348 18.230250 7.989938 13.279668
579 145 2 0.543388 16.909494 8.285261 12.601227
580 145 3 -1.132735 17.456571 7.718428 12.978553
581 146 1 0.000000 17.769589 6.389371 4.822266
582 146 2 0.523637 17.321776 7.001208 4.238015
583 146 2 0.488667 17.806856 6.844509 5.663511
584 146 3 -1.012305 17.717034 6.525957 4.855165
585 147 1 0.000000 9.947817 6.633126 18.651139
586 147 2 0.653794 10.412367 6.345926 17.865046
587 147 2 0.574008 9.590998 7.490528 18.419244
588 147 3 -1.227803 9.961608 6.706118 18.520824
589 148 1 0.000000 19.473670 2.140026 5.439975
590 148 2 0.735488 18.621673 2.232975 5.866231
591 148 2 0.661822 19.501914 2.853087 4.802026
592 148 3 -1.397310 19.368220 2.243205 5.412875
593 149 1 0.000000 7.449452 18.762086 13.768204
594 149 2 0.561592 6.965491 18.040884 13.365859
595 149 2 0.592424 6.853897 19.109973 14.431921
596 149 3 -1.154016 7.311261 18.714297 13.801663
597 150 1 0.000000 10.221236 10.917211 17.093809
598 150 2 0.730542 10.520461 10.970884 18.001452
599 150 2 0.520845 10.894033 10.401366 16.649421
600 150 3 -1.251387 10.345667 10.858047 17.153111
601 151 1 0.000000 12.809259 5.160154 7.301469
602 151 2 0.551152 12.158518 4.879242 6.658152
603 151 2 0.649553 13.608817 5.292272 6.792072
604 151 3 -1.200705 12.828310 5.141106 7.153907
605 152 1 0.000000 14.142723 14.155648 13.775636
606 152 2 0.594565 15.050826 14.073470 14.066891
607 152 2 0.732922 13.791322 13.267059 13.831843
608 152 3 -1.327487 14.213988 14.031378 13.820115
609 153 1 0.000000 8.602218 5.438909 1.225606
610 153 2 0.620188 8.985439 5.906004 0.483180
611 153 2 0.627154 8.707591 4.513010 1.006883
612 153 3 -1.247342 8.664764 5.380177 1.102568
613 154 1 0.000000 13.794549 8.698152 4.313547
614 154 2 0.513648 13.768175 9.654988 4.314465
615 154 2 0.585570 14.314823 8.471676 5.084427
616 154 3 -1.099218 13.857774 8.791647 4.412347
617 155 1 0.000000 14.517289 9.771989 1.378166
618 155 2 0.659821 14.250552 10.527373 1.902073
619 155 2 0.694307 14.938020 10.151519 0.606690
620 155 3 -1.354128 14.537002 9.917272 1.346474
621 156 1 0.000000 1.888420 4.304135 0.775230
622 156 2 0.543670 2.494269 4.614257 1.448285
623 156 2 0.720614 1.399168 5.084528 0.514746
624 156 3 -1.264284 1.903346 4.443734 0.828044
625 157 1 0.000000 2.481498 19.616052 14.572890
626 157 2 0.547739 2.275974 19.426795 15.488409
627 157 2 0.668566 2.749417 18.772750 14.207795
628 157 3 -1.216305 2.489485 19.483872 14.643351
629 158 1 0.000000 15.110654 13.446688 18.141320
630 158 2 0.652146 14.269613 13.903334 18.122419
631 158 2 0.609729 15.697382 14.003059 17.629037
632 158 3 -1.261874 15.078099 13.576367 18.073322
633 159 1 0.000000 11.152142 5.868773 16.157203
634 159 2 0.623771 12.061981 5.865602 15.859856
635 159 2 0.696418 10.703363 5.267347 15.562967
636 159 3 -1.320189 11.211164 5.791377 16.043070
637 160 1 0.000000 5.711406 7.756746 19.013462
638 160 2 0.572205 5.847261 6.921478 19.460791
639 160 2 0.711598 4.857561 7.666305 18.590376
640 160 3 -1.283803 5.619494 7.638244 19.016566
641 161 1 0.000000 14.596141 3.337447 16.194232
642 161 2 0.581229 14.139775 2.903537 16.915123
643 161 2 0.648888 14.660338 2.667885 15.513204
644 161 3 -1.230117 14.545939 3.196189 16.199335
645 162 1 0.000000 15.868944 6.990601 9.153798
646 162 2 0.580236 15.297725 7.080610 9.916581
647 162 2 0.582980 16.664717 7.466009 9.392469
648 162 3 -1.163216 15.897690 7.062981 9.281996
649 163 1 0.000000 16.992534 17.252049 14.433130
650 163 2 0.687185 16.735819 17.122300 13.520170
651 163 2 0.567060 16.237754 17.681295 14.835979
652 163 3 -1.254245 16.863051 17.290388 14.367830
653 164 1 0.000000 2.714413 11.803208 15.621592
654 164 2 0.670155 1.826953 11.730913 15.972905
655 164 2 0.768854 3.242536 12.099672 16.362826
656 164 3 -1.439009 2.668414 11.831904 15.761451
657 165 1 0.000000 19.229737 18.430349 0.313883
658 165 2 0.682408 19.017245 18.404738 1.246849
659 165 2 0.468921 18.398545 18.631449 -0.116129
660 165 3 -1.151329 19.096133 18.452814 0.378268
661 166 1 0.000000 4.270468 4.196500 3.044988
662 166 2 0.681973 4.408981 3.261943 2.891206
663 166 2 0.602162 4.731338 4.628907 2.326061
664 166 3 -1.284135 4.347197 4.132219 2.933270
665 167 1 0.000000 0.745251 8.261468 13.698756
666 167 2 0.689491 0.956292 7.815165 12.878690
667 167 2 0.567414 0.598285 7.553718 14.326229
668 167 3 -1.256905 0.753454 8.113735 13.674101
669 168 1 0.000000 6.015234 13.644624 13.579573
670 168 2 0.525055 5.222705 13.796503 14.094417
671 168 2 0.637042 6.137338 12.695493 13.601345
672 168 3 -1.162097 5.929411 13.542566 13.648266
673 169 1 0.000000 13.264402 11.610912 13.870878
674 169 2 0.562324 13.176440 11.277904 12.977793
675 169 2 0.714965 13.888787 11.017259 14.287954
676 169 3 -1.277289 13.333071 11.492288 13.809943
677 170 1 0.000000 9.248790 16.749565 0.105955
678 170 2 0.607686 9.065636 17.435984 0.747451
679 170 2 0.711594 8.533663 16.815508 -0.526876
680 170 3 -1.319280 9.133799 16.845876 0.107064
681 171 1 0.000000 1.262607 6.826380 2.618174
682 171 2 0.637460 1.275569 6.159821 3.305024
683 171 2 0.720763 2.180665 6.931606 2.368518
684 171 3 -1.358223 1.381789 6.754523 2.674140
685 172 1 0.000000 9.894349 14.820595 1.803086
686 172 2 0.662669 9.288494 15.043855 2.509716
687 172 2 0.675950 9.764904 15.508116 1.149794
688 172 3 -1.338620 9.800222 14.937186 1.809914
689 173 1 0.000000 12.075852 15.616523 15.344647
690 173 2 0.578114 12.854354 15.276889 14.903268
691 173 2 0.546330 11.548794 15.997518 14.642304
692 173 3 -1.124445 12.108040 15.621818 15.198237
693 174 1 0.000000 12.152477 4.426480 12.379840
694 174 2 0.693717 12.213440 3.499594 12.148759
695 174 2 0.612920 11.539655 4.450790 13.114749
696 174 3 -1.306636 12.081832 4.310940 12.444336
697 175 1 0.000000 3.776302 14.174071 0.070182
698 175 2 0.709120 4.605119 14.399991 0.492384
699 175 2 0.725885 3.207101 14.924198 0.242090
700 175 3 -1.435004 3.809536 14.299017 0.146235
701 176 1 0.000000 7.517641 3.360588 17.762155
702 176 2 0.696861 8.023921 3.169748 18.551771
703 176 2 0.413977 7.466132 2.522934 17.301812
704 176 3 -1.110838 7.575858 3.228928 17.804306
705 177 1 0.000000 15.926363 17.958653 18.373629
706 177 2 0.680172 15.670970 18.589281 19.046915
707 177 2 0.492280 15.651129 18.361930 17.550315
708 177 3 -1.172452 15.858436 18.091005 18.354423
709 178 1 0.000000 4.125569 17.856641 8.442060
710 178 2 0.653439 4.620326 17.037311 8.430006
711 178 2 0.614455 3.208730 17.583892 8.406742
712 178 3 -1.267894 4.071537 17.716842 8.435996
713 179 1 0.000000 12.374816 1.737209 12.455043
714 179 2 0.644756 11.965049 1.290331 11.714352
715 179 2 0.589538 11.785788 1.571373 13.191097
716 179 3 -1.234293 12.246958 1.658774 12.454450
717 180 1 0.000000 10.743287 17.679900 13.416682
718 180 2 0.605639 10.378789 16.889098 13.019183
719 180 2 0.604046 10.088025 17.948763 14.060559
720 180 3 -1.209685 10.612745 17.613086 13.448222
721 181 1 0.000000 11.610297 0.145026 3.264497
722 181 2 0.664090 10.784343 0.219361 3.742521
723 181 2 0.552297 11.732977 -0.796384 3.142313
724 181 3 -1.216386 11.520270 0.034030 3.310049
725 182 1 0.000000 6.370493 10.869319 3.167395
726 182 2 0.715918 5.739641 10.548534 2.522915
727 182 2 0.664725 7.203817 10.480488 2.901665
728 182 3 -1.380643 6.396412 10.778480 3.050877
729 183 1 0.000000 7.864719 9.629485 16.044770
730 183 2 0.729793 8.677766 9.886324 16.479765
731 183 2 0.539241 7.468124 8.989494 16.635834
732 183 3 -1.269033 7.918030 9.580437 16.176118
733 184 1 0.000000 18.221261 8.364896 18.488570
734 184 2 0.647670 18.164736 8.003100 17.604183
735 184 2 0.487195 18.868607 9.066646 18.419861
736 184 3 -1.134865 18.296893 8.408414 18.366562
737 185 1 0.000000 18.646088 7.713079 9.487513
738 185 2 0.663435 19.371989 7.174644 9.802773
739 185 2 0.555257 18.969197 8.098452 8.673068
740 185 3 -1.218692 18.780374 7.693485 9.423611
741 186 1 0.000000 10.481707 11.463147 3.713873
742 186 2 0.534726 10.297251 12.343492 4.041289
743 186 2 0.680573 11.408795 11.484688 3.476647
744 186 3 -1.215299 10.576772 11.578599 3.725419
745 187 1 0.000000 12.520225 12.012027 6.646343
746 187 2 0.551384 13.168504 11.765041 5.986825
747 187 2 0.584293 12.464996 11.251637 7.225125
748 187 3 -1.135677 12.596143 11.883071 6.636008
749 188 1 0.000000 15.051563 19.311915 10.516060
750 188 2 0.570521 14.472256 19.293597 11.277834
751 188 2 0.703822 15.358309 20.217440 10.469553
752 188 3 -1.274343 15.016672 19.425488 10.607623
753 189 1 0.000000 6.979360 16.980145 18.059036
754 189 2 0.735726 7.005334 16.683492 17.149336
755 189 2 0.543584 7.090317 17.929366 18.005181
756 189 3 -1.279310 6.996889 17.063682 17.935690
757 190 1 0.000000 19.140244 15.474978 0.539377
758 190 2 0.592547 18.948363 16.313519 0.119538
759 190 2 0.766195 18.682211 15.516527 1.378848
760 190 3 -1.358743 19.057047 15.587640 0.593095
761 191 1 0.000000 1.355726 16.765752 8.369072
762 191 2 0.590222 0.761873 16.190881 8.851871
763 191 2 0.552247 1.528875 16.299586 7.551184
764 191 3 -1.142469 1.301871 16.632487 8.326176
765 192 1 0.000000 11.207596 7.434991 5.033614
766 192 2 0.647126 12.080381 7.792342 4.869972
767 192 2 0.626350 10.719985 8.161142 5.422424
768 192 3 -1.273476 11.256903 7.573693 5.062439
769 193 1 0.000000 0.441296 6.009157 15.543106
770 193 2 0.604496 -0.497312 6.191764 15.586717
771 193 2 0.570089 0.516281 5.285037 14.921608
772 193 3 -1.174585 0.330742 5.939837 15.469129
773 194 1 0.000000 12.402147 3.945772 2.751736
774 194 2 0.668329 12.244845 4.697089 2.179888
775 194 2 0.611501 12.383330 3.189608 2.165139
776 194 3 -1.279830 12.379601 3.945151 2.603441
777 195 1 0.000000 9.963810 9.730922 12.814026
778 195 2 0.600393 10.229625 9.373407 13.661232
779 195 2 0.559458 10.742968 9.649419 12.264023
780 195 3 -1.159851 10.097579 9.674722 12.852072
781 196 1 0.000000 3.979610 12.780697 17.636229
782 196 2 0.760338 4.862510 12.411048 17.645167
783 196 2 0.820725 3.989136 13.441631 18.328550
784 196 3 -1.581063 4.093851 12.817985 17.725999
785 197 1 0.000000 3.344723 4.847325 16.430688
786 197 2 0.648107 2.493631 4.414303 16.364604
787 197 2 0.643471 3.927596 4.314791 15.889487
788 197 3 -1.291577 3.310387 4.723722 16.352949
789 198 1 0.000000 8.126332 4.178820 7.211712
790 198 2 0.477060 8.779249 3.693583 7.716169
791 198 2 0.680488 7.910214 3.600756 6.480023
792 198 3 -1.157548 8.182247 4.042704 7.182624
793 199 1 0.000000 7.993234 12.838322 19.046879
794 199 2 0.595538 8.823584 12.476530 19.356486
795 199 2 0.631021 7.702080 13.411745 19.755855
796 199 3 -1.226559 8.062258 12.865414 19.177270
797 200 1 0.000000 10.105938 15.066375 12.265531
798 200 2 0.632927 9.204186 14.896999 11.992790
799 200 2 0.711232 10.340139 14.309894 12.803230
800 200 3 -1.344159 10.020483 14.947854 12.299449
801 201 1 0.000000 9.001153 12.221723 11.208617
802 201 2 0.605274 9.237348 11.956994 12.097640
803 201 2 0.508294 9.830205 12.222431 10.730176
804 201 3 -1.113568 9.137518 12.187925 11.261176
805 202 1 0.000000 9.710286 13.810160 16.884125
806 202 2 0.635798 9.832541 12.865650 16.788273
807 202 2 0.571388 8.961161 13.896576 17.473681
808 202 3 -1.207186 9.630039 13.700313 16.947325
809 203 1 0.000000 12.046208 6.028091 1.248422
810 203 2 0.607497 11.293683 6.202453 0.683147
811 203 2 0.664516 12.704742 5.654370 0.662846
812 203 3 -1.272014 12.034176 6.002571 1.101099
813 204 1 0.000000 6.363564 14.636064 1.077920
814 204 2 0.724094 6.206261 14.206912 1.918942
815 204 2 0.543590 6.262769 15.569887 1.262437
816 204 3 -1.267685 6.330524 14.700668 1.209202
817 205 1 0.000000 17.433639 10.160110 4.125969
818 205 2 0.741238 17.047282 9.371329 3.745463
819 205 2 0.624354 18.316993 9.895047 4.382212
820 205 3 -1.365592 17.497260 10.025206 4.110062
821 206 1 0.000000 1.231596 2.975578 16.417186
822 206 2 0.629290 0.914633 2.206848 16.891339
823 206 2 0.488078 0.483049 3.571886 16.399098
824 206 3 -1.117368 1.095198 2.953506 16.475568
825 207 1 0.000000 18.653968 12.831916 10.570993
826 207 2 0.760638 17.725968 12.598024 10.589540
827 207 2 0.710511 19.091806 12.050167 10.234246
828 207 3 -1.471149 18.591221 12.701901 10.530260
829 208 1 0.000000 19.481433 10.257696 9.932405
830 208 2 0.587461 20.394189 10.278134 10.219968
831 208 2 0.656023 19.234557 9.334255 9.982814
832 208 3 -1.243484 19.566674 10.142101 9.975669
833 209 1 0.000000 12.364743 19.216614 17.534527
834 209 2 0.696960 12.074185 18.542435 18.148767
835 209 2 0.573630 11.571224 19.709894 17.326597
836 209 3 -1.270590 12.225968 19.193456 17.586539
837 210 1 0.000000 4.402012 1.411436 2.530310
838 210 2 0.676670 4.517570 1.265769 1.591342
839 210 2 0.711626 3.501037 1.140221 2.706148
840 210 3 -1.388296 4.301469 1.358070 2.432620
841 211 1 0.000000 17.469625 15.342681 7.025797
842 211 2 0.624689 17.768991 15.131957 7.910222
843 211 2 0.762137 17.767268 16.240546 6.879241
844 211 3 -1.386826 17.546049 15.430643 7.120253
845 212 1 0.000000 3.742060 17.357027 13.467222
846 212 2 0.477436 4.118260 16.477367 13.497292
847 212 2 0.704406 4.027482 17.711448 12.625110
848 212 3 -1.181842 3.826755 17.289790 13.363271
849 213 1 0.000000 2.180991 12.848677 1.916621
850 213 2 0.620217 2.802331 13.233478 1.298480
851 213 2 0.489299 1.403731 12.661308 1.390320
852 213 3 -1.109516 2.161031 12.873951 1.770118
853 214 1 0.000000 8.838292 9.735616 2.229583
854 214 2 0.656696 9.105874 9.031607 2.820348
855 214 2 0.608703 9.521684 10.399411 2.322238
856 214 3 -1.265398 8.960028 9.730468 2.317069
857 215 1 0.000000 14.294602 0.577428 2.764499
858 215 2 0.738340 13.396680 0.482746 3.082309
859 215 2 0.640217 14.816569 0.033550 3.354397
860 215 3 -1.378557 14.246475 0.495685 2.880697
861 216 1 0.000000 1.867362 0.305173 2.510138
862 216 2 0.699164 1.572198 0.156450 3.408465
863 216 2 0.672189 1.254796 0.952153 2.160264
864 216 3 -1.371353 1.751161 0.368956 2.580346
865 217 1 0.000000 15.442759 3.184141 2.295782
866 217 2 0.654944 14.697896 3.776888 2.396086
867 217 2 0.608558 15.062656 2.308022 2.360362
868 217 3 -1.263502 15.298750 3.147866 2.316889
869 218 1 0.000000 7.300221 17.675149 10.896300
870 218 2 0.646251 8.092218 18.089472 10.553797
871 218 2 0.612393 7.515132 16.743261 10.936658
872 218 3 -1.258645 7.429117 17.608894 10.857622
873 219 1 0.000000 7.396717 4.094581 14.866380
874 219 2 0.665104 7.371918 5.051335 14.881852
875 219 2 0.597111 7.273877 3.836526 15.779917
876 219 3 -1.262215 7.377817 4.184023 14.985304
877 220 1 0.000000 6.661579 0.627939 8.582423
878 220 2 0.670576 6.642151 1.271500 7.874126
879 220 2 0.571431 6.862668 -0.200990 8.148059
880 220 3 -1.242006 6.684834 0.604210 8.436149
881 221 1 0.000000 19.605472 4.054033 13.493618
882 221 2 0.705591 20.209061 3.324462 13.353485
883 221 2 0.588664 19.601700 4.525753 12.660732
884 221 3 -1.294256 19.682256 4.021025 13.369060
885 222 1 0.000000 8.260610 12.831817 5.840335
886 222 2 0.596347 9.178327 13.102118 5.871428
887 222 2 0.627868 7.787347 13.538204 6.279962
888 222 3 -1.224214 8.317506 12.956845 5.900593
889 223 1 0.000000 6.665574 7.031575 5.254398
890 223 2 0.584224 7.121199 7.128549 6.090600
891 223 2 0.679946 7.353942 7.116660 4.594744
892 223 3 -1.264170 6.812019 7.054881 5.276998
893 224 1 0.000000 6.397721 4.464435 10.034264
894 224 2 0.698646 7.002226 3.774918 10.308808
895 224 2 0.481351 6.376388 4.398753 9.079558
896 224 3 -1.179997 6.472374 4.367760 9.947195
897 225 1 0.000000 15.603391 9.857691 12.258406
898 225 2 0.651533 16.021716 10.661618 11.950285
899 225 2 0.504874 14.813675 9.777840 11.723426
900 225 3 -1.156407 15.555849 9.950382 12.150478
901 226 1 0.000000 9.882090 14.936470 8.692208
902 226 2 0.512800 9.677068 14.141771 9.184807
903 226 2 0.764854 10.375616 15.479301 9.307023
904 226 3 -1.277654 9.919022 14.904228 8.833971
905 227 1 0.000000 13.646902 1.832578 5.589924
906 227 2 0.510106 12.857658 1.413287 5.932738
907 227 2 0.537289 13.969233 2.367060 6.315640
908 227 3 -1.047394 13.587132 1.847324 5.726709
909 228 1 0.000000 17.449827 10.476359 7.497307
910 228 2 0.664575 18.301538 10.770472 7.820291
911 228 2 0.534636 17.497936 10.597383 6.549008
912 228 3 -1.199212 17.565015 10.529502 7.417259
913 229 1 0.000000 9.635662 11.018140 8.180065
914 229 2 0.574699 9.801812 10.807169 7.261306
915 229 2 0.538915 8.847129 11.560501 8.162953
916 229 3 -1.113614 9.555990 11.060562 8.060263
917 230 1 0.000000 3.213230 9.188730 15.582064
918 230 2 0.739332 3.123494 10.135613 15.689735
919 230 2 0.545589 2.453762 8.933721 15.058221
920 230 3 -1.284921 3.104522 9.277298 15.528789
921 231 1 0.000000 15.077402 5.328945 5.671739
922 231 2 0.507516 15.735473 6.012637 5.797198
923 231 2 0.616450 14.934363 5.304250 4.725608
924 231 3 -1.123966 15.143332 5.413305 5.566683
925 232 1 0.000000 9.010004 19.571764 4.575532
926 232 2 0.698718 8.782388 19.252326 5.448678
927 232 2 0.517461 8.184991 19.553032 4.090521
928 232 3 -1.216179 8.875255 19.528474 4.625218
929 233 1 0.000000 18.466670 17.781589 6.456277
930 233 2 0.742827 17.788050 18.450897 6.544222
931 233 2 0.590017 18.934335 17.802844 7.291185
932 233 3 -1.332844 18.439665 17.869990 6.574414
933 234 1 0.000000 2.453842 11.131797 4.403958
934 234 2 0.493386 3.345233 10.888192 4.653578
935 234 2 0.602244 2.567975 11.787235 3.715768
936 234 3 -1.095629 2.582561 11.184517 4.347815
937 235 1 0.000000 17.460630 6.809053 16.163763
938 235 2 0.586862 17.140966 6.093213 16.712962
939 235 2 0.654289 16.703204 7.064011 15.636947
940 235 3 -1.241151 17.322749 6.750055 16.166628
941 236 1 0.000000 9.141204 16.405604 15.571494
942 236 2 0.600270 9.418292 15.613642 16.032202
943 236 2 0.572052 8.215023 16.259572 15.378894
944 236 3 -1.172321 9.058113 16.285529 15.605815
945 237 1 0.000000 5.094635 15.280012 8.554059
946 237 2 0.550738 4.689035 14.990261 7.736890
947 237 2 0.716236 5.016273 14.527787 9.140787
948 237 3 -1.266974 5.032682 15.146626 8.524560
949 238 1 0.000000 15.436615 13.355573 1.356772
950 238 2 0.593448 15.385412 13.584101 0.428663
951 238 2 0.515689 16.373412 13.261694 1.529483
952 238 3 -1.109137 15.549981 13.372810 1.260072
953 239 1 0.000000 17.224584 2.132856 16.760286
954 239 2 0.599299 17.353126 1.934698 17.687886
955 239 2 0.602715 16.422227 2.654225 16.735204
956 239 3 -1.202014 17.138328 2.174231 16.875819
957 240 1 0.000000 0.993709 8.719859 7.245819
958 240 2 0.614958 0.751348 8.663914 6.321501
959 240 2 0.698863 1.949974 8.761903 7.241060
960 240 3 -1.313821 1.085098 8.718079 7.126886
961 241 1 0.000000 14.200522 2.942096 8.393299
962 241 2 0.560987 13.947748 3.865307 8.397455
963 241 2 0.567468 14.895907 2.880720 9.048206
964 241 3 -1.128454 14.257181 3.052421 8.477667
965 242 1 0.000000 3.824918 6.808099 14.223827
966 242 2 0.610489 3.725509 7.703458 14.547374
967 242 2 0.529717 3.108465 6.323736 14.634096
968 242 3 -1.140206 3.720477 6.860711 14.317765
969 243 1 0.000000 14.183348 18.392823 7.967667
970 243 2 0.595487 14.052795 18.707851 8.862064
971 243 2 0.619583 14.966142 18.852016 7.663353
972 243 3 -1.215070 14.266843 18.491933 8.043205
973 244 1 0.000000 8.194927 2.243130 10.481355
974 244 2 0.640889 7.923801 1.550353 9.879039
975 244 2 0.723325 8.547688 1.777432 11.239589
976 244 3 -1.364214 8.205377 2.094831 10.501315
977 245 1 0.000000 3.797316 14.985502 15.662082
978 245 2 0.566418 3.826012 14.272902 16.300525
979 245 2 0.684929 2.914732 15.346614 15.745003
980 245 3 -1.251347 3.688008 14.940507 15.754425
981 246 1 0.000000 3.327589 7.430301 17.850919
982 246 2 0.660206 3.455729 6.622877 17.353044
983 246 2 0.695273 3.356324 8.125015 17.193060
984 246 3 -1.355479 3.347671 7.415873 17.702971
985 247 1 0.000000 3.895536 11.602350 7.457821
986 247 2 0.520253 4.362556 11.870784 8.249066
987 247 2 0.612397 4.106475 10.674041 7.357929
988 247 3 -1.132650 3.982323 11.517878 7.546322
989 248 1 0.000000 10.746107 16.766847 4.959153
990 248 2 0.651916 10.799448 17.511047 5.558780
991 248 2 0.604063 11.096451 16.029887 5.459535
992 248 3 -1.255979 10.797783 16.767774 5.099967
993 249 1 0.000000 2.151128 16.130544 0.980629
994 249 2 0.712039 2.357255 16.920870 0.481501
995 249 2 0.745679 1.240713 15.936505 0.757640
996 249 3 -1.457718 2.060971 16.206876 0.888190
997 250 1 0.000000 3.495086 18.952084 5.870206
998 250 2 0.460592 2.589024 18.665680 5.755070
999 250 2 0.643203 3.691391 18.764158 6.788019
1000 250 3 -1.103795 3.404229 18.891364 5.972958
1001 251 1 0.000000 13.594417 1.776673 18.623700
1002 251 2 0.699175 14.243792 1.329343 19.166323
1003 251 2 0.629409 13.117340 1.069982 18.188707
1004 251 3 -1.328585 13.616473 1.628944 18.637478
1005 252 1 0.000000 5.007152 4.703714 5.618283
1006 252 2 0.621396 5.698634 5.361549 5.545218
1007 252 2 0.684602 4.713899 4.562783 4.718076
1008 252 3 -1.305997 5.058130 4.769884 5.493693
1009 253 1 0.000000 10.771839 14.155111 6.200598
1010 253 2 0.624542 10.578291 14.628506 7.009714
1011 253 2 0.620348 11.478709 13.554594 6.437126
1012 253 3 -1.244890 10.837550 14.138838 6.334453
1013 254 1 0.000000 8.864356 7.385170 3.567629
1014 254 2 0.643263 8.904167 6.738987 2.862580
1015 254 2 0.644315 9.680336 7.261797 4.052591
1016 254 3 -1.287578 8.973907 7.286658 3.539456
1017 255 1 0.000000 14.488019 18.049755 15.682921
1018 255 2 0.676955 13.782233 18.418223 16.214268
1019 255 2 0.525853 14.349017 17.103513 15.722140
1020 255 3 -1.202808 14.379876 17.975793 15.755960
1021 256 1 0.000000 9.571351 19.337799 16.895736
1022 256 2 0.588863 9.297781 18.486678 16.553704
1023 256 2 0.629776 8.764828 19.734757 17.224638
1024 256 3 -1.218638 9.433086 19.279661 16.894055

Bonds # topology-only (zero-force; geometry held by fix rigid, NOT these bonds)

1 1 1 2
2 1 1 3
3 1 5 6
4 1 5 7
5 1 9 10
6 1 9 11
7 1 13 14
8 1 13 15
9 1 17 18
10 1 17 19
11 1 21 22
12 1 21 23
13 1 25 26
14 1 25 27
15 1 29 30
16 1 29 31
17 1 33 34
18 1 33 35
19 1 37 38
20 1 37 39
21 1 41 42
22 1 41 43
23 1 45 46
24 1 45 47
25 1 49 50
26 1 49 51
27 1 53 54
28 1 53 55
29 1 57 58
30 1 57 59
31 1 61 62
32 1 61 63
33 1 65 66
34 1 65 67
35 1 69 70
36 1 69 71
37 1 73 74
38 1 73 75
39 1 77 78
40 1 77 79
41 1 81 82
42 1 81 83
43 1 85 86
44 1 85 87
45 1 89 90
46 1 89 91
47 1 93 94
48 1 93 95
49 1 97 98
50 1 97 99
51 1 101 102
52 1 101 103
53 1 105 106
54 1 105 107
55 1 109 110
56 1 109 111
57 1 113 114
58 1 113 115
59 1 117 118
60 1 117 119
61 1 121 122
62 1 121 123
63 1 125 126
64 1 125 127
65 1 129 130
66 1 129 131
67 1 133 134
68 1 133 135
69 1 137 138
70 1 137 139
71 1 141 142
72 1 141 143
73 1 145 146
74 1 145 147
75 1 149 150
76 1 149 151
77 1 153 154
78 1 153 155
79 1 157 158
80 1 157 159
81 1 161 162
82 1 161 163
83 1 165 166
84 1 165 167
85 1 169 170
86 1 169 171
87 1 173 174
88 1 173 175
89 1 177 178
90 1 177 179
91 1 181 182
92 1 181 183
93 1 185 186
94 1 185 187
95 1 189 190
96 1 189 191
97 1 193 194
98 1 193 195
99 1 197 198
100 1 197 199
101 1 201 202
102 1 201 203
103 1 205 206
104 1 205 207
105 1 209 210
106 1 209 211
107 1 213 214
108 1 213 215
109 1 217 218
110 1 217 219
111 1 221 222
112 1 221 223
113 1 225 226
114 1 225 227
115 1 229 230
116 1 229 231
117 1 233 234
118 1 233 235
119 1 237 238
120 1 237 239
121 1 241 242
122 1 241 243
123 1 245 246
124 1 245 247
125 1 249 250
126 1 249 251
127 1 253 254
128 1 253 255
129 1 257 258
130 1 257 259
131 1 261 262
132 1 261 263
133 1 265 266
134 1 265 267
135 1 269 270
136 1 269 271
137 1 273 274
138 1 273 275
139 1 277 278
140 1 277 279
141 1 281 282
142 1 281 283
143 1 285 286
144 1 285 287
145 1 289 290
146 1 289 291
147 1 293 294
148 1 293 295
149 1 297 298
150 1 297 299
151 1 301 302
152 1 301 303
153 1 305 306
154 1 305 307
155 1 309 310
156 1 309 311
157 1 313 314
158 1 313 315
159 1 317 318
160 1 317 319
161 1 321 322
162 1 321 323
163 1 325 326
164 1 325 327
165 1 329 330
166 1 329 331
167 1 333 334
168 1 333 335
169 1 337 338
170 1 337 339
171 1 341 342
172 1 341 343
173 1 345 346
174 1 345 347
175 1 349 350
176 1 349 351
177 1 353 354
178 1 353 355
179 1 357 358
180 1 357 359
181 1 361 362
182 1 361 363
183 1 365 366
184 1 365 367
185 1 369 370
186 1 369 371
187 1 373 374
188 1 373 375
189 1 377 378
190 1 377 379
191 1 381 382
192 1 381 383
193 1 385 386
194 1 385 387
195 1 389 390
196 1 389 391
197 1 393 394
198 1 393 395
199 1 397 398
200 1 397 399
201 1 401 402
202 1 401 403
203 1 405 406
204 1 405 407
205 1 409 410
206 1 409 411
207 1 413 414
208 1 413 415
209 1 417 418
210 1 417 419
211 1 421 422
212 1 421 423
213 1 425 426
214 1 425 427
215 1 429 430
216 1 429 431
217 1 433 434
218 1 433 435
219 1 437 438
220 1 437 439
221 1 441 442
222 1 441 443
223 1 445 446
224 1 445 447
225 1 449 450
226 1 449 451
227 1 453 454
228 1 453 455
229 1 457 458
230 1 457 459
231 1 461 462
232 1 461 463
233 1 465 466
234 1 465 467
235 1 469 470
236 1 469 471
237 1 473 474
238 1 473 475
239 1 477 478
240 1 477 479
241 1 481 482
242 1 481 483
243 1 485 486
244 1 485 487
245 1 489 490
246 1 489 491
247 1 493 494
248 1 493 495
249 1 497 498
250 1 497 499
251 1 501 502
252 1 501 503
253 1 505 506
254 1 505 507
255 1 509 510
256 1 509 511
257 1 513 514
258 1 513 515
259 1 517 518
260 1 517 519
261 1 521 522
262 1 521 523
263 1 525 526
264 1 525 527
265 1 529 530
266 1 529 531
267 1 533 534
268 1 533 535
269 1 537 538
270 1 537 539
271 1 541 542
272 1 541 543
273 1 545 546
274 1 545 547
275 1 549 550
276 1 549 551
277 1 553 554
278 1 553 555
279 1 557 558
280 1 557 559
281 1 561 562
282 1 561 563
283 1 565 566
284 1 565 567
285 1 569 570
286 1 569 571
287 1 573 574
288 1 573 575
289 1 577 578
290 1 577 579
291 1 581 582
292 1 581 583
293 1 585 586
294 1 585 587
295 1 589 590
296 1 589 591
297 1 593 594
298 1 593 595
299 1 597 598
300 1 597 599
301 1 601 602
302 1 601 603
303 1 605 606
304 1 605 607
305 1 609 610
306 1 609 611
307 1 613 614
308 1 613 615
309 1 617 618
310 1 617 619
311 1 621 622
312 1 621 623
313 1 625 626
314 1 625 627
315 1 629 630
316 1 629 631
317 1 633 634
318 1 633 635
319 1 637 638
320 1 637 639
321 1 641 642
322 1 641 643
323 1 645 646
324 1 645 647
325 1 649 650
326 1 649 651
327 1 653 654
328 1 653 655
329 1 657 658
330 1 657 659
331 1 661 662
332 1 661 663
333 1 665 666
334 1 665 667
335 1 669 670
336 1 669 671
337 1 673 674
338 1 673 675
339 1 677 678
340 1 677 679
341 1 681 682
342 1 681 683
343 1 685 686
344 1 685 687
345 1 689 690
346 1 689 691
347 1 693 694
348 1 693 695
349 1 697 698
350 1 697 699
351 1 701 702
352 1 701 703
353 1 705 706
354 1 705 707
355 1 709 710
356 1 709 711
357 1 713 714
358 1 713 715
359 1 717 718
360 1 717 719
361 1 721 722
362 1 721 723
363 1 725 726
364 1 725 727
365 1 729 730
366 1 729 731
367 1 733 734
368 1 733 735
369 1 737 738
370 1 737 739
371 1 741 742
372 1 741 743
373 1 745 746
374 1 745 747
375 1 749 750
376 1 749 751
377 1 753 754
378 1 753 755
379 1 757 758
380 1 757 759
381 1 761 762
382 1 761 763
383 1 765 766
384 1 765 767
385 1 769 770
386 1 769 771
387 1 773 774
388 1 773 775
389 1 777 778
390 1 777 779
391 1 781 782
392 1 781 783
393 1 785 786
394 1 785 787
395 1 789 790
396 1 789 791
397 1 793 794
398 1 793 795
399 1 797 798
400 1 797 799
401 1 801 802
402 1 801 803
403 1 805 806
404 1 805 807
405 1 809 810
406 1 809 811
407 1 813 814
408 1 813 815
409 1 817 818
410 1 817 819
411 1 821 822
412 1 821 823
413 1 825 826
414 1 825 827
415 1 829 830
416 1 829 831
417 1 833 834
418 1 833 835
419 1 837 838
420 1 837 839
421 1 841 842
422 1 841 843
423 1 845 846
424 1 845 847
425 1 849 850
426 1 849 851
427 1 853 854
428 1 853 855
429 1 857 858
430 1 857 859
431 1 861 862
432 1 861 863
433 1 865 866
434 1 865 867
435 1 869 870
436 1 869 871
437 1 873 874
438 1 873 875
439 1 877 878
440 1 877 879
441 1 881 882
442 1 881 883
443 1 885 886
444 1 885 887
445 1 889 890
446 1 889 891
447 1 893 894
448 1 893 895
449 1 897 898
450 1 897 899
451 1 901 902
452 1 901 903
453 1 905 906
454 1 905 907
455 1 909 910
456 1 909 911
457 1 913 914
458 1 913 915
459 1 917 918
460 1 917 919
461 1 921 922
462 1 921 923
463 1 925 926
464 1 925 927
465 1 929 930
466 1 929 931
467 1 933 934
468 1 933 935
469 1 937 938
470 1 937 939
471 1 941 942
472 1 941 943
473 1 945 946
474 1 945 947
475 1 949 950
476 1 949 951
477 1 953 954
478 1 953 955
479 1 957 958
480 1 957 959
481 1 961 962
482 1 961 963
483 1 965 966
484 1 965 967
485 1 969 970
486 1 969 971
487 1 973 974
488 1 973 975
489 1 977 978
490 1 977 979
491 1 981 982
492 1 981 983
493 1 985 986
494 1 985 987
495 1 989 990
496 1 989 991
497 1 993 994
498 1 993 995
499 1 997 998
500 1 997 999
501 1 1001 1002
502 1 1001 1003
503 1 1005 1006
504 1 1005 1007
505 1 1009 1010
506 1 1009 1011
507 1 1013 1014
508 1 1013 1015
509 1 1017 1018
510 1 1017 1019
511 1 1021 1022
512 1 1021 1023

Angles # topology-only

1 1 2 1 3
2 1 6 5 7
3 1 10 9 11
4 1 14 13 15
5 1 18 17 19
6 1 22 21 23
7 1 26 25 27
8 1 30 29 31
9 1 34 33 35
10 1 38 37 39
11 1 42 41 43
12 1 46 45 47
13 1 50 49 51
14 1 54 53 55
15 1 58 57 59
16 1 62 61 63
17 1 66 65 67
18 1 70 69 71
19 1 74 73 75
20 1 78 77 79
21 1 82 81 83
22 1 86 85 87
23 1 90 89 91
24 1 94 93 95
25 1 98 97 99
26 1 102 101 103
27 1 106 105 107
28 1 110 109 111
29 1 114 113 115
30 1 118 117 119
31 1 122 121 123
32 1 126 125 127
33 1 130 129 131
34 1 134 133 135
35 1 138 137 139
36 1 142 141 143
37 1 146 145 147
38 1 150 149 151
39 1 154 153 155
40 1 158 157 159
41 1 162 161 163
42 1 166 165 167
43 1 170 169 171
44 1 174 173 175
45 1 178 177 179
46 1 182 181 183
47 1 186 185 187
48 1 190 189 191
49 1 194 193 195
50 1 198 197 199
51 1 202 201 203
52 1 206 205 207
53 1 210 209 211
54 1 214 213 215
55 1 218 217 219
56 1 222 221 223
57 1 226 225 227
58 1 230 229 231
59 1 234 233 235
60 1 238 237 239
61 1 242 241 243
62 1 246 245 247
63 1 250 249 251
64 1 254 253 255
65 1 258 257 259
66 1 262 261 263
67 1 266 265 267
68 1 270 269 271
69 1 274 273 275
70 1 278 277 279
71 1 282 281 283
72 1 286 285 287
73 1 290 289 291
74 1 294 293 295
75 1 298 297 299
76 1 302 301 303
77 1 306 305 307
78 1 310 309 311
79 1 314 313 315
80 1 318 317 319
81 1 322 321 323
82 1 326 325 327
83 1 330 329 331
84 1 334 333 335
85 1 338 337 339
86 1 342 341 343
87 1 346 345 347
88 1 350 349 351
89 1 354 353 355
90 1 358 357 359
91 1 362 361 363
92 1 366 365 367
93 1 370 369 371
94 1 374 373 375
95 1 378 377 379
96 1 382 381 383
97 1 386 385 387
98 1 390 389 391
99 1 394 393 395
100 1 398 397 399
101 1 402 401 403
102 1 406 405 407
103 1 410 409 411
104 1 414 413 415
105 1 418 417 419
106 1 422 421 423
107 1 426 425 427
108 1 430 429 431
109 1 434 433 435
110 1 438 437 439
111 1 442 441 443
112 1 446 445 447
113 1 450 449 451
114 1 454 453 455
115 1 458 457 459
116 1 462 461 463
117 1 466 465 467
118 1 470 469 471
119 1 474 473 475
120 1 478 477 479
121 1 482 481 483
122 1 486 485 487
123 1 490 489 491
124 1 494 493 495
125 1 498 497 499
126 1 502 501 503
127 1 506 505 507
128 1 510 509 511
129 1 514 513 515
130 1 518 517 519
131 1 522 521 523
132 1 526 525 527
133 1 530 529 531
134 1 534 533 535
135 1 538 537 539
136 1 542 541 543
137 1 546 545 547
138 1 550 549 551
139 1 554 553 555
140 1 558 557 559
141 1 562 561 563
142 1 566 565 567
143 1 570 569 571
144 1 574 573 575
145 1 578 577 579
146 1 582 581 583
147 1 586 585 587
148 1 590 589 591
149 1 594 593 595
150 1 598 597 599
151 1 602 601 603
152 1 606 605 607
153 1 610 609 611
154 1 614 613 615
155 1 618 617 619
156 1 622 621 623
157 1 626 625 627
158 1 630 629 631
159 1 634 633 635
160 1 638 637 639
161 1 642 641 643
162 1 646 645 647
163 1 650 649 651
164 1 654 653 655
165 1 658 657 659
166 1 662 661 663
167 1 666 665 667
168 1 670 669 671
169 1 674 673 675
170 1 678 677 679
171 1 682 681 683
172 1 686 685 687
173 1 690 689 691
174 1 694 693 695
175 1 698 697 699
176 1 702 701 703
177 1 706 705 707
178 1 710 709 711
179 1 714 713 715
180 1 718 717 719
181 1 722 721 723
182 1 726 725 727
183 1 730 729 731
184 1 734 733 735
185 1 738 737 739
186 1 742 741 743
187 1 746 745 747
188 1 750 749 751
189 1 754 753 755
190 1 758 757 759
191 1 762 761 763
192 1 766 765 767
193 1 770 769 771
194 1 774 773 775
195 1 778 777 779
196 1 782 781 783
197 1 786 785 787
198 1 790 789 791
199 1 794 793 795
200 1 798 797 799
201 1 802 801 803
202 1 806 805 807
203 1 810 809 811
204 1 814 813 815
205 1 818 817 819
206 1 822 821 823
207 1 826 825 827
208 1 830 829 831
209 1 834 833 835
210 1 838 837 839
211 1 842 841 843
212 1 846 845 847
213 1 850 849 851
214 1 854 853 855
215 1 858 857 859
216 1 862 861 863
217 1 866 865 867
218 1 870 869 871
219 1 874 873 875
220 1 878 877 879
221 1 882 881 883
222 1 886 885 887
223 1 890 889 891
224 1 894 893 895
225 1 898 897 899
226 1 902 901 903
227 1 906 905 907
228 1 910 909 911
229 1 914 913 915
230 1 918 917 919
231 1 922 921 923
232 1 926 925 927
233 1 930 929 931
234 1 934 933 935
235 1 938 937 939
236 1 942 941 943
237 1 946 945 947
238 1 950 949 951
239 1 954 953 955
240 1 958 957 959
241 1 962 961 963
242 1 966 965 967
243 1 970 969 971
244 1 974 973 975
245 1 978 977 979
246 1 982 981 983
247 1 986 985 987
248 1 990 989 991
249 1 994 993 995
250 1 998 997 999
251 1 1002 1001 1003
252 1 1006 1005 1007
253 1 1010 1009 1011
254 1 1014 1013 1015
255 1 1018 1017 1019
256 1 1022 1021 1023
