ITEM: TIMESTEP
5
ITEM: NUMBER OF ATOMS
1600
ITEM: BOX BOUNDS pp pp pp
0.0000000000000000e+00 3.6149999999999999e+01
0.0000000000000000e+00 3.6149999999999999e+01
0.0000000000000000e+00 1.5834399999999999e+02
ITEM: ATOMS id mol z q
1 90001 25.9971 -0.00465219
2 90001 25.9988 -0.00462101
3 90001 27.8107 5.29852e-05
4 90001 27.8061 0.000231964
5 90001 29.6155 -0.000626263
6 90001 29.6183 -0.00253993
7 90001 31.4229 0.000274807
8 90001 31.4169 -0.0304673
9 90001 25.9992 -0.00468159
10 90001 25.9992 -0.00470853
11 90001 27.8064 -0.000369299
12 90001 27.8097 -6.83154e-05
13 90001 29.6135 0.00122587
14 90001 29.6139 -0.000121958
15 90001 31.42 0.0213042
16 90001 31.4197 -0.00316369
17 90001 26.0017 -0.0047368
18 90001 26.0004 -0.00477768
19 90001 27.8111 -0.000816991
20 90001 27.8094 -0.000437165
21 90001 29.6152 -0.000782797
22 90001 29.6152 0.00112862
23 90001 31.418 0.0599837
24 90001 31.4314 0.0160629
25 90001 25.9949 -0.00473776
26 90001 26.0022 -0.00471351
27 90001 27.8073 -0.000532019
28 90001 27.8027 -0.0006771
29 90001 29.6107 0.00176281
30 90001 29.6145 -5.61458e-05
31 90001 31.421 0.0350977
32 90001 31.4196 0.0553938
33 90001 25.9989 -0.00468548
34 90001 25.9996 -0.00460019
35 90001 27.8034 -6.04992e-05
36 90001 27.8061 1.06242e-05
37 90001 29.617 -0.000284567
38 90001 29.6156 -0.000289464
39 90001 31.4248 0.0110106
40 90001 31.4215 0.00493039
41 90001 25.9971 -0.004647
42 90001 25.9989 -0.00458936
43 90001 27.8062 -3.78912e-05
44 90001 27.8084 0.000139723
45 90001 29.6141 0.000224522
46 90001 29.616 0.000129886
47 90001 31.4255 0.00798016
48 90001 31.422 0.000285672
49 90001 26.0008 -0.00467883
50 90001 25.9954 -0.00461222
51 90001 27.8011 -3.99135e-05
52 90001 27.8025 -0.000110849
53 90001 29.6109 -0.000806637
54 90001 29.6143 0.000396851
55 90001 31.4222 -0.00295791
56 90001 31.4209 0.0170234
57 90001 26.0043 -0.00475894
58 90001 25.9981 -0.00463478
59 90001 27.8041 -0.000548701
60 90001 27.8084 -0.000268352
61 90001 29.6134 -0.000385497
62 90001 29.6131 0.000621714
63 90001 31.42 0.0602388
64 90001 31.4235 0.0257085
65 90001 25.9973 -0.00463072
66 90001 25.9961 -0.00468221
67 90001 27.804 -0.000259299
68 90001 27.804 -0.000491611
69 90001 29.6114 0.0033991
70 90001 29.6168 0.000726427
71 90001 31.418 0.0428719
72 90001 31.4225 0.0611425
73 90001 25.9984 -0.0046293
74 90001 25.9957 -0.00457833
75 90001 27.8085 0.000185365
76 90001 27.8033 1.77989e-05
77 90001 29.6161 0.00118509
78 90001 29.6098 -0.000312245
79 90001 31.422 -0.000532996
80 90001 31.4252 0.0080922
81 90001 25.9982 -0.00460499
82 90001 25.9987 -0.00460083
83 90001 27.8055 0.00027244
84 90001 27.8074 0.000142553
85 90001 29.6133 -0.0041612
86 90001 29.6176 0.00118259
87 90001 31.4225 -0.0346244
88 90001 31.4193 -0.0356464
89 90001 25.9987 -0.00469012
90 90001 26.0015 -0.00465283
91 90001 27.8073 -0.000162166
92 90001 27.8043 -0.00024253
93 90001 29.6158 -0.000907011
94 90001 29.6187 2.70869e-05
95 90001 31.4224 0.00840533
96 90001 31.4233 0.0308042
97 90001 26.0038 -0.00468652
98 90001 26 -0.00468564
99 90001 27.8092 -0.000239243
100 90001 27.808 -0.000224767
101 90001 29.6166 -0.00034669
102 90001 29.6159 -0.0010951
103 90001 31.4232 0.0254557
104 90001 31.4184 0.00414127
105 90001 25.9975 -0.00467129
106 90001 25.9975 -0.00458469
107 90001 27.8064 -0.000100576
108 90001 27.806 5.56337e-05
109 90001 29.6146 0.000409376
110 90001 29.6128 -0.00412691
111 90001 31.4213 0.00580152
112 90001 31.4243 -0.0241814
113 90001 25.996 -0.00461355
114 90001 25.9982 -0.00446171
115 90001 27.8076 0.000347499
116 90001 27.8088 0.000416047
117 90001 29.6166 -0.000403744
118 90001 29.6141 -0.000751689
119 90001 31.423 -0.0266196
120 90001 31.4241 -0.0331647
121 90001 25.9996 -0.00456054
122 90001 25.9975 -0.00453629
123 90001 27.8049 0.00016429
124 90001 27.8061 0.00030807
125 90001 29.6147 -0.00148995
126 90001 29.6101 2.82701e-05
127 90001 31.4225 0.00035068
128 90001 31.4205 -0.0306378
129 90001 25.9994 -0.00454054
130 90001 25.9942 -0.00453185
131 90001 27.8051 -0.000379001
132 90001 27.807 -0.000250745
133 90001 29.6119 0.00121764
134 90001 29.6124 0.000707157
135 90001 31.422 0.0380369
136 90001 31.4228 0.031139
137 90001 25.9991 -0.00457225
138 90001 26.0004 -0.00449853
139 90001 27.8048 -6.7567e-05
140 90001 27.8056 -1.82233e-05
141 90001 29.6149 0.000151484
142 90001 29.6136 1.84294e-05
143 90001 31.4193 0.00971822
144 90001 31.422 0.0133892
145 90001 26.0011 -0.00463859
146 90001 25.9987 -0.00451565
147 90001 27.8062 -4.08781e-05
148 90001 27.8075 0.000257543
149 90001 29.6188 -0.000249339
150 90001 29.6162 -0.00090179
151 90001 31.4235 -0.00636903
152 90001 31.4191 0.00383648
153 90001 26.0007 -0.00458385
154 90001 25.9984 -0.00451271
155 90001 27.8021 0.000544571
156 90001 27.8018 0.000403752
157 90001 29.6092 -0.00163248
158 90001 29.6141 -0.00332154
159 90001 31.4252 -0.0327499
160 90001 31.4187 -0.0178537
161 90001 25.9957 -0.00464659
162 90001 25.9966 -0.00455572
163 90001 27.8076 -7.12264e-06
164 90001 27.8064 -0.000182932
165 90001 29.6166 0.00194799
166 90001 29.6145 -0.00121559
167 90001 31.4225 0.0242348
168 90001 31.417 0.00705578
169 90001 25.9991 -0.00469676
170 90001 25.9993 -0.00463245
171 90001 27.8079 -0.000127852
172 90001 27.8053 2.59236e-05
173 90001 29.6135 0.000716482
174 90001 29.6129 0.000853703
175 90001 31.4229 0.0105475
176 90001 31.4234 0.00232951
177 90001 25.9986 -0.00464103
178 90001 26.0033 -0.00466175
179 90001 27.8073 -2.23953e-05
180 90001 27.8097 -7.57686e-05
181 90001 29.6145 -0.000133971
182 90001 29.6152 2.20946e-05
183 90001 31.4224 -0.00157352
184 90001 31.4207 -0.00515132
185 90001 25.9982 -0.00466339
186 90001 25.9995 -0.00466429
187 90001 27.8047 0.000418016
188 90001 27.8068 0.00010248
189 90001 29.6183 -0.000850155
190 90001 29.6132 -6.9227e-05
191 90001 31.4177 -0.0352359
192 90001 31.4212 0.00693138
193 90001 25.9957 -0.00456677
194 90001 26.0013 -0.00450076
195 90001 27.8044 0.000355468
196 90001 27.8051 0.000371843
197 90001 29.6116 -0.000572748
198 90001 29.6139 0.000193955
199 90001 31.4237 -0.0172801
200 90001 31.4246 -0.0184327
201 90001 26.0013 -0.00447353
202 90001 25.9972 -0.00451254
203 90001 27.8041 0.000142763
204 90001 27.807 0.000372956
205 90001 29.6129 0.000326788
206 90001 29.6115 0.001974
207 90001 31.4191 0.0237052
208 90001 31.4215 0.00449391
209 90001 26.0002 -0.00449406
210 90001 26.0021 -0.00447778
211 90001 27.8089 0.000111289
212 90001 27.8033 -2.66448e-05
213 90001 29.6161 0.000953655
214 90001 29.6158 0.000521469
215 90001 31.4226 0.0165012
216 90001 31.4241 0.0347338
217 90001 25.9996 -0.00447789
218 90001 25.9994 -0.00449052
219 90001 27.8047 0.000174984
220 90001 27.8063 0.000194702
221 90001 29.6147 -5.53083e-05
222 90001 29.6138 -0.000101292
223 90001 31.4229 -0.000474358
224 90001 31.4216 0.00461004
225 90001 25.9965 -0.00452026
226 90001 25.9986 -0.00451412
227 90001 27.8058 0.000284848
228 90001 27.8096 0.000371654
229 90001 29.6125 0.000513693
230 90001 29.6138 -0.00220551
231 90001 31.4202 0.00802568
232 90001 31.4239 0.00159457
233 90001 25.9999 -0.00452347
234 90001 25.9994 -0.00448713
235 90001 27.8069 0.00036862
236 90001 27.8037 0.000348223
237 90001 29.612 2.59361e-05
238 90001 29.6137 0.000658426
239 90001 31.4232 0.0101538
240 90001 31.4213 0.00109047
241 90001 25.999 -0.00453056
242 90001 26.0012 -0.00457777
243 90001 27.8045 0.000259006
244 90001 27.8041 0.000232116
245 90001 29.6183 -0.0029396
246 90001 29.6148 -0.000255266
247 90001 31.4199 -0.0231069
248 90001 31.4219 0.00459158
249 90001 25.997 -0.00464083
250 90001 25.9975 -0.00461418
251 90001 27.8037 3.18932e-05
252 90001 27.8057 0.000427248
253 90001 29.6133 4.85023e-05
254 90001 29.6172 0.000737113
255 90001 31.4197 0.00635357
256 90001 31.4217 -0.0220164
257 90001 25.9995 -0.00465611
258 90001 25.9979 -0.00470079
259 90001 27.8069 0.000307192
260 90001 27.8068 0.000476655
261 90001 29.6142 -0.000579731
262 90001 29.6166 -0.00185378
263 90001 31.4204 -0.0218099
264 90001 31.4186 -0.0383755
265 90001 26.0003 -0.00464384
266 90001 25.9979 -0.00467668
267 90001 27.8036 0.000106213
268 90001 27.8043 0.000377533
269 90001 29.6124 0.000278316
270 90001 29.6109 0.000807932
271 90001 31.4243 -0.00266623
272 90001 31.4216 -0.0494682
273 90001 25.9999 -0.00457878
274 90001 26.0015 -0.00459001
275 90001 27.804 0.000368879
276 90001 27.805 0.000322738
277 90001 29.6131 7.61927e-05
278 90001 29.6155 -0.0011825
279 90001 31.4235 -0.0170949
280 90001 31.4189 -0.00264308
281 90001 25.9981 -0.00452991
282 90001 25.9993 -0.00446
283 90001 27.8104 0.000292548
284 90001 27.8066 0.000429985
285 90001 29.6166 -0.000180831
286 90001 29.6147 -0.00102712
287 90001 31.42 0.00797337
288 90001 31.4218 -0.0415987
289 90001 25.9976 -0.00446898
290 90001 26.0007 -0.0045234
291 90001 27.8063 0.000117872
292 90001 27.8076 0.000198869
293 90001 29.6123 0.000587048
294 90001 29.6124 -0.000599713
295 90001 31.4228 0.0088625
296 90001 31.4258 -0.017128
297 90001 25.9985 -0.00446186
298 90001 25.999 -0.00457822
299 90001 27.8072 0.000274648
300 90001 27.8079 2.11649e-05
301 90001 29.6106 0.000702821
302 90001 29.6148 0.000208897
303 90001 31.4162 -0.00657564
304 90001 31.4223 0.0127192
305 90001 25.9977 -0.00449465
306 90001 26.0021 -0.00448191
307 90001 27.8084 0.000337674
308 90001 27.8038 0.000161188
309 90001 29.6113 -0.00415464
310 90001 29.6122 -0.00512154
311 90001 31.42 -0.0348513
312 90001 31.425 -0.0219784
313 90001 26.0037 -0.0044985
314 90001 25.9958 -0.00457947
315 90001 27.8062 0.000120805
316 90001 27.808 0.000305008
317 90001 29.6129 -0.000515197
318 90001 29.6158 0.00099632
319 90001 31.4179 0.00662647
320 90001 31.4213 -0.000989225
321 90001 26.0005 -0.00456289
322 90001 26.0019 -0.00452508
323 90001 27.808 0.000292391
324 90001 27.805 0.000202463
325 90001 29.619 0.000434955
326 90001 29.6167 -6.21936e-05
327 90001 31.4206 -0.0236618
328 90001 31.418 -0.0119769
329 90001 25.9997 -0.00458818
330 90001 25.9973 -0.00457809
331 90001 27.8088 0.000700422
332 90001 27.8083 0.000646181
333 90001 29.6154 -0.00076429
334 90001 29.6188 -0.00465068
335 90001 31.425 -0.0646186
336 90001 31.4216 -0.0475324
337 90001 25.9997 -0.00461652
338 90001 25.9957 -0.00464548
339 90001 27.8078 0.000959998
340 90001 27.8054 0.00113564
341 90001 29.6101 -0.00391044
342 90001 29.6142 -0.0026951
343 90001 31.4231 -0.116538
344 90001 31.4221 -0.106159
345 90001 26.0001 -0.00458117
346 90001 26.0008 -0.00468468
347 90001 27.8053 0.000498841
348 90001 27.8051 0.000769162
349 90001 29.6146 -0.0030392
350 90001 29.6123 -0.000897733
351 90001 31.4187 -0.0439756
352 90001 31.4199 -0.0951091
353 90001 26.0006 -0.00469171
354 90001 25.9996 -0.00468943
355 90001 27.8045 0.000284691
356 90001 27.8064 0.00015521
357 90001 29.6144 0.000574339
358 90001 29.613 -0.000599367
359 90001 31.4223 -0.0254614
360 90001 31.4189 -0.00790694
361 90001 25.9999 -0.00449058
362 90001 25.9974 -0.00469862
363 90001 27.8063 0.000454384
364 90001 27.8102 -3.19831e-06
365 90001 29.6133 -0.00607621
366 90001 29.6167 -0.00132882
367 90001 31.4222 -0.0353527
368 90001 31.428 -0.0142237
369 90001 26.0029 -0.00452349
370 90001 26.0026 -0.00466831
371 90001 27.8074 -0.000154843
372 90001 27.8056 -4.10889e-05
373 90001 29.6149 -0.000335716
374 90001 29.6159 0.000622936
375 90001 31.4219 0.00989162
376 90001 31.4229 0.0104677
377 90001 26.0004 -0.00458832
378 90001 26.0032 -0.00466462
379 90001 27.8087 -5.40794e-05
380 90001 27.8056 -0.00031526
381 90001 29.6144 0.00045226
382 90001 29.616 0.000733918
383 90001 31.4161 0.0290458
384 90001 31.4214 0.0401494
385 90001 25.9971 -0.00465101
386 90001 25.9987 -0.00460497
387 90001 27.8106 0.000180451
388 90001 27.808 -0.000171781
389 90001 29.6129 0.000148339
390 90001 29.6136 0.000344922
391 90001 31.4199 -0.0029692
392 90001 31.4255 0.0233636
393 90001 26.0036 -0.00459712
394 90001 26.002 -0.00458574
395 90001 27.8039 0.000228365
396 90001 27.8057 -3.12582e-05
397 90001 29.6141 -0.000971993
398 90001 29.6137 -0.000361951
399 90001 31.4225 -0.00420226
400 90001 31.4173 0.0100647
401 90001 25.9963 -0.00463618
402 90001 25.9952 -0.00460622
403 90001 27.8055 0.000167731
404 90001 27.8032 -0.000281645
405 90001 29.6147 -5.40324e-06
406 90001 29.614 0.000938949
407 90001 31.4245 0.00148793
408 90001 31.422 0.0336264
409 90001 25.9973 -0.00464243
410 90001 26.0006 -0.00456067
411 90001 27.8076 0.000673528
412 90001 27.8104 0.0003191
413 90001 29.6186 0.000178929
414 90001 29.6131 0.000267379
415 90001 31.4224 -0.0719759
416 90001 31.4223 -0.0107139
417 90001 25.9953 -0.0046386
418 90001 25.9997 -0.00460412
419 90001 27.8067 0.000828939
420 90001 27.8095 0.000939285
421 90001 29.6164 -0.00189104
422 90001 29.6177 -0.00273592
423 90001 31.4242 -0.084072
424 90001 31.422 -0.0698694
425 90001 25.9992 -0.00466568
426 90001 25.9984 -0.00469671
427 90001 27.8018 7.06754e-05
428 90001 27.8089 0.000425059
429 90001 29.617 0.000662369
430 90001 29.6134 0.00199061
431 90001 31.4226 -0.00748829
432 90001 31.4206 -0.0111336
433 90001 25.9983 -0.00473673
434 90001 25.9997 -0.00473072
435 90001 27.8065 -0.000158388
436 90001 27.8047 3.76568e-05
437 90001 29.6139 -0.000129947
438 90001 29.6162 2.49802e-06
439 90001 31.423 0.0129822
440 90001 31.4161 0.00276745
441 90001 26 -0.00469722
442 90001 25.9979 -0.00472403
443 90001 27.8053 -0.00020639
444 90001 27.8103 -0.000444148
445 90001 29.6166 0.000753091
446 90001 29.614 -0.000409024
447 90001 31.4216 0.0187164
448 90001 31.4186 0.0208605
449 90001 25.998 -0.00470457
450 90001 25.9993 -0.00478535
451 90001 27.8083 -0.000308873
452 90001 27.8053 -0.000600767
453 90001 29.6159 -0.000424441
454 90001 29.6144 -0.000416517
455 90001 31.4227 0.02425
456 90001 31.4261 0.0176735
457 90001 25.999 -0.0047989
458 90001 26.0014 -0.00483185
459 90001 27.8085 -0.000463008
460 90001 27.8026 -0.000522479
461 90001 29.6167 -0.000454657
462 90001 29.614 -0.00114666
463 90001 31.4219 0.0272761
464 90001 31.4224 0.0230999
465 90001 25.9974 -0.00474563
466 90001 25.9962 -0.00472556
467 90001 27.8081 -0.000344522
468 90001 27.8069 -0.000613009
469 90001 29.617 -0.000655463
470 90001 29.6138 -0.000338096
471 90001 31.4222 0.0169616
472 90001 31.4215 0.0317961
473 90001 25.9984 -0.00468444
474 90001 26.0013 -0.00461946
475 90001 27.7999 -0.000138231
476 90001 27.8038 -0.000560803
477 90001 29.612 -0.000138399
478 90001 29.6165 0.000750521
479 90001 31.4227 0.0183602
480 90001 31.4198 0.0409812
481 90001 25.9978 -0.004685
482 90001 25.9965 -0.00461851
483 90001 27.8069 -0.000117493
484 90001 27.8059 -0.000159344
485 90001 29.6141 0.00156723
486 90001 29.615 -0.000277332
487 90001 31.4212 0.0106152
488 90001 31.4213 0.0176432
489 90001 25.9994 -0.00455989
490 90001 26.0013 -0.00455871
491 90001 27.8088 0.000681553
492 90001 27.8028 0.000440057
493 90001 29.6173 9.43004e-05
494 90001 29.6159 -0.000613619
495 90001 31.4197 -0.0500882
496 90001 31.4241 -0.0363949
497 90001 25.9972 -0.00459471
498 90001 26.0001 -0.00460082
499 90001 27.8027 0.000493085
500 90001 27.8094 0.000566394
501 90001 29.6167 -0.000650378
502 90001 29.6151 -0.000144378
503 90001 31.4211 -0.0508154
504 90001 31.4182 -0.0443879
505 90001 25.9993 -0.00463553
506 90001 25.9971 -0.00468545
507 90001 27.8056 -9.42529e-05
508 90001 27.8046 0.000243212
509 90001 29.6124 -0.00167076
510 90001 29.614 0.000290442
511 90001 31.4223 -0.00444646
512 90001 31.4229 -0.00782702
513 90001 25.9987 -0.00473912
514 90001 25.9996 -0.00467598
515 90001 27.8069 -0.000111641
516 90001 27.8071 -0.000221087
517 90001 29.6184 0.000376698
518 90001 29.6188 -0.000314353
519 90001 31.4226 0.0111122
520 90001 31.4184 0.0113201
521 90001 25.9988 -0.00471587
522 90001 26.0015 -0.00484282
523 90001 27.8086 -0.000271083
524 90001 27.8098 -0.000152295
525 90001 29.6176 -0.000725451
526 90001 29.6153 -0.00244957
527 90001 31.4191 0.0095459
528 90001 31.4194 -0.00696203
529 90001 25.9984 -0.0048545
530 90001 25.9976 -0.00488472
531 90001 27.8106 -0.000734749
532 90001 27.8044 -0.000811551
533 90001 29.6152 -3.60969e-05
534 90001 29.6134 0.0020888
535 90001 31.4216 0.0474534
536 90001 31.4242 0.0638961
537 90001 25.9998 -0.00490987
538 90001 25.9983 -0.00490965
539 90001 27.8055 -0.000792747
540 90001 27.8069 -0.000959735
541 90001 29.6143 -0.000591898
542 90001 29.614 -0.000539513
543 90001 31.4227 0.0486899
544 90001 31.4193 0.0659994
545 90001 25.9993 -0.00484468
546 90001 25.9971 -0.00483768
547 90001 27.806 -0.000802899
548 90001 27.8069 -0.00086644
549 90001 29.6152 -0.000768772
550 90001 29.6136 0.000476036
551 90001 31.4209 0.0631256
552 90001 31.4223 0.0463275
553 90001 25.9988 -0.00479754
554 90001 26.001 -0.00477401
555 90001 27.8075 -0.000633109
556 90001 27.8041 -0.000783504
557 90001 29.6155 0.00442401
558 90001 29.6159 0.00055358
559 90001 31.422 0.0573005
560 90001 31.4241 0.0701767
561 90001 26.0026 -0.00466692
562 90001 25.9994 -0.00464373
563 90001 27.8048 0.000123775
564 90001 27.8093 -0.000134175
565 90001 29.6165 -0.000893223
566 90001 29.6124 -2.40202e-05
567 90001 31.4241 -0.0209832
568 90001 31.4206 0.00794173
569 90001 25.9986 -0.00458909
570 90001 25.9971 -0.00465713
571 90001 27.8055 0.00071022
572 90001 27.809 0.000414331
573 90001 29.6118 -0.000323991
574 90001 29.6125 -0.000944394
575 90001 31.4206 -0.0437507
576 90001 31.4233 -0.0335413
577 90001 25.9971 -0.00459145
578 90001 25.996 -0.00461063
579 90001 27.8075 0.000150797
580 90001 27.8112 0.000376537
581 90001 29.6146 0.000463416
582 90001 29.6133 -0.000108907
583 90001 31.4195 -0.0103456
584 90001 31.4252 -0.0294127
585 90001 25.9999 -0.00465095
586 90001 25.9981 -0.00469846
587 90001 27.8082 -8.96119e-05
588 90001 27.8077 -0.000176694
589 90001 29.6146 0.000608841
590 90001 29.6145 -0.000713503
591 90001 31.4199 0.00551446
592 90001 31.4266 0.0202266
593 90001 25.9979 -0.00466764
594 90001 25.9983 -0.00468114
595 90001 27.8069 -0.000142413
596 90001 27.8088 -0.000571183
597 90001 29.6175 -0.00122052
598 90001 29.6131 0.000470932
599 90001 31.42 0.00298779
600 90001 31.426 0.0473554
601 90001 25.9981 -0.00476679
602 90001 26.0019 -0.00470479
603 90001 27.8091 -0.000477912
604 90001 27.8047 -0.000435871
605 90001 29.6147 -0.00221905
606 90001 29.6176 -0.00609387
607 90001 31.4207 0.0148251
608 90001 31.4194 0.0056167
609 90001 25.9994 -0.00484662
610 90001 25.9974 -0.00487886
611 90001 27.8089 -0.00116222
612 90001 27.8098 -0.000581691
613 90001 29.6123 -0.000521466
614 90001 29.6147 -0.000373353
615 90001 31.42 0.0801265
616 90001 31.4202 0.0429611
617 90001 25.998 -0.0049055
618 90001 26.001 -0.00485629
619 90001 27.8042 -0.000978832
620 90001 27.8058 -0.000669626
621 90001 29.6138 0.000295132
622 90001 29.6135 -0.00168865
623 90001 31.4222 0.0528124
624 90001 31.4219 0.0280228
625 90001 25.9989 -0.00484646
626 90001 26.0004 -0.0048141
627 90001 27.8025 -0.000649542
628 90001 27.8094 -0.000732981
629 90001 29.6181 0.00213908
630 90001 29.6149 -3.98863e-05
631 90001 31.4209 0.0445534
632 90001 31.4234 0.0421062
633 90001 25.9969 -0.00485695
634 90001 25.9965 -0.00477968
635 90001 27.8061 -0.000587455
636 90001 27.809 -0.000563693
637 90001 29.6135 0.000124208
638 90001 29.6099 0.00012755
639 90001 31.4205 0.043291
640 90001 31.4219 0.0292524
641 90001 25.9996 -0.00472567
642 90001 25.9996 -0.00470617
643 90001 27.8093 -9.62766e-06
644 90001 27.8063 -0.000306116
645 90001 29.6098 0.000120016
646 90001 29.6144 0.000891453
647 90001 31.422 0.00171233
648 90001 31.4192 0.0233392
649 90001 25.9979 -0.00467578
650 90001 26.0014 -0.00472359
651 90001 27.8092 0.000484008
652 90001 27.8066 0.000258184
653 90001 29.615 -0.00159512
654 90001 29.6115 -0.00449285
655 90001 31.423 -0.0615338
656 90001 31.42 -0.0216455
657 90001 25.9989 -0.00464327
658 90001 25.9986 -0.0047007
659 90001 27.8095 -0.000192918
660 90001 27.8044 1.47948e-05
661 90001 29.6171 -0.00345347
662 90001 29.6178 0.000976457
663 90001 31.4229 0.0228155
664 90001 31.4235 -0.0155959
665 90001 25.9977 -0.0047041
666 90001 26.002 -0.00477495
667 90001 27.8068 -0.000791685
668 90001 27.8096 -0.000813486
669 90001 29.6134 0.00137429
670 90001 29.6163 0.000624448
671 90001 31.4201 0.0738888
672 90001 31.4247 0.0937869
673 90001 26 -0.00470187
674 90001 26.0003 -0.00469458
675 90001 27.804 -0.00081988
676 90001 27.803 -0.000904139
677 90001 29.6131 0.00610293
678 90001 29.6132 0.00215111
679 90001 31.4226 0.116393
680 90001 31.4217 0.103086
681 90001 25.9996 -0.00472833
682 90001 25.9995 -0.00471869
683 90001 27.8071 -0.00056914
684 90001 27.8079 -0.000384295
685 90001 29.6143 -0.00281818
686 90001 29.615 -0.000874256
687 90001 31.4248 0.0261355
688 90001 31.42 0.0283223
689 90001 26.0012 -0.0047803
690 90001 26.0023 -0.00473613
691 90001 27.805 -0.000474552
692 90001 27.8085 -0.000231376
693 90001 29.6132 0.000450803
694 90001 29.6151 -0.00124076
695 90001 31.4196 0.0280821
696 90001 31.4207 0.0118239
697 90001 25.996 -0.00487663
698 90001 25.9988 -0.00474983
699 90001 27.8053 -0.000234935
700 90001 27.8084 -0.000334544
701 90001 29.6115 -0.00274298
702 90001 29.6103 -0.00395077
703 90001 31.4203 -0.0381616
704 90001 31.4208 -0.00333182
705 90001 25.9999 -0.00482357
706 90001 26.001 -0.0046479
707 90001 27.8057 -0.000281379
708 90001 27.8078 -0.000238467
709 90001 29.6145 -0.00455139
710 90001 29.6127 -0.00184549
711 90001 31.4214 0.0139269
712 90001 31.4229 -0.00342368
713 90001 26.0003 -0.00479327
714 90001 26.0005 -0.0046974
715 90001 27.8055 -0.000205532
716 90001 27.8013 -0.000285116
717 90001 29.6143 0.000127463
718 90001 29.6136 4.8662e-05
719 90001 31.4182 0.0165104
720 90001 31.4188 0.0071306
721 90001 25.9993 -0.00462227
722 90001 25.9993 -0.00470613
723 90001 27.8053 -1.71007e-05
724 90001 27.8046 -0.000194526
725 90001 29.6166 -0.00247866
726 90001 29.6152 -1.02113e-05
727 90001 31.4242 0.00353364
728 90001 31.4234 -0.0199779
729 90001 26.001 -0.00468548
730 90001 25.9985 -0.0047552
731 90001 27.8085 7.50599e-05
732 90001 27.8063 -6.83917e-05
733 90001 29.6163 -0.00234956
734 90001 29.6147 -0.000597558
735 90001 31.4191 -0.0323921
736 90001 31.4224 0.00937311
737 90001 26.0025 -0.00469286
738 90001 26.0005 -0.00469628
739 90001 27.8058 -0.000578065
740 90001 27.8059 -0.000529241
741 90001 29.6153 -0.000865672
742 90001 29.6154 0.00188565
743 90001 31.4251 0.0510391
744 90001 31.4217 0.0233402
745 90001 25.9978 -0.00479597
746 90001 25.9968 -0.00477074
747 90001 27.8054 -0.000717985
748 90001 27.8041 -0.000825065
749 90001 29.6134 0.000571446
750 90001 29.6111 -0.000204322
751 90001 31.4214 0.0552577
752 90001 31.4214 0.0828815
753 90001 26.0034 -0.00472511
754 90001 25.9997 -0.00467949
755 90001 27.8076 -0.000635126
756 90001 27.8028 -0.0004767
757 90001 29.6121 -0.000811736
758 90001 29.6117 0.000265345
759 90001 31.4267 0.0477478
760 90001 31.4252 0.0349312
761 90001 26.0021 -0.00467056
762 90001 25.9998 -0.00464897
763 90001 27.8058 5.4397e-05
764 90001 27.8041 -0.000216576
765 90001 29.6123 -0.000278284
766 90001 29.6139 -0.000129705
767 90001 31.4192 -0.0118725
768 90001 31.423 0.0125098
769 90001 25.9982 -0.00469885
770 90001 25.9975 -0.00469942
771 90001 27.8083 -5.12451e-05
772 90001 27.8055 5.99036e-05
773 90001 29.6155 -0.00422251
774 90001 29.6172 -0.00304896
775 90001 31.408 -0.0143575
776 90001 31.4187 -0.0297844
777 90001 26.0012 -0.00477028
778 90001 25.9971 -0.00473697
779 90001 27.8053 -0.000203537
780 90001 27.8068 -0.000336506
781 90001 29.6132 0.000538477
782 90001 29.611 0.00048926
783 90001 31.4207 0.018573
784 90001 31.4225 0.0310357
785 90001 25.997 -0.00472302
786 90001 25.9996 -0.00476162
787 90001 27.8058 -0.000236201
788 90001 27.8046 -0.000492446
789 90001 29.6157 -0.00270281
790 90001 29.6146 -0.00148474
791 90001 31.4171 -0.0234506
792 90001 31.4214 0.0339305
793 90001 26.0008 -0.00467626
794 90001 26.0012 -0.00458949
795 90001 27.8064 -0.00010554
796 90001 27.8076 0.000115573
797 90001 29.6127 -0.00288397
798 90001 29.6164 -0.00261245
799 90001 31.4197 -0.0160882
800 90001 31.4207 0.00289454
801 90002 132.343 0.00470988
802 90002 132.341 0.00465916
803 90002 130.539 -4.11806e-05
804 90002 130.537 2.03815e-05
805 90002 128.724 7.06559e-05
806 90002 128.729 -0.000239987
807 90002 126.918 -0.0142368
808 90002 126.919 -0.000321477
809 90002 132.344 0.00467122
810 90002 132.347 0.00468113
811 90002 130.532 0.000108139
812 90002 130.537 -7.03429e-05
813 90002 128.729 -0.000668972
814 90002 128.731 0.000163177
815 90002 126.92 -0.0140391
816 90002 126.923 0.00296849
817 90002 132.345 0.00460791
818 90002 132.347 0.00461118
819 90002 130.538 0.000418525
820 90002 130.541 0.000207711
821 90002 128.73 -0.00051901
822 90002 128.73 -0.002196
823 90002 126.92 -0.0442493
824 90002 126.921 -0.0234581
825 90002 132.344 0.00463179
826 90002 132.342 0.00463242
827 90002 130.539 0.000507664
828 90002 130.535 0.000528832
829 90002 128.728 -0.00153443
830 90002 128.731 -0.000748574
831 90002 126.921 -0.0479861
832 90002 126.921 -0.0669096
833 90002 132.344 0.00457652
834 90002 132.342 0.00454384
835 90002 130.54 5.14203e-05
836 90002 130.538 0.000378844
837 90002 128.727 -0.000377059
838 90002 128.728 -0.00064948
839 90002 126.922 -0.0212397
840 90002 126.923 -0.0407395
841 90002 132.345 0.00456996
842 90002 132.342 0.00443875
843 90002 130.541 -0.000417014
844 90002 130.537 -0.000161695
845 90002 128.731 -0.000408192
846 90002 128.726 0.000764741
847 90002 126.923 0.00947169
848 90002 126.92 -0.00184637
849 90002 132.344 0.00448029
850 90002 132.341 0.00442513
851 90002 130.532 -0.000203402
852 90002 130.535 -0.000127212
853 90002 128.728 0.00108855
854 90002 128.729 -0.00144056
855 90002 126.92 0.00721292
856 90002 126.918 0.00300287
857 90002 132.342 0.00455882
858 90002 132.342 0.00450577
859 90002 130.535 0.000317585
860 90002 130.533 -1.81105e-06
861 90002 128.732 -0.00129736
862 90002 128.726 -0.0016074
863 90002 126.92 -0.0393555
864 90002 126.92 -0.0307547
865 90002 132.344 0.00464964
866 90002 132.345 0.00459938
867 90002 130.531 0.000136951
868 90002 130.537 0.000134475
869 90002 128.726 -0.000775251
870 90002 128.724 0.000189853
871 90002 126.923 -0.020768
872 90002 126.923 -0.0323851
873 90002 132.342 0.00460929
874 90002 132.342 0.00462142
875 90002 130.537 6.99461e-05
876 90002 130.535 -0.000100706
877 90002 128.73 -0.00176735
878 90002 128.731 0.000432282
879 90002 126.923 0.00294849
880 90002 126.917 0.00737505
881 90002 132.344 0.00469999
882 90002 132.343 0.0046082
883 90002 130.54 0.000104342
884 90002 130.539 0.000103044
885 90002 128.725 -0.000503446
886 90002 128.731 -0.000729807
887 90002 126.923 -0.00679244
888 90002 126.919 -0.0146559
889 90002 132.345 0.00468553
890 90002 132.344 0.00461909
891 90002 130.536 -3.72883e-05
892 90002 130.539 -0.000412914
893 90002 128.724 -0.000249147
894 90002 128.728 0.000352579
895 90002 126.923 0.013048
896 90002 126.926 0.020504
897 90002 132.344 0.00456452
898 90002 132.342 0.00471475
899 90002 130.538 0.000467027
900 90002 130.541 -0.00012735
901 90002 128.726 -0.000163973
902 90002 128.73 -0.00158111
903 90002 126.922 -0.0395762
904 90002 126.922 0.0178736
905 90002 132.345 0.00463138
906 90002 132.346 0.00462438
907 90002 130.536 0.000654482
908 90002 130.538 0.000370517
909 90002 128.73 -0.00133582
910 90002 128.732 -0.00108047
911 90002 126.924 -0.057777
912 90002 126.921 -0.0515134
913 90002 132.345 0.00462331
914 90002 132.346 0.00457579
915 90002 130.536 0.000250237
916 90002 130.54 0.000481922
917 90002 128.729 -0.000742239
918 90002 128.724 -0.00246568
919 90002 126.921 -0.0439754
920 90002 126.924 -0.0399247
921 90002 132.344 0.00460916
922 90002 132.344 0.00448851
923 90002 130.539 -7.56402e-05
924 90002 130.535 0.000270678
925 90002 128.729 -0.00282444
926 90002 128.732 -0.00168802
927 90002 126.924 -0.00915245
928 90002 126.921 -0.0539534
929 90002 132.345 0.00447278
930 90002 132.341 0.00439642
931 90002 130.538 1.00974e-05
932 90002 130.537 0.000219959
933 90002 128.725 -0.00114001
934 90002 128.727 -0.00106148
935 90002 126.922 -0.0322298
936 90002 126.923 -0.0388671
937 90002 132.344 0.00449793
938 90002 132.343 0.00450999
939 90002 130.533 4.35224e-06
940 90002 130.534 0.000115599
941 90002 128.732 -0.00146164
942 90002 128.728 9.76172e-05
943 90002 126.917 -0.0158395
944 90002 126.923 -0.0064005
945 90002 132.34 0.00456187
946 90002 132.34 0.00458972
947 90002 130.535 3.12198e-05
948 90002 130.536 1.01152e-05
949 90002 128.728 -0.00153604
950 90002 128.728 -0.00127211
951 90002 126.921 -0.00841332
952 90002 126.92 -0.000325481
953 90002 132.343 0.00468749
954 90002 132.343 0.00462613
955 90002 130.539 6.75252e-05
956 90002 130.539 3.60349e-05
957 90002 128.731 -0.000396077
958 90002 128.731 -0.000517251
959 90002 126.922 -0.00416634
960 90002 126.925 -0.00965014
961 90002 132.348 0.00465394
962 90002 132.342 0.00461787
963 90002 130.535 -0.000104153
964 90002 130.54 8.96268e-05
965 90002 128.731 -0.000830437
966 90002 128.725 0.00102166
967 90002 126.919 0.0128964
968 90002 126.921 0.00164834
969 90002 132.342 0.00463001
970 90002 132.345 0.00461671
971 90002 130.54 -0.000527086
972 90002 130.539 -0.000821329
973 90002 128.729 0.00219454
974 90002 128.729 0.000984487
975 90002 126.922 0.0481047
976 90002 126.92 0.0907858
977 90002 132.344 0.00466737
978 90002 132.344 0.00466385
979 90002 130.535 -0.000193219
980 90002 130.535 -0.000606776
981 90002 128.727 0.00020281
982 90002 128.732 3.90311e-05
983 90002 126.922 0.0278502
984 90002 126.922 0.0429379
985 90002 132.342 0.00465271
986 90002 132.344 0.00468087
987 90002 130.535 0.00029232
988 90002 130.539 0.000140621
989 90002 128.729 -0.00317554
990 90002 128.726 -0.00123003
991 90002 126.922 -0.026488
992 90002 126.922 -0.0156437
993 90002 132.344 0.00464087
994 90002 132.343 0.00466183
995 90002 130.54 0.000283524
996 90002 130.536 0.000100496
997 90002 128.727 0.000403432
998 90002 128.729 0.00142851
999 90002 126.921 -0.0215905
1000 90002 126.927 0.000646652
1001 90002 132.344 0.00453089
1002 90002 132.345 0.00455831
1003 90002 130.536 0.00016098
1004 90002 130.54 -0.000116964
1005 90002 128.735 -0.000148772
1006 90002 128.727 0.00021511
1007 90002 126.92 -0.0212072
1008 90002 126.919 0.00691661
1009 90002 132.343 0.00451216
1010 90002 132.343 0.00450885
1011 90002 130.536 0.000397596
1012 90002 130.538 0.000376427
1013 90002 128.73 -0.0014973
1014 90002 128.731 -0.00454927
1015 90002 126.92 -0.0778978
1016 90002 126.918 -0.0680728
1017 90002 132.341 0.00449983
1018 90002 132.345 0.00452827
1019 90002 130.533 0.000206463
1020 90002 130.534 0.000538453
1021 90002 128.728 -0.000760214
1022 90002 128.723 -0.00113059
1023 90002 126.921 -0.0210072
1024 90002 126.919 -0.0819119
1025 90002 132.342 0.00455469
1026 90002 132.345 0.00466157
1027 90002 130.534 0.000277263
1028 90002 130.537 0.000556365
1029 90002 128.728 9.33595e-05
1030 90002 128.726 -0.000609409
1031 90002 126.919 -0.0303465
1032 90002 126.924 -0.0487465
1033 90002 132.341 0.00459248
1034 90002 132.342 0.00467322
1035 90002 130.535 0.000256613
1036 90002 130.537 0.000533909
1037 90002 128.732 -0.0010732
1038 90002 128.729 -0.00105615
1039 90002 126.922 -0.017114
1040 90002 126.922 -0.0500545
1041 90002 132.344 0.00470291
1042 90002 132.341 0.00469443
1043 90002 130.534 -0.000375019
1044 90002 130.539 0.000396552
1045 90002 128.73 -0.000800846
1046 90002 128.726 -0.000260702
1047 90002 126.924 0.0320673
1048 90002 126.919 -0.0273879
1049 90002 132.344 0.00473995
1050 90002 132.344 0.00466585
1051 90002 130.534 -0.000737361
1052 90002 130.536 -0.000466752
1053 90002 128.726 0.00279255
1054 90002 128.727 0.00104031
1055 90002 126.921 0.0747696
1056 90002 126.921 0.051487
1057 90002 132.342 0.00459697
1058 90002 132.343 0.00471977
1059 90002 130.539 -0.000430026
1060 90002 130.538 -0.000723516
1061 90002 128.728 0.00118095
1062 90002 128.731 0.000606152
1063 90002 126.923 0.0472809
1064 90002 126.922 0.060668
1065 90002 132.344 0.00474367
1066 90002 132.34 0.00481174
1067 90002 130.533 0.000165268
1068 90002 130.535 -0.000456019
1069 90002 128.731 -1.02961e-05
1070 90002 128.732 -0.000499551
1071 90002 126.919 -0.0100812
1072 90002 126.924 0.035221
1073 90002 132.342 0.00470662
1074 90002 132.34 0.00469629
1075 90002 130.538 -8.28206e-05
1076 90002 130.536 0.000126988
1077 90002 128.727 -0.00171082
1078 90002 128.728 -0.00420525
1079 90002 126.92 -0.016707
1080 90002 126.925 -0.0118147
1081 90002 132.345 0.00463067
1082 90002 132.34 0.00471148
1083 90002 130.542 9.9985e-05
1084 90002 130.539 7.00763e-08
1085 90002 128.727 -0.000747366
1086 90002 128.725 0.000443811
1087 90002 126.923 -0.0146405
1088 90002 126.921 -0.00608051
1089 90002 132.345 0.00459953
1090 90002 132.345 0.0046602
1091 90002 130.535 0.00087352
1092 90002 130.537 0.000275722
1093 90002 128.73 -0.00162163
1094 90002 128.728 -0.000136352
1095 90002 126.92 -0.118702
1096 90002 126.922 -0.0302278
1097 90002 132.344 0.00471285
1098 90002 132.346 0.00464465
1099 90002 130.537 0.000504706
1100 90002 130.537 0.000392746
1101 90002 128.73 -0.00433415
1102 90002 128.728 -0.00267535
1103 90002 126.924 -0.0710085
1104 90002 126.922 -0.0742982
1105 90002 132.344 0.00459637
1106 90002 132.344 0.00475478
1107 90002 130.536 0.000554253
1108 90002 130.534 0.000538442
1109 90002 128.726 -0.000920754
1110 90002 128.722 -0.000268236
1111 90002 126.922 -0.0486601
1112 90002 126.922 -0.0370114
1113 90002 132.346 0.00473203
1114 90002 132.34 0.00478024
1115 90002 130.541 0.000329627
1116 90002 130.538 0.00044266
1117 90002 128.731 -0.00108858
1118 90002 128.726 -0.000128091
1119 90002 126.921 -0.0312259
1120 90002 126.922 -0.0328943
1121 90002 132.344 0.00479929
1122 90002 132.342 0.00479716
1123 90002 130.539 0.000258579
1124 90002 130.534 0.000242168
1125 90002 128.723 -0.00157628
1126 90002 128.731 -0.00138797
1127 90002 126.923 -0.0174074
1128 90002 126.921 -0.00717432
1129 90002 132.344 0.00471867
1130 90002 132.346 0.00476776
1131 90002 130.537 -0.000500073
1132 90002 130.537 -2.76014e-05
1133 90002 128.726 -0.00257849
1134 90002 128.725 -0.000240357
1135 90002 126.921 0.053598
1136 90002 126.923 -0.000311151
1137 90002 132.344 0.0047479
1138 90002 132.341 0.00471613
1139 90002 130.537 -0.000456192
1140 90002 130.535 -0.000836058
1141 90002 128.726 0.000917275
1142 90002 128.727 0.00116319
1143 90002 126.922 0.0586635
1144 90002 126.922 0.0849567
1145 90002 132.346 0.0047459
1146 90002 132.344 0.0047401
1147 90002 130.536 -0.000104226
1148 90002 130.537 -0.000386681
1149 90002 128.729 -0.000427137
1150 90002 128.725 9.60039e-05
1151 90002 126.919 0.0202077
1152 90002 126.916 0.0568151
1153 90002 132.34 0.00468102
1154 90002 132.347 0.0048088
1155 90002 130.536 0.000223063
1156 90002 130.536 -3.87269e-05
1157 90002 128.73 0.0010053
1158 90002 128.727 3.13313e-05
1159 90002 126.922 -0.0103418
1160 90002 126.921 0.0229442
1161 90002 132.342 0.00465699
1162 90002 132.342 0.00481969
1163 90002 130.534 0.000107495
1164 90002 130.537 0.000216727
1165 90002 128.727 -0.00179733
1166 90002 128.731 -0.00523229
1167 90002 126.921 -0.0136909
1168 90002 126.918 -0.0192526
1169 90002 132.344 0.00460889
1170 90002 132.342 0.00464165
1171 90002 130.535 0.000306642
1172 90002 130.536 0.000216679
1173 90002 128.728 -0.00121651
1174 90002 128.729 -0.00279564
1175 90002 126.921 -0.0240011
1176 90002 126.922 -0.0340355
1177 90002 132.344 0.00463977
1178 90002 132.344 0.00479703
1179 90002 130.537 0.000456378
1180 90002 130.535 0.000443761
1181 90002 128.726 -0.000877614
1182 90002 128.729 -0.000204726
1183 90002 126.924 -0.0304471
1184 90002 126.921 -0.0311802
1185 90002 132.341 0.00472617
1186 90002 132.34 0.00481551
1187 90002 130.534 0.000262969
1188 90002 130.535 0.000229169
1189 90002 128.729 -0.000187721
1190 90002 128.73 0.00112326
1191 90002 126.922 -0.0153146
1192 90002 126.923 0.00620936
1193 90002 132.347 0.00475988
1194 90002 132.341 0.00478149
1195 90002 130.534 0.000387594
1196 90002 130.538 0.000389041
1197 90002 128.73 -0.000216782
1198 90002 128.729 -0.00379266
1199 90002 126.921 -0.0381516
1200 90002 126.922 -0.0353377
1201 90002 132.341 0.0047998
1202 90002 132.344 0.00480871
1203 90002 130.535 -0.0003348
1204 90002 130.535 8.53694e-05
1205 90002 128.727 0.00159827
1206 90002 128.725 0.00149006
1207 90002 126.921 0.0367068
1208 90002 126.92 0.0212614
1209 90002 132.343 0.00477387
1210 90002 132.342 0.0047782
1211 90002 130.536 -0.000412756
1212 90002 130.538 -0.000398635
1213 90002 128.728 0.000256873
1214 90002 128.731 1.72218e-05
1215 90002 126.921 0.0574289
1216 90002 126.917 0.0619078
1217 90002 132.345 0.00476771
1218 90002 132.343 0.00476379
1219 90002 130.538 -0.000720505
1220 90002 130.536 -0.000309649
1221 90002 128.729 0.000922419
1222 90002 128.732 0.00134544
1223 90002 126.921 0.0903346
1224 90002 126.923 0.0534075
1225 90002 132.345 0.00473993
1226 90002 132.344 0.00472852
1227 90002 130.539 -0.000333667
1228 90002 130.533 -0.000643911
1229 90002 128.728 0.00159315
1230 90002 128.727 0.000326318
1231 90002 126.92 0.0554803
1232 90002 126.926 0.0772519
1233 90002 132.345 0.00476654
1234 90002 132.348 0.00478416
1235 90002 130.539 0.000121149
1236 90002 130.533 5.30005e-05
1237 90002 128.731 -0.00143828
1238 90002 128.728 -0.000277418
1239 90002 126.921 -0.00668879
1240 90002 126.922 0.0114073
1241 90002 132.342 0.00476871
1242 90002 132.344 0.00471796
1243 90002 130.536 5.73249e-05
1244 90002 130.536 4.05014e-05
1245 90002 128.73 -0.000324752
1246 90002 128.73 0.000425654
1247 90002 126.923 -0.018818
1248 90002 126.926 0.0220149
1249 90002 132.341 0.00478323
1250 90002 132.343 0.00481129
1251 90002 130.536 0.000351797
1252 90002 130.535 0.000134859
1253 90002 128.726 -0.00276749
1254 90002 128.729 -0.00015643
1255 90002 126.918 -0.0206816
1256 90002 126.919 0.0169012
1257 90002 132.346 0.00485473
1258 90002 132.344 0.00480427
1259 90002 130.54 0.000470462
1260 90002 130.539 0.000453301
1261 90002 128.73 -0.0017486
1262 90002 128.728 -0.00367288
1263 90002 126.918 -0.0309354
1264 90002 126.923 -0.0259353
1265 90002 132.342 0.00482542
1266 90002 132.347 0.00481597
1267 90002 130.534 0.000162509
1268 90002 130.537 0.00039234
1269 90002 128.729 0.00027601
1270 90002 128.729 -0.0017184
1271 90002 126.922 -0.00131487
1272 90002 126.92 -0.0392542
1273 90002 132.347 0.004824
1274 90002 132.342 0.00478986
1275 90002 130.532 0.000102491
1276 90002 130.538 0.000303558
1277 90002 128.732 -0.00185875
1278 90002 128.727 0.000688053
1279 90002 126.925 -0.00685318
1280 90002 126.919 0.00562888
1281 90002 132.344 0.00483354
1282 90002 132.342 0.00478655
1283 90002 130.537 -4.40442e-05
1284 90002 130.538 0.0001459
1285 90002 128.725 -0.00328828
1286 90002 128.729 0.00076211
1287 90002 126.922 0.0294589
1288 90002 126.923 -0.00925951
1289 90002 132.339 0.00478694
1290 90002 132.345 0.00482961
1291 90002 130.538 -8.83267e-05
1292 90002 130.537 5.44944e-05
1293 90002 128.726 0.000851033
1294 90002 128.728 -0.00146937
1295 90002 126.923 0.00945554
1296 90002 126.922 0.0170802
1297 90002 132.344 0.00483259
1298 90002 132.342 0.0048236
1299 90002 130.536 -0.000265906
1300 90002 130.536 0.000122196
1301 90002 128.732 -0.000828625
1302 90002 128.729 -0.000922219
1303 90002 126.922 0.0442755
1304 90002 126.919 0.00591413
1305 90002 132.342 0.00477908
1306 90002 132.345 0.00482588
1307 90002 130.537 -1.33701e-05
1308 90002 130.538 -0.000198536
1309 90002 128.728 0.000293687
1310 90002 128.729 -0.00689382
1311 90002 126.921 0.00986104
1312 90002 126.924 -0.00188501
1313 90002 132.344 0.00474207
1314 90002 132.343 0.00476406
1315 90002 130.534 -4.10167e-05
1316 90002 130.537 2.08341e-06
1317 90002 128.729 -0.00164249
1318 90002 128.727 0.000605796
1319 90002 126.92 0.0241202
1320 90002 126.919 0.00708587
1321 90002 132.342 0.0047249
1322 90002 132.343 0.00476244
1323 90002 130.538 -6.01178e-05
1324 90002 130.536 -4.9845e-05
1325 90002 128.728 0.000760597
1326 90002 128.729 -0.00032756
1327 90002 126.923 0.0310078
1328 90002 126.923 0.0228214
1329 90002 132.34 0.00475668
1330 90002 132.342 0.00462646
1331 90002 130.539 0.000146563
1332 90002 130.536 9.47332e-05
1333 90002 128.732 0.00139026
1334 90002 128.731 -0.000739687
1335 90002 126.918 0.0152765
1336 90002 126.922 -0.00325723
1337 90002 132.34 0.00480749
1338 90002 132.341 0.00477056
1339 90002 130.532 0.000242224
1340 90002 130.538 0.000229348
1341 90002 128.729 -0.00453631
1342 90002 128.729 -0.00439334
1343 90002 126.923 -0.048971
1344 90002 126.921 -0.0165935
1345 90002 132.344 0.00482407
1346 90002 132.343 0.00478567
1347 90002 130.538 0.000311163
1348 90002 130.539 8.57431e-05
1349 90002 128.729 -0.00427737
1350 90002 128.73 0.000798804
1351 90002 126.923 0.00164139
1352 90002 126.924 0.00793956
1353 90002 132.345 0.00480917
1354 90002 132.343 0.00488023
1355 90002 130.538 0.000100397
1356 90002 130.538 0.000109073
1357 90002 128.73 -0.000334022
1358 90002 128.725 -0.00421213
1359 90002 126.921 -0.0233881
1360 90002 126.925 0.0016322
1361 90002 132.344 0.00480809
1362 90002 132.344 0.0048051
1363 90002 130.538 6.7543e-05
1364 90002 130.541 -9.30074e-05
1365 90002 128.727 -7.57146e-05
1366 90002 128.728 -0.000472705
1367 90002 126.923 0.0142307
1368 90002 126.923 0.00864354
1369 90002 132.343 0.00477761
1370 90002 132.344 0.00480521
1371 90002 130.537 0.000157915
1372 90002 130.537 5.2944e-05
1373 90002 128.73 0.000172386
1374 90002 128.731 0.000811417
1375 90002 126.92 -0.000353859
1376 90002 126.921 0.01001
1377 90002 132.347 0.00480379
1378 90002 132.347 0.00477153
1379 90002 130.537 0.000170064
1380 90002 130.535 -2.46688e-05
1381 90002 128.73 -0.000321223
1382 90002 128.727 0.00114865
1383 90002 126.921 0.00684858
1384 90002 126.923 0.00401517
1385 90002 132.35 0.00483887
1386 90002 132.343 0.00464876
1387 90002 130.533 0.000105472
1388 90002 130.539 0.000119712
1389 90002 128.731 -0.00449332
1390 90002 128.728 0.00031078
1391 90002 126.924 -0.00665105
1392 90002 126.922 0.00946333
1393 90002 132.348 0.00469235
1394 90002 132.349 0.00472092
1395 90002 130.539 -0.000262101
1396 90002 130.537 -0.000317507
1397 90002 128.732 -0.000916916
1398 90002 128.727 -0.000417482
1399 90002 126.922 0.0209963
1400 90002 126.925 0.0361675
1401 90002 132.342 0.00465433
1402 90002 132.345 0.0046341
1403 90002 130.533 0.000346514
1404 90002 130.538 -0.000193551
1405 90002 128.727 -0.00010059
1406 90002 128.727 -0.00251412
1407 90002 126.925 -0.0217642
1408 90002 126.925 0.021631
1409 90002 132.341 0.00470266
1410 90002 132.344 0.0046896
1411 90002 130.54 0.00017156
1412 90002 130.532 0.000357765
1413 90002 128.726 -0.00358146
1414 90002 128.729 -0.000584866
1415 90002 126.921 -0.018555
1416 90002 126.918 -0.0462836
1417 90002 132.342 0.00473857
1418 90002 132.343 0.00471013
1419 90002 130.533 -0.000289235
1420 90002 130.536 -0.000254856
1421 90002 128.728 0.00251519
1422 90002 128.727 0.00207556
1423 90002 126.924 0.0342989
1424 90002 126.922 0.0378907
1425 90002 132.344 0.00469488
1426 90002 132.343 0.00463484
1427 90002 130.533 -5.98674e-05
1428 90002 130.534 -0.000127628
1429 90002 128.73 -0.000129484
1430 90002 128.728 -0.000243945
1431 90002 126.919 0.0144349
1432 90002 126.919 0.0148403
1433 90002 132.341 0.00473882
1434 90002 132.346 0.00476767
1435 90002 130.539 0.000261034
1436 90002 130.536 -3.25482e-05
1437 90002 128.729 -0.000529873
1438 90002 128.729 -0.000636368
1439 90002 126.916 -0.0128256
1440 90002 126.922 0.00296448
1441 90002 132.342 0.00472145
1442 90002 132.342 0.0046981
1443 90002 130.539 -2.24761e-05
1444 90002 130.537 -0.000124754
1445 90002 128.726 0.000638634
1446 90002 128.728 0.000397291
1447 90002 126.92 0.0114996
1448 90002 126.921 0.0281883
1449 90002 132.34 0.00480621
1450 90002 132.343 0.00465894
1451 90002 130.536 0.000177996
1452 90002 130.537 -4.45088e-05
1453 90002 128.729 -0.000118319
1454 90002 128.732 -0.00147187
1455 90002 126.922 -0.00523151
1456 90002 126.922 0.00817522
1457 90002 132.341 0.00477359
1458 90002 132.343 0.00471873
1459 90002 130.538 -1.31152e-05
1460 90002 130.536 0.000217577
1461 90002 128.732 -0.00139172
1462 90002 128.726 -0.00015555
1463 90002 126.922 0.0117256
1464 90002 126.923 -0.0178107
1465 90002 132.343 0.0047264
1466 90002 132.343 0.00463773
1467 90002 130.539 -0.000125869
1468 90002 130.535 1.34823e-05
1469 90002 128.727 0.000235282
1470 90002 128.728 -0.000655329
1471 90002 126.92 0.0211069
1472 90002 126.919 -0.007686
1473 90002 132.342 0.00462844
1474 90002 132.34 0.00457198
1475 90002 130.54 -0.000416901
1476 90002 130.538 -0.00015658
1477 90002 128.733 0.00139657
1478 90002 128.729 0.000471889
1479 90002 126.924 0.0601221
1480 90002 126.924 0.0154202
1481 90002 132.345 0.00456277
1482 90002 132.344 0.00457138
1483 90002 130.533 0.000170176
1484 90002 130.538 -0.000321235
1485 90002 128.728 0.000279884
1486 90002 128.73 -0.000390635
1487 90002 126.922 -0.0241616
1488 90002 126.922 0.0229671
1489 90002 132.344 0.00460889
1490 90002 132.344 0.00462704
1491 90002 130.537 0.000470755
1492 90002 130.538 0.000313956
1493 90002 128.727 -0.0029072
1494 90002 128.728 -0.00695401
1495 90002 126.922 -0.0287013
1496 90002 126.923 -0.049885
1497 90002 132.343 0.00459209
1498 90002 132.348 0.00456854
1499 90002 130.537 2.71627e-05
1500 90002 130.534 0.000214168
1501 90002 128.727 -0.000580568
1502 90002 128.729 -0.000467443
1503 90002 126.92 0.00100109
1504 90002 126.921 -0.0471102
1505 90002 132.34 0.00458405
1506 90002 132.344 0.00463671
1507 90002 130.538 -0.000194151
1508 90002 130.536 -7.69667e-05
1509 90002 128.731 -0.000496319
1510 90002 128.729 0.000128509
1511 90002 126.918 0.0299008
1512 90002 126.919 -0.00522051
1513 90002 132.345 0.00468741
1514 90002 132.344 0.00466611
1515 90002 130.535 -0.000134492
1516 90002 130.533 -0.000298828
1517 90002 128.729 0.00061639
1518 90002 128.728 0.000507526
1519 90002 126.918 0.0195395
1520 90002 126.919 0.0220148
1521 90002 132.343 0.004675
1522 90002 132.345 0.00469568
1523 90002 130.534 -8.7812e-05
1524 90002 130.536 -8.17919e-05
1525 90002 128.731 0.000486436
1526 90002 128.728 -0.000796885
1527 90002 126.92 0.018296
1528 90002 126.925 0.0109371
1529 90002 132.343 0.00473213
1530 90002 132.342 0.00467721
1531 90002 130.538 7.10865e-05
1532 90002 130.534 0.000106632
1533 90002 128.726 0.000170914
1534 90002 128.728 -0.000185481
1535 90002 126.922 -0.00298913
1536 90002 126.92 -0.0126069
1537 90002 132.341 0.00468384
1538 90002 132.344 0.00462253
1539 90002 130.533 0.000116711
1540 90002 130.535 0.000178528
1541 90002 128.727 0.000855974
1542 90002 128.729 -0.000464937
1543 90002 126.926 -0.0117129
1544 90002 126.923 -0.00886961
1545 90002 132.345 0.00465344
1546 90002 132.342 0.00457386
1547 90002 130.538 8.27963e-05
1548 90002 130.537 0.000316191
1549 90002 128.731 -0.000845373
1550 90002 128.728 -0.000665166
1551 90002 126.924 -0.00835941
1552 90002 126.924 -0.0382948
1553 90002 132.341 0.00456703
1554 90002 132.341 0.0045485
1555 90002 130.535 -0.000183029
1556 90002 130.536 -1.3153e-05
1557 90002 128.729 -0.000541023
1558 90002 128.73 -0.000482131
1559 90002 126.922 0.00235376
1560 90002 126.92 -0.028093
1561 90002 132.346 0.00460658
1562 90002 132.345 0.00452143
1563 90002 130.534 1.17363e-05
1564 90002 130.539 -0.00017052
1565 90002 128.727 -0.000373163
1566 90002 128.73 -0.00186602
1567 90002 126.921 -0.0109717
1568 90002 126.918 -0.0104849
1569 90002 132.343 0.00450132
1570 90002 132.339 0.00446798
1571 90002 130.533 0.00011214
1572 90002 130.537 -0.000174103
1573 90002 128.729 -0.00323435
1574 90002 128.731 0.000623468
1575 90002 126.928 -0.0513499
1576 90002 126.923 0.0242856
1577 90002 132.344 0.00469018
1578 90002 132.344 0.00457399
1579 90002 130.536 0.000208971
1580 90002 130.536 0.000119195
1581 90002 128.73 -0.00655222
1582 90002 128.727 -0.00461101
1583 90002 126.919 -0.0529052
1584 90002 126.923 -0.0513714
1585 90002 132.345 0.0046233
1586 90002 132.345 0.00464878
1587 90002 130.539 0.00018955
1588 90002 130.538 0.000243689
1589 90002 128.731 -0.000369533
1590 90002 128.73 -0.0008433
1591 90002 126.922 -0.00835666
1592 90002 126.921 -0.0338359
1593 90002 132.343 0.00466288
1594 90002 132.346 0.00465338
1595 90002 130.536 -4.50862e-05
1596 90002 130.538 0.000116168
1597 90002 128.728 -0.00047424
1598 90002 128.731 -0.000474666
1599 90002 126.921 0.0126665
1600 90002 126.922 -0.0202011
