# referee item 4: NVE of SPC-FQ water, arm matched_tol1e-9 (run_nve.py)
units        metal
atom_style   full
boundary     p p p
lattice      sc 3.1
region       box block 0 4 0 4 0 4
create_box   2 box
mass         1 15.9994
mass         2 1.008
molecule     h2o spcfq.mol
create_atoms 0 box mol h2o 12345
group        fq type 1 2
set          type 1 charge -0.85
set          type 2 charge  0.425
pair_style   hybrid/overlay lj/cut 10.0 coul/long 10.0 coul/shield/intra 10.0 all
pair_coeff   1 1 lj/cut 0.01275 3.176
pair_coeff   1 2 lj/cut 0.0 1.0
pair_coeff   2 2 lj/cut 0.0 1.0
pair_coeff   * * coul/long
pair_coeff   * * coul/shield/intra 1.11
pair_modify  pair lj/cut shift yes
kspace_style pppm/samqeq 1.0e-6
neighbor     2.0 bin
neigh_modify every 1 delay 0 check yes
fix          chg fq qeq/sam 1 0.0 10.0 1.0e-9 spcfq_expt.param
fix_modify   chg energy yes

compute      dip fq dipole/samqeq
timestep     0.001
velocity     all create 298 123456 mom yes rot yes dist gaussian
fix          integ all rigid/nvt/small molecule temp 298 298 0.1
thermo_style custom step temp pe etotal c_dip
thermo       1000
run          100000
unfix        integ
reset_timestep 0
fix          integ all rigid/nve/small molecule
thermo       100
run          200000
print        "NVE_DONE" file done.txt screen no
