ITEM: TIMESTEP
0
ITEM: NUMBER OF ATOMS
240
ITEM: BOX BOUNDS pp pp ff
0.0000000000000000e+00 1.7650658050000001e+01
0.0000000000000000e+00 2.0381224350000000e+01
0.0000000000000000e+00 6.0000000000000000e+01
ITEM: ATOMS id type q
1 1 -0.0306676693754
2 1 -0.0306676317371
3 1 -0.0306676099725
4 1 -0.0306676425864
5 1 -0.0306676694287
6 1 -0.0306676317514
7 1 -0.0306676099393
8 1 -0.0306676425253
9 1 -0.03066766938
10 1 -0.0306676317452
11 1 -0.0306676099771
12 1 -0.0306676425945
13 1 -0.0306676694334
14 1 -0.0306676317595
15 1 -0.0306676099439
16 1 -0.0306676425334
17 1 -0.0306676693902
18 1 -0.030667631754
19 1 -0.0306676099873
20 1 -0.0306676426033
21 1 -0.0306676694436
22 1 -0.0306676317682
23 1 -0.0306676099541
24 1 -0.0306676425421
25 1 -0.0306676693937
26 1 -0.0306676317505
27 1 -0.0306676099908
28 1 -0.0306676425998
29 1 -0.030667669447
30 1 -0.0306676317647
31 1 -0.0306676099576
32 1 -0.0306676425387
33 1 -0.0306676693849
34 1 -0.0306676317403
35 1 -0.030667609982
36 1 -0.0306676425896
37 1 -0.0306676694383
38 1 -0.0306676317546
39 1 -0.0306676099488
40 1 -0.0306676425285
41 1 -0.0306676693768
42 1 -0.0306676317357
43 1 -0.0306676099739
44 1 -0.030667642585
45 1 -0.0306676694302
46 1 -0.0306676317499
47 1 -0.0306676099407
48 1 -0.0306676425238
49 1 0.00718537636293
50 1 0.00718542631594
51 1 0.00718542012934
52 1 0.00718537274679
53 1 0.00718537632883
54 1 0.00718542632298
55 1 0.00718542017336
56 1 0.00718537280221
57 1 0.00718537635892
58 1 0.00718542631021
59 1 0.00718542012532
60 1 0.00718537274107
61 1 0.00718537632481
62 1 0.00718542631726
63 1 0.00718542016934
64 1 0.00718537279649
65 1 0.00718537635363
66 1 0.00718542630803
67 1 0.00718542012003
68 1 0.00718537273888
69 1 0.00718537631953
70 1 0.00718542631508
71 1 0.00718542016405
72 1 0.00718537279431
73 1 0.00718537635581
74 1 0.00718542631332
75 1 0.00718542012221
76 1 0.00718537274417
77 1 0.00718537632171
78 1 0.00718542632036
79 1 0.00718542016623
80 1 0.00718537279959
81 1 0.00718537636154
82 1 0.00718542631733
83 1 0.00718542012794
84 1 0.00718537274819
85 1 0.00718537632743
86 1 0.00718542632438
87 1 0.00718542017196
88 1 0.00718537280361
89 1 0.00718537636315
90 1 0.00718542631755
91 1 0.00718542012956
92 1 0.00718537274841
93 1 0.00718537632905
94 1 0.0071854263246
95 1 0.00718542017357
96 1 0.00718537280383
97 1 -4.19082667624e-05
98 1 -4.18872854312e-05
99 1 -4.19084061303e-05
100 1 -4.19293972343e-05
101 1 -4.19082768609e-05
102 1 -4.18872620813e-05
103 1 -4.19083634359e-05
104 1 -4.19293608537e-05
105 1 -4.19082667043e-05
106 1 -4.18872853791e-05
107 1 -4.19084060723e-05
108 1 -4.19293971822e-05
109 1 -4.19082768028e-05
110 1 -4.18872620292e-05
111 1 -4.19083633778e-05
112 1 -4.19293608016e-05
113 1 -4.19082666821e-05
114 1 -4.18872854014e-05
115 1 -4.19084060501e-05
116 1 -4.19293972043e-05
117 1 -4.19082767807e-05
118 1 -4.18872620514e-05
119 1 -4.19083633556e-05
120 1 -4.19293608238e-05
121 1 -4.19082667342e-05
122 1 -4.18872854594e-05
123 1 -4.19084061021e-05
124 1 -4.19293972624e-05
125 1 -4.19082768327e-05
126 1 -4.18872621095e-05
127 1 -4.19083634077e-05
128 1 -4.19293608819e-05
129 1 -4.19082667833e-05
130 1 -4.18872854913e-05
131 1 -4.19084061513e-05
132 1 -4.19293972944e-05
133 1 -4.19082768818e-05
134 1 -4.18872621414e-05
135 1 -4.19083634568e-05
136 1 -4.19293609139e-05
137 1 -4.19082667943e-05
138 1 -4.18872854803e-05
139 1 -4.19084061623e-05
140 1 -4.19293972833e-05
141 1 -4.19082768929e-05
142 1 -4.18872621303e-05
143 1 -4.19083634678e-05
144 1 -4.19293609029e-05
145 1 -0.00704224056618
146 1 -0.00704223708615
147 1 -0.00704228417083
148 1 -0.00704229022688
149 1 -0.00704224055627
150 1 -0.00704223705468
151 1 -0.00704228413846
152 1 -0.00704229021173
153 1 -0.00704224056102
154 1 -0.00704223708404
155 1 -0.00704228416567
156 1 -0.00704229022476
157 1 -0.00704224055111
158 1 -0.00704223705256
159 1 -0.0070422841333
160 1 -0.00704229020962
161 1 -0.00704224056313
162 1 -0.0070422370892
163 1 -0.00704228416779
164 1 -0.00704229022992
165 1 -0.00704224055322
166 1 -0.00704223705772
167 1 -0.00704228413541
168 1 -0.00704229021478
169 1 -0.00704224056878
170 1 -0.0070422370932
171 1 -0.00704228417343
172 1 -0.00704229023393
173 1 -0.00704224055887
174 1 -0.00704223706173
175 1 -0.00704228414106
176 1 -0.00704229021878
177 1 -0.00704224057041
178 1 -0.00704223709343
179 1 -0.00704228417506
180 1 -0.00704229023415
181 1 -0.0070422405605
182 1 -0.00704223706195
183 1 -0.00704228414269
184 1 -0.00704229021901
185 1 -0.00704224057018
186 1 -0.0070422370918
187 1 -0.00704228417484
188 1 -0.00704229023252
189 1 -0.00704224056027
190 1 -0.00704223706032
191 1 -0.00704228414246
192 1 -0.00704229021738
193 1 0.0305664417433
194 1 0.0305664149266
195 1 0.0305663825053
196 1 0.0305664042584
197 1 0.0305664417656
198 1 0.030566414955
199 1 0.0305663825217
200 1 0.0305664042546
201 1 0.0305664417469
202 1 0.030566414923
203 1 0.0305663825089
204 1 0.0305664042548
205 1 0.0305664417692
206 1 0.0305664149514
207 1 0.0305663825253
208 1 0.030566404251
209 1 0.0305664417379
210 1 0.0305664149126
211 1 0.0305663824999
212 1 0.0305664042444
213 1 0.0305664417602
214 1 0.030566414941
215 1 0.0305663825162
216 1 0.0305664042407
217 1 0.0305664417297
218 1 0.030566414908
219 1 0.0305663824917
220 1 0.0305664042398
221 1 0.030566441752
222 1 0.0305664149364
223 1 0.0305663825081
224 1 0.030566404236
225 1 0.0305664417283
226 1 0.0305664149094
227 1 0.0305663824903
228 1 0.0305664042412
229 1 0.0305664417506
230 1 0.0305664149378
231 1 0.0305663825067
232 1 0.0305664042374
233 1 0.0305664417329
234 1 0.0305664149175
235 1 0.030566382495
236 1 0.0305664042494
237 1 0.0305664417553
238 1 0.030566414946
239 1 0.0305663825113
240 1 0.0305664042456
