ITEM: TIMESTEP
0
ITEM: NUMBER OF ATOMS
2162
ITEM: BOX BOUNDS pp pp ff
0.0000000000000000e+00 5.2951974149999998e+01
0.0000000000000000e+00 6.1143673049999997e+01
0.0000000000000000e+00 6.0000000000000000e+01
ITEM: ATOMS id mol type q x y z
1 1 1 0.000668083629551 0.00000000 0.00000000 25.00000000
2 1 1 0.000674155229141 1.47088817 2.54765304 25.00000000
3 1 1 0.000687789020291 0.00000000 5.09530609 25.00000000
4 1 1 0.000714082683495 1.47088817 7.64295913 25.00000000
5 1 1 0.000746026064039 0.00000000 10.19061218 25.00000000
6 1 1 0.000791640358982 1.47088817 12.73826522 25.00000000
7 1 1 0.000837271836245 0.00000000 15.28591827 25.00000000
8 1 1 0.000896738296953 1.47088817 17.83357131 25.00000000
9 1 1 0.000672294865585 2.94177634 0.00000000 25.00000000
10 1 1 0.000683141742742 4.41266451 2.54765304 25.00000000
11 1 1 0.000693315760693 2.94177634 5.09530609 25.00000000
12 1 1 0.000728604939015 4.41266451 7.64295913 25.00000000
13 1 1 0.000755980849856 2.94177634 10.19061218 25.00000000
14 1 1 0.000819101367788 4.41266451 12.73826522 25.00000000
15 1 1 0.000855862939105 2.94177634 15.28591827 25.00000000
16 1 1 0.000947489610759 4.41266451 17.83357131 25.00000000
17 1 1 0.000684615858109 5.88355268 0.00000000 25.00000000
18 1 1 0.000700480188333 7.35444085 2.54765304 25.00000000
19 1 1 0.000709599517772 5.88355268 5.09530609 25.00000000
20 1 1 0.00075712262901 7.35444085 7.64295913 25.00000000
21 1 1 0.000785784089095 5.88355268 10.19061218 25.00000000
22 1 1 0.000875094689864 7.35444085 12.73826522 25.00000000
23 1 1 0.000913523781452 5.88355268 15.28591827 25.00000000
24 1 1 0.00105862852253 7.35444085 17.83357131 25.00000000
25 1 1 0.000704067404782 8.82532903 0.00000000 25.00000000
26 1 1 0.000724796212184 10.29621720 2.54765304 25.00000000
27 1 1 0.000735650672799 8.82532903 5.09530609 25.00000000
28 1 1 0.000798330376405 10.29621720 7.64295913 25.00000000
29 1 1 0.000835176623362 8.82532903 10.19061218 25.00000000
30 1 1 0.000961937854619 10.29621720 12.73826522 25.00000000
31 1 1 0.00101665480022 8.82532903 15.28591827 25.00000000
32 1 1 0.00125025267464 10.29621720 17.83357131 25.00000000
33 1 1 0.000728910508567 11.76710537 0.00000000 25.00000000
34 1 1 0.000753842430033 13.23799354 2.54765304 25.00000000
35 1 1 0.000769550045842 11.76710537 5.09530609 25.00000000
36 1 1 0.000849711933657 13.23799354 7.64295913 25.00000000
37 1 1 0.000903331612974 11.76710537 10.19061218 25.00000000
38 1 1 0.00108172440234 13.23799354 12.73826522 25.00000000
39 1 1 0.00117549461234 11.76710537 15.28591827 25.00000000
40 1 1 0.00154358243382 13.23799354 17.83357131 25.00000000
41 1 1 0.000756587111146 14.70888171 0.00000000 25.00000000
42 1 1 0.000784462463191 16.17976988 2.54765304 25.00000000
43 1 1 0.000808212836564 14.70888171 5.09530609 25.00000000
44 1 1 0.00090691029611 16.17976988 7.64295913 25.00000000
45 1 1 0.000987594059366 14.70888171 10.19061218 25.00000000
46 1 1 0.00123082442187 16.17976988 12.73826522 25.00000000
47 1 1 0.00139579738109 14.70888171 15.28591827 25.00000000
48 1 1 0.00193842468185 16.17976988 17.83357131 25.00000000
49 1 1 -9.93241995077e-05 1.47088817 0.84921768 27.40195032
50 1 1 -0.000101369895974 2.94177634 3.39687073 27.40195032
51 1 1 -0.000103885458707 1.47088817 5.94452377 27.40195032
52 1 1 -0.000109775547546 2.94177634 8.49217681 27.40195032
53 1 1 -0.000115161282219 1.47088817 11.03982986 27.40195032
54 1 1 -0.000125435319027 2.94177634 13.58748290 27.40195032
55 1 1 -0.000132521893294 1.47088817 16.13513595 27.40195032
56 1 1 -0.000147181916884 2.94177634 18.68278899 27.40195032
57 1 1 -0.000100773125371 4.41266451 0.84921768 27.40195032
58 1 1 -0.000103792805973 5.88355268 3.39687073 27.40195032
59 1 1 -0.000105966882285 4.41266451 5.94452377 27.40195032
60 1 1 -0.000114130878385 5.88355268 8.49217681 27.40195032
61 1 1 -0.000119334665622 4.41266451 11.03982986 27.40195032
62 1 1 -0.000134824456054 5.88355268 13.58748290 27.40195032
63 1 1 -0.000141259822446 4.41266451 16.13513595 27.40195032
64 1 1 -0.000165173734506 5.88355268 18.68278899 27.40195032
65 1 1 -0.000103558867162 7.35444085 0.84921768 27.40195032
66 1 1 -0.000107665909742 8.82532903 3.39687073 27.40195032
67 1 1 -0.00011009066856 7.35444085 5.94452377 27.40195032
68 1 1 -0.000121521888133 8.82532903 8.49217681 27.40195032
69 1 1 -0.000128031998427 7.35444085 11.03982986 27.40195032
70 1 1 -0.00015112942701 8.82532903 13.58748290 27.40195032
71 1 1 -0.000159371537981 7.35444085 16.13513595 27.40195032
72 1 1 -0.000195826949093 8.82532903 18.68278899 27.40195032
73 1 1 -0.000107452920573 10.29621720 0.84921768 27.40195032
74 1 1 -0.000112720935575 11.76710537 3.39687073 27.40195032
75 1 1 -0.000116136421293 10.29621720 5.94452377 27.40195032
76 1 1 -0.000131828992489 11.76710537 8.49217681 27.40195032
77 1 1 -0.000141455730535 10.29621720 11.03982986 27.40195032
78 1 1 -0.000173990871593 11.76710537 13.58748290 27.40195032
79 1 1 -0.000187007372116 10.29621720 16.13513595 27.40195032
80 1 1 -0.000243840673181 11.76710537 18.68278899 27.40195032
81 1 1 -0.000112100948404 13.23799354 0.84921768 27.40195032
82 1 1 -0.000118520831875 14.70888171 3.39687073 27.40195032
83 1 1 -0.000123772897029 13.23799354 5.94452377 27.40195032
84 1 1 -0.000144307423928 14.70888171 8.49217681 27.40195032
85 1 1 -0.000158945477134 13.23799354 11.03982986 27.40195032
86 1 1 -0.000202315615482 14.70888171 13.58748290 27.40195032
87 1 1 -0.000225406359118 13.23799354 16.13513595 27.40195032
88 1 1 -0.000331973590889 14.70888171 18.68278899 27.40195032
89 1 1 -0.000117013265428 16.17976988 0.84921768 27.40195032
90 1 1 -0.000100545994153 0.00000000 3.39687073 27.40195032
91 1 1 -0.000132282869964 16.17976988 5.94452377 27.40195032
92 1 1 -0.000108345043708 0.00000000 8.49217681 27.40195032
93 1 1 -0.000178740800566 16.17976988 11.03982986 27.40195032
94 1 1 -0.000122429092213 0.00000000 13.58748290 27.40195032
95 1 1 -0.000281945866197 16.17976988 16.13513595 27.40195032
96 1 1 -0.000141299437646 0.00000000 18.68278899 27.40195032
97 1 1 -1.48918642899e-06 2.94177634 1.69843536 29.80390065
98 1 1 -1.53509033987e-06 4.41266451 4.24608841 29.80390065
99 1 1 -1.57536355777e-06 2.94177634 6.79374145 29.80390065
100 1 1 -1.68589761124e-06 4.41266451 9.34139450 29.80390065
101 1 1 -1.7653590853e-06 2.94177634 11.88904754 29.80390065
102 1 1 -1.95876100747e-06 4.41266451 14.43670058 29.80390065
103 1 1 -2.04959027425e-06 2.94177634 16.98435363 29.80390065
104 1 1 -2.30703057909e-06 4.41266451 19.53200667 29.80390065
105 1 1 -1.52005882223e-06 5.88355268 1.69843536 29.80390065
106 1 1 -1.58335419585e-06 7.35444085 4.24608841 29.80390065
107 1 1 -1.62416790087e-06 5.88355268 6.79374145 29.80390065
108 1 1 -1.77971439294e-06 7.35444085 9.34139450 29.80390065
109 1 1 -1.86751485379e-06 5.88355268 11.88904754 29.80390065
110 1 1 -2.14818793056e-06 7.35444085 14.43670058 29.80390065
111 1 1 -2.2378406404e-06 5.88355268 16.98435363 29.80390065
112 1 1 -2.62718465825e-06 7.35444085 19.53200667 29.80390065
113 1 1 -1.56910802567e-06 8.82532903 1.69843536 29.80390065
114 1 1 -1.65274128784e-06 10.29621720 4.24608841 29.80390065
115 1 1 -1.70497585532e-06 8.82532903 6.79374145 29.80390065
116 1 1 -1.91801794353e-06 10.29621720 9.34139450 29.80390065
117 1 1 -2.03700424163e-06 8.82532903 11.88904754 29.80390065
118 1 1 -2.43220051617e-06 10.29621720 14.43670058 29.80390065
119 1 1 -2.5537620941e-06 8.82532903 16.98435363 29.80390065
120 1 1 -3.26552748883e-06 10.29621720 19.53200667 29.80390065
121 1 1 -1.63246869604e-06 11.76710537 1.69843536 29.80390065
122 1 1 -1.73734372031e-06 13.23799354 4.24608841 29.80390065
123 1 1 -1.81267266904e-06 11.76710537 6.79374145 29.80390065
124 1 1 -2.08873489377e-06 13.23799354 9.34139450 29.80390065
125 1 1 -2.26691311192e-06 11.76710537 11.88904754 29.80390065
126 1 1 -2.84121246882e-06 13.23799354 14.43670058 29.80390065
127 1 1 -3.08913278264e-06 11.76710537 16.98435363 29.80390065
128 1 1 -4.63901324106e-06 13.23799354 19.53200667 29.80390065
129 1 1 -1.70385582409e-06 14.70888171 1.69843536 29.80390065
130 1 1 -1.82687512861e-06 16.17976988 4.24608841 29.80390065
131 1 1 -1.93515698934e-06 14.70888171 6.79374145 29.80390065
132 1 1 -2.27769293647e-06 16.17976988 9.34139450 29.80390065
133 1 1 -2.55460573726e-06 14.70888171 11.88904754 29.80390065
134 1 1 -3.44555258041e-06 16.17976988 14.43670058 29.80390065
135 1 1 -4.00961535672e-06 14.70888171 16.98435363 29.80390065
136 1 1 -6.81718198077e-06 16.17976988 19.53200667 29.80390065
137 1 1 -1.47865661842e-06 0.00000000 1.69843536 29.80390065
138 1 1 -1.51049043303e-06 1.47088817 4.24608841 29.80390065
139 1 1 -1.55917508817e-06 0.00000000 6.79374145 29.80390065
140 1 1 -1.63964230164e-06 1.47088817 9.34139450 29.80390065
141 1 1 -1.73165076493e-06 0.00000000 11.88904754 29.80390065
142 1 1 -1.86239389278e-06 1.47088817 14.43670058 29.80390065
143 1 1 -1.98441230242e-06 0.00000000 16.98435363 29.80390065
144 1 1 -2.14640688733e-06 1.47088817 19.53200667 29.80390065
145 1 1 0.000106467016845 4.41266451 2.54765304 32.20585097
146 1 1 0.000111226852667 5.88355268 5.09530609 32.20585097
147 1 1 0.000114649075877 4.41266451 7.64295913 32.20585097
148 1 1 0.000125402744337 5.88355268 10.19061218 32.20585097
149 1 1 0.000131577532287 4.41266451 12.73826522 32.20585097
150 1 1 0.00015066869936 5.88355268 15.28591827 32.20585097
151 1 1 0.000156899243142 4.41266451 17.83357131 32.20585097
152 1 1 0.000106737593821 5.88355268 0.00000000 32.20585097
153 1 1 0.000109584972697 7.35444085 2.54765304 32.20585097
154 1 1 0.000116019699769 8.82532903 5.09530609 32.20585097
155 1 1 0.00012004137513 7.35444085 7.64295913 32.20585097
156 1 1 0.000135452539326 8.82532903 10.19061218 32.20585097
157 1 1 0.000143305878899 7.35444085 12.73826522 32.20585097
158 1 1 0.000172050900011 8.82532903 15.28591827 32.20585097
159 1 1 0.000179911451427 7.35444085 17.83357131 32.20585097
160 1 1 0.000110226212847 8.82532903 0.00000000 32.20585097
161 1 1 0.000113979229617 10.29621720 2.54765304 32.20585097
162 1 1 0.000122409735441 11.76710537 5.09530609 32.20585097
163 1 1 0.000128124536367 10.29621720 7.64295913 32.20585097
164 1 1 0.000149608263215 11.76710537 10.19061218 32.20585097
165 1 1 0.000161412456871 10.29621720 12.73826522 32.20585097
166 1 1 0.00020227905056 11.76710537 15.28591827 32.20585097
167 1 1 0.000215623073529 10.29621720 17.83357131 32.20585097
168 1 1 0.000114687898546 11.76710537 0.00000000 32.20585097
169 1 1 0.000119283363925 13.23799354 2.54765304 32.20585097
170 1 1 0.000129905608893 14.70888171 5.09530609 32.20585097
171 1 1 0.000138535067494 13.23799354 7.64295913 32.20585097
172 1 1 0.000166799227408 14.70888171 10.19061218 32.20585097
173 1 1 0.000185034963128 13.23799354 12.73826522 32.20585097
174 1 1 0.000242519614988 14.70888171 15.28591827 32.20585097
175 1 1 0.000270934282617 13.23799354 17.83357131 32.20585097
176 1 1 0.000119683038044 14.70888171 0.00000000 32.20585097
177 1 1 0.00012495935188 16.17976988 2.54765304 32.20585097
178 1 1 0.000107280512617 0.00000000 5.09530609 32.20585097
179 1 1 0.00015027609329 16.17976988 7.64295913 32.20585097
180 1 1 0.000117679450703 0.00000000 10.19061218 32.20585097
181 1 1 0.000212505616747 16.17976988 12.73826522 32.20585097
182 1 1 0.000134309395407 0.00000000 15.28591827 32.20585097
183 1 1 0.00036877774203 16.17976988 17.83357131 32.20585097
184 1 1 0.000103769525702 0.00000000 0.00000000 32.20585097
185 1 1 0.000104852833741 1.47088817 2.54765304 32.20585097
186 1 1 0.000108275841358 2.94177634 5.09530609 32.20585097
187 1 1 0.000111974279234 1.47088817 7.64295913 32.20585097
188 1 1 0.00011957188561 2.94177634 10.19061218 32.20585097
189 1 1 0.000125980625009 1.47088817 12.73826522 32.20585097
190 1 1 0.000138283641334 2.94177634 15.28591827 32.20585097
191 1 1 0.00014571544042 1.47088817 17.83357131 32.20585097
192 1 1 0.000104526141367 2.94177634 0.00000000 32.20585097
193 1 1 -0.000697925227378 5.88355268 3.39687073 34.60780130
194 1 1 -0.000734081269065 7.35444085 5.94452377 34.60780130
195 1 1 -0.000757026540972 5.88355268 8.49217681 34.60780130
196 1 1 -0.000831275585256 7.35444085 11.03982986 34.60780130
197 1 1 -0.000868275009781 5.88355268 13.58748290 34.60780130
198 1 1 -0.000993696855204 7.35444085 16.13513595 34.60780130
199 1 1 -0.00102670899213 5.88355268 18.68278899 34.60780130
200 1 1 -0.000696545362529 7.35444085 0.84921768 34.60780130
201 1 1 -0.000720319426111 8.82532903 3.39687073 34.60780130
202 1 1 -0.000767504114764 10.29621720 5.94452377 34.60780130
203 1 1 -0.000796352335276 8.82532903 8.49217681 34.60780130
204 1 1 -0.000898424975925 10.29621720 11.03982986 34.60780130
205 1 1 -0.00094902506583 8.82532903 13.58748290 34.60780130
206 1 1 -0.00114234551944 10.29621720 16.13513595 34.60780130
207 1 1 -0.00119386993281 8.82532903 18.68278899 34.60780130
208 1 1 -0.000719247237874 10.29621720 0.84921768 34.60780130
209 1 1 -0.000749171108381 11.76710537 3.39687073 34.60780130
210 1 1 -0.000808371051092 13.23799354 5.94452377 34.60780130
211 1 1 -0.000849243999262 11.76710537 8.49217681 34.60780130
212 1 1 -0.000987445437646 13.23799354 11.03982986 34.60780130
213 1 1 -0.00106861707403 11.76710537 13.58748290 34.60780130
214 1 1 -0.00136353884542 13.23799354 16.13513595 34.60780130
215 1 1 -0.00146852599813 11.76710537 18.68278899 34.60780130
216 1 1 -0.000746234242911 13.23799354 0.84921768 34.60780130
217 1 1 -0.000781652981092 14.70888171 3.39687073 34.60780130
218 1 1 -0.000852718547327 16.17976988 5.94452377 34.60780130
219 1 1 -0.000912406920538 14.70888171 8.49217681 34.60780130
220 1 1 -0.00109398957259 16.17976988 11.03982986 34.60780130
221 1 1 -0.00122878841316 14.70888171 13.58748290 34.60780130
222 1 1 -0.00165531164439 16.17976988 16.13513595 34.60780130
223 1 1 -0.00186752924551 14.70888171 18.68278899 34.60780130
224 1 1 -0.000774525961033 16.17976988 0.84921768 34.60780130
225 1 1 -0.000679029831707 0.00000000 3.39687073 34.60780130
226 1 1 -0.000698633453859 1.47088817 5.94452377 34.60780130
227 1 1 -0.000724840172574 0.00000000 8.49217681 34.60780130
228 1 1 -0.000764446144385 1.47088817 11.03982986 34.60780130
229 1 1 -0.000806524817428 0.00000000 13.58748290 34.60780130
230 1 1 -0.00086261296388 1.47088817 16.13513595 34.60780130
231 1 1 -0.00091169158704 0.00000000 18.68278899 34.60780130
232 1 1 -0.000671850681228 1.47088817 0.84921768 34.60780130
233 1 1 -0.000683830699555 2.94177634 3.39687073 34.60780130
234 1 1 -0.000710650773701 4.41266451 5.94452377 34.60780130
235 1 1 -0.00073293841736 2.94177634 8.49217681 34.60780130
236 1 1 -0.00078667528645 4.41266451 11.03982986 34.60780130
237 1 1 -0.000821747928114 2.94177634 13.58748290 34.60780130
238 1 1 -0.000904449252292 4.41266451 16.13513595 34.60780130
239 1 1 -0.000938977453063 2.94177634 18.68278899 34.60780130
240 1 1 -0.000680294967642 4.41266451 0.84921768 34.60780130
241 1 1 0.000944601307699 0.00000000 20.38122435 25.00000000
242 1 1 0.0010045353389 1.47088817 22.92887739 25.00000000
243 1 1 0.00103570918975 0.00000000 25.47653044 25.00000000
244 1 1 0.00107566708399 1.47088817 28.02418348 25.00000000
245 1 1 0.00107221422833 0.00000000 30.57183653 25.00000000
246 1 1 0.00107566792155 1.47088817 33.11948957 25.00000000
247 1 1 0.00103570357857 0.00000000 35.66714262 25.00000000
248 1 1 0.00100453147166 1.47088817 38.21479566 25.00000000
249 1 1 0.000976833915623 2.94177634 20.38122435 25.00000000
250 1 1 0.00108856433409 4.41266451 22.92887739 25.00000000
251 1 1 0.00108343373779 2.94177634 25.47653044 25.00000000
252 1 1 0.0011878391002 4.41266451 28.02418348 25.00000000
253 1 1 0.00112731319262 2.94177634 30.57183653 25.00000000
254 1 1 0.00118786133961 4.41266451 33.11948957 25.00000000
255 1 1 0.00108344734489 2.94177634 35.66714262 25.00000000
256 1 1 0.00108859342202 4.41266451 38.21479566 25.00000000
257 1 1 0.00108239844657 5.88355268 20.38122435 25.00000000
258 1 1 0.00128561115794 7.35444085 22.92887739 25.00000000
259 1 1 0.00124635177533 5.88355268 25.47653044 25.00000000
260 1 1 0.00145951505497 7.35444085 28.02418348 25.00000000
261 1 1 0.00131793412866 5.88355268 30.57183653 25.00000000
262 1 1 0.0014595387425 7.35444085 33.11948957 25.00000000
263 1 1 0.00124639274913 5.88355268 35.66714262 25.00000000
264 1 1 0.00128563260346 7.35444085 38.21479566 25.00000000
265 1 1 0.00128920162666 8.82532903 20.38122435 25.00000000
266 1 1 0.00164961718866 10.29621720 22.92887739 25.00000000
267 1 1 0.00158223832403 8.82532903 25.47653044 25.00000000
268 1 1 0.00197508377865 10.29621720 28.02418348 25.00000000
269 1 1 0.00171647805567 8.82532903 30.57183653 25.00000000
270 1 1 0.00197499963626 10.29621720 33.11948957 25.00000000
271 1 1 0.0015821846633 8.82532903 35.66714262 25.00000000
272 1 1 0.00164940796133 10.29621720 38.21479566 25.00000000
273 1 1 0.00163667893368 11.76710537 20.38122435 25.00000000
274 1 1 0.00223844025384 13.23799354 22.92887739 25.00000000
275 1 1 0.00217033846231 11.76710537 25.47653044 25.00000000
276 1 1 0.0028741518881 13.23799354 28.02418348 25.00000000
277 1 1 0.002430589879 11.76710537 30.57183653 25.00000000
278 1 1 0.00287386123548 13.23799354 33.11948957 25.00000000
279 1 1 0.00216990276729 11.76710537 35.66714262 25.00000000
280 1 1 0.00223773848751 13.23799354 38.21479566 25.00000000
281 1 1 0.0021517245035 14.70888171 20.38122435 25.00000000
282 1 1 0.00316115652939 16.17976988 22.92887739 25.00000000
283 1 1 0.00316778253728 14.70888171 25.47653044 25.00000000
284 1 1 0.00483231085618 16.17976988 28.02418348 25.00000000
285 1 1 0.00380693109087 14.70888171 30.57183653 25.00000000
286 1 1 0.00483210024862 16.17976988 33.11948957 25.00000000
287 1 1 0.00316693467675 14.70888171 35.66714262 25.00000000
288 1 1 0.00316030909825 16.17976988 38.21479566 25.00000000
289 1 1 -0.000153142717284 1.47088817 21.23044203 27.40195032
290 1 1 -0.000169477585548 2.94177634 23.77809508 27.40195032
291 1 1 -0.00017007633765 1.47088817 26.32574812 27.40195032
292 1 1 -0.000182748356821 2.94177634 28.87340116 27.40195032
293 1 1 -0.000175087185067 1.47088817 31.42105421 27.40195032
294 1 1 -0.000179898596549 2.94177634 33.96870725 27.40195032
295 1 1 -0.000165391143457 1.47088817 36.51636030 27.40195032
296 1 1 -0.000162538488791 2.94177634 39.06401334 27.40195032
297 1 1 -0.000168314227599 4.41266451 21.23044203 27.40195032
298 1 1 -0.000196950811128 5.88355268 23.77809508 27.40195032
299 1 1 -0.000190764583799 4.41266451 26.32574812 27.40195032
300 1 1 -0.000216617907666 5.88355268 28.87340116 27.40195032
301 1 1 -0.000197470464909 4.41266451 31.42105421 27.40195032
302 1 1 -0.000212336336515 5.88355268 33.96870725 27.40195032
303 1 1 -0.000184534527497 4.41266451 36.51636030 27.40195032
304 1 1 -0.000186996875738 5.88355268 39.06401334 27.40195032
305 1 1 -0.000199119459052 7.35444085 21.23044203 27.40195032
306 1 1 -0.000248653124351 8.82532903 23.77809508 27.40195032
307 1 1 -0.000235008311993 7.35444085 26.32574812 27.40195032
308 1 1 -0.000290403631571 8.82532903 28.87340116 27.40195032
309 1 1 -0.000247033037136 7.35444085 31.42105421 27.40195032
310 1 1 -0.000280567647732 8.82532903 33.96870725 27.40195032
311 1 1 -0.000224606514325 7.35444085 36.51636030 27.40195032
312 1 1 -0.000230796975831 8.82532903 39.06401334 27.40195032
313 1 1 -0.000252448091707 10.29621720 21.23044203 27.40195032
314 1 1 -0.000369158760931 11.76710537 23.77809508 27.40195032
315 1 1 -0.000337134369556 10.29621720 26.32574812 27.40195032
316 1 1 -0.000506440147264 11.76710537 28.87340116 27.40195032
317 1 1 -0.000373068648266 10.29621720 31.42105421 27.40195032
318 1 1 -0.000471618064851 11.76710537 33.96870725 27.40195032
319 1 1 -0.000309116188976 10.29621720 36.51636030 27.40195032
320 1 1 -0.000319569715046 11.76710537 39.06401334 27.40195032
321 1 1 -0.000367424930018 13.23799354 21.23044203 27.40195032
322 1 1 -0.000693055482051 14.70888171 23.77809508 27.40195032
323 1 1 -0.000637643702284 13.23799354 26.32574812 27.40195032
324 1 1 -0.0011158705534 14.70888171 28.87340116 27.40195032
325 1 1 -0.000762167404707 13.23799354 31.42105421 27.40195032
326 1 1 -0.00100960881269 14.70888171 33.96870725 27.40195032
327 1 1 -0.00054171470224 13.23799354 36.51636030 27.40195032
328 1 1 -0.000540334587826 14.70888171 39.06401334 27.40195032
329 1 1 -0.000635200344366 16.17976988 21.23044203 27.40195032
330 1 1 -0.000160348537855 0.00000000 23.77809508 27.40195032
331 1 1 -0.00135938379107 16.17976988 26.32574812 27.40195032
332 1 1 -0.000171665618453 0.00000000 28.87340116 27.40195032
333 1 1 -0.0016578963952 16.17976988 31.42105421 27.40195032
334 1 1 -0.000169239353588 0.00000000 33.96870725 27.40195032
335 1 1 -0.00111129120802 16.17976988 36.51636030 27.40195032
336 1 1 -0.000154434590025 0.00000000 39.06401334 27.40195032
337 1 1 -2.36155259204e-06 2.94177634 22.07965971 29.80390065
338 1 1 -2.64350578147e-06 4.41266451 24.62731276 29.80390065
339 1 1 -2.5906018197e-06 2.94177634 27.17496580 29.80390065
340 1 1 -2.82051881914e-06 4.41266451 29.72261885 29.80390065
341 1 1 -2.61326096933e-06 2.94177634 32.27027189 29.80390065
342 1 1 -2.72156932235e-06 4.41266451 34.81792493 29.80390065
343 1 1 -2.42804762709e-06 2.94177634 37.36557798 29.80390065
344 1 1 -2.41067394219e-06 4.41266451 39.91323102 29.80390065
345 1 1 -2.65757710088e-06 5.88355268 22.07965971 29.80390065
346 1 1 -3.20390158191e-06 7.35444085 24.62731276 29.80390065
347 1 1 -3.03168354019e-06 5.88355268 27.17496580 29.80390065
348 1 1 -3.60511765931e-06 7.35444085 29.72261885 29.80390065
349 1 1 -3.12199753081e-06 5.88355268 32.27027189 29.80390065
350 1 1 -3.47291012357e-06 7.35444085 34.81792493 29.80390065
351 1 1 -2.83284528877e-06 5.88355268 37.36557798 29.80390065
352 1 1 -2.89160752076e-06 7.35444085 39.91323102 29.80390065
353 1 1 -3.30405735918e-06 8.82532903 22.07965971 29.80390065
354 1 1 -4.69564939665e-06 10.29621720 24.62731276 29.80390065
355 1 1 -4.11848299644e-06 8.82532903 27.17496580 29.80390065
356 1 1 -5.52437711384e-06 10.29621720 29.72261885 29.80390065
357 1 1 -4.40638860999e-06 8.82532903 32.27027189 29.80390065
358 1 1 -5.08789050605e-06 10.29621720 34.81792493 29.80390065
359 1 1 -3.72191387885e-06 8.82532903 37.36557798 29.80390065
360 1 1 -3.77257962591e-06 10.29621720 39.91323102 29.80390065
361 1 1 -5.01493700173e-06 11.76710537 22.07965971 29.80390065
362 1 1 -8.56713830796e-06 13.23799354 24.62731276 29.80390065
363 1 1 -6.87682433692e-06 11.76710537 27.17496580 29.80390065
364 1 1 -9.59202656994e-06 13.23799354 29.72261885 29.80390065
365 1 1 -7.28445760305e-06 11.76710537 32.27027189 29.80390065
366 1 1 -7.86938247674e-06 13.23799354 34.81792493 29.80390065
367 1 1 -5.17169276862e-06 11.76710537 37.36557798 29.80390065
368 1 1 -5.1464452727e-06 13.23799354 39.91323102 29.80390065
369 1 1 -8.54557917275e-06 14.70888171 22.07965971 29.80390065
370 1 1 -1.46484395539e-05 16.17976988 24.62731276 29.80390065
371 1 1 -1.23448348569e-05 14.70888171 27.17496580 29.80390065
372 1 1 -1.59024333806e-05 16.17976988 29.72261885 29.80390065
373 1 1 -1.25390483906e-05 14.70888171 32.27027189 29.80390065
374 1 1 -1.24028833177e-05 16.17976988 34.81792493 29.80390065
375 1 1 -7.3207529184e-06 14.70888171 37.36557798 29.80390065
376 1 1 -7.83176539971e-06 16.17976988 39.91323102 29.80390065
377 1 1 -2.26205937455e-06 0.00000000 22.07965971 29.80390065
378 1 1 -2.40792600679e-06 1.47088817 24.62731276 29.80390065
379 1 1 -2.45883363375e-06 0.00000000 27.17496580 29.80390065
380 1 1 -2.52603381113e-06 1.47088817 29.72261885 29.80390065
381 1 1 -2.47613225536e-06 0.00000000 32.27027189 29.80390065
382 1 1 -2.44554672063e-06 1.47088817 34.81792493 29.80390065
383 1 1 -2.31749252998e-06 0.00000000 37.36557798 29.80390065
384 1 1 -2.21706963382e-06 1.47088817 39.91323102 29.80390065
385 1 1 0.000184824745175 4.41266451 22.92887739 32.20585097
386 1 1 0.000214764953025 5.88355268 25.47653044 32.20585097
387 1 1 0.000203874353983 4.41266451 28.02418348 32.20585097
388 1 1 0.000227820678138 5.88355268 30.57183653 32.20585097
389 1 1 0.000203876614821 4.41266451 33.11948957 32.20585097
390 1 1 0.000214742927629 5.88355268 35.66714262 32.20585097
391 1 1 0.000184830782219 4.41266451 38.21479566 32.20585097
392 1 1 0.000184114468287 5.88355268 20.38122435 32.20585097
393 1 1 0.000221832676999 7.35444085 22.92887739 32.20585097
394 1 1 0.000277676698663 8.82532903 25.47653044 32.20585097
395 1 1 0.000253667281954 7.35444085 28.02418348 32.20585097
396 1 1 0.00030680916916 8.82532903 30.57183653 32.20585097
397 1 1 0.000253601271859 7.35444085 33.11948957 32.20585097
398 1 1 0.000277532018882 8.82532903 35.66714262 32.20585097
399 1 1 0.000221768101057 7.35444085 38.21479566 32.20585097
400 1 1 0.000222496882912 8.82532903 20.38122435 32.20585097
401 1 1 0.00029217015155 10.29621720 22.92887739 32.20585097
402 1 1 0.000439039217278 11.76710537 25.47653044 32.20585097
403 1 1 0.000375127066888 10.29621720 28.02418348 32.20585097
404 1 1 0.000538560395734 11.76710537 30.57183653 32.20585097
405 1 1 0.00037487883518 10.29621720 33.11948957 32.20585097
406 1 1 0.000439017976782 11.76710537 35.66714262 32.20585097
407 1 1 0.000292067942919 10.29621720 38.21479566 32.20585097
408 1 1 0.000289917370922 11.76710537 20.38122435 32.20585097
409 1 1 0.00046491822988 13.23799354 22.92887739 32.20585097
410 1 1 0.000885098429773 14.70888171 25.47653044 32.20585097
411 1 1 0.000740973644441 13.23799354 28.02418348 32.20585097
412 1 1 0.00118921502586 14.70888171 30.57183653 32.20585097
413 1 1 0.000740550295564 13.23799354 33.11948957 32.20585097
414 1 1 0.000885863061444 14.70888171 35.66714262 32.20585097
415 1 1 0.000465332174785 13.23799354 38.21479566 32.20585097
416 1 1 0.000435824981648 14.70888171 20.38122435 32.20585097
417 1 1 0.000883965191492 16.17976988 22.92887739 32.20585097
418 1 1 0.000172858171392 0.00000000 25.47653044 32.20585097
419 1 1 0.0015989342018 16.17976988 28.02418348 32.20585097
420 1 1 0.000180250233052 0.00000000 30.57183653 32.20585097
421 1 1 0.0015984534623 16.17976988 33.11948957 32.20585097
422 1 1 0.000172862009192 0.00000000 35.66714262 32.20585097
423 1 1 0.000884732616349 16.17976988 38.21479566 32.20585097
424 1 1 0.000154764688913 0.00000000 20.38122435 32.20585097
425 1 1 0.000166878199082 1.47088817 22.92887739 32.20585097
426 1 1 0.000183241503929 2.94177634 25.47653044 32.20585097
427 1 1 0.000181166898985 1.47088817 28.02418348 32.20585097
428 1 1 0.000191927363139 2.94177634 30.57183653 32.20585097
429 1 1 0.000181170630434 1.47088817 33.11948957 32.20585097
430 1 1 0.000183251463373 2.94177634 35.66714262 32.20585097
431 1 1 0.000166883350323 1.47088817 38.21479566 32.20585097
432 1 1 0.000162024193701 2.94177634 20.38122435 32.20585097
433 1 1 -0.00120138402433 5.88355268 23.77809508 34.60780130
434 1 1 -0.00142095899339 7.35444085 26.32574812 34.60780130
435 1 1 -0.00131392273718 5.88355268 28.87340116 34.60780130
436 1 1 -0.00148751294566 7.35444085 31.42105421 34.60780130
437 1 1 -0.00128919152216 5.88355268 33.96870725 34.60780130
438 1 1 -0.00136097577316 7.35444085 36.51636030 34.60780130
439 1 1 -0.00114526704791 5.88355268 39.06401334 34.60780130
440 1 1 -0.00121347012381 7.35444085 21.23044203 34.60780130
441 1 1 -0.00149735758922 8.82532903 23.77809508 34.60780130
442 1 1 -0.00189867974101 10.29621720 26.32574812 34.60780130
443 1 1 -0.00170626182768 8.82532903 28.87340116 34.60780130
444 1 1 -0.00202610263134 10.29621720 31.42105421 34.60780130
445 1 1 -0.00165968381131 8.82532903 33.96870725 34.60780130
446 1 1 -0.00178629983532 10.29621720 36.51636030 34.60780130
447 1 1 -0.0013968498762 8.82532903 39.06401334 34.60780130
448 1 1 -0.00151677034209 10.29621720 21.23044203 34.60780130
449 1 1 -0.00200893720031 11.76710537 23.77809508 34.60780130
450 1 1 -0.00271085207883 13.23799354 26.32574812 34.60780130
451 1 1 -0.00240680436952 11.76710537 28.87340116 34.60780130
452 1 1 -0.00298054211184 13.23799354 31.42105421 34.60780130
453 1 1 -0.00231562441789 11.76710537 33.96870725 34.60780130
454 1 1 -0.00249012394286 13.23799354 36.51636030 34.60780130
455 1 1 -0.00182631989193 11.76710537 39.06401334 34.60780130
456 1 1 -0.00199846839306 13.23799354 21.23044203 34.60780130
457 1 1 -0.00282632301375 14.70888171 23.77809508 34.60780130
458 1 1 -0.00431697843845 16.17976988 26.32574812 34.60780130
459 1 1 -0.00373548737074 14.70888171 28.87340116 34.60780130
460 1 1 -0.00518356195276 16.17976988 31.42105421 34.60780130
461 1 1 -0.00350163378479 14.70888171 33.96870725 34.60780130
462 1 1 -0.00372392805817 16.17976988 36.51636030 34.60780130
463 1 1 -0.00248174328326 14.70888171 39.06401334 34.60780130
464 1 1 -0.00269597471721 16.17976988 21.23044203 34.60780130
465 1 1 -0.00101293982355 0.00000000 23.77809508 34.60780130
466 1 1 -0.0010621222357 1.47088817 26.32574812 34.60780130
467 1 1 -0.00107150684865 0.00000000 28.87340116 34.60780130
468 1 1 -0.00108807074634 1.47088817 31.42105421 34.60780130
469 1 1 -0.00105903969714 0.00000000 33.96870725 34.60780130
470 1 1 -0.00103784762779 1.47088817 36.51636030 34.60780130
471 1 1 -0.000981953345271 0.00000000 39.06401334 34.60780130
472 1 1 -0.000973722794929 1.47088817 21.23044203 34.60780130
473 1 1 -0.00105599937747 2.94177634 23.77809508 34.60780130
474 1 1 -0.00116751373775 4.41266451 26.32574812 34.60780130
475 1 1 -0.00112592821052 2.94177634 28.87340116 34.60780130
476 1 1 -0.00120453853932 4.41266451 31.42105421 34.60780130
477 1 1 -0.00111088104881 2.94177634 33.96870725 34.60780130
478 1 1 -0.00113344331249 4.41266451 36.51636030 34.60780130
479 1 1 -0.00101966671006 2.94177634 39.06401334 34.60780130
480 1 1 -0.00104638867858 4.41266451 21.23044203 34.60780130
481 1 1 0.00094458941373 0.00000000 40.76244870 25.00000000
482 1 1 0.00089672804227 1.47088817 43.31010174 25.00000000
483 1 1 0.000837261301903 0.00000000 45.85775479 25.00000000
484 1 1 0.000791633576766 1.47088817 48.40540783 25.00000000
485 1 1 0.000746023096661 0.00000000 50.95306088 25.00000000
486 1 1 0.000714081546331 1.47088817 53.50071392 25.00000000
487 1 1 0.000687788875714 0.00000000 56.04836697 25.00000000
488 1 1 0.000674155228882 1.47088817 58.59602001 25.00000000
489 1 1 0.00097683792994 2.94177634 40.76244870 25.00000000
490 1 1 0.00094749884383 4.41266451 43.31010174 25.00000000
491 1 1 0.000855855893952 2.94177634 45.85775479 25.00000000
492 1 1 0.00081909507876 4.41266451 48.40540783 25.00000000
493 1 1 0.000755976458647 2.94177634 50.95306088 25.00000000
494 1 1 0.000728602153087 4.41266451 53.50071392 25.00000000
495 1 1 0.000693315315527 2.94177634 56.04836697 25.00000000
496 1 1 0.000683141671763 4.41266451 58.59602001 25.00000000
497 1 1 0.00108243397228 5.88355268 40.76244870 25.00000000
498 1 1 0.00105866454457 7.35444085 43.31010174 25.00000000
499 1 1 0.000913531455108 5.88355268 45.85775479 25.00000000
500 1 1 0.00087509627219 7.35444085 48.40540783 25.00000000
501 1 1 0.000785777984403 5.88355268 50.95306088 25.00000000
502 1 1 0.000757118348809 7.35444085 53.50071392 25.00000000
503 1 1 0.000709598291315 5.88355268 56.04836697 25.00000000
504 1 1 0.000700479954241 7.35444085 58.59602001 25.00000000
505 1 1 0.00128920149036 8.82532903 40.76244870 25.00000000
506 1 1 0.00125027383907 10.29621720 43.31010174 25.00000000
507 1 1 0.00101668595982 8.82532903 45.85775479 25.00000000
508 1 1 0.000961955026011 10.29621720 48.40540783 25.00000000
509 1 1 0.00083517338876 8.82532903 50.95306088 25.00000000
510 1 1 0.000798327286273 10.29621720 53.50071392 25.00000000
511 1 1 0.000735649047948 8.82532903 56.04836697 25.00000000
512 1 1 0.00072479619523 10.29621720 58.59602001 25.00000000
513 1 1 0.00163646918726 11.76710537 40.76244870 25.00000000
514 1 1 0.0015435282797 13.23799354 43.31010174 25.00000000
515 1 1 0.00117553629713 11.76710537 45.85775479 25.00000000
516 1 1 0.00108174796874 13.23799354 48.40540783 25.00000000
517 1 1 0.000903334780422 11.76710537 50.95306088 25.00000000
518 1 1 0.000849711478419 13.23799354 53.50071392 25.00000000
519 1 1 0.000769549829985 11.76710537 56.04836697 25.00000000
520 1 1 0.000753843770078 13.23799354 58.59602001 25.00000000
521 1 1 0.00215128822676 14.70888171 40.76244870 25.00000000
522 1 1 0.00193834035962 16.17976988 43.31010174 25.00000000
523 1 1 0.0013958213503 14.70888171 45.85775479 25.00000000
524 1 1 0.00123082430237 16.17976988 48.40540783 25.00000000
525 1 1 0.000987593625468 14.70888171 50.95306088 25.00000000
526 1 1 0.000906906231161 16.17976988 53.50071392 25.00000000
527 1 1 0.000808215283319 14.70888171 56.04836697 25.00000000
528 1 1 0.000784466027489 16.17976988 58.59602001 25.00000000
529 1 1 -0.000146252663423 1.47088817 41.61166638 27.40195032
530 1 1 -0.000139479108504 2.94177634 44.15931943 27.40195032
531 1 1 -0.000126161359651 1.47088817 46.70697247 27.40195032
532 1 1 -0.000119426277227 2.94177634 49.25462551 27.40195032
533 1 1 -0.000110676925709 1.47088817 51.80227856 27.40195032
534 1 1 -0.000106169087031 2.94177634 54.34993160 27.40195032
535 1 1 -0.000101608172871 1.47088817 56.89758465 27.40195032
536 1 1 -0.000100171260091 2.94177634 59.44523769 27.40195032
537 1 1 -0.000159217952866 4.41266451 41.61166638 27.40195032
538 1 1 -0.000154321474169 5.88355268 44.15931943 27.40195032
539 1 1 -0.000133072642408 4.41266451 46.70697247 27.40195032
540 1 1 -0.000126694914829 5.88355268 49.25462551 27.40195032
541 1 1 -0.000113924140616 4.41266451 51.80227856 27.40195032
542 1 1 -0.000109623656139 5.88355268 54.34993160 27.40195032
543 1 1 -0.000103360749387 4.41266451 56.89758465 27.40195032
544 1 1 -0.000102365383094 5.88355268 59.44523769 27.40195032
545 1 1 -0.000185618587369 7.35444085 41.61166638 27.40195032
546 1 1 -0.000179682867724 8.82532903 44.15931943 27.40195032
547 1 1 -0.000147531009292 7.35444085 46.70697247 27.40195032
548 1 1 -0.000139337025544 8.82532903 49.25462551 27.40195032
549 1 1 -0.000120596753809 7.35444085 51.80227856 27.40195032
550 1 1 -0.000115358290512 8.82532903 54.34993160 27.40195032
551 1 1 -0.000106780093539 7.35444085 56.89758465 27.40195032
552 1 1 -0.000105837676955 8.82532903 59.44523769 27.40195032
553 1 1 -0.000228121544647 10.29621720 41.61166638 27.40195032
554 1 1 -0.000216568824801 11.76710537 44.15931943 27.40195032
555 1 1 -0.000169691570306 10.29621720 46.70697247 27.40195032
556 1 1 -0.00015714765128 11.76710537 49.25462551 27.40195032
557 1 1 -0.000130798860632 10.29621720 51.80227856 27.40195032
558 1 1 -0.000123198965375 11.76710537 54.34993160 27.40195032
559 1 1 -0.000111680405952 10.29621720 56.89758465 27.40195032
560 1 1 -0.000110301526749 11.76710537 59.44523769 27.40195032
561 1 1 -0.0003052508525 13.23799354 41.61166638 27.40195032
562 1 1 -0.000272902385798 14.70888171 44.15931943 27.40195032
563 1 1 -0.000198927208932 13.23799354 46.70697247 27.40195032
564 1 1 -0.000178769385589 14.70888171 49.25462551 27.40195032
565 1 1 -0.000144087568171 13.23799354 51.80227856 27.40195032
566 1 1 -0.000132591770573 14.70888171 54.34993160 27.40195032
567 1 1 -0.00011772192141 13.23799354 56.89758465 27.40195032
568 1 1 -0.000115332865045 14.70888171 59.44523769 27.40195032
569 1 1 -0.000467525806946 16.17976988 41.61166638 27.40195032
570 1 1 -0.000134679405344 0.00000000 44.15931943 27.40195032
571 1 1 -0.000235739933771 16.17976988 46.70697247 27.40195032
572 1 1 -0.000117090823389 0.00000000 49.25462551 27.40195032
573 1 1 -0.00015910594126 16.17976988 51.80227856 27.40195032
574 1 1 -0.000105018145754 0.00000000 54.34993160 27.40195032
575 1 1 -0.000124325437001 16.17976988 56.89758465 27.40195032
576 1 1 -9.94216363622e-05 0.00000000 59.44523769 27.40195032
577 1 1 -2.13149836282e-06 2.94177634 42.46088406 29.80390065
578 1 1 -2.04772447658e-06 4.41266451 45.00853711 29.80390065
579 1 1 -1.84049266581e-06 2.94177634 47.55619015 29.80390065
580 1 1 -1.75604358426e-06 4.41266451 50.10384320 29.80390065
581 1 1 -1.62344116392e-06 2.94177634 52.65149624 29.80390065
582 1 1 -1.57022461446e-06 4.41266451 55.19914928 29.80390065
583 1 1 -1.504939002e-06 2.94177634 57.74680233 29.80390065
584 1 1 -1.49679249463e-06 4.41266451 60.29445537 29.80390065
585 1 1 -2.36864816911e-06 5.88355268 42.46088406 29.80390065
586 1 1 -2.28427256418e-06 7.35444085 45.00853711 29.80390065
587 1 1 -1.95962782669e-06 5.88355268 47.55619015 29.80390065
588 1 1 -1.87031100132e-06 7.35444085 50.10384320 29.80390065
589 1 1 -1.68498027532e-06 5.88355268 52.65149624 29.80390065
590 1 1 -1.62910374679e-06 7.35444085 55.19914928 29.80390065
591 1 1 -1.53944032906e-06 5.88355268 57.74680233 29.80390065
592 1 1 -1.53616223258e-06 7.35444085 60.29445537 29.80390065
593 1 1 -2.84549641308e-06 8.82532903 42.46088406 29.80390065
594 1 1 -2.69193221463e-06 10.29621720 45.00853711 29.80390065
595 1 1 -2.16784241901e-06 8.82532903 47.55619015 29.80390065
596 1 1 -2.0427543249e-06 10.29621720 50.10384320 29.80390065
597 1 1 -1.78590476445e-06 8.82532903 52.65149624 29.80390065
598 1 1 -1.71404339636e-06 10.29621720 55.19914928 29.80390065
599 1 1 -1.59459542023e-06 8.82532903 57.74680233 29.80390065
600 1 1 -1.59132750985e-06 10.29621720 60.29445537 29.80390065
601 1 1 -3.65395849051e-06 11.76710537 42.46088406 29.80390065
602 1 1 -3.33612181348e-06 13.23799354 45.00853711 29.80390065
603 1 1 -2.48202157015e-06 11.76710537 47.55619015 29.80390065
604 1 1 -2.27463926832e-06 13.23799354 50.10384320 29.80390065
605 1 1 -1.92346368109e-06 11.76710537 52.65149624 29.80390065
606 1 1 -1.82006832436e-06 13.23799354 55.19914928 29.80390065
607 1 1 -1.66630144789e-06 11.76710537 57.74680233 29.80390065
608 1 1 -1.65731995746e-06 13.23799354 60.29445537 29.80390065
609 1 1 -5.0140066108e-06 14.70888171 42.46088406 29.80390065
610 1 1 -4.28619041356e-06 16.17976988 45.00853711 29.80390065
611 1 1 -2.91747044879e-06 14.70888171 47.55619015 29.80390065
612 1 1 -2.55293789304e-06 16.17976988 50.10384320 29.80390065
613 1 1 -2.09133698922e-06 14.70888171 52.65149624 29.80390065
614 1 1 -1.93836894729e-06 16.17976988 55.19914928 29.80390065
615 1 1 -1.7484202101e-06 14.70888171 57.74680233 29.80390065
616 1 1 -1.72726647712e-06 16.17976988 60.29445537 29.80390065
617 1 1 -2.06139946484e-06 0.00000000 42.46088406 29.80390065
618 1 1 -1.94021551526e-06 1.47088817 45.00853711 29.80390065
619 1 1 -1.80157711275e-06 0.00000000 47.55619015 29.80390065
620 1 1 -1.69891525811e-06 1.47088817 50.10384320 29.80390065
621 1 1 -1.60279540338e-06 0.00000000 52.65149624 29.80390065
622 1 1 -1.54024551507e-06 1.47088817 55.19914928 29.80390065
623 1 1 -1.49323804037e-06 0.00000000 57.74680233 29.80390065
624 1 1 -1.47636260973e-06 1.47088817 60.29445537 29.80390065
625 1 1 0.000156905336258 4.41266451 43.31010174 32.20585097
626 1 1 0.000150676856205 5.88355268 45.85775479 32.20585097
627 1 1 0.000131577448724 4.41266451 48.40540783 32.20585097
628 1 1 0.000125400417931 5.88355268 50.95306088 32.20585097
629 1 1 0.000114646496566 4.41266451 53.50071392 32.20585097
630 1 1 0.000111225987239 5.88355268 56.04836697 32.20585097
631 1 1 0.000106467716853 4.41266451 58.59602001 32.20585097
632 1 1 0.000184107634838 5.88355268 40.76244870 32.20585097
633 1 1 0.000179904154057 7.35444085 43.31010174 32.20585097
634 1 1 0.000172057633348 8.82532903 45.85775479 32.20585097
635 1 1 0.000143312974186 7.35444085 48.40540783 32.20585097
636 1 1 0.000135454116194 8.82532903 50.95306088 32.20585097
637 1 1 0.000120038197504 7.35444085 53.50071392 32.20585097
638 1 1 0.000116018635761 8.82532903 56.04836697 32.20585097
639 1 1 0.00010958551064 7.35444085 58.59602001 32.20585097
640 1 1 0.000222410988691 8.82532903 40.76244870 32.20585097
641 1 1 0.000215555830774 10.29621720 43.31010174 32.20585097
642 1 1 0.000202257934066 11.76710537 45.85775479 32.20585097
643 1 1 0.000161425441105 10.29621720 48.40540783 32.20585097
644 1 1 0.000149613413013 11.76710537 50.95306088 32.20585097
645 1 1 0.000128122845249 10.29621720 53.50071392 32.20585097
646 1 1 0.000122409736789 11.76710537 56.04836697 32.20585097
647 1 1 0.00011398000327 10.29621720 58.59602001 32.20585097
648 1 1 0.000289812711549 11.76710537 40.76244870 32.20585097
649 1 1 0.000270787542284 13.23799354 43.31010174 32.20585097
650 1 1 0.000242455879936 14.70888171 45.85775479 32.20585097
651 1 1 0.000185040602081 13.23799354 48.40540783 32.20585097
652 1 1 0.000166798769432 14.70888171 50.95306088 32.20585097
653 1 1 0.000138533965039 13.23799354 53.50071392 32.20585097
654 1 1 0.000129906316801 14.70888171 56.04836697 32.20585097
655 1 1 0.000119285167397 13.23799354 58.59602001 32.20585097
656 1 1 0.000435802147165 14.70888171 40.76244870 32.20585097
657 1 1 0.000368529401156 16.17976988 43.31010174 32.20585097
658 1 1 0.000134304548667 0.00000000 45.85775479 32.20585097
659 1 1 0.000212506939858 16.17976988 48.40540783 32.20585097
660 1 1 0.000117677445454 0.00000000 50.95306088 32.20585097
661 1 1 0.000150269395034 16.17976988 53.50071392 32.20585097
662 1 1 0.000107280651011 0.00000000 56.04836697 32.20585097
663 1 1 0.000124962185655 16.17976988 58.59602001 32.20585097
664 1 1 0.000154763000291 0.00000000 40.76244870 32.20585097
665 1 1 0.000145712393739 1.47088817 43.31010174 32.20585097
666 1 1 0.000138283001783 2.94177634 45.85775479 32.20585097
667 1 1 0.000125977787084 1.47088817 48.40540783 32.20585097
668 1 1 0.000119569286308 2.94177634 50.95306088 32.20585097
669 1 1 0.000111972894154 1.47088817 53.50071392 32.20585097
670 1 1 0.000108275674078 2.94177634 56.04836697 32.20585097
671 1 1 0.000104853637214 1.47088817 58.59602001 32.20585097
672 1 1 0.000162029852541 2.94177634 40.76244870 32.20585097
673 1 1 -0.000969652467224 5.88355268 44.15931943 34.60780130
674 1 1 -0.000932102441236 7.35444085 46.70697247 34.60780130
675 1 1 -0.000825453936347 5.88355268 49.25462551 34.60780130
676 1 1 -0.000791895849204 7.35444085 51.80227856 34.60780130
677 1 1 -0.000731565383648 5.88355268 54.34993160 34.60780130
678 1 1 -0.000715201902882 7.35444085 56.89758465 34.60780130
679 1 1 -0.000689589089635 5.88355268 59.44523769 34.60780130
680 1 1 -0.00113623909224 7.35444085 41.61166638 34.60780130
681 1 1 -0.00110188470443 8.82532903 44.15931943 34.60780130
682 1 1 -0.00104594811692 10.29621720 46.70697247 34.60780130
683 1 1 -0.000888530312426 8.82532903 49.25462551 34.60780130
684 1 1 -0.000844184409995 10.29621720 51.80227856 34.60780130
685 1 1 -0.000763241972687 8.82532903 54.34993160 34.60780130
686 1 1 -0.000743100078102 10.29621720 56.89758465 34.60780130
687 1 1 -0.000709816043532 8.82532903 59.44523769 34.60780130
688 1 1 -0.00138084898893 10.29621720 41.61166638 34.60780130
689 1 1 -0.0013129777169 11.76710537 44.15931943 34.60780130
690 1 1 -0.00120944314875 13.23799354 46.70697247 34.60780130
691 1 1 -0.000978473782001 11.76710537 49.25462551 34.60780130
692 1 1 -0.0009111626676 13.23799354 51.80227856 34.60780130
693 1 1 -0.000805038870116 11.76710537 54.34993160 34.60780130
694 1 1 -0.00077673845374 13.23799354 56.89758465 34.60780130
695 1 1 -0.00073570794932 11.76710537 59.44523769 34.60780130
696 1 1 -0.00176301800509 13.23799354 41.61166638 34.60780130
697 1 1 -0.00161358408339 14.70888171 44.15931943 34.60780130
698 1 1 -0.00141982050379 16.17976988 46.70697247 34.60780130
699 1 1 -0.0010942214382 14.70888171 49.25462551 34.60780130
700 1 1 -0.000988273667519 16.17976988 51.80227856 34.60780130
701 1 1 -0.000853634651372 14.70888171 54.34993160 34.60780130
702 1 1 -0.000812601452155 16.17976988 56.89758465 34.60780130
703 1 1 -0.000764629614688 14.70888171 59.44523769 34.60780130
704 1 1 -0.00229077712311 16.17976988 41.61166638 34.60780130
705 1 1 -0.000875395776578 0.00000000 44.15931943 34.60780130
706 1 1 -0.000827165415281 1.47088817 46.70697247 34.60780130
707 1 1 -0.000775810155379 0.00000000 49.25462551 34.60780130
708 1 1 -0.000738396265488 1.47088817 51.80227856 34.60780130
709 1 1 -0.000705307048895 0.00000000 54.34993160 34.60780130
710 1 1 -0.000685259384487 1.47088817 56.89758465 34.60780130
711 1 1 -0.000672431057567 0.00000000 59.44523769 34.60780130
712 1 1 -0.00093715799383 1.47088817 41.61166638 34.60780130
713 1 1 -0.000898075243131 2.94177634 44.15931943 34.60780130
714 1 1 -0.000861215808656 4.41266451 46.70697247 34.60780130
715 1 1 -0.000788158181628 2.94177634 49.25462551 34.60780130
716 1 1 -0.000756338316602 4.41266451 51.80227856 34.60780130
717 1 1 -0.00071193948374 2.94177634 54.34993160 34.60780130
718 1 1 -0.000695450174116 4.41266451 56.89758465 34.60780130
719 1 1 -0.000676798681591 2.94177634 59.44523769 34.60780130
720 1 1 -0.0009984645464 4.41266451 41.61166638 34.60780130
721 1 1 0.000783813483668 17.65065805 0.00000000 25.00000000
722 1 1 0.00081277966518 19.12154622 2.54765304 25.00000000
723 1 1 0.000847287956553 17.65065805 5.09530609 25.00000000
724 1 1 0.000963056421096 19.12154622 7.64295913 25.00000000
725 1 1 0.00108087936907 17.65065805 10.19061218 25.00000000
726 1 1 0.0013921399609 19.12154622 12.73826522 25.00000000
727 1 1 0.00166314762213 17.65065805 15.28591827 25.00000000
728 1 1 0.00239898321998 19.12154622 17.83357131 25.00000000
729 1 1 0.000806922914708 20.59243439 0.00000000 25.00000000
730 1 1 0.000834696214299 22.06332256 2.54765304 25.00000000
731 1 1 0.000881376187129 20.59243439 5.09530609 25.00000000
732 1 1 0.00100892033788 22.06332256 7.64295913 25.00000000
733 1 1 0.00116935953941 20.59243439 10.19061218 25.00000000
734 1 1 0.00153321270365 22.06332256 12.73826522 25.00000000
735 1 1 0.0019332048353 20.59243439 15.28591827 25.00000000
736 1 1 0.00284876399175 22.06332256 17.83357131 25.00000000
737 1 1 0.000822467159445 23.53421073 0.00000000 25.00000000
738 1 1 0.000846687024477 25.00509890 2.54765304 25.00000000
739 1 1 0.000904834236886 23.53421073 5.09530609 25.00000000
740 1 1 0.00103496600123 25.00509890 7.64295913 25.00000000
741 1 1 0.0012340887612 23.53421073 10.19061218 25.00000000
742 1 1 0.00161640064211 25.00509890 12.73826522 25.00000000
743 1 1 0.00213936189926 23.53421073 15.28591827 25.00000000
744 1 1 0.00314872690331 25.00509890 17.83357131 25.00000000
745 1 1 0.00082795305674 26.47598708 0.00000000 25.00000000
746 1 1 0.000846687020338 27.94687525 2.54765304 25.00000000
747 1 1 0.000913221615545 26.47598708 5.09530609 25.00000000
748 1 1 0.00103496599943 27.94687525 7.64295913 25.00000000
749 1 1 0.00125797128913 26.47598708 10.19061218 25.00000000
750 1 1 0.00161640064294 27.94687525 12.73826522 25.00000000
751 1 1 0.00221729942179 26.47598708 15.28591827 25.00000000
752 1 1 0.00314872690584 27.94687525 17.83357131 25.00000000
753 1 1 0.000822467149724 29.41776342 0.00000000 25.00000000
754 1 1 0.00083469620256 30.88865159 2.54765304 25.00000000
755 1 1 0.000904834230921 29.41776342 5.09530609 25.00000000
756 1 1 0.00100892033293 30.88865159 7.64295913 25.00000000
757 1 1 0.00123408876037 29.41776342 10.19061218 25.00000000
758 1 1 0.00153321270643 30.88865159 12.73826522 25.00000000
759 1 1 0.00213936190324 29.41776342 15.28591827 25.00000000
760 1 1 0.00284876400024 30.88865159 17.83357131 25.00000000
761 1 1 0.000806922896671 32.35953976 0.00000000 25.00000000
762 1 1 0.000812779647423 33.83042793 2.54765304 25.00000000
763 1 1 0.000881376176183 32.35953976 5.09530609 25.00000000
764 1 1 0.000963056413805 33.83042793 7.64295913 25.00000000
765 1 1 0.00116935953824 32.35953976 10.19061218 25.00000000
766 1 1 0.00139213996567 33.83042793 12.73826522 25.00000000
767 1 1 0.00193320484361 32.35953976 15.28591827 25.00000000
768 1 1 0.00239898323454 33.83042793 17.83357131 25.00000000
769 1 1 -0.000121577554943 19.12154622 0.84921768 27.40195032
770 1 1 -0.000129558495284 20.59243439 3.39687073 27.40195032
771 1 1 -0.000140513202804 19.12154622 5.94452377 27.40195032
772 1 1 -0.000169058322673 20.59243439 8.49217681 27.40195032
773 1 1 -0.000198381103393 19.12154622 11.03982986 27.40195032
774 1 1 -0.000271893679493 20.59243439 13.58748290 27.40195032
775 1 1 -0.000366146107449 19.12154622 16.13513595 27.40195032
776 1 1 -0.000758144953566 20.59243439 18.68278899 27.40195032
777 1 1 -0.000125127267559 22.06332256 0.84921768 27.40195032
778 1 1 -0.000133091825705 23.53421073 3.39687073 27.40195032
779 1 1 -0.0001470758847 22.06332256 5.94452377 27.40195032
780 1 1 -0.000177135983776 23.53421073 8.49217681 27.40195032
781 1 1 -0.000214834361988 22.06332256 11.03982986 27.40195032
782 1 1 -0.000302991693074 23.53421073 13.58748290 27.40195032
783 1 1 -0.000466333347542 22.06332256 16.13513595 27.40195032
784 1 1 -0.00100651889271 23.53421073 18.68278899 27.40195032
785 1 1 -0.000127075886293 25.00509890 0.84921768 27.40195032
786 1 1 -0.000134352071171 26.47598708 3.39687073 27.40195032
787 1 1 -0.00015072463627 25.00509890 5.94452377 27.40195032
788 1 1 -0.000180033688146 26.47598708 8.49217681 27.40195032
789 1 1 -0.000224479191516 25.00509890 11.03982986 27.40195032
790 1 1 -0.000315604384767 26.47598708 13.58748290 27.40195032
791 1 1 -0.000537991626024 25.00509890 16.13513595 27.40195032
792 1 1 -0.00110917711024 26.47598708 18.68278899 27.40195032
793 1 1 -0.000127075891675 27.94687525 0.84921768 27.40195032
794 1 1 -0.00013309183416 29.41776342 3.39687073 27.40195032
795 1 1 -0.00015072463922 27.94687525 5.94452377 27.40195032
796 1 1 -0.000177135986493 29.41776342 8.49217681 27.40195032
797 1 1 -0.000224479191279 27.94687525 11.03982986 27.40195032
798 1 1 -0.000302991689351 29.41776342 13.58748290 27.40195032
799 1 1 -0.000537991622646 27.94687525 16.13513595 27.40195032
800 1 1 -0.00100651888339 29.41776342 18.68278899 27.40195032
801 1 1 -0.000125127282957 30.88865159 0.84921768 27.40195032
802 1 1 -0.000129558511032 32.35953976 3.39687073 27.40195032
803 1 1 -0.000147075893081 30.88865159 5.94452377 27.40195032
804 1 1 -0.000169058327593 32.35953976 8.49217681 27.40195032
805 1 1 -0.00021483436115 30.88865159 11.03982986 27.40195032
806 1 1 -0.000271893672228 32.35953976 13.58748290 27.40195032
807 1 1 -0.000466333337582 30.88865159 16.13513595 27.40195032
808 1 1 -0.000758144935455 32.35953976 18.68278899 27.40195032
809 1 1 -0.000121577578397 33.83042793 0.84921768 27.40195032
810 1 1 -0.000124412602721 17.65065805 3.39687073 27.40195032
811 1 1 -0.000140513215485 33.83042793 5.94452377 27.40195032
812 1 1 -0.000157411577645 17.65065805 8.49217681 27.40195032
813 1 1 -0.000198381101883 33.83042793 11.03982986 27.40195032
814 1 1 -0.00023555530837 17.65065805 13.58748290 27.40195032
815 1 1 -0.000366146091883 33.83042793 16.13513595 27.40195032
816 1 1 -0.000501653141601 17.65065805 18.68278899 27.40195032
817 1 1 -1.834157581e-06 20.59243439 1.69843536 29.80390065
818 1 1 -1.97330824276e-06 22.06332256 4.24608841 29.80390065
819 1 1 -2.16967250365e-06 20.59243439 6.79374145 29.80390065
820 1 1 -2.66864691936e-06 22.06332256 9.34139450 29.80390065
821 1 1 -3.32020740053e-06 20.59243439 11.88904754 29.80390065
822 1 1 -4.99382397767e-06 22.06332256 14.43670058 29.80390065
823 1 1 -7.2093480705e-06 20.59243439 16.98435363 29.80390065
824 1 1 -1.24928671774e-05 22.06332256 19.53200667 29.80390065
825 1 1 -1.87422524804e-06 23.53421073 1.69843536 29.80390065
826 1 1 -2.00929338799e-06 25.00509890 4.24608841 29.80390065
827 1 1 -2.25460921111e-06 23.53421073 6.79374145 29.80390065
828 1 1 -2.79047638123e-06 25.00509890 9.34139450 29.80390065
829 1 1 -3.61770280657e-06 23.53421073 11.88904754 29.80390065
830 1 1 -5.10830146809e-06 25.00509890 14.43670058 29.80390065
831 1 1 -7.81293825714e-06 23.53421073 16.98435363 29.80390065
832 1 1 -1.23655363848e-05 25.00509890 19.53200667 29.80390065
833 1 1 -1.88836056112e-06 26.47598708 1.69843536 29.80390065
834 1 1 -2.0092973954e-06 27.94687525 4.24608841 29.80390065
835 1 1 -2.2876485086e-06 26.47598708 6.79374145 29.80390065
836 1 1 -2.79047718871e-06 27.94687525 9.34139450 29.80390065
837 1 1 -3.70765795228e-06 26.47598708 11.88904754 29.80390065
838 1 1 -5.10829885703e-06 27.94687525 14.43670058 29.80390065
839 1 1 -7.28497407063e-06 26.47598708 16.98435363 29.80390065
840 1 1 -1.23655310511e-05 27.94687525 19.53200667 29.80390065
841 1 1 -1.87423558734e-06 29.41776342 1.69843536 29.80390065
842 1 1 -1.97331978054e-06 30.88865159 4.24608841 29.80390065
843 1 1 -2.25461412237e-06 29.41776342 6.79374145 29.80390065
844 1 1 -2.66864924243e-06 30.88865159 9.34139450 29.80390065
845 1 1 -3.61770097698e-06 29.41776342 11.88904754 29.80390065
846 1 1 -4.99381645767e-06 30.88865159 14.43670058 29.80390065
847 1 1 -7.8129302104e-06 29.41776342 16.98435363 29.80390065
848 1 1 -1.24928518269e-05 30.88865159 19.53200667 29.80390065
849 1 1 -1.8341770105e-06 32.35953976 1.69843536 29.80390065
850 1 1 -1.90918451983e-06 33.83042793 4.24608841 29.80390065
851 1 1 -2.1696817277e-06 32.35953976 6.79374145 29.80390065
852 1 1 -2.47819071314e-06 33.83042793 9.34139450 29.80390065
853 1 1 -3.32020394627e-06 32.35953976 11.88904754 29.80390065
854 1 1 -4.28003286751e-06 33.83042793 14.43670058 29.80390065
855 1 1 -7.20933284483e-06 32.35953976 16.98435363 29.80390065
856 1 1 -9.5387086507e-06 33.83042793 19.53200667 29.80390065
857 1 1 -1.77440668515e-06 17.65065805 1.69843536 29.80390065
858 1 1 -1.90916684209e-06 19.12154622 4.24608841 29.80390065
859 1 1 -2.05795011835e-06 17.65065805 6.79374145 29.80390065
860 1 1 -2.47818714897e-06 19.12154622 9.34139450 29.80390065
861 1 1 -2.91467011598e-06 17.65065805 11.88904754 29.80390065
862 1 1 -4.28004437096e-06 19.12154622 14.43670058 29.80390065
863 1 1 -5.43121456685e-06 17.65065805 16.98435363 29.80390065
864 1 1 -9.53873209717e-06 19.12154622 19.53200667 29.80390065
865 1 1 0.000134477339027 22.06332256 2.54765304 32.20585097
866 1 1 0.000149252820696 23.53421073 5.09530609 32.20585097
867 1 1 0.000170782925158 22.06332256 7.64295913 32.20585097
868 1 1 0.000212809188453 23.53421073 10.19061218 32.20585097
869 1 1 0.000269051106657 22.06332256 12.73826522 32.20585097
870 1 1 0.00043378584409 23.53421073 15.28591827 32.20585097
871 1 1 0.000736268945961 22.06332256 17.83357131 32.20585097
872 1 1 0.000131765184286 23.53421073 0.00000000 32.20585097
873 1 1 0.000136785433267 25.00509890 2.54765304 32.20585097
874 1 1 0.000150945628109 26.47598708 5.09530609 32.20585097
875 1 1 0.000175837932216 25.00509890 7.64295913 32.20585097
876 1 1 0.000217033597188 26.47598708 10.19061218 32.20585097
877 1 1 0.000286394137862 25.00509890 12.73826522 32.20585097
878 1 1 0.000461853089306 26.47598708 15.28591827 32.20585097
879 1 1 0.000882776984559 25.00509890 17.83357131 32.20585097
880 1 1 0.00013278667514 26.47598708 0.00000000 32.20585097
881 1 1 0.000136785428707 27.94687525 2.54765304 32.20585097
882 1 1 0.000149252814204 29.41776342 5.09530609 32.20585097
883 1 1 0.000175837930454 27.94687525 7.64295913 32.20585097
884 1 1 0.000212809188172 29.41776342 10.19061218 32.20585097
885 1 1 0.000286394139405 27.94687525 12.73826522 32.20585097
886 1 1 0.000433785850073 29.41776342 15.28591827 32.20585097
887 1 1 0.00088277698895 27.94687525 17.83357131 32.20585097
888 1 1 0.000131765173374 29.41776342 0.00000000 32.20585097
889 1 1 0.000134477325788 30.88865159 2.54765304 32.20585097
890 1 1 0.000144516839251 32.35953976 5.09530609 32.20585097
891 1 1 0.000170782919947 30.88865159 7.64295913 32.20585097
892 1 1 0.000201240294612 32.35953976 10.19061218 32.20585097
893 1 1 0.000269051110892 30.88865159 12.73826522 32.20585097
894 1 1 0.000367668018577 32.35953976 15.28591827 32.20585097
895 1 1 0.000736268958189 30.88865159 17.83357131 32.20585097
896 1 1 0.000128884598337 32.35953976 0.00000000 32.20585097
897 1 1 0.000130293505745 33.83042793 2.54765304 32.20585097
898 1 1 0.000137661149517 17.65065805 5.09530609 32.20585097
899 1 1 0.00016168374404 33.83042793 7.64295913 32.20585097
900 1 1 0.000184920532045 17.65065805 10.19061218 32.20585097
901 1 1 0.000241845570325 33.83042793 12.73826522 32.20585097
902 1 1 0.000297542347575 17.65065805 15.28591827 32.20585097
903 1 1 0.000533125979861 33.83042793 17.83357131 32.20585097
904 1 1 0.00012463790934 17.65065805 0.00000000 32.20585097
905 1 1 0.000130293526171 19.12154622 2.54765304 32.20585097
906 1 1 0.000144516851611 20.59243439 5.09530609 32.20585097
907 1 1 0.000161683752199 19.12154622 7.64295913 32.20585097
908 1 1 0.000201240295354 20.59243439 10.19061218 32.20585097
909 1 1 0.000241845564082 19.12154622 12.73826522 32.20585097
910 1 1 0.000367668007635 20.59243439 15.28591827 32.20585097
911 1 1 0.000533125961433 19.12154622 17.83357131 32.20585097
912 1 1 0.000128884618986 20.59243439 0.00000000 32.20585097
913 1 1 -0.000860598514484 23.53421073 3.39687073 34.60780130
914 1 1 -0.000947670645728 25.00509890 5.94452377 34.60780130
915 1 1 -0.00108615538577 23.53421073 8.49217681 34.60780130
916 1 1 -0.00135852178887 25.00509890 11.03982986 34.60780130
917 1 1 -0.00174902145038 23.53421073 13.58748290 34.60780130
918 1 1 -0.00246719563366 25.00509890 16.13513595 34.60780130
919 1 1 -0.00348257334833 23.53421073 18.68278899 34.60780130
920 1 1 -0.000831470243651 25.00509890 0.84921768 34.60780130
921 1 1 -0.000867289867345 26.47598708 3.39687073 34.60780130
922 1 1 -0.000947670648028 27.94687525 5.94452377 34.60780130
923 1 1 -0.00110238429553 26.47598708 8.49217681 34.60780130
924 1 1 -0.00135852178828 27.94687525 11.03982986 34.60780130
925 1 1 -0.00180197496945 26.47598708 13.58748290 34.60780130
926 1 1 -0.00246719562994 27.94687525 16.13513595 34.60780130
927 1 1 -0.00371080621174 26.47598708 18.68278899 34.60780130
928 1 1 -0.000831470248087 27.94687525 0.84921768 34.60780130
929 1 1 -0.000860598521427 29.41776342 3.39687073 34.60780130
930 1 1 -0.000928812044473 30.88865159 5.94452377 34.60780130
931 1 1 -0.00108615538763 29.41776342 8.49217681 34.60780130
932 1 1 -0.00130218555906 30.88865159 11.03982986 34.60780130
933 1 1 -0.00174902144627 29.41776342 13.58748290 34.60780130
934 1 1 -0.0022833247853 30.88865159 16.13513595 34.60780130
935 1 1 -0.00348257333769 29.41776342 18.68278899 34.60780130
936 1 1 -0.00082055884944 30.88865159 0.84921768 34.60780130
937 1 1 -0.000841743512737 32.35953976 3.39687073 34.60780130
938 1 1 -0.000895059085591 33.83042793 5.94452377 34.60780130
939 1 1 -0.00104174829011 32.35953976 8.49217681 34.60780130
940 1 1 -0.0012059333947 33.83042793 11.03982986 34.60780130
941 1 1 -0.00160727738705 32.35953976 13.58748290 34.60780130
942 1 1 -0.00198409229597 33.83042793 16.13513595 34.60780130
943 1 1 -0.00295586868138 32.35953976 18.68278899 34.60780130
944 1 1 -0.000800536690813 33.83042793 0.84921768 34.60780130
945 1 1 -0.000813981775069 17.65065805 3.39687073 34.60780130
946 1 1 -0.00089505907489 19.12154622 5.94452377 34.60780130
947 1 1 -0.000979792170302 17.65065805 8.49217681 34.60780130
948 1 1 -0.00120593339646 19.12154622 11.03982986 34.60780130
949 1 1 -0.00141864942923 17.65065805 13.58748290 34.60780130
950 1 1 -0.0019840923104 19.12154622 16.13513595 34.60780130
951 1 1 -0.00237766677528 17.65065805 18.68278899 34.60780130
952 1 1 -0.00080053667078 19.12154622 0.84921768 34.60780130
953 1 1 -0.000841743499453 20.59243439 3.39687073 34.60780130
954 1 1 -0.000928812037657 22.06332256 5.94452377 34.60780130
955 1 1 -0.0010417482863 20.59243439 8.49217681 34.60780130
956 1 1 -0.00130218556047 22.06332256 11.03982986 34.60780130
957 1 1 -0.00160727739418 20.59243439 13.58748290 34.60780130
958 1 1 -0.00228332479532 22.06332256 16.13513595 34.60780130
959 1 1 -0.00295586869911 20.59243439 18.68278899 34.60780130
960 1 1 -0.000820558836508 22.06332256 0.84921768 34.60780130
961 1 1 0.00285456109959 17.65065805 20.38122435 25.00000000
962 1 1 0.00482319767811 19.12154622 22.92887739 25.00000000
963 1 1 0.00532712438835 17.65065805 25.47653044 25.00000000
964 1 1 0.010775881273 19.12154622 28.02418348 25.00000000
965 1 1 0.00776065728341 17.65065805 30.57183653 25.00000000
966 1 1 0.0107765204841 19.12154622 33.11948957 25.00000000
967 1 1 0.00532674119623 17.65065805 35.66714262 25.00000000
968 1 1 0.00482298931069 19.12154622 38.21479566 25.00000000
969 1 1 0.00378924381889 20.59243439 20.38122435 25.00000000
970 1 1 0.00775172256881 22.06332256 22.92887739 25.00000000
971 1 1 0.0107728196411 20.59243439 25.47653044 25.00000000
972 1 1 0.026184790283 22.06332256 28.02418348 25.00000000
973 1 1 0.0203511819173 20.59243439 30.57183653 25.00000000
974 1 1 0.026186119157 22.06332256 33.11948957 25.00000000
975 1 1 0.0107734604207 20.59243439 35.66714262 25.00000000
976 1 1 0.0077517236461 22.06332256 38.21479566 25.00000000
977 1 1 0.00481794953503 23.53421073 20.38122435 25.00000000
978 1 1 0.010769485388 25.00509890 22.92887739 25.00000000
979 1 1 0.0203474725345 23.53421073 25.47653044 25.00000000
980 1 1 0.046137030907 25.00509890 28.02418348 25.00000000
981 1 1 0.0461379159798 23.53421073 30.57183653 25.00000000
982 1 1 0.0461370304695 25.00509890 33.11948957 25.00000000
983 1 1 0.0203474715904 23.53421073 35.66714262 25.00000000
984 1 1 0.0107688455787 25.00509890 38.21479566 25.00000000
985 1 1 0.00531695295507 26.47598708 20.38122435 25.00000000
986 1 1 0.0107694853839 27.94687525 22.92887739 25.00000000
987 1 1 0.0261835735304 26.47598708 25.47653044 25.00000000
988 1 1 0.0461370308579 27.94687525 28.02418348 25.00000000
989 1 1 0.0631963771896 26.47598708 30.57183653 25.00000000
990 1 1 0.0461370304191 27.94687525 33.11948957 25.00000000
991 1 1 0.0261822419706 26.47598708 35.66714262 25.00000000
992 1 1 0.010768845571 27.94687525 38.21479566 25.00000000
993 1 1 0.00481794953909 29.41776342 20.38122435 25.00000000
994 1 1 0.0077517225684 30.88865159 22.92887739 25.00000000
995 1 1 0.0203474725047 29.41776342 25.47653044 25.00000000
996 1 1 0.0261847902184 30.88865159 28.02418348 25.00000000
997 1 1 0.0461379158821 29.41776342 30.57183653 25.00000000
998 1 1 0.0261861190885 30.88865159 33.11948957 25.00000000
999 1 1 0.0203474715556 29.41776342 35.66714262 25.00000000
1000 1 1 0.00775172363523 30.88865159 38.21479566 25.00000000
1001 1 1 0.00378924383128 32.35953976 20.38122435 25.00000000
1002 1 1 0.00482319769215 33.83042793 22.92887739 25.00000000
1003 1 1 0.0107728196298 32.35953976 25.47653044 25.00000000
1004 1 1 0.0107758812594 33.83042793 28.02418348 25.00000000
1005 1 1 0.0203511818601 32.35953976 30.57183653 25.00000000
1006 1 1 0.0107765204646 33.83042793 33.11948957 25.00000000
1007 1 1 0.0107734603999 32.35953976 35.66714262 25.00000000
1008 1 1 0.00482298930871 33.83042793 38.21479566 25.00000000
1009 1 1 -0.00111336520195 19.12154622 21.23044203 27.40195032
1010 1 1 -0.00215918004027 20.59243439 23.77809508 27.40195032
1011 1 1 -0.00231969014111 19.12154622 26.32574812 27.40195032
1012 1 1 -0.00243479873501 20.59243439 28.87340116 27.40195032
1013 1 1 -0.00255116340307 19.12154622 31.42105421 27.40195032
1014 1 1 -0.00255897327027 20.59243439 33.96870725 27.40195032
1015 1 1 -0.00198729394631 19.12154622 36.51636030 27.40195032
1016 1 1 -0.00165597176839 20.59243439 39.06401334 27.40195032
1017 1 1 -0.0016557075969 22.06332256 21.23044203 27.40195032
1018 1 1 -0.00255012397898 23.53421073 23.77809508 27.40195032
1019 1 1 -0.00243447537079 22.06332256 26.32574812 27.40195032
1020 1 1 -0.000266312159221 23.53421073 28.87340116 27.40195032
1021 1 1 -0.00144490146378 22.06332256 31.42105421 27.40195032
1022 1 1 -0.00144469579926 23.53421073 33.96870725 27.40195032
1023 1 1 -0.00255033462308 22.06332256 36.51636030 27.40195032
1024 1 1 -0.00215869002538 23.53421073 39.06401334 27.40195032
1025 1 1 -0.0019862880999 25.00509890 21.23044203 27.40195032
1026 1 1 -0.00255824036816 26.47598708 23.77809508 27.40195032
1027 1 1 -0.00144457259642 25.00509890 26.32574812 27.40195032
1028 1 1 0.00171891877318 26.47598708 28.87340116 27.40195032
1029 1 1 0.00171886636308 25.00509890 31.42105421 27.40195032
1030 1 1 -0.000266172593872 26.47598708 33.96870725 27.40195032
1031 1 1 -0.00243410618919 25.00509890 36.51636030 27.40195032
1032 1 1 -0.00231856197269 26.47598708 39.06401334 27.40195032
1033 1 1 -0.0019862880946 27.94687525 21.23044203 27.40195032
1034 1 1 -0.00255012396929 29.41776342 23.77809508 27.40195032
1035 1 1 -0.00144457259634 27.94687525 26.32574812 27.40195032
1036 1 1 -0.000266312164547 29.41776342 28.87340116 27.40195032
1037 1 1 0.00171886635515 27.94687525 31.42105421 27.40195032
1038 1 1 -0.0014446958026 29.41776342 33.96870725 27.40195032
1039 1 1 -0.00243410618937 27.94687525 36.51636030 27.40195032
1040 1 1 -0.0021586900235 29.41776342 39.06401334 27.40195032
1041 1 1 -0.00165570758035 30.88865159 21.23044203 27.40195032
1042 1 1 -0.00215918001664 32.35953976 23.77809508 27.40195032
1043 1 1 -0.00243447535951 30.88865159 26.32574812 27.40195032
1044 1 1 -0.00243479872003 32.35953976 28.87340116 27.40195032
1045 1 1 -0.00144490146437 30.88865159 31.42105421 27.40195032
1046 1 1 -0.0025589732588 32.35953976 33.96870725 27.40195032
1047 1 1 -0.00255033461753 30.88865159 36.51636030 27.40195032
1048 1 1 -0.00165597176243 32.35953976 39.06401334 27.40195032
1049 1 1 -0.00111336517533 33.83042793 21.23044203 27.40195032
1050 1 1 -0.00135853205899 17.65065805 23.77809508 27.40195032
1051 1 1 -0.00231969011183 33.83042793 26.32574812 27.40195032
1052 1 1 -0.00216030398807 17.65065805 28.87340116 27.40195032
1053 1 1 -0.00255116338066 33.83042793 31.42105421 27.40195032
1054 1 1 -0.00198795293983 17.65065805 33.96870725 27.40195032
1055 1 1 -0.00198729393146 33.83042793 36.51636030 27.40195032
1056 1 1 -0.00100768953796 17.65065805 39.06401334 27.40195032
1057 1 1 -1.58756205866e-05 20.59243439 22.07965971 29.80390065
1058 1 1 -2.3681016325e-05 22.06332256 24.62731276 29.80390065
1059 1 1 -2.60105561032e-05 20.59243439 27.17496580 29.80390065
1060 1 1 -5.82797430568e-05 22.06332256 29.72261885 29.80390065
1061 1 1 -3.1994402809e-05 20.59243439 32.27027189 29.80390065
1062 1 1 -3.19948765164e-05 22.06332256 34.81792493 29.80390065
1063 1 1 -1.97577381678e-05 20.59243439 37.36557798 29.80390065
1064 1 1 -1.58709798845e-05 22.06332256 39.91323102 29.80390065
1065 1 1 -1.97499809833e-05 23.53421073 22.07965971 29.80390065
1066 1 1 -3.19896783724e-05 25.00509890 24.62731276 29.80390065
1067 1 1 -5.82858750665e-05 23.53421073 27.17496580 29.80390065
1068 1 1 -0.000201933280544 25.00509890 29.72261885 29.80390065
1069 1 1 -0.000101710649479 23.53421073 32.27027189 29.80390065
1070 1 1 -5.82899063428e-05 25.00509890 34.81792493 29.80390065
1071 1 1 -2.36695680989e-05 23.53421073 37.36557798 29.80390065
1072 1 1 -1.88290330406e-05 25.00509890 39.91323102 29.80390065
1073 1 1 -2.02352908228e-05 26.47598708 22.07965971 29.80390065
1074 1 1 -3.19896717126e-05 27.94687525 24.62731276 29.80390065
1075 1 1 -0.000101710717211 26.47598708 27.17496580 29.80390065
1076 1 1 -0.000201933273946 27.94687525 29.72261885 29.80390065
1077 1 1 -0.000201944440213 26.47598708 32.27027189 29.80390065
1078 1 1 -5.82899022718e-05 27.94687525 34.81792493 29.80390065
1079 1 1 -2.59948267815e-05 26.47598708 37.36557798 29.80390065
1080 1 1 -1.88290322575e-05 27.94687525 39.91323102 29.80390065
1081 1 1 -1.97499689155e-05 29.41776342 22.07965971 29.80390065
1082 1 1 -2.36809972241e-05 30.88865159 24.62731276 29.80390065
1083 1 1 -5.82858619016e-05 29.41776342 27.17496580 29.80390065
1084 1 1 -5.8279725186e-05 30.88865159 29.72261885 29.80390065
1085 1 1 -0.000101710638789 29.41776342 32.27027189 29.80390065
1086 1 1 -3.19948649355e-05 30.88865159 34.81792493 29.80390065
1087 1 1 -2.36695630836e-05 29.41776342 37.36557798 29.80390065
1088 1 1 -1.58709775882e-05 30.88865159 39.91323102 29.80390065
1089 1 1 -1.58755975856e-05 32.35953976 22.07965971 29.80390065
1090 1 1 -1.88506117162e-05 33.83042793 24.62731276 29.80390065
1091 1 1 -2.60105315245e-05 32.35953976 27.17496580 29.80390065
1092 1 1 -2.36825860165e-05 33.83042793 29.72261885 29.80390065
1093 1 1 -3.19943834086e-05 32.35953976 32.27027189 29.80390065
1094 1 1 -2.0259126649e-05 33.83042793 34.81792493 29.80390065
1095 1 1 -1.97577290579e-05 32.35953976 37.36557798 29.80390065
1096 1 1 -1.25007917677e-05 33.83042793 39.91323102 29.80390065
1097 1 1 -1.23156796715e-05 17.65065805 22.07965971 29.80390065
1098 1 1 -1.88506407748e-05 19.12154622 24.62731276 29.80390065
1099 1 1 -1.88575247225e-05 17.65065805 27.17496580 29.80390065
1100 1 1 -2.36826130515e-05 19.12154622 29.72261885 29.80390065
1101 1 1 -1.97766880689e-05 17.65065805 32.27027189 29.80390065
1102 1 1 -2.02591444785e-05 19.12154622 34.81792493 29.80390065
1103 1 1 -1.23868613457e-05 17.65065805 37.36557798 29.80390065
1104 1 1 -1.25007954238e-05 19.12154622 39.91323102 29.80390065
1105 1 1 0.00228961787201 22.06332256 22.92887739 32.20585097
1106 1 1 0.0025211147568 23.53421073 25.47653044 32.20585097
1107 1 1 0.00215007417954 22.06332256 28.02418348 32.20585097
1108 1 1 0.000166163442845 23.53421073 30.57183653 32.20585097
1109 1 1 0.00214947129048 22.06332256 33.11948957 32.20585097
1110 1 1 0.00252112943036 23.53421073 35.66714262 32.20585097
1111 1 1 0.00228962862357 22.06332256 38.21479566 32.20585097
1112 1 1 0.00159606867777 23.53421073 20.38122435 32.20585097
1113 1 1 0.00259266137954 25.00509890 22.92887739 32.20585097
1114 1 1 0.00214905282309 26.47598708 25.47653044 32.20585097
1115 1 1 0.000165993849107 25.00509890 28.02418348 32.20585097
1116 1 1 -0.0018684579096 26.47598708 30.57183653 32.20585097
1117 1 1 0.000165959127144 25.00509890 33.11948957 32.20585097
1118 1 1 0.00214964911921 26.47598708 35.66714262 32.20585097
1119 1 1 0.00259335401738 25.00509890 38.21479566 32.20585097
1120 1 1 0.00175687325735 26.47598708 20.38122435 32.20585097
1121 1 1 0.00259266138678 27.94687525 22.92887739 32.20585097
1122 1 1 0.00252111477548 29.41776342 25.47653044 32.20585097
1123 1 1 0.000165993865035 27.94687525 28.02418348 32.20585097
1124 1 1 0.000166163471991 29.41776342 30.57183653 32.20585097
1125 1 1 0.000165959141378 27.94687525 33.11948957 32.20585097
1126 1 1 0.00252112944315 29.41776342 35.66714262 32.20585097
1127 1 1 0.00259335402043 27.94687525 38.21479566 32.20585097
1128 1 1 0.0015960686884 29.41776342 20.38122435 32.20585097
1129 1 1 0.00228961788984 30.88865159 22.92887739 32.20585097
1130 1 1 0.00259400016151 32.35953976 25.47653044 32.20585097
1131 1 1 0.00215007420892 30.88865159 28.02418348 32.20585097
1132 1 1 0.00252175682079 32.35953976 30.57183653 32.20585097
1133 1 1 0.00214947131523 30.88865159 33.11948957 32.20585097
1134 1 1 0.00259332936447 32.35953976 35.66714262 32.20585097
1135 1 1 0.00228962862939 30.88865159 38.21479566 32.20585097
1136 1 1 0.00118620508252 32.35953976 20.38122435 32.20585097
1137 1 1 0.00159738190608 33.83042793 22.92887739 32.20585097
1138 1 1 0.00175793352266 17.65065805 25.47653044 32.20585097
1139 1 1 0.00259452554309 33.83042793 28.02418348 32.20585097
1140 1 1 0.0022911349957 17.65065805 30.57183653 32.20585097
1141 1 1 0.00259383361319 33.83042793 33.11948957 32.20585097
1142 1 1 0.00175851428112 17.65065805 35.66714262 32.20585097
1143 1 1 0.0015969141872 33.83042793 38.21479566 32.20585097
1144 1 1 0.000737616132398 17.65065805 20.38122435 32.20585097
1145 1 1 0.00159738188162 19.12154622 22.92887739 32.20585097
1146 1 1 0.00259400013696 20.59243439 25.47653044 32.20585097
1147 1 1 0.00259452551612 19.12154622 28.02418348 32.20585097
1148 1 1 0.00252175679202 20.59243439 30.57183653 32.20585097
1149 1 1 0.00259383359309 19.12154622 33.11948957 32.20585097
1150 1 1 0.00259332935104 20.59243439 35.66714262 32.20585097
1151 1 1 0.00159691418127 19.12154622 38.21479566 32.20585097
1152 1 1 0.00118620506362 20.59243439 20.38122435 32.20585097
1153 1 1 -0.0123019251242 23.53421073 23.77809508 34.60780130
1154 1 1 -0.0315874476775 25.00509890 26.32574812 34.60780130
1155 1 1 -0.0421072015477 23.53421073 28.87340116 34.60780130
1156 1 1 -0.0573447396798 25.00509890 31.42105421 34.60780130
1157 1 1 -0.0315882877164 23.53421073 33.96870725 34.60780130
1158 1 1 -0.0189281892744 25.00509890 36.51636030 34.60780130
1159 1 1 -0.00742611409053 23.53421073 39.06401334 34.60780130
1160 1 1 -0.00648576449601 25.00509890 21.23044203 34.60780130
1161 1 1 -0.015106373528 26.47598708 23.77809508 34.60780130
1162 1 1 -0.031587447637 27.94687525 26.32574812 34.60780130
1163 1 1 -0.0573444553327 26.47598708 28.87340116 34.60780130
1164 1 1 -0.0573447396058 27.94687525 31.42105421 34.60780130
1165 1 1 -0.0421061215396 26.47598708 33.96870725 34.60780130
1166 1 1 -0.0189281892529 27.94687525 36.51636030 34.60780130
1167 1 1 -0.00863287865782 26.47598708 39.06401334 34.60780130
1168 1 1 -0.00648576448677 27.94687525 21.23044203 34.60780130
1169 1 1 -0.0123019250924 29.41776342 23.77809508 34.60780130
1170 1 1 -0.0189303614408 30.88865159 26.32574812 34.60780130
1171 1 1 -0.0421072014414 29.41776342 28.87340116 34.60780130
1172 1 1 -0.0315898071333 30.88865159 31.42105421 34.60780130
1173 1 1 -0.0315882876408 29.41776342 33.96870725 34.60780130
1174 1 1 -0.0123032154332 30.88865159 36.51636030 34.60780130
1175 1 1 -0.00742611407791 29.41776342 39.06401334 34.60780130
1176 1 1 -0.00517003028653 30.88865159 21.23044203 34.60780130
1177 1 1 -0.00742915854907 32.35953976 23.77809508 34.60780130
1178 1 1 -0.00863983138755 33.83042793 26.32574812 34.60780130
1179 1 1 -0.0189325957615 32.35953976 28.87340116 34.60780130
1180 1 1 -0.012308425555 33.83042793 31.42105421 34.60780130
1181 1 1 -0.0151108566752 32.35953976 33.96870725 34.60780130
1182 1 1 -0.00649200832684 33.83042793 36.51636030 34.60780130
1183 1 1 -0.00517167961951 32.35953976 39.06401334 34.60780130
1184 1 1 -0.00372009449118 33.83042793 21.23044203 34.60780130
1185 1 1 -0.00431175856078 17.65065805 23.77809508 34.60780130
1186 1 1 -0.00863983143799 19.12154622 26.32574812 34.60780130
1187 1 1 -0.00743614299777 17.65065805 28.87340116 34.60780130
1188 1 1 -0.0123084256202 19.12154622 31.42105421 34.60780130
1189 1 1 -0.00649605748322 17.65065805 33.96870725 34.60780130
1190 1 1 -0.00649200835391 19.12154622 36.51636030 34.60780130
1191 1 1 -0.00348989055743 17.65065805 39.06401334 34.60780130
1192 1 1 -0.00372009451766 19.12154622 21.23044203 34.60780130
1193 1 1 -0.0074291585865 20.59243439 23.77809508 34.60780130
1194 1 1 -0.01893036151 22.06332256 26.32574812 34.60780130
1195 1 1 -0.0189325958489 20.59243439 28.87340116 34.60780130
1196 1 1 -0.0315898072464 22.06332256 31.42105421 34.60780130
1197 1 1 -0.0151108567392 20.59243439 33.96870725 34.60780130
1198 1 1 -0.0123032154706 22.06332256 36.51636030 34.60780130
1199 1 1 -0.00517167963289 20.59243439 39.06401334 34.60780130
1200 1 1 -0.00517003030817 22.06332256 21.23044203 34.60780130
1201 1 1 0.0028542704017 17.65065805 40.76244870 25.00000000
1202 1 1 0.0023989825609 19.12154622 43.31010174 25.00000000
1203 1 1 0.00166314769476 17.65065805 45.85775479 25.00000000
1204 1 1 0.00139211580493 19.12154622 48.40540783 25.00000000
1205 1 1 0.00108085513043 17.65065805 50.95306088 25.00000000
1206 1 1 0.000963038504554 19.12154622 53.50071392 25.00000000
1207 1 1 0.000847290567286 17.65065805 56.04836697 25.00000000
1208 1 1 0.000812784642582 19.12154622 58.59602001 25.00000000
1209 1 1 0.00378924274574 20.59243439 40.76244870 25.00000000
1210 1 1 0.00284905305668 22.06332256 43.31010174 25.00000000
1211 1 1 0.00193328884703 20.59243439 45.85775479 25.00000000
1212 1 1 0.00153326629039 22.06332256 48.40540783 25.00000000
1213 1 1 0.00116931706649 20.59243439 50.95306088 25.00000000
1214 1 1 0.00100888841711 22.06332256 53.50071392 25.00000000
1215 1 1 0.000881374100446 20.59243439 56.04836697 25.00000000
1216 1 1 0.000834700722706 22.06332256 58.59602001 25.00000000
1217 1 1 0.0048181576286 23.53421073 40.76244870 25.00000000
1218 1 1 0.00314957394198 25.00509890 43.31010174 25.00000000
1219 1 1 0.00213979795472 23.53421073 45.85775479 25.00000000
1220 1 1 0.00161660995119 25.00509890 48.40540783 25.00000000
1221 1 1 0.0012340665802 23.53421073 50.95306088 25.00000000
1222 1 1 0.00103492904659 25.00509890 53.50071392 25.00000000
1223 1 1 0.000904825776678 23.53421073 56.04836697 25.00000000
1224 1 1 0.000846690352422 25.00509890 58.59602001 25.00000000
1225 1 1 0.00531733518713 26.47598708 40.76244870 25.00000000
1226 1 1 0.00314957393955 27.94687525 43.31010174 25.00000000
1227 1 1 0.00221800178541 26.47598708 45.85775479 25.00000000
1228 1 1 0.00161660994706 27.94687525 48.40540783 25.00000000
1229 1 1 0.00125797060083 26.47598708 50.95306088 25.00000000
1230 1 1 0.00103492904116 27.94687525 53.50071392 25.00000000
1231 1 1 0.000913210298861 26.47598708 56.04836697 25.00000000
1232 1 1 0.000846690346953 27.94687525 58.59602001 25.00000000
1233 1 1 0.0048181576239 29.41776342 40.76244870 25.00000000
1234 1 1 0.00284905305089 30.88865159 43.31010174 25.00000000
1235 1 1 0.00213979794858 29.41776342 45.85775479 25.00000000
1236 1 1 0.0015332662789 30.88865159 48.40540783 25.00000000
1237 1 1 0.00123406657061 29.41776342 50.95306088 25.00000000
1238 1 1 0.00100888840171 30.88865159 53.50071392 25.00000000
1239 1 1 0.000904825765658 29.41776342 56.04836697 25.00000000
1240 1 1 0.000834700707142 30.88865159 58.59602001 25.00000000
1241 1 1 0.00378924274168 32.35953976 40.76244870 25.00000000
1242 1 1 0.00239898255359 33.83042793 43.31010174 25.00000000
1243 1 1 0.00193328883634 32.35953976 45.85775479 25.00000000
1244 1 1 0.00139211578783 33.83042793 48.40540783 25.00000000
1245 1 1 0.00116931704887 32.35953976 50.95306088 25.00000000
1246 1 1 0.000963038481251 33.83042793 53.50071392 25.00000000
1247 1 1 0.00088137408 32.35953976 56.04836697 25.00000000
1248 1 1 0.000812784618965 33.83042793 58.59602001 25.00000000
1249 1 1 -0.000758432021978 19.12154622 41.61166638 27.40195032
1250 1 1 -0.000501084850273 20.59243439 44.15931943 27.40195032
1251 1 1 -0.000281470207 19.12154622 46.70697247 27.40195032
1252 1 1 -0.000224327391749 20.59243439 49.25462551 27.40195032
1253 1 1 -0.000173697923372 19.12154622 51.80227856 27.40195032
1254 1 1 -0.000151170771897 20.59243439 54.34993160 27.40195032
1255 1 1 -0.000130637573948 19.12154622 56.89758465 27.40195032
1256 1 1 -0.000124694099866 20.59243439 59.44523769 27.40195032
1257 1 1 -0.00111280281364 22.06332256 41.61166638 27.40195032
1258 1 1 -0.000633652418759 23.53421073 44.15931943 27.40195032
1259 1 1 -0.000330506200589 22.06332256 46.70697247 27.40195032
1260 1 1 -0.00024132702471 23.53421073 49.25462551 27.40195032
1261 1 1 -0.000185395166101 22.06332256 51.80227856 27.40195032
1262 1 1 -0.000157209318152 23.53421073 54.34993160 27.40195032
1263 1 1 -0.000135642785914 22.06332256 56.89758465 27.40195032
1264 1 1 -0.000127647002715 23.53421073 59.44523769 27.40195032
1265 1 1 -0.00135711712862 25.00509890 41.61166638 27.40195032
1266 1 1 -0.000690357509163 26.47598708 44.15931943 27.40195032
1267 1 1 -0.000364599839627 25.00509890 46.70697247 27.40195032
1268 1 1 -0.000247857587003 26.47598708 49.25462551 27.40195032
1269 1 1 -0.000191952271688 25.00509890 51.80227856 27.40195032
1270 1 1 -0.00015936635778 26.47598708 54.34993160 27.40195032
1271 1 1 -0.000138419196548 25.00509890 56.89758465 27.40195032
1272 1 1 -0.00012869637338 26.47598708 59.44523769 27.40195032
1273 1 1 -0.00135711712905 27.94687525 41.61166638 27.40195032
1274 1 1 -0.00063365242266 29.41776342 44.15931943 27.40195032
1275 1 1 -0.000364599843186 27.94687525 46.70697247 27.40195032
1276 1 1 -0.000241327034146 29.41776342 49.25462551 27.40195032
1277 1 1 -0.000191952277429 27.94687525 51.80227856 27.40195032
1278 1 1 -0.000157209330486 29.41776342 54.34993160 27.40195032
1279 1 1 -0.00013841920295 27.94687525 56.89758465 27.40195032
1280 1 1 -0.000127647014691 29.41776342 59.44523769 27.40195032
1281 1 1 -0.0011128028142 30.88865159 41.61166638 27.40195032
1282 1 1 -0.000501084857261 32.35953976 44.15931943 27.40195032
1283 1 1 -0.000330506210614 30.88865159 46.70697247 27.40195032
1284 1 1 -0.000224327409248 32.35953976 49.25462551 27.40195032
1285 1 1 -0.000185395182489 30.88865159 51.80227856 27.40195032
1286 1 1 -0.000151170794914 32.35953976 54.34993160 27.40195032
1287 1 1 -0.000135642804242 30.88865159 56.89758465 27.40195032
1288 1 1 -0.000124694122237 32.35953976 59.44523769 27.40195032
1289 1 1 -0.000758432022336 33.83042793 41.61166638 27.40195032
1290 1 1 -0.000366411551954 17.65065805 44.15931943 27.40195032
1291 1 1 -0.000281470222101 33.83042793 46.70697247 27.40195032
1292 1 1 -0.000202072652047 17.65065805 49.25462551 27.40195032
1293 1 1 -0.000173697948286 33.83042793 51.80227856 27.40195032
1294 1 1 -0.000142432075631 17.65065805 54.34993160 27.40195032
1295 1 1 -0.000130637601881 33.83042793 56.89758465 27.40195032
1296 1 1 -0.000120359358122 17.65065805 59.44523769 27.40195032
1297 1 1 -9.53739388969e-06 20.59243439 42.46088406 29.80390065
1298 1 1 -6.80157845894e-06 22.06332256 45.00853711 29.80390065
1299 1 1 -3.99296972916e-06 20.59243439 47.55619015 29.80390065
1300 1 1 -3.06193396841e-06 22.06332256 50.10384320 29.80390065
1301 1 1 -2.4211883467e-06 20.59243439 52.65149624 29.80390065
1302 1 1 -2.13939602443e-06 22.06332256 55.19914928 29.80390065
1303 1 1 -1.9057971266e-06 20.59243439 57.74680233 29.80390065
1304 1 1 -1.84341591276e-06 22.06332256 60.29445537 29.80390065
1305 1 1 -1.23020361389e-05 23.53421073 42.46088406 29.80390065
1306 1 1 -8.51327620347e-06 25.00509890 45.00853711 29.80390065
1307 1 1 -4.60535413087e-06 23.53421073 47.55619015 29.80390065
1308 1 1 -3.21167525246e-06 25.00509890 50.10384320 29.80390065
1309 1 1 -2.51551612582e-06 23.53421073 52.65149624 29.80390065
1310 1 1 -2.18451307112e-06 25.00509890 55.19914928 29.80390065
1311 1 1 -1.95598997313e-06 23.53421073 57.74680233 29.80390065
1312 1 1 -1.87139673987e-06 25.00509890 60.29445537 29.80390065
1313 1 1 -1.46182443015e-05 26.47598708 42.46088406 29.80390065
1314 1 1 -8.51327881977e-06 27.94687525 45.00853711 29.80390065
1315 1 1 -4.95634087389e-06 26.47598708 47.55619015 29.80390065
1316 1 1 -3.21168057981e-06 27.94687525 50.10384320 29.80390065
1317 1 1 -2.54621094186e-06 26.47598708 52.65149624 29.80390065
1318 1 1 -2.18451968782e-06 27.94687525 55.19914928 29.80390065
1319 1 1 -1.97369920268e-06 26.47598708 57.74680233 29.80390065
1320 1 1 -1.87140287351e-06 27.94687525 60.29445537 29.80390065
1321 1 1 -1.23020379141e-05 29.41776342 42.46088406 29.80390065
1322 1 1 -6.80158598147e-06 30.88865159 45.00853711 29.80390065
1323 1 1 -4.60536220893e-06 29.41776342 47.55619015 29.80390065
1324 1 1 -3.06194930647e-06 30.88865159 50.10384320 29.80390065
1325 1 1 -2.51552829854e-06 29.41776342 52.65149624 29.80390065
1326 1 1 -2.13941507476e-06 30.88865159 55.19914928 29.80390065
1327 1 1 -1.9560029708e-06 29.41776342 57.74680233 29.80390065
1328 1 1 -1.84343357259e-06 30.88865159 60.29445537 29.80390065
1329 1 1 -9.53739738675e-06 32.35953976 42.46088406 29.80390065
1330 1 1 -5.42684588164e-06 33.83042793 45.00853711 29.80390065
1331 1 1 -3.99298493413e-06 32.35953976 47.55619015 29.80390065
1332 1 1 -2.83109228463e-06 33.83042793 50.10384320 29.80390065
1333 1 1 -2.42121122938e-06 32.35953976 52.65149624 29.80390065
1334 1 1 -2.05228056281e-06 33.83042793 55.19914928 29.80390065
1335 1 1 -1.90582155528e-06 32.35953976 57.74680233 29.80390065
1336 1 1 -1.79253643262e-06 33.83042793 60.29445537 29.80390065
1337 1 1 -7.21676695037e-06 17.65065805 42.46088406 29.80390065
1338 1 1 -5.42683439005e-06 19.12154622 45.00853711 29.80390065
1339 1 1 -3.44092799797e-06 17.65065805 47.55619015 29.80390065
1340 1 1 -2.83106879535e-06 19.12154622 50.10384320 29.80390065
1341 1 1 -2.2695874393e-06 17.65065805 52.65149624 29.80390065
1342 1 1 -2.05225137965e-06 19.12154622 55.19914928 29.80390065
1343 1 1 -1.83225187599e-06 17.65065805 57.74680233 29.80390065
1344 1 1 -1.79250937729e-06 19.12154622 60.29445537 29.80390065
1345 1 1 0.000736685168379 22.06332256 43.31010174 32.20585097
1346 1 1 0.000433809420094 23.53421073 45.85775479 32.20585097
1347 1 1 0.000269197826947 22.06332256 48.40540783 32.20585097
1348 1 1 0.00021287420742 23.53421073 50.95306088 32.20585097
1349 1 1 0.000170775043672 22.06332256 53.50071392 32.20585097
1350 1 1 0.000149244648812 23.53421073 56.04836697 32.20585097
1351 1 1 0.000134478066945 22.06332256 58.59602001 32.20585097
1352 1 1 0.00159653648794 23.53421073 40.76244870 32.20585097
1353 1 1 0.000882009221003 25.00509890 43.31010174 32.20585097
1354 1 1 0.000461443695613 26.47598708 45.85775479 32.20585097
1355 1 1 0.000286500160507 25.00509890 48.40540783 32.20585097
1356 1 1 0.000217118404732 26.47598708 50.95306088 32.20585097
1357 1 1 0.000175842663007 25.00509890 53.50071392 32.20585097
1358 1 1 0.000150937481952 26.47598708 56.04836697 32.20585097
1359 1 1 0.000136784725209 25.00509890 58.59602001 32.20585097
1360 1 1 0.0017562878533 26.47598708 40.76244870 32.20585097
1361 1 1 0.000882009219629 27.94687525 43.31010174 32.20585097
1362 1 1 0.000433809414339 29.41776342 45.85775479 32.20585097
1363 1 1 0.000286500156292 27.94687525 48.40540783 32.20585097
1364 1 1 0.000212874196973 29.41776342 50.95306088 32.20585097
1365 1 1 0.00017584265703 27.94687525 53.50071392 32.20585097
1366 1 1 0.00014924463645 29.41776342 56.04836697 32.20585097
1367 1 1 0.000136784719107 27.94687525 58.59602001 32.20585097
1368 1 1 0.00159653648843 29.41776342 40.76244870 32.20585097
1369 1 1 0.000736685164074 30.88865159 43.31010174 32.20585097
1370 1 1 0.000367915463673 32.35953976 45.85775479 32.20585097
1371 1 1 0.000269197814615 30.88865159 48.40540783 32.20585097
1372 1 1 0.000201260936151 32.35953976 50.95306088 32.20585097
1373 1 1 0.000170775026328 30.88865159 53.50071392 32.20585097
1374 1 1 0.000144510674296 32.35953976 56.04836697 32.20585097
1375 1 1 0.000134478049264 30.88865159 58.59602001 32.20585097
1376 1 1 0.00118620094677 32.35953976 40.76244870 32.20585097
1377 1 1 0.000533123018237 33.83042793 43.31010174 32.20585097
1378 1 1 0.000297543268154 17.65065805 45.85775479 32.20585097
1379 1 1 0.000241911368583 33.83042793 48.40540783 32.20585097
1380 1 1 0.000184915404963 17.65065805 50.95306088 32.20585097
1381 1 1 0.000161670417244 33.83042793 53.50071392 32.20585097
1382 1 1 0.000137659360586 17.65065805 56.04836697 32.20585097
1383 1 1 0.000130295943788 33.83042793 58.59602001 32.20585097
1384 1 1 0.000737194067575 17.65065805 40.76244870 32.20585097
1385 1 1 0.000533123025205 19.12154622 43.31010174 32.20585097
1386 1 1 0.000367915474816 20.59243439 45.85775479 32.20585097
1387 1 1 0.000241911387736 19.12154622 48.40540783 32.20585097
1388 1 1 0.000201260956003 20.59243439 50.95306088 32.20585097
1389 1 1 0.000161670443995 19.12154622 53.50071392 32.20585097
1390 1 1 0.000144510697687 20.59243439 56.04836697 32.20585097
1391 1 1 0.000130295971019 19.12154622 58.59602001 32.20585097
1392 1 1 0.00118620094708 20.59243439 40.76244870 32.20585097
1393 1 1 -0.00268630857469 23.53421073 44.15931943 34.60780130
1394 1 1 -0.0019810109005 25.00509890 46.70697247 34.60780130
1395 1 1 -0.00145299706546 23.53421073 49.25462551 34.60780130
1396 1 1 -0.00117017997459 25.00509890 51.80227856 34.60780130
1397 1 1 -0.000980242496449 23.53421073 54.34993160 34.60780130
1398 1 1 -0.000886965652369 25.00509890 56.89758465 34.60780130
1399 1 1 -0.000833827828852 23.53421073 59.44523769 34.60780130
1400 1 1 -0.00430295501848 25.00509890 41.61166638 34.60780130
1401 1 1 -0.00280961105017 26.47598708 44.15931943 34.60780130
1402 1 1 -0.00198101090295 27.94687525 46.70697247 34.60780130
1403 1 1 -0.00148872328499 26.47598708 49.25462551 34.60780130
1404 1 1 -0.00117017997921 27.94687525 51.80227856 34.60780130
1405 1 1 -0.000991609224994 26.47598708 54.34993160 34.60780130
1406 1 1 -0.000886965657663 27.94687525 56.89758465 34.60780130
1407 1 1 -0.000839615293574 26.47598708 59.44523769 34.60780130
1408 1 1 -0.00430295501662 27.94687525 41.61166638 34.60780130
1409 1 1 -0.00268630857644 29.41776342 44.15931943 34.60780130
1410 1 1 -0.00185838828778 30.88865159 46.70697247 34.60780130
1411 1 1 -0.00145299707287 29.41776342 49.25462551 34.60780130
1412 1 1 -0.00113225345993 30.88865159 51.80227856 34.60780130
1413 1 1 -0.000980242506656 29.41776342 54.34993160 34.60780130
1414 1 1 -0.000872464593308 30.88865159 56.89758465 34.60780130
1415 1 1 -0.000833827838842 29.41776342 59.44523769 34.60780130
1416 1 1 -0.00371656782398 30.88865159 41.61166638 34.60780130
1417 1 1 -0.00237409789979 32.35953976 44.15931943 34.60780130
1418 1 1 -0.00165233168469 33.83042793 46.70697247 34.60780130
1419 1 1 -0.00135677184556 32.35953976 49.25462551 34.60780130
1420 1 1 -0.00106655973331 33.83042793 51.80227856 34.60780130
1421 1 1 -0.000948776596145 32.35953976 54.34993160 34.60780130
1422 1 1 -0.000846177705916 33.83042793 56.89758465 34.60780130
1423 1 1 -0.000817451613675 32.35953976 59.44523769 34.60780130
1424 1 1 -0.00295766639069 33.83042793 41.61166638 34.60780130
1425 1 1 -0.00198575613951 17.65065805 44.15931943 34.60780130
1426 1 1 -0.00165233167249 19.12154622 46.70697247 34.60780130
1427 1 1 -0.00122721386628 17.65065805 49.25462551 34.60780130
1428 1 1 -0.00106655971221 19.12154622 51.80227856 34.60780130
1429 1 1 -0.00090389703448 17.65065805 54.34993160 34.60780130
1430 1 1 -0.000846177682054 19.12154622 56.89758465 34.60780130
1431 1 1 -0.00079316318463 17.65065805 59.44523769 34.60780130
1432 1 1 -0.00295766639235 19.12154622 41.61166638 34.60780130
1433 1 1 -0.00237409789526 20.59243439 44.15931943 34.60780130
1434 1 1 -0.00185838828024 22.06332256 46.70697247 34.60780130
1435 1 1 -0.00135677183118 20.59243439 49.25462551 34.60780130
1436 1 1 -0.00113225344638 22.06332256 51.80227856 34.60780130
1437 1 1 -0.000948776576681 20.59243439 54.34993160 34.60780130
1438 1 1 -0.000872464577888 22.06332256 56.89758465 34.60780130
1439 1 1 -0.000817451594674 20.59243439 59.44523769 34.60780130
1440 1 1 -0.00371656782707 22.06332256 41.61166638 34.60780130
1441 1 1 0.000783813459547 35.30131610 0.00000000 25.00000000
1442 1 1 0.000784462441554 36.77220427 2.54765304 25.00000000
1443 1 1 0.000847287942007 35.30131610 5.09530609 25.00000000
1444 1 1 0.000906910287355 36.77220427 7.64295913 25.00000000
1445 1 1 0.0010808793678 35.30131610 10.19061218 25.00000000
1446 1 1 0.00123082442807 36.77220427 12.73826522 25.00000000
1447 1 1 0.00166314763398 35.30131610 15.28591827 25.00000000
1448 1 1 0.00193842470069 36.77220427 17.83357131 25.00000000
1449 1 1 0.00075658708384 38.24309244 0.00000000 25.00000000
1450 1 1 0.000753842407115 39.71398061 2.54765304 25.00000000
1451 1 1 0.000808212820162 38.24309244 5.09530609 25.00000000
1452 1 1 0.000849711924479 39.71398061 7.64295913 25.00000000
1453 1 1 0.000987594058136 38.24309244 10.19061218 25.00000000
1454 1 1 0.00108172440918 39.71398061 12.73826522 25.00000000
1455 1 1 0.00139579739499 38.24309244 15.28591827 25.00000000
1456 1 1 0.0015435824544 39.71398061 17.83357131 25.00000000
1457 1 1 0.000728910481319 41.18486878 0.00000000 25.00000000
1458 1 1 0.000724796190615 42.65575695 2.54765304 25.00000000
1459 1 1 0.000769550029507 41.18486878 5.09530609 25.00000000
1460 1 1 0.000798330367758 42.65575695 7.64295913 25.00000000
1461 1 1 0.000903331611859 41.18486878 10.19061218 25.00000000
1462 1 1 0.000961937861095 42.65575695 12.73826522 25.00000000
1463 1 1 0.00117549462651 41.18486878 15.28591827 25.00000000
1464 1 1 0.0012502526942 42.65575695 17.83357131 25.00000000
1465 1 1 0.000704067380611 44.12664513 0.00000000 25.00000000
1466 1 1 0.000700480170563 45.59753330 2.54765304 25.00000000
1467 1 1 0.000735650658198 44.12664513 5.09530609 25.00000000
1468 1 1 0.000757122621765 45.59753330 7.64295913 25.00000000
1469 1 1 0.000835176622061 44.12664513 10.19061218 25.00000000
1470 1 1 0.000875094694951 45.59753330 12.73826522 25.00000000
1471 1 1 0.0010166548122 44.12664513 15.28591827 25.00000000
1472 1 1 0.00105862853835 45.59753330 17.83357131 25.00000000
1473 1 1 0.000684615840063 47.06842147 0.00000000 25.00000000
1474 1 1 0.000683141731054 48.53930964 2.54765304 25.00000000
1475 1 1 0.000709599506842 47.06842147 5.09530609 25.00000000
1476 1 1 0.00072860493419 48.53930964 7.64295913 25.00000000
1477 1 1 0.000785784088093 47.06842147 10.19061218 25.00000000
1478 1 1 0.000819101371005 48.53930964 12.73826522 25.00000000
1479 1 1 0.000913523790484 47.06842147 15.28591827 25.00000000
1480 1 1 0.000947489620998 48.53930964 17.83357131 25.00000000
1481 1 1 0.000672294855955 50.01019781 0.00000000 25.00000000
1482 1 1 0.000674155225081 51.48108598 2.54765304 25.00000000
1483 1 1 0.000693315754849 50.01019781 5.09530609 25.00000000
1484 1 1 0.000714082681818 51.48108598 7.64295913 25.00000000
1485 1 1 0.000755980849292 50.01019781 10.19061218 25.00000000
1486 1 1 0.000791640360098 51.48108598 12.73826522 25.00000000
1487 1 1 0.000855862943881 50.01019781 15.28591827 25.00000000
1488 1 1 0.000896738300512 51.48108598 17.83357131 25.00000000
1489 1 1 -0.00011701329414 36.77220427 0.84921768 27.40195032
1490 1 1 -0.000118520855824 38.24309244 3.39687073 27.40195032
1491 1 1 -0.000132282885457 36.77220427 5.94452377 27.40195032
1492 1 1 -0.000144307431258 38.24309244 8.49217681 27.40195032
1493 1 1 -0.000178740798642 36.77220427 11.03982986 27.40195032
1494 1 1 -0.000202315604147 38.24309244 13.58748290 27.40195032
1495 1 1 -0.000281945847169 36.77220427 16.13513595 27.40195032
1496 1 1 -0.000331973563546 38.24309244 18.68278899 27.40195032
1497 1 1 -0.000112100978894 39.71398061 0.84921768 27.40195032
1498 1 1 -0.000112720959493 41.18486878 3.39687073 27.40195032
1499 1 1 -0.000123772913449 39.71398061 5.94452377 27.40195032
1500 1 1 -0.000131828999786 41.18486878 8.49217681 27.40195032
1501 1 1 -0.000158945475014 39.71398061 11.03982986 27.40195032
1502 1 1 -0.000173990860235 41.18486878 13.58748290 27.40195032
1503 1 1 -0.000225406338899 39.71398061 16.13513595 27.40195032
1504 1 1 -0.000243840646046 41.18486878 18.68278899 27.40195032
1505 1 1 -0.000107452949249 42.65575695 0.84921768 27.40195032
1506 1 1 -0.000107665930842 44.12664513 3.39687073 27.40195032
1507 1 1 -0.000116136436751 42.65575695 5.94452377 27.40195032
1508 1 1 -0.000121521894612 44.12664513 8.49217681 27.40195032
1509 1 1 -0.000141455728578 42.65575695 11.03982986 27.40195032
1510 1 1 -0.000151129417065 44.12664513 13.58748290 27.40195032
1511 1 1 -0.000187007353192 42.65575695 16.13513595 27.40195032
1512 1 1 -0.000195826925293 44.12664513 18.68278899 27.40195032
1513 1 1 -0.000103558890648 45.59753330 0.84921768 27.40195032
1514 1 1 -0.000103792821743 47.06842147 3.39687073 27.40195032
1515 1 1 -0.000110090681278 45.59753330 5.94452377 27.40195032
1516 1 1 -0.000114130883326 47.06842147 8.49217681 27.40195032
1517 1 1 -0.000128031996966 45.59753330 11.03982986 27.40195032
1518 1 1 -0.000134824448855 47.06842147 13.58748290 27.40195032
1519 1 1 -0.000159371522721 45.59753330 16.13513595 27.40195032
1520 1 1 -0.000165173717104 47.06842147 18.68278899 27.40195032
1521 1 1 -0.000100773140754 48.53930964 0.84921768 27.40195032
1522 1 1 -0.000101369904379 50.01019781 3.39687073 27.40195032
1523 1 1 -0.000105966890643 48.53930964 5.94452377 27.40195032
1524 1 1 -0.000109775550192 50.01019781 8.49217681 27.40195032
1525 1 1 -0.000119334664738 48.53930964 11.03982986 27.40195032
1526 1 1 -0.00012543531522 50.01019781 13.58748290 27.40195032
1527 1 1 -0.000141259812573 48.53930964 16.13513595 27.40195032
1528 1 1 -0.000147181907656 50.01019781 18.68278899 27.40195032
1529 1 1 -9.93242048435e-05 51.48108598 0.84921768 27.40195032
1530 1 1 -0.000124412623837 35.30131610 3.39687073 27.40195032
1531 1 1 -0.000103885461603 51.48108598 5.94452377 27.40195032
1532 1 1 -0.000157411584151 35.30131610 8.49217681 27.40195032
1533 1 1 -0.000115161281905 51.48108598 11.03982986 27.40195032
1534 1 1 -0.000235555298439 35.30131610 13.58748290 27.40195032
1535 1 1 -0.000132521889859 51.48108598 16.13513595 27.40195032
1536 1 1 -0.000501653117252 35.30131610 18.68278899 27.40195032
1537 1 1 -1.70388559135e-06 38.24309244 1.69843536 29.80390065
1538 1 1 -1.73736679519e-06 39.71398061 4.24608841 29.80390065
1539 1 1 -1.9351711226e-06 38.24309244 6.79374145 29.80390065
1540 1 1 -2.08873954261e-06 39.71398061 9.34139450 29.80390065
1541 1 1 -2.55460044895e-06 38.24309244 11.88904754 29.80390065
1542 1 1 -2.8411974444e-06 39.71398061 14.43670058 29.80390065
1543 1 1 -4.00959205975e-06 38.24309244 16.98435363 29.80390065
1544 1 1 -4.63898256369e-06 39.71398061 19.53200667 29.80390065
1545 1 1 -1.63249846277e-06 41.18486878 1.69843536 29.80390065
1546 1 1 -1.65276297107e-06 42.65575695 4.24608841 29.80390065
1547 1 1 -1.81268680092e-06 41.18486878 6.79374145 29.80390065
1548 1 1 -1.91802231189e-06 42.65575695 9.34139450 29.80390065
1549 1 1 -2.26690782155e-06 41.18486878 11.88904754 29.80390065
1550 1 1 -2.43218639848e-06 42.65575695 14.43670058 29.80390065
1551 1 1 -3.08910948454e-06 41.18486878 16.98435363 29.80390065
1552 1 1 -3.26549866526e-06 42.65575695 19.53200667 29.80390065
1553 1 1 -1.56913420257e-06 44.12664513 1.69843536 29.80390065
1554 1 1 -1.58337187309e-06 45.59753330 4.24608841 29.80390065
1555 1 1 -1.70498828338e-06 44.12664513 6.79374145 29.80390065
1556 1 1 -1.77971795493e-06 45.59753330 9.34139450 29.80390065
1557 1 1 -2.03699959009e-06 44.12664513 11.88904754 29.80390065
1558 1 1 -2.14817642285e-06 45.59753330 14.43670058 29.80390065
1559 1 1 -2.55374160822e-06 44.12664513 16.98435363 29.80390065
1560 1 1 -2.62716116401e-06 45.59753330 19.53200667 29.80390065
1561 1 1 -1.52007825232e-06 47.06842147 1.69843536 29.80390065
1562 1 1 -1.53510187798e-06 48.53930964 4.24608841 29.80390065
1563 1 1 -1.62417712667e-06 47.06842147 6.79374145 29.80390065
1564 1 1 -1.6858999362e-06 48.53930964 9.34139450 29.80390065
1565 1 1 -1.86751140331e-06 47.06842147 11.88904754 29.80390065
1566 1 1 -1.95875349629e-06 48.53930964 14.43670058 29.80390065
1567 1 1 -2.23782543827e-06 47.06842147 16.98435363 29.80390065
1568 1 1 -2.30701524445e-06 48.53930964 19.53200667 29.80390065
1569 1 1 -1.4891967673e-06 50.01019781 1.69843536 29.80390065
1570 1 1 -1.51049444042e-06 51.48108598 4.24608841 29.80390065
1571 1 1 -1.57536846624e-06 50.01019781 6.79374145 29.80390065
1572 1 1 -1.63964310967e-06 51.48108598 9.34139450 29.80390065
1573 1 1 -1.76535724849e-06 50.01019781 11.88904754 29.80390065
1574 1 1 -1.86239128509e-06 51.48108598 14.43670058 29.80390065
1575 1 1 -2.0495821842e-06 50.01019781 16.98435363 29.80390065
1576 1 1 -2.14640156276e-06 51.48108598 19.53200667 29.80390065
1577 1 1 -1.77443286224e-06 35.30131610 1.69843536 29.80390065
1578 1 1 -1.82689681169e-06 36.77220427 4.24608841 29.80390065
1579 1 1 -2.05796254681e-06 35.30131610 6.79374145 29.80390065
1580 1 1 -2.27769730425e-06 36.77220427 9.34139450 29.80390065
1581 1 1 -2.91466546414e-06 35.30131610 11.88904754 29.80390065
1582 1 1 -3.44553845935e-06 36.77220427 14.43670058 29.80390065
1583 1 1 -5.43119407541e-06 35.30131610 16.98435363 29.80390065
1584 1 1 -6.81715315134e-06 36.77220427 19.53200667 29.80390065
1585 1 1 0.000119283337131 39.71398061 2.54765304 32.20585097
1586 1 1 0.000122409716283 41.18486878 5.09530609 32.20585097
1587 1 1 0.000138535056702 39.71398061 7.64295913 32.20585097
1588 1 1 0.00014960826181 41.18486878 10.19061218 32.20585097
1589 1 1 0.00018503497115 39.71398061 12.73826522 32.20585097
1590 1 1 0.000202279067188 41.18486878 15.28591827 32.20585097
1591 1 1 0.0002709343071 39.71398061 17.83357131 32.20585097
1592 1 1 0.000114687866701 41.18486878 0.00000000 32.20585097
1593 1 1 0.000113979204462 42.65575695 2.54765304 32.20585097
1594 1 1 0.000116019682991 44.12664513 5.09530609 32.20585097
1595 1 1 0.000128124526253 42.65575695 7.64295913 32.20585097
1596 1 1 0.00013545253815 44.12664513 10.19061218 32.20585097
1597 1 1 0.000161412464444 42.65575695 12.73826522 32.20585097
1598 1 1 0.000172050914673 44.12664513 15.28591827 32.20585097
1599 1 1 0.000215623096665 42.65575695 17.83357131 32.20585097
1600 1 1 0.000110226184912 44.12664513 0.00000000 32.20585097
1601 1 1 0.000109584952306 45.59753330 2.54765304 32.20585097
1602 1 1 0.000111226840331 47.06842147 5.09530609 32.20585097
1603 1 1 0.000120041367012 45.59753330 7.64295913 32.20585097
1604 1 1 0.000125402743614 47.06842147 10.19061218 32.20585097
1605 1 1 0.000143305885223 45.59753330 12.73826522 32.20585097
1606 1 1 0.000150668710453 47.06842147 15.28591827 32.20585097
1607 1 1 0.000179911470484 45.59753330 17.83357131 32.20585097
1608 1 1 0.000106737573195 47.06842147 0.00000000 32.20585097
1609 1 1 0.00010646700359 48.53930964 2.54765304 32.20585097
1610 1 1 0.000108275834808 50.01019781 5.09530609 32.20585097
1611 1 1 0.000114649070638 48.53930964 7.64295913 32.20585097
1612 1 1 0.000119571885243 50.01019781 10.19061218 32.20585097
1613 1 1 0.000131577536489 48.53930964 12.73826522 32.20585097
1614 1 1 0.000138283647262 50.01019781 15.28591827 32.20585097
1615 1 1 0.000156899255675 48.53930964 17.83357131 32.20585097
1616 1 1 0.000104526130405 50.01019781 0.00000000 32.20585097
1617 1 1 0.000104852829131 51.48108598 2.54765304 32.20585097
1618 1 1 0.000137661132758 35.30131610 5.09530609 32.20585097
1619 1 1 0.000111974277407 51.48108598 7.64295913 32.20585097
1620 1 1 0.000184920530901 35.30131610 10.19061218 32.20585097
1621 1 1 0.000125980626461 51.48108598 12.73826522 32.20585097
1622 1 1 0.000297542362176 35.30131610 15.28591827 32.20585097
1623 1 1 0.000145715444766 51.48108598 17.83357131 32.20585097
1624 1 1 0.000124637881421 35.30131610 0.00000000 32.20585097
1625 1 1 0.000124959326764 36.77220427 2.54765304 32.20585097
1626 1 1 0.000129905589769 38.24309244 5.09530609 32.20585097
1627 1 1 0.000150276083215 36.77220427 7.64295913 32.20585097
1628 1 1 0.000166799226038 38.24309244 10.19061218 32.20585097
1629 1 1 0.000212505624346 36.77220427 12.73826522 32.20585097
1630 1 1 0.000242519631612 38.24309244 15.28591827 32.20585097
1631 1 1 0.000368777764874 36.77220427 17.83357131 32.20585097
1632 1 1 0.000119683006233 38.24309244 0.00000000 32.20585097
1633 1 1 -0.000749171129134 41.18486878 3.39687073 34.60780130
1634 1 1 -0.000767504128141 42.65575695 5.94452377 34.60780130
1635 1 1 -0.000849244005663 41.18486878 8.49217681 34.60780130
1636 1 1 -0.000898424974234 42.65575695 11.03982986 34.60780130
1637 1 1 -0.0010686170642 41.18486878 13.58748290 34.60780130
1638 1 1 -0.0011423455029 42.65575695 16.13513595 34.60780130
1639 1 1 -0.00146852597429 41.18486878 18.68278899 34.60780130
1640 1 1 -0.000719247262651 42.65575695 0.84921768 34.60780130
1641 1 1 -0.000720319444144 44.12664513 3.39687073 34.60780130
1642 1 1 -0.000734081279786 45.59753330 5.94452377 34.60780130
1643 1 1 -0.000796352340624 44.12664513 8.49217681 34.60780130
1644 1 1 -0.000831275583689 45.59753330 11.03982986 34.60780130
1645 1 1 -0.000949025056774 44.12664513 13.58748290 34.60780130
1646 1 1 -0.000993696841579 45.59753330 16.13513595 34.60780130
1647 1 1 -0.0011938699112 44.12664513 18.68278899 34.60780130
1648 1 1 -0.000696545382551 45.59753330 0.84921768 34.60780130
1649 1 1 -0.000697925240667 47.06842147 3.39687073 34.60780130
1650 1 1 -0.000710650780604 48.53930964 5.94452377 34.60780130
1651 1 1 -0.000757026544885 47.06842147 8.49217681 34.60780130
1652 1 1 -0.000786675285325 48.53930964 11.03982986 34.60780130
1653 1 1 -0.000868275003126 47.06842147 13.58748290 34.60780130
1654 1 1 -0.000904449243299 48.53930964 16.13513595 34.60780130
1655 1 1 -0.00102670897648 47.06842147 18.68278899 34.60780130
1656 1 1 -0.00068029498062 48.53930964 0.84921768 34.60780130
1657 1 1 -0.000683830706596 50.01019781 3.39687073 34.60780130
1658 1 1 -0.000698633456254 51.48108598 5.94452377 34.60780130
1659 1 1 -0.000732938419408 50.01019781 8.49217681 34.60780130
1660 1 1 -0.000764446143991 51.48108598 11.03982986 34.60780130
1661 1 1 -0.000821747924537 50.01019781 13.58748290 34.60780130
1662 1 1 -0.000862612960756 51.48108598 16.13513595 34.60780130
1663 1 1 -0.00093897744471 50.01019781 18.68278899 34.60780130
1664 1 1 -0.000671850685733 51.48108598 0.84921768 34.60780130
1665 1 1 -0.000813981793155 35.30131610 3.39687073 34.60780130
1666 1 1 -0.000852718560622 36.77220427 5.94452377 34.60780130
1667 1 1 -0.000979792175701 35.30131610 8.49217681 34.60780130
1668 1 1 -0.00109398957071 36.77220427 11.03982986 34.60780130
1669 1 1 -0.00141864942011 35.30131610 13.58748290 34.60780130
1670 1 1 -0.00165531162732 36.77220427 16.13513595 34.60780130
1671 1 1 -0.00237766675313 35.30131610 18.68278899 34.60780130
1672 1 1 -0.00077452598575 36.77220427 0.84921768 34.60780130
1673 1 1 -0.00078165300179 38.24309244 3.39687073 34.60780130
1674 1 1 -0.000808371065361 39.71398061 5.94452377 34.60780130
1675 1 1 -0.000912406926854 38.24309244 8.49217681 34.60780130
1676 1 1 -0.000987445435838 39.71398061 11.03982986 34.60780130
1677 1 1 -0.00122878840313 38.24309244 13.58748290 34.60780130
1678 1 1 -0.00136353882766 39.71398061 16.13513595 34.60780130
1679 1 1 -0.00186752922122 38.24309244 18.68278899 34.60780130
1680 1 1 -0.000746234269318 39.71398061 0.84921768 34.60780130
1681 1 1 0.00285456111982 35.30131610 20.38122435 25.00000000
1682 1 1 0.00316115655384 36.77220427 22.92887739 25.00000000
1683 1 1 0.00532712440332 35.30131610 25.47653044 25.00000000
1684 1 1 0.00483231087417 36.77220427 28.02418348 25.00000000
1685 1 1 0.00776065728255 35.30131610 30.57183653 25.00000000
1686 1 1 0.00483210025942 36.77220427 33.11948957 25.00000000
1687 1 1 0.00532674119839 35.30131610 35.66714262 25.00000000
1688 1 1 0.00316030910306 36.77220427 38.21479566 25.00000000
1689 1 1 0.00215172452807 38.24309244 20.38122435 25.00000000
1690 1 1 0.00223844028197 39.71398061 22.92887739 25.00000000
1691 1 1 0.00316778256422 38.24309244 25.47653044 25.00000000
1692 1 1 0.00287415191536 39.71398061 28.02418348 25.00000000
1693 1 1 0.00380693111178 38.24309244 30.57183653 25.00000000
1694 1 1 0.00287386125509 39.71398061 33.11948957 25.00000000
1695 1 1 0.00316693468913 38.24309244 35.66714262 25.00000000
1696 1 1 0.00223773849473 39.71398061 38.21479566 25.00000000
1697 1 1 0.00163667895886 41.18486878 20.38122435 25.00000000
1698 1 1 0.00164961721565 42.65575695 22.92887739 25.00000000
1699 1 1 0.00217033849127 41.18486878 25.47653044 25.00000000
1700 1 1 0.00197508380556 42.65575695 28.02418348 25.00000000
1701 1 1 0.00243058990382 41.18486878 30.57183653 25.00000000
1702 1 1 0.00197499965599 42.65575695 33.11948957 25.00000000
1703 1 1 0.00216990278169 41.18486878 35.66714262 25.00000000
1704 1 1 0.00164940796868 42.65575695 38.21479566 25.00000000
1705 1 1 0.00128920164803 44.12664513 20.38122435 25.00000000
1706 1 1 0.00128561117994 45.59753330 22.92887739 25.00000000
1707 1 1 0.00158223834839 44.12664513 25.47653044 25.00000000
1708 1 1 0.00145951507703 45.59753330 28.02418348 25.00000000
1709 1 1 0.00171647807632 44.12664513 30.57183653 25.00000000
1710 1 1 0.0014595387587 45.59753330 33.11948957 25.00000000
1711 1 1 0.00158218467486 44.12664513 35.66714262 25.00000000
1712 1 1 0.00128563260945 45.59753330 38.21479566 25.00000000
1713 1 1 0.00108239846297 47.06842147 20.38122435 25.00000000
1714 1 1 0.00108856434841 48.53930964 22.92887739 25.00000000
1715 1 1 0.00124635179446 47.06842147 25.47653044 25.00000000
1716 1 1 0.00118783911461 48.53930964 28.02418348 25.00000000
1717 1 1 0.00131793414527 47.06842147 30.57183653 25.00000000
1718 1 1 0.00118786135019 48.53930964 33.11948957 25.00000000
1719 1 1 0.00124639275876 47.06842147 35.66714262 25.00000000
1720 1 1 0.00108859342589 48.53930964 38.21479566 25.00000000
1721 1 1 0.000976833924339 50.01019781 20.38122435 25.00000000
1722 1 1 0.00100453534388 51.48108598 22.92887739 25.00000000
1723 1 1 0.00108343374799 50.01019781 25.47653044 25.00000000
1724 1 1 0.00107566708902 51.48108598 28.02418348 25.00000000
1725 1 1 0.00112731320149 50.01019781 30.57183653 25.00000000
1726 1 1 0.00107566792525 51.48108598 33.11948957 25.00000000
1727 1 1 0.00108344735004 50.01019781 35.66714262 25.00000000
1728 1 1 0.00100453147302 51.48108598 38.21479566 25.00000000
1729 1 1 -0.000635200312285 36.77220427 21.23044203 27.40195032
1730 1 1 -0.000693055444825 38.24309244 23.77809508 27.40195032
1731 1 1 -0.00135938375336 36.77220427 26.32574812 27.40195032
1732 1 1 -0.00111587051566 38.24309244 28.87340116 27.40195032
1733 1 1 -0.00165789636254 36.77220427 31.42105421 27.40195032
1734 1 1 -0.00100960878545 38.24309244 33.96870725 27.40195032
1735 1 1 -0.00111129118957 36.77220427 36.51636030 27.40195032
1736 1 1 -0.000540334578929 38.24309244 39.06401334 27.40195032
1737 1 1 -0.000367424896605 39.71398061 21.23044203 27.40195032
1738 1 1 -0.000369158724803 41.18486878 23.77809508 27.40195032
1739 1 1 -0.000637643663718 39.71398061 26.32574812 27.40195032
1740 1 1 -0.000506440111432 41.18486878 28.87340116 27.40195032
1741 1 1 -0.000762167371446 39.71398061 31.42105421 27.40195032
1742 1 1 -0.000471618039344 41.18486878 33.96870725 27.40195032
1743 1 1 -0.000541714684019 39.71398061 36.51636030 27.40195032
1744 1 1 -0.00031956970688 41.18486878 39.06401334 27.40195032
1745 1 1 -0.000252448060723 42.65575695 21.23044203 27.40195032
1746 1 1 -0.000248653092865 44.12664513 23.77809508 27.40195032
1747 1 1 -0.00033713433451 42.65575695 26.32574812 27.40195032
1748 1 1 -0.00029040360063 44.12664513 28.87340116 27.40195032
1749 1 1 -0.000373068618534 42.65575695 31.42105421 27.40195032
1750 1 1 -0.000280567625798 44.12664513 33.96870725 27.40195032
1751 1 1 -0.000309116172772 42.65575695 36.51636030 27.40195032
1752 1 1 -0.000230796968833 44.12664513 39.06401334 27.40195032
1753 1 1 -0.000199119434062 45.59753330 21.23044203 27.40195032
1754 1 1 -0.000196950788197 47.06842147 23.77809508 27.40195032
1755 1 1 -0.000235008283932 45.59753330 26.32574812 27.40195032
1756 1 1 -0.00021661788536 47.06842147 28.87340116 27.40195032
1757 1 1 -0.000247033013524 45.59753330 31.42105421 27.40195032
1758 1 1 -0.000212336320836 47.06842147 33.96870725 27.40195032
1759 1 1 -0.000224606501535 45.59753330 36.51636030 27.40195032
1760 1 1 -0.000186996870908 47.06842147 39.06401334 27.40195032
1761 1 1 -0.000168314211402 48.53930964 21.23044203 27.40195032
1762 1 1 -0.000169477573388 50.01019781 23.77809508 27.40195032
1763 1 1 -0.000190764565639 48.53930964 26.32574812 27.40195032
1764 1 1 -0.000182748345004 50.01019781 28.87340116 27.40195032
1765 1 1 -0.000197470449673 48.53930964 31.42105421 27.40195032
1766 1 1 -0.000179898588256 50.01019781 33.96870725 27.40195032
1767 1 1 -0.000184534519289 48.53930964 36.51636030 27.40195032
1768 1 1 -0.000162538486259 50.01019781 39.06401334 27.40195032
1769 1 1 -0.000153142711652 51.48108598 21.23044203 27.40195032
1770 1 1 -0.00135853202531 35.30131610 23.77809508 27.40195032
1771 1 1 -0.000170076331337 51.48108598 26.32574812 27.40195032
1772 1 1 -0.00216030395496 35.30131610 28.87340116 27.40195032
1773 1 1 -0.00017508717977 51.48108598 31.42105421 27.40195032
1774 1 1 -0.00198795291541 35.30131610 33.96870725 27.40195032
1775 1 1 -0.0001653911406 51.48108598 36.51636030 27.40195032
1776 1 1 -0.00100768952928 35.30131610 39.06401334 27.40195032
1777 1 1 -8.54554410384e-06 38.24309244 22.07965971 29.80390065
1778 1 1 -8.56710018992e-06 39.71398061 24.62731276 29.80390065
1779 1 1 -1.23447974069e-05 38.24309244 27.17496580 29.80390065
1780 1 1 -9.59199123009e-06 39.71398061 29.72261885 29.80390065
1781 1 1 -1.25390186004e-05 38.24309244 32.27027189 29.80390065
1782 1 1 -7.86935938883e-06 39.71398061 34.81792493 29.80390065
1783 1 1 -7.32073877666e-06 38.24309244 37.36557798 29.80390065
1784 1 1 -5.14644061819e-06 39.71398061 39.91323102 29.80390065
1785 1 1 -5.0149019329e-06 41.18486878 22.07965971 29.80390065
1786 1 1 -4.69561358681e-06 42.65575695 24.62731276 29.80390065
1787 1 1 -6.876786894e-06 41.18486878 27.17496580 29.80390065
1788 1 1 -5.52434391307e-06 42.65575695 29.72261885 29.80390065
1789 1 1 -7.28442781899e-06 41.18486878 32.27027189 29.80390065
1790 1 1 -5.08786881226e-06 42.65575695 34.81792493 29.80390065
1791 1 1 -5.17167863068e-06 41.18486878 37.36557798 29.80390065
1792 1 1 -3.77257525071e-06 42.65575695 39.91323102 29.80390065
1793 1 1 -3.30402652401e-06 44.12664513 22.07965971 29.80390065
1794 1 1 -3.20387239522e-06 45.59753330 24.62731276 29.80390065
1795 1 1 -4.11845007266e-06 44.12664513 27.17496580 29.80390065
1796 1 1 -3.60509060021e-06 45.59753330 29.72261885 29.80390065
1797 1 1 -4.40636241843e-06 44.12664513 32.27027189 29.80390065
1798 1 1 -3.47289244327e-06 45.59753330 34.81792493 29.80390065
1799 1 1 -3.72190144158e-06 44.12664513 37.36557798 29.80390065
1800 1 1 -2.89160395676e-06 45.59753330 39.91323102 29.80390065
1801 1 1 -2.65755422024e-06 47.06842147 22.07965971 29.80390065
1802 1 1 -2.64348673208e-06 48.53930964 24.62731276 29.80390065
1803 1 1 -3.03165911146e-06 47.06842147 27.17496580 29.80390065
1804 1 1 -2.82050115915e-06 48.53930964 29.72261885 29.80390065
1805 1 1 -3.12197809932e-06 47.06842147 32.27027189 29.80390065
1806 1 1 -2.72155778396e-06 48.53930964 34.81792493 29.80390065
1807 1 1 -2.83283606186e-06 47.06842147 37.36557798 29.80390065
1808 1 1 -2.41067161723e-06 48.53930964 39.91323102 29.80390065
1809 1 1 -2.36154041646e-06 50.01019781 22.07965971 29.80390065
1810 1 1 -2.4079193919e-06 51.48108598 24.62731276 29.80390065
1811 1 1 -2.59058882113e-06 50.01019781 27.17496580 29.80390065
1812 1 1 -2.52602767809e-06 51.48108598 29.72261885 29.80390065
1813 1 1 -2.61325063093e-06 50.01019781 32.27027189 29.80390065
1814 1 1 -2.44554271276e-06 51.48108598 34.81792493 29.80390065
1815 1 1 -2.42804271905e-06 50.01019781 37.36557798 29.80390065
1816 1 1 -2.2170688253e-06 51.48108598 39.91323102 29.80390065
1817 1 1 -1.23156488447e-05 35.30131610 22.07965971 29.80390065
1818 1 1 -1.46484037343e-05 36.77220427 24.62731276 29.80390065
1819 1 1 -1.88574917693e-05 35.30131610 27.17496580 29.80390065
1820 1 1 -1.59024001736e-05 36.77220427 29.72261885 29.80390065
1821 1 1 -1.97766618955e-05 35.30131610 32.27027189 29.80390065
1822 1 1 -1.24028616135e-05 36.77220427 34.81792493 29.80390065
1823 1 1 -1.23868488859e-05 35.30131610 37.36557798 29.80390065
1824 1 1 -7.83176102549e-06 36.77220427 39.91323102 29.80390065
1825 1 1 0.000464918263529 39.71398061 22.92887739 32.20585097
1826 1 1 0.000439039251951 41.18486878 25.47653044 32.20585097
1827 1 1 0.00074097367749 39.71398061 28.02418348 32.20585097
1828 1 1 0.000538560425709 41.18486878 30.57183653 32.20585097
1829 1 1 0.000740550319729 39.71398061 33.11948957 32.20585097
1830 1 1 0.000439017994555 41.18486878 35.66714262 32.20585097
1831 1 1 0.000465332184158 39.71398061 38.21479566 32.20585097
1832 1 1 0.000289917400874 41.18486878 20.38122435 32.20585097
1833 1 1 0.000292170183821 42.65575695 22.92887739 32.20585097
1834 1 1 0.000277676729552 44.12664513 25.47653044 32.20585097
1835 1 1 0.000375127099367 42.65575695 28.02418348 32.20585097
1836 1 1 0.000306809196118 44.12664513 30.57183653 32.20585097
1837 1 1 0.000374878859313 42.65575695 33.11948957 32.20585097
1838 1 1 0.00027753203491 44.12664513 35.66714262 32.20585097
1839 1 1 0.000292067952384 42.65575695 38.21479566 32.20585097
1840 1 1 0.00022249690936 44.12664513 20.38122435 32.20585097
1841 1 1 0.000221832703655 45.59753330 22.92887739 32.20585097
1842 1 1 0.00021476497649 47.06842147 25.47653044 32.20585097
1843 1 1 0.000253667309032 45.59753330 28.02418348 32.20585097
1844 1 1 0.000227820698848 47.06842147 30.57183653 32.20585097
1845 1 1 0.000253601292133 45.59753330 33.11948957 32.20585097
1846 1 1 0.000214742940064 47.06842147 35.66714262 32.20585097
1847 1 1 0.000221768109123 45.59753330 38.21479566 32.20585097
1848 1 1 0.000184114488234 47.06842147 20.38122435 32.20585097
1849 1 1 0.0001848247627 48.53930964 22.92887739 32.20585097
1850 1 1 0.00018324151646 50.01019781 25.47653044 32.20585097
1851 1 1 0.000203874371827 48.53930964 28.02418348 32.20585097
1852 1 1 0.00019192737421 50.01019781 30.57183653 32.20585097
1853 1 1 0.000203876628224 48.53930964 33.11948957 32.20585097
1854 1 1 0.000183251470033 50.01019781 35.66714262 32.20585097
1855 1 1 0.000184830787611 48.53930964 38.21479566 32.20585097
1856 1 1 0.000162024204349 50.01019781 20.38122435 32.20585097
1857 1 1 0.000166878205162 51.48108598 22.92887739 32.20585097
1858 1 1 0.00175793355092 35.30131610 25.47653044 32.20585097
1859 1 1 0.000181166905175 51.48108598 28.02418348 32.20585097
1860 1 1 0.00229113502042 35.30131610 30.57183653 32.20585097
1861 1 1 0.000181170635081 51.48108598 33.11948957 32.20585097
1862 1 1 0.00175851429456 35.30131610 35.66714262 32.20585097
1863 1 1 0.000166883352188 51.48108598 38.21479566 32.20585097
1864 1 1 0.000737616157749 35.30131610 20.38122435 32.20585097
1865 1 1 0.00088396522205 36.77220427 22.92887739 32.20585097
1866 1 1 0.000885098462971 38.24309244 25.47653044 32.20585097
1867 1 1 0.00159893423134 36.77220427 28.02418348 32.20585097
1868 1 1 0.00118921505383 38.24309244 30.57183653 32.20585097
1869 1 1 0.00159845348346 36.77220427 33.11948957 32.20585097
1870 1 1 0.000885863077741 38.24309244 35.66714262 32.20585097
1871 1 1 0.000884732624111 36.77220427 38.21479566 32.20585097
1872 1 1 0.000435825011167 38.24309244 20.38122435 32.20585097
1873 1 1 -0.00200893716833 41.18486878 23.77809508 34.60780130
1874 1 1 -0.0018986797098 42.65575695 26.32574812 34.60780130
1875 1 1 -0.00240680433763 41.18486878 28.87340116 34.60780130
1876 1 1 -0.00202610260461 42.65575695 31.42105421 34.60780130
1877 1 1 -0.00231562439493 41.18486878 33.96870725 34.60780130
1878 1 1 -0.00178629982041 42.65575695 36.51636030 34.60780130
1879 1 1 -0.00182631988413 41.18486878 39.06401334 34.60780130
1880 1 1 -0.00151677031472 42.65575695 21.23044203 34.60780130
1881 1 1 -0.00149735756009 44.12664513 23.77809508 34.60780130
1882 1 1 -0.00142095896805 45.59753330 26.32574812 34.60780130
1883 1 1 -0.00170626179846 44.12664513 28.87340116 34.60780130
1884 1 1 -0.00148751292404 45.59753330 31.42105421 34.60780130
1885 1 1 -0.00165968378997 44.12664513 33.96870725 34.60780130
1886 1 1 -0.00136097576107 45.59753330 36.51636030 34.60780130
1887 1 1 -0.00139684986845 44.12664513 39.06401334 34.60780130
1888 1 1 -0.00121347010147 45.59753330 21.23044203 34.60780130
1889 1 1 -0.00120138400361 47.06842147 23.77809508 34.60780130
1890 1 1 -0.0011675137212 48.53930964 26.32574812 34.60780130
1891 1 1 -0.00131392271677 47.06842147 28.87340116 34.60780130
1892 1 1 -0.00120453852522 48.53930964 31.42105421 34.60780130
1893 1 1 -0.00128919150752 47.06842147 33.96870725 34.60780130
1894 1 1 -0.00113344330458 48.53930964 36.51636030 34.60780130
1895 1 1 -0.00114526704288 47.06842147 39.06401334 34.60780130
1896 1 1 -0.00104638866394 48.53930964 21.23044203 34.60780130
1897 1 1 -0.00105599936645 50.01019781 23.77809508 34.60780130
1898 1 1 -0.00106212222998 51.48108598 26.32574812 34.60780130
1899 1 1 -0.00112592819969 50.01019781 28.87340116 34.60780130
1900 1 1 -0.00108807074147 51.48108598 31.42105421 34.60780130
1901 1 1 -0.00111088104104 50.01019781 33.96870725 34.60780130
1902 1 1 -0.00103784762506 51.48108598 36.51636030 34.60780130
1903 1 1 -0.00101966670738 50.01019781 39.06401334 34.60780130
1904 1 1 -0.000973722789852 51.48108598 21.23044203 34.60780130
1905 1 1 -0.00431175852643 35.30131610 23.77809508 34.60780130
1906 1 1 -0.00431697840067 36.77220427 26.32574812 34.60780130
1907 1 1 -0.0074361429488 35.30131610 28.87340116 34.60780130
1908 1 1 -0.00518356191544 36.77220427 31.42105421 34.60780130
1909 1 1 -0.00649605744697 35.30131610 33.96870725 34.60780130
1910 1 1 -0.00372392803903 36.77220427 36.51636030 34.60780130
1911 1 1 -0.00348989054713 35.30131610 39.06401334 34.60780130
1912 1 1 -0.0026959746883 36.77220427 21.23044203 34.60780130
1913 1 1 -0.00282632298045 38.24309244 23.77809508 34.60780130
1914 1 1 -0.00271085204452 39.71398061 26.32574812 34.60780130
1915 1 1 -0.00373548733521 38.24309244 28.87340116 34.60780130
1916 1 1 -0.00298054208182 39.71398061 31.42105421 34.60780130
1917 1 1 -0.00350163375894 38.24309244 33.96870725 34.60780130
1918 1 1 -0.00249012392619 39.71398061 36.51636030 34.60780130
1919 1 1 -0.00248174327459 38.24309244 39.06401334 34.60780130
1920 1 1 -0.00199846836351 39.71398061 21.23044203 34.60780130
1921 1 1 0.00285427039976 35.30131610 40.76244870 25.00000000
1922 1 1 0.00193834035162 36.77220427 43.31010174 25.00000000
1923 1 1 0.00166314768101 35.30131610 45.85775479 25.00000000
1924 1 1 0.00123082428174 36.77220427 48.40540783 25.00000000
1925 1 1 0.00108085510699 35.30131610 50.95306088 25.00000000
1926 1 1 0.000906906202766 36.77220427 53.50071392 25.00000000
1927 1 1 0.000847290539941 35.30131610 56.04836697 25.00000000
1928 1 1 0.000784465998663 36.77220427 58.59602001 25.00000000
1929 1 1 0.00215128822612 38.24309244 40.76244870 25.00000000
1930 1 1 0.00154352827173 39.71398061 43.31010174 25.00000000
1931 1 1 0.00139582133509 38.24309244 45.85775479 25.00000000
1932 1 1 0.00108174794704 39.71398061 48.40540783 25.00000000
1933 1 1 0.00098759359903 38.24309244 50.95306088 25.00000000
1934 1 1 0.000849711448339 39.71398061 53.50071392 25.00000000
1935 1 1 0.000808215252363 38.24309244 56.04836697 25.00000000
1936 1 1 0.00075384373951 39.71398061 58.59602001 25.00000000
1937 1 1 0.00163646918724 41.18486878 40.76244870 25.00000000
1938 1 1 0.0012502738318 42.65575695 43.31010174 25.00000000
1939 1 1 0.00117553628218 41.18486878 45.85775479 25.00000000
1940 1 1 0.000961955005658 42.65575695 48.40540783 25.00000000
1941 1 1 0.000903334754098 41.18486878 50.95306088 25.00000000
1942 1 1 0.000798327257986 42.65575695 53.50071392 25.00000000
1943 1 1 0.000769549799095 41.18486878 56.04836697 25.00000000
1944 1 1 0.000724796166472 42.65575695 58.59602001 25.00000000
1945 1 1 0.00128920148957 44.12664513 40.76244870 25.00000000
1946 1 1 0.00105866453852 45.59753330 43.31010174 25.00000000
1947 1 1 0.00101668594621 44.12664513 45.85775479 25.00000000
1948 1 1 0.000875096255405 45.59753330 48.40540783 25.00000000
1949 1 1 0.00083517336529 44.12664513 50.95306088 25.00000000
1950 1 1 0.000757118325553 45.59753330 53.50071392 25.00000000
1951 1 1 0.000735649020548 44.12664513 56.04836697 25.00000000
1952 1 1 0.000700479930611 45.59753330 58.59602001 25.00000000
1953 1 1 0.00108243397224 47.06842147 40.76244870 25.00000000
1954 1 1 0.000947498839794 48.53930964 43.31010174 25.00000000
1955 1 1 0.00091353144514 47.06842147 45.85775479 25.00000000
1956 1 1 0.000819095067702 48.53930964 48.40540783 25.00000000
1957 1 1 0.000785777966947 47.06842147 50.95306088 25.00000000
1958 1 1 0.000728602137812 48.53930964 53.50071392 25.00000000
1959 1 1 0.000709598270886 47.06842147 56.04836697 25.00000000
1960 1 1 0.00068314165625 48.53930964 58.59602001 25.00000000
1961 1 1 0.000976837929901 50.01019781 40.76244870 25.00000000
1962 1 1 0.000896728040871 51.48108598 43.31010174 25.00000000
1963 1 1 0.000855855888618 50.01019781 45.85775479 25.00000000
1964 1 1 0.000791633572924 51.48108598 48.40540783 25.00000000
1965 1 1 0.000755976449328 50.01019781 50.95306088 25.00000000
1966 1 1 0.000714081541025 51.48108598 53.50071392 25.00000000
1967 1 1 0.000693315304628 50.01019781 56.04836697 25.00000000
1968 1 1 0.000674155223493 51.48108598 58.59602001 25.00000000
1969 1 1 -0.000467525807826 36.77220427 41.61166638 27.40195032
1970 1 1 -0.00027290239654 38.24309244 44.15931943 27.40195032
1971 1 1 -0.000235739952274 36.77220427 46.70697247 27.40195032
1972 1 1 -0.000178769412158 38.24309244 49.25462551 27.40195032
1973 1 1 -0.000159105971752 36.77220427 51.80227856 27.40195032
1974 1 1 -0.000132591805638 38.24309244 54.34993160 27.40195032
1975 1 1 -0.000124325471205 36.77220427 56.89758465 27.40195032
1976 1 1 -0.000115332899144 38.24309244 59.44523769 27.40195032
1977 1 1 -0.000305250853839 39.71398061 41.61166638 27.40195032
1978 1 1 -0.000216568835617 41.18486878 44.15931943 27.40195032
1979 1 1 -0.000198927228585 39.71398061 46.70697247 27.40195032
1980 1 1 -0.000157147677819 41.18486878 49.25462551 27.40195032
1981 1 1 -0.000144087600549 39.71398061 51.80227856 27.40195032
1982 1 1 -0.000123199000408 41.18486878 54.34993160 27.40195032
1983 1 1 -0.000117721957744 39.71398061 56.89758465 27.40195032
1984 1 1 -0.000110301560817 41.18486878 59.44523769 27.40195032
1985 1 1 -0.000228121546142 42.65575695 41.61166638 27.40195032
1986 1 1 -0.000179682877278 44.12664513 44.15931943 27.40195032
1987 1 1 -0.000169691588822 42.65575695 46.70697247 27.40195032
1988 1 1 -0.000139337048933 44.12664513 49.25462551 27.40195032
1989 1 1 -0.000130798891088 42.65575695 51.80227856 27.40195032
1990 1 1 -0.000115358321384 44.12664513 54.34993160 27.40195032
1991 1 1 -0.000111680440121 42.65575695 56.89758465 27.40195032
1992 1 1 -0.000105837706982 44.12664513 59.44523769 27.40195032
1993 1 1 -0.000185618588806 45.59753330 41.61166638 27.40195032
1994 1 1 -0.00015432148149 47.06842147 44.15931943 27.40195032
1995 1 1 -0.00014753102454 45.59753330 46.70697247 27.40195032
1996 1 1 -0.000126694932351 47.06842147 49.25462551 27.40195032
1997 1 1 -0.000120596778765 45.59753330 51.80227856 27.40195032
1998 1 1 -0.000109623679175 47.06842147 54.34993160 27.40195032
1999 1 1 -0.000106780121506 45.59753330 56.89758465 27.40195032
2000 1 1 -0.000102365405486 47.06842147 59.44523769 27.40195032
2001 1 1 -0.000159217953907 48.53930964 41.61166638 27.40195032
2002 1 1 -0.000139479112429 50.01019781 44.15931943 27.40195032
2003 1 1 -0.000133072652441 48.53930964 46.70697247 27.40195032
2004 1 1 -0.000119426286572 50.01019781 49.25462551 27.40195032
2005 1 1 -0.000113924156969 48.53930964 51.80227856 27.40195032
2006 1 1 -0.000106169099304 50.01019781 54.34993160 27.40195032
2007 1 1 -0.000103360767696 48.53930964 56.89758465 27.40195032
2008 1 1 -0.000100171272019 50.01019781 59.44523769 27.40195032
2009 1 1 -0.000146252663779 51.48108598 41.61166638 27.40195032
2010 1 1 -0.000366411561273 35.30131610 44.15931943 27.40195032
2011 1 1 -0.000126161363129 51.48108598 46.70697247 27.40195032
2012 1 1 -0.000202072675468 35.30131610 49.25462551 27.40195032
2013 1 1 -0.000110676931382 51.48108598 51.80227856 27.40195032
2014 1 1 -0.000142432106525 35.30131610 54.34993160 27.40195032
2015 1 1 -0.000101608179223 51.48108598 56.89758465 27.40195032
2016 1 1 -0.000120359388164 35.30131610 59.44523769 27.40195032
2017 1 1 -5.01401189266e-06 38.24309244 42.46088406 29.80390065
2018 1 1 -3.33613683112e-06 39.71398061 45.00853711 29.80390065
2019 1 1 -2.91749373726e-06 38.24309244 47.55619015 29.80390065
2020 1 1 -2.27466993498e-06 39.71398061 50.10384320 29.80390065
2021 1 1 -2.09137204308e-06 38.24309244 52.65149624 29.80390065
2022 1 1 -1.82010642088e-06 39.71398061 55.19914928 29.80390065
2023 1 1 -1.74845763491e-06 38.24309244 57.74680233 29.80390065
2024 1 1 -1.65735527508e-06 39.71398061 60.29445537 29.80390065
2025 1 1 -3.65396377529e-06 41.18486878 42.46088406 29.80390065
2026 1 1 -2.69194632699e-06 42.65575695 45.00853711 29.80390065
2027 1 1 -2.48204486108e-06 41.18486878 47.55619015 29.80390065
2028 1 1 -2.04278314221e-06 42.65575695 50.10384320 29.80390065
2029 1 1 -1.92349873597e-06 41.18486878 52.65149624 29.80390065
2030 1 1 -1.71407919536e-06 42.65575695 55.19914928 29.80390065
2031 1 1 -1.66633887286e-06 41.18486878 57.74680233 29.80390065
2032 1 1 -1.59136069751e-06 42.65575695 60.29445537 29.80390065
2033 1 1 -2.84550105829e-06 44.12664513 42.46088406 29.80390065
2034 1 1 -2.28428407108e-06 45.59753330 45.00853711 29.80390065
2035 1 1 -2.16786289996e-06 44.12664513 47.55619015 29.80390065
2036 1 1 -1.87033449501e-06 45.59753330 50.10384320 29.80390065
2037 1 1 -1.78593559086e-06 44.12664513 52.65149624 29.80390065
2038 1 1 -1.62913293163e-06 45.59753330 55.19914928 29.80390065
2039 1 1 -1.59462833135e-06 44.12664513 57.74680233 29.80390065
2040 1 1 -1.53618928842e-06 45.59753330 60.29445537 29.80390065
2041 1 1 -2.36865161926e-06 47.06842147 42.46088406 29.80390065
2042 1 1 -2.04773198807e-06 48.53930964 45.00853711 29.80390065
2043 1 1 -1.95964302912e-06 47.06842147 47.55619015 29.80390065
2044 1 1 -1.7560589192e-06 48.53930964 50.10384320 29.80390065
2045 1 1 -1.68500315609e-06 47.06842147 52.65149624 29.80390065
2046 1 1 -1.57024366385e-06 48.53930964 55.19914928 29.80390065
2047 1 1 -1.53946475723e-06 47.06842147 57.74680233 29.80390065
2048 1 1 -1.49681015431e-06 48.53930964 60.29445537 29.80390065
2049 1 1 -2.13150020006e-06 50.01019781 42.46088406 29.80390065
2050 1 1 -1.94021812291e-06 51.48108598 45.00853711 29.80390065
2051 1 1 -1.84050075588e-06 50.01019781 47.55619015 29.80390065
2052 1 1 -1.69892058311e-06 51.48108598 50.10384320 29.80390065
2053 1 1 -1.62345333916e-06 50.01019781 52.65149624 29.80390065
2054 1 1 -1.54025213044e-06 51.48108598 55.19914928 29.80390065
2055 1 1 -1.50495200023e-06 50.01019781 57.74680233 29.80390065
2056 1 1 -1.47636874279e-06 51.48108598 60.29445537 29.80390065
2057 1 1 -7.21677159832e-06 35.30131610 42.46088406 29.80390065
2058 1 1 -4.28620452769e-06 36.77220427 45.00853711 29.80390065
2059 1 1 -3.44094847935e-06 35.30131610 47.55619015 29.80390065
2060 1 1 -2.55296671192e-06 36.77220427 50.10384320 29.80390065
2061 1 1 -2.26961826614e-06 35.30131610 52.65149624 29.80390065
2062 1 1 -1.93840474739e-06 36.77220427 55.19914928 29.80390065
2063 1 1 -1.83228478736e-06 35.30131610 57.74680233 29.80390065
2064 1 1 -1.72729966528e-06 36.77220427 60.29445537 29.80390065
2065 1 1 0.000270787533612 39.71398061 43.31010174 32.20585097
2066 1 1 0.000202257916895 41.18486878 45.85775479 32.20585097
2067 1 1 0.00018504057695 39.71398061 48.40540783 32.20585097
2068 1 1 0.000149613382337 41.18486878 50.95306088 32.20585097
2069 1 1 0.000138533929978 39.71398061 53.50071392 32.20585097
2070 1 1 0.000122409700732 41.18486878 56.04836697 32.20585097
2071 1 1 0.000119285131719 39.71398061 58.59602001 32.20585097
2072 1 1 0.000289812712228 41.18486878 40.76244870 32.20585097
2073 1 1 0.000215555822759 42.65575695 43.31010174 32.20585097
2074 1 1 0.000172057618286 44.12664513 45.85775479 32.20585097
2075 1 1 0.000161425417526 42.65575695 48.40540783 32.20585097
2076 1 1 0.000135454089277 44.12664513 50.95306088 32.20585097
2077 1 1 0.00012812281233 42.65575695 53.50071392 32.20585097
2078 1 1 0.000116018604121 44.12664513 56.04836697 32.20585097
2079 1 1 0.000113979969767 42.65575695 58.59602001 32.20585097
2080 1 1 0.000222410989397 44.12664513 40.76244870 32.20585097
2081 1 1 0.000179904147718 45.59753330 43.31010174 32.20585097
2082 1 1 0.000150676845238 47.06842147 45.85775479 32.20585097
2083 1 1 0.000143312955114 45.59753330 48.40540783 32.20585097
2084 1 1 0.000125400398102 47.06842147 50.95306088 32.20585097
2085 1 1 0.000120038170795 45.59753330 53.50071392 32.20585097
2086 1 1 0.000111225963872 47.06842147 56.04836697 32.20585097
2087 1 1 0.000109585483444 45.59753330 58.59602001 32.20585097
2088 1 1 0.00018410763568 47.06842147 40.76244870 32.20585097
2089 1 1 0.000156905332215 48.53930964 43.31010174 32.20585097
2090 1 1 0.000138282995972 50.01019781 45.85775479 32.20585097
2091 1 1 0.000131577436351 48.53930964 48.40540783 32.20585097
2092 1 1 0.000119569275775 50.01019781 50.95306088 32.20585097
2093 1 1 0.000114646479194 48.53930964 53.50071392 32.20585097
2094 1 1 0.000108275661658 50.01019781 56.04836697 32.20585097
2095 1 1 0.000106467699156 48.53930964 58.59602001 32.20585097
2096 1 1 0.000162029853022 50.01019781 40.76244870 32.20585097
2097 1 1 0.000145712392329 51.48108598 43.31010174 32.20585097
2098 1 1 0.000297543253034 35.30131610 45.85775479 32.20585097
2099 1 1 0.00012597778278 51.48108598 48.40540783 32.20585097
2100 1 1 0.00018491537808 35.30131610 50.95306088 32.20585097
2101 1 1 0.000111972888113 51.48108598 53.50071392 32.20585097
2102 1 1 0.000137659328965 35.30131610 56.04836697 32.20585097
2103 1 1 0.000104853631061 51.48108598 58.59602001 32.20585097
2104 1 1 0.000737194067217 35.30131610 40.76244870 32.20585097
2105 1 1 0.000368529392844 36.77220427 43.31010174 32.20585097
2106 1 1 0.000242455862761 38.24309244 45.85775479 32.20585097
2107 1 1 0.000212506916305 36.77220427 48.40540783 32.20585097
2108 1 1 0.000166798738791 38.24309244 50.95306088 32.20585097
2109 1 1 0.000150269362153 36.77220427 53.50071392 32.20585097
2110 1 1 0.000129906280778 38.24309244 56.04836697 32.20585097
2111 1 1 0.000124962152192 36.77220427 58.59602001 32.20585097
2112 1 1 0.00043580214741 38.24309244 40.76244870 32.20585097
2113 1 1 -0.00131297772589 41.18486878 44.15931943 34.60780130
2114 1 1 -0.00104594813272 42.65575695 46.70697247 34.60780130
2115 1 1 -0.000978473804876 41.18486878 49.25462551 34.60780130
2116 1 1 -0.000844184436244 42.65575695 51.80227856 34.60780130
2117 1 1 -0.000805038900416 41.18486878 54.34993160 34.60780130
2118 1 1 -0.000743100107598 42.65575695 56.89758465 34.60780130
2119 1 1 -0.000735707978816 41.18486878 59.44523769 34.60780130
2120 1 1 -0.00138084898969 42.65575695 41.61166638 34.60780130
2121 1 1 -0.00110188471179 44.12664513 44.15931943 34.60780130
2122 1 1 -0.00093210245395 45.59753330 46.70697247 34.60780130
2123 1 1 -0.000888530332185 44.12664513 49.25462551 34.60780130
2124 1 1 -0.000791895870414 45.59753330 51.80227856 34.60780130
2125 1 1 -0.00076324199908 44.12664513 54.34993160 34.60780130
2126 1 1 -0.000715201926747 45.59753330 56.89758465 34.60780130
2127 1 1 -0.000709816069263 44.12664513 59.44523769 34.60780130
2128 1 1 -0.00113623909278 45.59753330 41.61166638 34.60780130
2129 1 1 -0.000969652472941 47.06842147 44.15931943 34.60780130
2130 1 1 -0.000861215816851 48.53930964 46.70697247 34.60780130
2131 1 1 -0.000825453951022 47.06842147 49.25462551 34.60780130
2132 1 1 -0.000756338330346 48.53930964 51.80227856 34.60780130
2133 1 1 -0.000731565403162 47.06842147 54.34993160 34.60780130
2134 1 1 -0.000695450189601 48.53930964 56.89758465 34.60780130
2135 1 1 -0.000689589108633 47.06842147 59.44523769 34.60780130
2136 1 1 -0.000998464546676 48.53930964 41.61166638 34.60780130
2137 1 1 -0.000898075246142 50.01019781 44.15931943 34.60780130
2138 1 1 -0.000827165418125 51.48108598 46.70697247 34.60780130
2139 1 1 -0.000788158189401 50.01019781 49.25462551 34.60780130
2140 1 1 -0.000738396270259 51.48108598 51.80227856 34.60780130
2141 1 1 -0.000711939494091 50.01019781 54.34993160 34.60780130
2142 1 1 -0.000685259389862 51.48108598 56.89758465 34.60780130
2143 1 1 -0.00067679869167 50.01019781 59.44523769 34.60780130
2144 1 1 -0.000937157993929 51.48108598 41.61166638 34.60780130
2145 1 1 -0.00198575614659 35.30131610 44.15931943 34.60780130
2146 1 1 -0.00141982051921 36.77220427 46.70697247 34.60780130
2147 1 1 -0.00122721388604 35.30131610 49.25462551 34.60780130
2148 1 1 -0.000988273693632 36.77220427 51.80227856 34.60780130
2149 1 1 -0.000903897060929 35.30131610 54.34993160 34.60780130
2150 1 1 -0.000812601481581 36.77220427 56.89758465 34.60780130
2151 1 1 -0.000793163210411 35.30131610 59.44523769 34.60780130
2152 1 1 -0.00229077712285 36.77220427 41.61166638 34.60780130
2153 1 1 -0.00161358409204 38.24309244 44.15931943 34.60780130
2154 1 1 -0.00120944316548 39.71398061 46.70697247 34.60780130
2155 1 1 -0.00109422146092 38.24309244 49.25462551 34.60780130
2156 1 1 -0.000911162695548 39.71398061 51.80227856 34.60780130
2157 1 1 -0.000853634681603 38.24309244 54.34993160 34.60780130
2158 1 1 -0.000776738485166 39.71398061 56.89758465 34.60780130
2159 1 1 -0.000764629644131 38.24309244 59.44523769 34.60780130
2160 1 1 -0.00176301800556 39.71398061 41.61166638 34.60780130
2161 2 2 1 26.47598707 30.57183653 40.60780130
2162 3 2 -1 26.47598707 30.57183653 19.00000000
