LAMMPS (30 Mar 2026)
OMP_NUM_THREADS environment is not set. Defaulting to 1 thread.
  using 1 OpenMP thread(s) per MPI task
# Reference: stock ReaxFF water (LAMMPS examples/reaxff/water, Achtyl et al. 2015 QEq water),
# single point, charges from fix qeq/reaxff at a tight tolerance.
boundary        p p p
units           real
atom_style      charge
read_data       ../data.water
Reading data file ...
  orthogonal box = (0 0 0) to (31.043046 31.043046 31.043046)
  1 by 1 by 1 MPI processor grid
  reading atoms ...
  3000 atoms
  read_data CPU = 0.026 seconds
pair_style      reaxff NULL safezone 3.0 mincap 150
pair_coeff      * * ../qeq_ff.water O H
WARNING: Changed valency_val to valency_boc for X (src/REAXFF/reaxff_ffield.cpp:300)
neighbor        0.5 bin
neigh_modify    every 1 delay 0 check yes
fix             1 all qeq/reaxff 1 0.0 10.0 1.0e-10 reaxff maxiter 2000
compute         reax all pair reaxff
variable        eqeq equal c_reax[14]
thermo_style    custom step temp pe etotal press
thermo_modify   format float %.10f
velocity        all create 300.0 4928459 rot yes dist gaussian
fix             nvt all nvt temp 300 300 50.0
timestep        0.5
thermo          10
run             20

CITE-CITE-CITE-CITE-CITE-CITE-CITE-CITE-CITE-CITE-CITE-CITE-CITE

Your simulation uses code contributions which should be cited:

- pair reaxff command: https://doi.org/10.1016/j.parco.2011.08.005

@Article{Aktulga12,
 author = {H. M. Aktulga and J. C. Fogarty and S. A. Pandit and A. Y. Grama},
 title = {Parallel Reactive Molecular Dynamics: {N}umerical Methods and Algorithmic Techniques},
 journal = {Parallel Computing},
 year =    2012,
 volume =  38,
 number =  {4--5},
 pages =   {245--259}
}

- fix qeq/reaxff command: https://doi.org/10.1016/j.parco.2011.08.005

@Article{Aktulga12,
 author = {H. M. Aktulga and J. C. Fogarty and S. A. Pandit and A. Y. Grama},
 title = {Parallel Reactive Molecular Dynamics: {N}umerical Methods and Algorithmic Techniques},
 journal = {Parallel Computing},
 year =    2012,
 volume =  38,
 pages =   {245--259}
}

CITE-CITE-CITE-CITE-CITE-CITE-CITE-CITE-CITE-CITE-CITE-CITE-CITE

Neighbor list info ...
  update: every = 1 steps, delay = 0 steps, check = yes
  max neighbors/atom: 2000, page size: 100000
  master list distance cutoff = 10.5
  ghost atom cutoff = 10.5
  binsize = 5.25, bins = 6 6 6
  2 neighbor lists, perpetual/occasional/extra = 2 0 0
  (1) pair reaxff, perpetual
      attributes: half, newton off, ghost
      pair build: half/bin/ghost/newtoff
      stencil: full/ghost/bin/3d
      bin: standard
  (2) fix qeq/reaxff, perpetual, copy from (1)
      attributes: half, newton off
      pair build: copy
      stencil: none
      bin: none
Per MPI rank memory allocation (min/avg/max) = 539.2 | 539.2 | 539.2 Mbytes
   Step          Temp          PotEng         TotEng         Press     
         0  300.0000000000 -257042.9781199530 -254361.1433179680 780.3033476797
        10  301.2919028691 -257054.9326198313 -254361.5489175956 5433.7428514660
        20  297.9061081021 -257024.6186365511 -254361.5020751103 1572.5921478749
Loop time of 11.4476 on 1 procs for 20 steps with 3000 atoms

Performance: 0.075 ns/day, 317.988 hours/ns, 1.747 timesteps/s, 5.241 katom-step/s
96.0% CPU use with 1 MPI tasks x 1 OpenMP threads

MPI task timing breakdown:
Section |  min time  |  avg time  |  max time  |%varavg| %total
---------------------------------------------------------------
Pair    | 5.4014     | 5.4014     | 5.4014     |   0.0 | 47.18
Neigh   | 0.19231    | 0.19231    | 0.19231    |   0.0 |  1.68
Comm    | 0.0025156  | 0.0025156  | 0.0025156  |   0.0 |  0.02
Output  | 7.6407e-05 | 7.6407e-05 | 7.6407e-05 |   0.0 |  0.00
Modify  | 5.8501     | 5.8501     | 5.8501     |   0.0 | 51.10
Other   |            | 0.001169   |            |       |  0.01

Nlocal:           3000 ave        3000 max        3000 min
Histogram: 1 0 0 0 0 0 0 0 0 0
Nghost:          11077 ave       11077 max       11077 min
Histogram: 1 0 0 0 0 0 0 0 0 0
Neighs:         971826 ave      971826 max      971826 min
Histogram: 1 0 0 0 0 0 0 0 0 0

Total # of neighbors = 971826
Ave neighs/atom = 323.942
Neighbor list builds = 2
Dangerous builds = 0
variable        ecv equal ecoul
Total wall time: 0:00:12
