ITEM: TIMESTEP
0
ITEM: NUMBER OF ATOMS
564
ITEM: BOX BOUNDS pp pp ff
0.0000000000000000e+00 1.7650658050000001e+01
0.0000000000000000e+00 2.0381224350000000e+01
0.0000000000000000e+00 6.0000000000000000e+01
ITEM: ATOMS id mol type q x y z
1 1 2 0 8.24512200 15.58107900 22.60780130
2 1 3 0.000922721966602 8.99930700 15.99494600 23.02750430
3 1 3 0.000920543029303 7.50380600 16.13955400 22.84187130
4 1 4 -0.00204887469534 8.24676900 15.70555000 22.69149230
5 1 2 0 15.94739500 18.39865100 22.69035230
6 1 3 0.000911300370872 16.71765600 18.46088800 22.12550130
7 1 3 0.000912351254385 15.55165300 17.55682700 22.46462430
8 1 4 -0.00205470297904 15.99533800 18.29885400 22.58914830
9 1 2 0 17.43363900 10.16011000 22.73132430
10 1 3 0.000911048766722 17.04728200 9.37132900 22.35081830
11 1 3 0.000915911325941 0.66633495 9.89504700 22.98756730
12 1 4 -0.00205441936999 17.49726000 10.02520600 22.71541730
13 1 2 0 1.34938300 4.55603100 22.80664330
14 1 3 0.000914360223083 2.25303400 4.29537500 22.62858430
15 1 3 0.000921523283736 1.36124800 4.85802700 23.71487830
16 1 4 -0.00205189683297 1.46658000 4.56132300 22.90011430
17 1 2 0 13.79454900 8.69815200 22.91890230
18 1 3 0.000916377792633 13.76817500 9.65498800 22.91982030
19 1 3 0.000920843449036 14.31482300 8.47167600 23.68978230
20 1 4 -0.00205188622014 13.85777400 8.79164700 23.01770230
21 1 2 0 2.45384200 11.13179700 23.00931330
22 1 3 0.000916207426972 3.34523300 10.88819200 23.25893330
23 1 3 0.000910154510039 2.56797500 11.78723500 22.32112330
24 1 4 -0.002053881168 2.58256100 11.18451700 22.95317030
25 1 2 0 5.78675400 16.92692800 23.09641330
26 1 3 0.000920943951444 5.28323000 16.47580400 23.77404430
27 1 3 0.000911936457569 5.17677800 17.01724400 22.36429030
28 1 4 -0.00205114510468 5.64421300 16.88074000 23.08943730
29 1 2 0 9.01000400 19.57176400 23.18088730
30 1 3 0.000927248333947 8.78238800 19.25232600 24.05403330
31 1 3 0.000918098157316 8.18499100 19.55303200 22.69587630
32 1 4 -0.00204662057217 8.87525500 19.52847400 23.23057330
33 1 2 0 8.83043300 2.85815800 23.19435430
34 1 3 0.000921661466782 9.21769000 2.02205600 23.45357830
35 1 3 0.000920019039356 9.56648500 3.46996200 23.18191330
36 1 4 -0.00204851105718 8.97423000 2.82944500 23.22594530
37 1 2 0 6.02784200 0.12173500 23.20701130
38 1 3 0.000913439402777 5.47821600 0.33162200 22.45196730
39 1 3 0.00092093348067 5.79197900 19.60317635 23.43282430
40 1 4 -0.00205002311914 5.92729000 0.03342000 23.13926330
41 1 2 0 4.18397800 8.35952700 23.26490830
42 1 3 0.00091750309057 5.05229100 7.96143000 23.32642530
43 1 3 0.000910735784469 3.81527900 8.00719600 22.45487330
44 1 4 -0.00205302038228 4.24793400 8.26346300 23.16908830
45 1 2 0 0.45553800 19.51483400 23.37309230
46 1 3 0.000920609808422 0.12126100 20.35801600 23.67892930
47 1 3 0.000922984383191 0.15406600 18.88529700 24.02809630
48 1 4 -0.00204867544071 0.37415500 19.54218300 23.49609230
49 1 2 0 15.09732900 11.54517500 23.49740530
50 1 3 0.000922701945505 15.28848600 12.42944200 23.81007330
51 1 3 0.000918818366144 15.91183100 11.25434900 23.08723630
52 1 4 -0.00204828849884 15.22606500 11.62114200 23.48492330
53 1 2 0 10.74610700 16.76684700 23.56450830
54 1 3 0.000927834249113 10.79944800 17.51104700 24.16413530
55 1 3 0.000927066928993 11.09645100 16.02988700 24.06489030
56 1 4 -0.00204366067027 10.79778300 16.76777400 23.70532230
57 1 2 0 10.92097000 4.49939700 23.57670830
58 1 3 0.000919867971404 10.73334500 5.43784000 23.59550930
59 1 3 0.000913627542178 11.43992200 4.37428700 22.78218430
60 1 4 -0.00205067415635 10.96338400 4.60351300 23.47740630
61 1 2 0 11.20759600 7.43499100 23.63896930
62 1 3 0.000920232764754 12.08038100 7.79234200 23.47532730
63 1 3 0.00092341185571 10.71998500 8.16114200 24.02777930
64 1 4 -0.00204795688814 11.25690300 7.57369300 23.66779430
65 1 2 0 2.77487200 2.13963000 23.80555830
66 1 3 0.000923806631056 1.87563000 2.20241100 24.12751330
67 1 3 0.000923936303128 3.06142600 1.26344600 24.06328030
68 1 4 -0.00204587540608 2.69644000 2.03550400 23.87976330
69 1 2 0 6.66557400 7.03157500 23.85975330
70 1 3 0.000925148490551 7.12119900 7.12854900 24.69595530
71 1 3 0.000915436138684 7.35394200 7.11666000 23.20009930
72 1 4 -0.0020489637514 6.81201900 7.05488100 23.88235330
73 1 2 0 13.64690200 1.83257800 24.19527930
74 1 3 0.000926683676554 12.85765800 1.41328700 24.53809330
75 1 3 0.000928080789166 13.96923300 2.36706000 24.92099530
76 1 4 -0.00204338283116 13.58713200 1.84732400 24.33206430
77 1 2 0 5.00715200 4.70371400 24.22363830
78 1 3 0.000923081796174 5.69863400 5.36154900 24.15057330
79 1 3 0.000916949599292 4.71389900 4.56278300 23.32343130
80 1 4 -0.0020468258035 5.05813000 4.76988400 24.09904830
81 1 2 0 15.07740200 5.32894500 24.27709430
82 1 3 0.000922632223353 15.73547300 6.01263700 24.40255330
83 1 3 0.000916591104285 14.93436300 5.30425000 23.33096330
84 1 4 -0.00204707102354 15.14333200 5.41330500 24.17203830
85 1 2 0 1.93368600 15.47494700 24.31767830
86 1 3 0.000923397490366 2.65042100 14.86751800 24.50085330
87 1 3 0.000917263384322 2.23595500 15.98270500 23.56465230
88 1 4 -0.00204728081612 2.06413000 15.46218800 24.24473030
89 1 2 0 9.63670000 9.69834100 24.31854630
90 1 3 0.000922622307034 8.68003500 9.72351600 24.29875530
91 1 3 0.000919035172109 9.90754500 10.40837200 23.73654030
92 1 4 -0.00204674550224 9.54890600 9.79245600 24.24150930
93 1 2 0 4.31714800 14.06587000 24.39000730
94 1 3 0.00091744236321 4.78988600 13.85099400 23.58590530
95 1 3 0.000924051837227 4.04766500 13.21824400 24.74376130
96 1 4 -0.00204737085019 4.34316700 13.92985700 24.33235730
97 1 2 0 8.26061000 12.83181700 24.44569030
98 1 3 0.000927383262194 9.17832700 13.10211800 24.47678330
99 1 3 0.000929065997992 7.78734700 13.53820400 24.88531730
100 1 4 -0.00204233482897 8.31750600 12.95684500 24.50594830
101 1 2 0 3.49508600 18.95208400 24.47556130
102 1 3 0.000924201978258 2.58902400 18.66568000 24.36042530
103 1 3 0.000930815120498 3.69139100 18.76415800 25.39337430
104 1 4 -0.00204237632121 3.40422900 18.89136400 24.57831330
105 1 2 0 6.70188600 10.48890000 24.57235630
106 1 3 0.000917891850194 6.46010100 10.31878300 23.66195430
107 1 3 0.000924735287046 7.31296500 11.22413700 24.52500130
108 1 4 -0.0020459425315 6.74916000 10.56124200 24.44975230
109 1 2 0 15.29878900 14.08884200 24.76001430
110 1 3 0.0009272807708 14.60940900 14.74576100 24.85719830
111 1 3 0.000925178258073 16.08598800 14.51512300 25.09888730
112 1 4 -0.00204350864854 15.31131100 14.22750500 24.81583530
113 1 2 0 10.77183900 14.15511100 24.80595330
114 1 3 0.000932099118656 10.57829100 14.62850600 25.61506930
115 1 3 0.000929692575028 11.47870900 13.55459400 25.04248130
116 1 4 -0.00203995987734 10.83755000 14.13883800 24.93980830
117 1 2 0 16.91267600 2.62313000 24.96988530
118 1 3 0.00092897762221 16.99912700 3.50638200 25.32852730
119 1 3 0.000923311201088 16.30921700 2.72117700 24.23336830
120 1 4 -0.00204154614027 16.84649300 2.74874800 24.92151230
121 1 2 0 6.30170800 2.23170000 24.98602930
122 1 3 0.000927804511882 5.83233700 3.00106400 24.66353530
123 1 3 0.000926660688113 6.33270000 1.63767700 24.23608930
124 1 4 -0.00204032957782 6.24559000 2.25414600 24.84874530
125 1 2 0 11.01134000 1.83247200 25.20326530
126 1 3 0.000932644137668 10.71999300 2.01679600 26.09622330
127 1 3 0.000926944926914 11.10650300 2.69489800 24.79904030
128 1 4 -0.00203977931035 10.98622600 1.96646900 25.26582930
129 1 2 0 13.32813600 15.90542400 25.21628930
130 1 3 0.00092998557449 13.85549900 16.61335500 25.58636330
131 1 3 0.000932041681857 12.97239400 15.44774900 25.97800630
132 1 4 -0.00203957250689 13.35010600 15.93746000 25.36117230
133 1 2 0 12.52022500 12.01202700 25.25169830
134 1 3 0.000925961661027 13.16850400 11.76504100 24.59218030
135 1 3 0.000931436080979 12.46499600 11.25163700 25.83048030
136 1 4 -0.00204009674762 12.59614300 11.88307100 25.24136330
137 1 2 0 16.40840300 19.45741800 25.26426230
138 1 3 0.000926704154184 16.45952200 0.01605565 25.09025530
139 1 3 0.000925157060608 16.01683600 19.08778600 24.47288430
140 1 4 -0.00204184135601 16.36482200 19.53041400 25.14068130
141 1 2 0 8.47517700 18.06131700 25.42277330
142 1 3 0.000933076203977 9.37481800 18.02996000 25.74818930
143 1 3 0.000933080079992 8.14606800 17.17026200 25.54085130
144 1 4 -0.00203678159623 8.54821200 17.94323700 25.47954630
145 1 2 0 15.19334000 8.74581100 25.53532230
146 1 3 0.000930444265242 15.44104000 8.06498400 26.16090330
147 1 3 0.000928256136411 15.78328000 9.47463600 25.72772030
148 1 4 -0.00204078937625 15.30056800 8.75195500 25.64003330
149 1 2 0 0.84938300 5.70515300 25.53580530
150 1 3 0.000929659163557 1.03248100 6.59229700 25.84513430
151 1 3 0.000930476544235 1.58163000 5.18159800 25.86128430
152 1 4 -0.0020398896307 0.96655800 5.75169700 25.61706830
153 1 2 0 11.22479500 18.68220300 25.59883530
154 1 3 0.000929256289274 11.22328700 19.60210700 25.33424530
155 1 3 0.000931997903522 12.03922400 18.57516400 26.09024130
156 1 4 -0.00203852185743 11.32885800 18.78626000 25.62787030
157 1 2 0 0.41183400 11.55787700 25.60587830
158 1 3 0.000929689879512 0.64613800 10.64146400 25.75257830
159 1 3 0.000926795727017 1.16805100 11.92914000 25.15142030
160 1 4 -0.0020401124823 0.53863300 11.48809100 25.56648230
161 1 2 0 8.12633200 4.17882000 25.81706730
162 1 3 0.000932499825708 8.77924900 3.69358300 26.32152430
163 1 3 0.000929945706117 7.91021400 3.60075600 25.08537830
164 1 4 -0.00203770261648 8.18224700 4.04270400 25.78797930
165 1 2 0 7.56908800 15.36448100 25.83811130
166 1 3 0.000934683901401 8.22538200 15.13923700 26.49748630
167 1 3 0.000933474319509 6.73050100 15.24906300 26.28496930
168 1 4 -0.00203633349254 7.54575200 15.32087200 25.97972230
169 1 2 0 0.99370900 8.71985900 25.85117430
170 1 3 0.000923967458197 0.75134800 8.66391400 24.92685630
171 1 3 0.000930259869561 1.94997400 8.76190300 25.84641530
172 1 4 -0.0020407206133 1.08509800 8.71807900 25.73224130
173 1 2 0 12.80925900 5.16015400 25.90682430
174 1 3 0.000927845413135 12.15851800 4.87924200 25.26350730
175 1 3 0.000929129444601 13.60881700 5.29227200 25.39742730
176 1 4 -0.0020393081375 12.82831000 5.14110600 25.75926230
177 1 2 0 8.66085300 7.03336900 26.04967530
178 1 3 0.000931658848291 8.59535500 6.07871800 26.07381730
179 1 3 0.000932383701886 9.58679200 7.21454900 26.21105330
180 1 4 -0.00203798465513 8.77100000 6.93435600 26.07342430
181 1 2 0 3.89553600 11.60235000 26.06317630
182 1 3 0.000931892231799 4.36255600 11.87078400 26.85442130
183 1 3 0.000930398592971 4.10647500 10.67404100 25.96328430
184 1 4 -0.00203866240391 3.98232300 11.51787800 26.15167730
185 1 2 0 3.62978500 8.71462200 26.07897430
186 1 3 0.000932611266078 4.19971700 8.10610000 26.54919830
187 1 3 0.000926995671468 3.81499100 8.55099900 25.15422730
188 1 4 -0.00203902754467 3.72645200 8.61577800 26.02079030
189 1 2 0 3.21464800 4.26027600 26.49332830
190 1 3 0.00093388427773 3.37191400 4.89379200 27.19343930
191 1 3 0.000931014387952 3.82220800 4.51447600 25.79871730
192 1 4 -0.00203624905306 3.31255500 4.37391400 26.49403230
193 1 2 0 14.18334800 18.39282300 26.57302230
194 1 3 0.000934725823517 14.05279500 18.70785100 27.46741930
195 1 3 0.000932446931839 14.96614200 18.85201600 26.26870830
196 1 4 -0.0020361667109 14.26684300 18.49193300 26.64856030
197 1 2 0 6.69366900 8.81958100 26.69397730
198 1 3 0.000931907874571 6.66206100 9.56283700 26.09164430
199 1 3 0.000932916302001 7.49209700 8.34957300 26.45348230
200 1 4 -0.00203624779722 6.79183100 8.85456000 26.58608530
201 1 2 0 9.63566200 11.01814000 26.78542030
202 1 3 0.000931602278634 9.80181200 10.80716900 25.86666130
203 1 3 0.000933625085708 8.84712900 11.56050100 26.76830830
204 1 4 -0.00203530435062 9.55599000 11.06056200 26.66561830
205 1 2 0 2.56207100 1.31779700 26.86136530
206 1 3 0.00093400603344 2.86473400 2.03251100 26.30117630
207 1 3 0.000938083436692 3.10342600 1.38371200 27.64801730
208 1 4 -0.00203344351792 2.67011600 1.41772700 26.89035530
209 1 2 0 1.35572600 16.76575200 26.97442730
210 1 3 0.000931801672905 0.76187300 16.19088100 27.45722630
211 1 3 0.00093001993363 1.52887500 16.29958600 26.15653930
212 1 4 -0.0020368683416 1.30187100 16.63248700 26.93153130
213 1 2 0 15.20294000 12.00841700 26.99576630
214 1 3 0.000932279668604 16.02440000 11.63625400 26.67493830
215 1 3 0.000932630424766 15.01914100 12.73415100 26.39930930
216 1 4 -0.00203533886731 15.28456800 12.05367800 26.87834230
217 1 2 0 14.20052200 2.94209600 26.99865430
218 1 3 0.00093351708767 13.94774800 3.86530700 27.00281030
219 1 3 0.000933304905052 14.89590700 2.88072000 27.65356130
220 1 4 -0.00203566385044 14.25718100 3.05242100 27.08302230
221 1 2 0 11.24978600 7.42906100 27.02862630
222 1 3 0.000931875573004 11.65519100 6.82977100 26.40194430
223 1 3 0.000935097577293 10.98777200 6.87013000 27.76018530
224 1 4 -0.00203569818245 11.26814200 7.28079500 27.04205230
225 1 2 0 4.12556900 17.85664100 27.04741530
226 1 3 0.000935815015738 4.62032600 17.03731100 27.03536130
227 1 3 0.000934773695441 3.20873000 17.58389200 27.01209730
228 1 4 -0.0020335842605 4.07153700 17.71684200 27.04135130
229 1 2 0 13.02757000 9.70643000 27.07282030
230 1 3 0.000934638086599 12.45232700 8.95602600 26.92375030
231 1 3 0.000933467671814 13.84320600 9.47563300 26.62818230
232 1 4 -0.0020346911449 13.05834300 9.58082500 26.99681930
233 1 2 0 5.09463500 15.28001200 27.15941430
234 1 3 0.000930588443968 4.68903500 14.99026100 26.34224530
235 1 3 0.000934854945006 5.01627300 14.52778700 27.74614230
236 1 4 -0.00203597941911 5.03268200 15.14662600 27.12991530
237 1 2 0 6.66157900 0.62793900 27.18777830
238 1 3 0.000935122207356 6.64215100 1.27150000 26.47948130
239 1 3 0.000934819110026 6.86266800 20.18023435 26.75341430
240 1 4 -0.00203342533887 6.68483400 0.60421000 27.04150430
241 1 2 0 9.88209000 14.93647000 27.29756330
242 1 3 0.000933970229842 9.67706800 14.14177100 27.79016230
243 1 3 0.000936175863892 10.37561600 15.47930100 27.91237830
244 1 4 -0.00203469793264 9.91902200 14.90422800 27.43932630
245 1 2 0 7.39681800 12.82525900 27.51775430
246 1 3 0.000933912538937 6.44357100 12.88146200 27.58404130
247 1 3 0.00093334889711 7.67311700 12.44228000 28.35035130
248 1 4 -0.00203524240423 7.31016100 12.78342800 27.63282230
249 1 2 0 10.32713300 2.90882100 27.55348030
250 1 3 0.000936189532155 9.59637700 2.71213200 28.13960530
251 1 3 0.000934229507183 10.47085900 3.84955300 27.65643630
252 1 4 -0.00203515712683 10.25198600 3.00406800 27.64169130
253 1 2 0 13.08636200 14.70248000 27.75652730
254 1 3 0.000933448252893 13.84954500 14.83373000 28.31916130
255 1 3 0.000936628812971 12.89162000 13.76821100 27.83034430
256 1 4 -0.00203477997098 13.15912900 14.59968400 27.83800030
257 1 2 0 15.86894400 6.99060100 27.75915330
258 1 3 0.000933544326812 15.29772500 7.08061000 28.52193630
259 1 3 0.000933097082131 16.66471700 7.46600900 27.99782430
260 1 4 -0.00203547603236 15.89769000 7.06298100 27.88735130
261 1 2 0 5.11344400 6.80445900 27.87901130
262 1 3 0.000935702378217 5.75585700 7.32598600 27.39781730
263 1 3 0.000937482717155 5.57738500 5.99710300 28.10074930
264 1 4 -0.00203254658521 5.25507000 6.76787000 27.84579730
265 1 2 0 0.21195400 1.70798400 27.89629830
266 1 3 0.000937808785585 1.01377200 1.56700700 27.39286430
267 1 3 0.000934815383079 17.34354205 0.91769200 27.74717830
268 1 4 -0.00203201879274 0.24814900 1.58877100 27.81276330
269 1 2 0 12.39997200 12.20247200 28.07804930
270 1 3 0.000937221833513 13.06349600 11.58825600 27.76387230
271 1 3 0.000935638507009 11.63854200 12.03851500 27.52165530
272 1 4 -0.00203256391783 12.38743900 12.10285700 27.96660630
273 1 2 0 12.13002900 1.09927700 28.33719430
274 1 3 0.00093576380537 12.99724300 1.38319500 28.04811930
275 1 3 0.00093718352951 11.53462500 1.77161700 28.00600730
276 1 4 -0.00203203152778 12.16482400 1.22169000 28.25779330
277 1 2 0 4.82940600 12.94086300 28.46305530
278 1 3 0.000932657699989 5.04059100 12.13789100 28.93936330
279 1 3 0.000934202705708 3.90801500 13.10414900 28.66457030
280 1 4 -0.0020362751222 4.73849100 12.85897500 28.54982430
281 1 2 0 6.39772100 4.46443500 28.63961930
282 1 3 0.000938777057405 7.00222600 3.77491800 28.91416330
283 1 3 0.000935645434053 6.37638800 4.39875300 27.68491330
284 1 4 -0.00203125896176 6.47237400 4.36776000 28.55255030
285 1 2 0 1.91486700 13.23845100 28.66041730
286 1 3 0.000933389480587 1.83367200 12.46438900 28.10322130
287 1 3 0.000933054636099 1.06628100 13.67554600 28.58912830
288 1 4 -0.00203495425284 1.79584400 13.19531500 28.57996430
289 1 2 0 9.81651600 18.75151400 28.70247830
290 1 3 0.000937722337424 10.30103900 17.98385500 29.00607130
291 1 3 0.000936635093035 10.40674300 19.17743600 28.08082230
292 1 4 -0.00203136754507 9.95409700 18.70776800 28.66176230
293 1 2 0 11.38663600 16.46598000 28.87761430
294 1 3 0.00093574754931 12.14939100 16.00750800 28.52513730
295 1 3 0.000934322662317 11.22185300 16.04443800 29.72104830
296 1 4 -0.00203411155067 11.46318300 16.35332800 28.94046230
297 1 2 0 4.50752500 1.14806100 28.94505830
298 1 3 0.000939154592602 5.27861900 1.26247800 28.38958030
299 1 3 0.00093839111472 4.52803900 0.22481600 29.19690830
300 1 4 -0.00202991323629 4.60886100 1.04452100 28.90619030
301 1 2 0 10.16258100 5.47986400 28.95691530
302 1 3 0.000935577451986 9.46082900 5.86992400 29.47809630
303 1 3 0.000934540548812 10.78444500 5.14588700 29.60342630
304 1 4 -0.00203381726835 10.15235400 5.48704300 29.10639430
305 1 2 0 8.19492700 2.24313000 29.08671030
306 1 3 0.000937051826307 7.92380100 1.55035300 28.48439430
307 1 3 0.000936470612966 8.54768800 1.77743200 29.84494430
308 1 4 -0.00203244407445 8.20537700 2.09483100 29.10667030
309 1 2 0 15.05156300 19.31191500 29.12141530
310 1 3 0.000935011511581 14.47225600 19.29359700 29.88318930
311 1 3 0.00093432870731 15.35830900 20.21744000 29.07490830
312 1 4 -0.00203362317648 15.01667200 19.42548800 29.21297830
313 1 2 0 2.52582400 9.94933400 29.33243830
314 1 3 0.000935389420729 2.51448200 10.63251900 30.00278330
315 1 3 0.000935460247727 3.45518100 9.79256400 29.16525330
316 1 4 -0.0020325680015 2.64334100 10.01672100 29.39684930
317 1 2 0 7.65495200 9.21183300 29.36535130
318 1 3 0.000935992916286 8.27486400 9.81540900 29.77478630
319 1 3 0.000936924345999 7.81334800 9.30574300 28.42603130
320 1 4 -0.00203142844956 7.75458500 9.30111900 29.29751930
321 1 2 0 7.30022100 17.67514900 29.50165530
322 1 3 0.00093951183278 8.09221800 18.08947200 29.15915230
323 1 3 0.000937287567875 7.51513200 16.74326100 29.54201330
324 1 4 -0.00202976413761 7.42911700 17.60889400 29.46297730
325 1 1 4.88303965918e-05 0.00000000 0.00000000 10.00000000
326 1 1 4.88135197583e-05 1.47088817 2.54765304 10.00000000
327 1 1 4.87994318437e-05 0.00000000 5.09530609 10.00000000
328 1 1 4.8779036703e-05 1.47088817 7.64295913 10.00000000
329 1 1 4.87856151956e-05 0.00000000 10.19061218 10.00000000
330 1 1 4.8789891285e-05 1.47088817 12.73826522 10.00000000
331 1 1 4.88146766156e-05 0.00000000 15.28591827 10.00000000
332 1 1 4.88233672931e-05 1.47088817 17.83357131 10.00000000
333 1 1 4.88265449336e-05 2.94177634 0.00000000 10.00000000
334 1 1 4.88159684924e-05 4.41266451 2.54765304 10.00000000
335 1 1 4.87911546469e-05 2.94177634 5.09530609 10.00000000
336 1 1 4.87763589621e-05 4.41266451 7.64295913 10.00000000
337 1 1 4.87747972313e-05 2.94177634 10.19061218 10.00000000
338 1 1 4.87937596862e-05 4.41266451 12.73826522 10.00000000
339 1 1 4.88089926485e-05 2.94177634 15.28591827 10.00000000
340 1 1 4.88330298391e-05 4.41266451 17.83357131 10.00000000
341 1 1 4.88430636226e-05 5.88355268 0.00000000 10.00000000
342 1 1 4.88320969048e-05 7.35444085 2.54765304 10.00000000
343 1 1 4.87975321741e-05 5.88355268 5.09530609 10.00000000
344 1 1 4.87896174962e-05 7.35444085 7.64295913 10.00000000
345 1 1 4.87841964771e-05 5.88355268 10.19061218 10.00000000
346 1 1 4.88173654832e-05 7.35444085 12.73826522 10.00000000
347 1 1 4.88300261957e-05 5.88355268 15.28591827 10.00000000
348 1 1 4.88596967275e-05 7.35444085 17.83357131 10.00000000
349 1 1 4.88638752581e-05 8.82532903 0.00000000 10.00000000
350 1 1 4.88447963172e-05 10.29621720 2.54765304 10.00000000
351 1 1 4.88131503666e-05 8.82532903 5.09530609 10.00000000
352 1 1 4.8805786147e-05 10.29621720 7.64295913 10.00000000
353 1 1 4.88048908659e-05 8.82532903 10.19061218 10.00000000
354 1 1 4.88360084477e-05 10.29621720 12.73826522 10.00000000
355 1 1 4.885654492e-05 8.82532903 15.28591827 10.00000000
356 1 1 4.88756881459e-05 10.29621720 17.83357131 10.00000000
357 1 1 4.88667686238e-05 11.76710537 0.00000000 10.00000000
358 1 1 4.88408659036e-05 13.23799354 2.54765304 10.00000000
359 1 1 4.88211012491e-05 11.76710537 5.09530609 10.00000000
360 1 1 4.88080027355e-05 13.23799354 7.64295913 10.00000000
361 1 1 4.88155664789e-05 11.76710537 10.19061218 10.00000000
362 1 1 4.88312985271e-05 13.23799354 12.73826522 10.00000000
363 1 1 4.88609162323e-05 11.76710537 15.28591827 10.00000000
364 1 1 4.88648401639e-05 13.23799354 17.83357131 10.00000000
365 1 1 4.88499241908e-05 14.70888171 0.00000000 10.00000000
366 1 1 4.88254036499e-05 16.17976988 2.54765304 10.00000000
367 1 1 4.88138014931e-05 14.70888171 5.09530609 10.00000000
368 1 1 4.87945483913e-05 16.17976988 7.64295913 10.00000000
369 1 1 4.88058336793e-05 14.70888171 10.19061218 10.00000000
370 1 1 4.88087154511e-05 16.17976988 12.73826522 10.00000000
371 1 1 4.88401170856e-05 14.70888171 15.28591827 10.00000000
372 1 1 4.88392686583e-05 16.17976988 17.83357131 10.00000000
373 1 1 5.23580028663e-05 1.47088817 0.84921768 12.40195032
374 1 1 5.2325117764e-05 2.94177634 3.39687073 12.40195032
375 1 1 5.22875186872e-05 1.47088817 5.94452377 12.40195032
376 1 1 5.22517107977e-05 2.94177634 8.49217681 12.40195032
377 1 1 5.22671123223e-05 1.47088817 11.03982986 12.40195032
378 1 1 5.22939306766e-05 2.94177634 13.58748290 12.40195032
379 1 1 5.23310873933e-05 1.47088817 16.13513595 12.40195032
380 1 1 5.23619995219e-05 2.94177634 18.68278899 12.40195032
381 1 1 5.23730983265e-05 4.41266451 0.84921768 12.40195032
382 1 1 5.2345832794e-05 5.88355268 3.39687073 12.40195032
383 1 1 5.2280242658e-05 4.41266451 5.94452377 12.40195032
384 1 1 5.22652437113e-05 5.88355268 8.49217681 12.40195032
385 1 1 5.22662387195e-05 4.41266451 11.03982986 12.40195032
386 1 1 5.23398505142e-05 5.88355268 13.58748290 12.40195032
387 1 1 5.23570375185e-05 4.41266451 16.13513595 12.40195032
388 1 1 5.24147087923e-05 5.88355268 18.68278899 12.40195032
389 1 1 5.24216704432e-05 7.35444085 0.84921768 12.40195032
390 1 1 5.23810542343e-05 8.82532903 3.39687073 12.40195032
391 1 1 5.23074295176e-05 7.35444085 5.94452377 12.40195032
392 1 1 5.23078054035e-05 8.82532903 8.49217681 12.40195032
393 1 1 5.23138951702e-05 7.35444085 11.03982986 12.40195032
394 1 1 5.24047757549e-05 8.82532903 13.58748290 12.40195032
395 1 1 5.24308729792e-05 7.35444085 16.13513595 12.40195032
396 1 1 5.2476182919e-05 8.82532903 18.68278899 12.40195032
397 1 1 5.24524978925e-05 10.29621720 0.84921768 12.40195032
398 1 1 5.23926522121e-05 11.76710537 3.39687073 12.40195032
399 1 1 5.23390193122e-05 10.29621720 5.94452377 12.40195032
400 1 1 5.23342149806e-05 11.76710537 8.49217681 12.40195032
401 1 1 5.23592518546e-05 10.29621720 11.03982986 12.40195032
402 1 1 5.2420766112e-05 11.76710537 13.58748290 12.40195032
403 1 1 5.24748075484e-05 10.29621720 16.13513595 12.40195032
404 1 1 5.24801101677e-05 11.76710537 18.68278899 12.40195032
405 1 1 5.24332088864e-05 13.23799354 0.84921768 12.40195032
406 1 1 5.23718915901e-05 14.70888171 3.39687073 12.40195032
407 1 1 5.23435010631e-05 13.23799354 5.94452377 12.40195032
408 1 1 5.23210701141e-05 14.70888171 8.49217681 12.40195032
409 1 1 5.23576899993e-05 13.23799354 11.03982986 12.40195032
410 1 1 5.23747289863e-05 14.70888171 13.58748290 12.40195032
411 1 1 5.24444431451e-05 13.23799354 16.13513595 12.40195032
412 1 1 5.24259366943e-05 14.70888171 18.68278899 12.40195032
413 1 1 5.23877142745e-05 16.17976988 0.84921768 12.40195032
414 1 1 5.23399798261e-05 0.00000000 3.39687073 12.40195032
415 1 1 5.23191912714e-05 16.17976988 5.94452377 12.40195032
416 1 1 5.22811454862e-05 0.00000000 8.49217681 12.40195032
417 1 1 5.2313066999e-05 16.17976988 11.03982986 12.40195032
418 1 1 5.23131626561e-05 0.00000000 13.58748290 12.40195032
419 1 1 5.23741900361e-05 16.17976988 16.13513595 12.40195032
420 1 1 5.23691438425e-05 0.00000000 18.68278899 12.40195032
421 1 1 5.85958761692e-05 2.94177634 1.69843536 14.80390065
422 1 1 5.85065540353e-05 4.41266451 4.24608841 14.80390065
423 1 1 5.84087896322e-05 2.94177634 6.79374145 14.80390065
424 1 1 5.83632362428e-05 4.41266451 9.34139450 14.80390065
425 1 1 5.83971548353e-05 2.94177634 11.88904754 14.80390065
426 1 1 5.85188104055e-05 4.41266451 14.43670058 14.80390065
427 1 1 5.8553155771e-05 2.94177634 16.98435363 14.80390065
428 1 1 5.86548628216e-05 4.41266451 19.53200667 14.80390065
429 1 1 5.86589656515e-05 5.88355268 1.69843536 14.80390065
430 1 1 5.8568209986e-05 7.35444085 4.24608841 14.80390065
431 1 1 5.84142086638e-05 5.88355268 6.79374145 14.80390065
432 1 1 5.8440780115e-05 7.35444085 9.34139450 14.80390065
433 1 1 5.84722904205e-05 5.88355268 11.88904754 14.80390065
434 1 1 5.87132952206e-05 7.35444085 14.43670058 14.80390065
435 1 1 5.87140022236e-05 5.88355268 16.98435363 14.80390065
436 1 1 5.88147359388e-05 7.35444085 19.53200667 14.80390065
437 1 1 5.87608878812e-05 8.82532903 1.69843536 14.80390065
438 1 1 5.86316757598e-05 10.29621720 4.24608841 14.80390065
439 1 1 5.84999738536e-05 8.82532903 6.79374145 14.80390065
440 1 1 5.85522064032e-05 10.29621720 9.34139450 14.80390065
441 1 1 5.8620606019e-05 8.82532903 11.88904754 14.80390065
442 1 1 5.88258108796e-05 10.29621720 14.43670058 14.80390065
443 1 1 5.8898477569e-05 8.82532903 16.98435363 14.80390065
444 1 1 5.88994606564e-05 10.29621720 19.53200667 14.80390065
445 1 1 5.87668187681e-05 11.76710537 1.69843536 14.80390065
446 1 1 5.86246817755e-05 13.23799354 4.24608841 14.80390065
447 1 1 5.85647596972e-05 11.76710537 6.79374145 14.80390065
448 1 1 5.8582861872e-05 13.23799354 9.34139450 14.80390065
449 1 1 5.86759926092e-05 11.76710537 11.88904754 14.80390065
450 1 1 5.87488723606e-05 13.23799354 14.43670058 14.80390065
451 1 1 5.88921520856e-05 11.76710537 16.98435363 14.80390065
452 1 1 5.88176801106e-05 13.23799354 19.53200667 14.80390065
453 1 1 5.86934470093e-05 14.70888171 1.69843536 14.80390065
454 1 1 5.85796480756e-05 16.17976988 4.24608841 14.80390065
455 1 1 5.8549195323e-05 14.70888171 6.79374145 14.80390065
456 1 1 5.8510159179e-05 16.17976988 9.34139450 14.80390065
457 1 1 5.86042508129e-05 14.70888171 11.88904754 14.80390065
458 1 1 5.85834738304e-05 16.17976988 14.43670058 14.80390065
459 1 1 5.87290249314e-05 14.70888171 16.98435363 14.80390065
460 1 1 5.86795894761e-05 16.17976988 19.53200667 14.80390065
461 1 1 5.86219750387e-05 0.00000000 1.69843536 14.80390065
462 1 1 5.85281341394e-05 1.47088817 4.24608841 14.80390065
463 1 1 5.84797050071e-05 0.00000000 6.79374145 14.80390065
464 1 1 5.84028529211e-05 1.47088817 9.34139450 14.80390065
465 1 1 5.84720685558e-05 0.00000000 11.88904754 14.80390065
466 1 1 5.846694932e-05 1.47088817 14.43670058 14.80390065
467 1 1 5.8573467684e-05 0.00000000 16.98435363 14.80390065
468 1 1 5.86026048046e-05 1.47088817 19.53200667 14.80390065
469 1 1 6.80245892872e-05 4.41266451 2.54765304 17.20585097
470 1 1 6.77937566544e-05 5.88355268 5.09530609 17.20585097
471 1 1 6.75468070826e-05 4.41266451 7.64295913 17.20585097
472 1 1 6.75924072909e-05 5.88355268 10.19061218 17.20585097
473 1 1 6.76759430269e-05 4.41266451 12.73826522 17.20585097
474 1 1 6.81612388801e-05 5.88355268 15.28591827 17.20585097
475 1 1 6.80775537058e-05 4.41266451 17.83357131 17.20585097
476 1 1 6.83001182202e-05 5.88355268 0.00000000 17.20585097
477 1 1 6.82153561815e-05 7.35444085 2.54765304 17.20585097
478 1 1 6.7958765527e-05 8.82532903 5.09530609 17.20585097
479 1 1 6.76583211003e-05 7.35444085 7.64295913 17.20585097
480 1 1 6.78656107633e-05 8.82532903 10.19061218 17.20585097
481 1 1 6.80592632572e-05 7.35444085 12.73826522 17.20585097
482 1 1 6.8656145127e-05 8.82532903 15.28591827 17.20585097
483 1 1 6.86000228679e-05 7.35444085 17.83357131 17.20585097
484 1 1 6.86242669448e-05 8.82532903 0.00000000 17.20585097
485 1 1 6.83217515314e-05 10.29621720 2.54765304 17.20585097
486 1 1 6.80213083049e-05 11.76710537 5.09530609 17.20585097
487 1 1 6.78847350884e-05 10.29621720 7.64295913 17.20585097
488 1 1 6.80613475555e-05 11.76710537 10.19061218 17.20585097
489 1 1 6.83244062242e-05 10.29621720 12.73826522 17.20585097
490 1 1 6.86091051531e-05 11.76710537 15.28591827 17.20585097
491 1 1 6.88294318465e-05 10.29621720 17.83357131 17.20585097
492 1 1 6.85800872513e-05 11.76710537 0.00000000 17.20585097
493 1 1 6.82113469448e-05 13.23799354 2.54765304 17.20585097
494 1 1 6.79764131957e-05 14.70888171 5.09530609 17.20585097
495 1 1 6.79765527378e-05 13.23799354 7.64295913 17.20585097
496 1 1 6.80214467381e-05 14.70888171 10.19061218 17.20585097
497 1 1 6.82343649214e-05 13.23799354 12.73826522 17.20585097
498 1 1 6.82007577417e-05 14.70888171 15.28591827 17.20585097
499 1 1 6.85267173063e-05 13.23799354 17.83357131 17.20585097
500 1 1 6.8312044188e-05 14.70888171 0.00000000 17.20585097
501 1 1 6.8107701345e-05 16.17976988 2.54765304 17.20585097
502 1 1 6.79113762074e-05 0.00000000 5.09530609 17.20585097
503 1 1 6.78755434226e-05 16.17976988 7.64295913 17.20585097
504 1 1 6.77858094365e-05 0.00000000 10.19061218 17.20585097
505 1 1 6.79515896683e-05 16.17976988 12.73826522 17.20585097
506 1 1 6.78232159285e-05 0.00000000 15.28591827 17.20585097
507 1 1 6.81144868954e-05 16.17976988 17.83357131 17.20585097
508 1 1 6.81077763581e-05 0.00000000 0.00000000 17.20585097
509 1 1 6.80385932484e-05 1.47088817 2.54765304 17.20585097
510 1 1 6.7791169086e-05 2.94177634 5.09530609 17.20585097
511 1 1 6.76814669469e-05 1.47088817 7.64295913 17.20585097
512 1 1 6.75538253803e-05 2.94177634 10.19061218 17.20585097
513 1 1 6.76660677517e-05 1.47088817 12.73826522 17.20585097
514 1 1 6.77428967213e-05 2.94177634 15.28591827 17.20585097
515 1 1 6.789914435e-05 1.47088817 17.83357131 17.20585097
516 1 1 6.80605481557e-05 2.94177634 0.00000000 17.20585097
517 1 1 8.06817259543e-05 5.88355268 3.39687073 19.60780130
518 1 1 8.01834013003e-05 7.35444085 5.94452377 19.60780130
519 1 1 7.97173113062e-05 5.88355268 8.49217681 19.60780130
520 1 1 8.01694995785e-05 7.35444085 11.03982986 19.60780130
521 1 1 8.04969213407e-05 5.88355268 13.58748290 19.60780130
522 1 1 8.17913842601e-05 7.35444085 16.13513595 19.60780130
523 1 1 8.1337440804e-05 5.88355268 18.68278899 19.60780130
524 1 1 8.15091368255e-05 7.35444085 0.84921768 19.60780130
525 1 1 8.10087250297e-05 8.82532903 3.39687073 19.60780130
526 1 1 8.04896935458e-05 10.29621720 5.94452377 19.60780130
527 1 1 8.01172143385e-05 8.82532903 8.49217681 19.60780130
528 1 1 8.0692410693e-05 10.29621720 11.03982986 19.60780130
529 1 1 8.14276574428e-05 8.82532903 13.58748290 19.60780130
530 1 1 8.22462792796e-05 10.29621720 16.13513595 19.60780130
531 1 1 8.22147567235e-05 8.82532903 18.68278899 19.60780130
532 1 1 8.16906519995e-05 10.29621720 0.84921768 19.60780130
533 1 1 8.087678395e-05 11.76710537 3.39687073 19.60780130
534 1 1 8.04986159924e-05 13.23799354 5.94452377 19.60780130
535 1 1 8.05617166821e-05 11.76710537 8.49217681 19.60780130
536 1 1 8.08394186031e-05 13.23799354 11.03982986 19.60780130
537 1 1 8.13883703279e-05 11.76710537 13.58748290 19.60780130
538 1 1 8.14331133443e-05 13.23799354 16.13513595 19.60780130
539 1 1 8.19440244933e-05 11.76710537 18.68278899 19.60780130
540 1 1 8.12397038191e-05 13.23799354 0.84921768 19.60780130
541 1 1 8.06601436831e-05 14.70888171 3.39687073 19.60780130
542 1 1 8.03820834774e-05 16.17976988 5.94452377 19.60780130
543 1 1 8.05697984982e-05 14.70888171 8.49217681 19.60780130
544 1 1 8.05680948318e-05 16.17976988 11.03982986 19.60780130
545 1 1 8.08063382445e-05 14.70888171 13.58748290 19.60780130
546 1 1 8.05107820049e-05 16.17976988 16.13513595 19.60780130
547 1 1 8.11416312471e-05 14.70888171 18.68278899 19.60780130
548 1 1 8.09192562001e-05 16.17976988 0.84921768 19.60780130
549 1 1 8.0692438793e-05 0.00000000 3.39687073 19.60780130
550 1 1 8.02339051897e-05 1.47088817 5.94452377 19.60780130
551 1 1 8.02166709342e-05 0.00000000 8.49217681 19.60780130
552 1 1 8.00178763782e-05 1.47088817 11.03982986 19.60780130
553 1 1 8.01584786922e-05 0.00000000 13.58748290 19.60780130
554 1 1 8.00356450885e-05 1.47088817 16.13513595 19.60780130
555 1 1 8.06145702086e-05 0.00000000 18.68278899 19.60780130
556 1 1 8.08172337381e-05 1.47088817 0.84921768 19.60780130
557 1 1 8.06036158418e-05 2.94177634 3.39687073 19.60780130
558 1 1 8.00069339862e-05 4.41266451 5.94452377 19.60780130
559 1 1 7.98086070379e-05 2.94177634 8.49217681 19.60780130
560 1 1 7.97455460406e-05 4.41266451 11.03982986 19.60780130
561 1 1 7.98421695999e-05 2.94177634 13.58748290 19.60780130
562 1 1 8.04834283521e-05 4.41266451 16.13513595 19.60780130
563 1 1 8.05672229967e-05 2.94177634 18.68278899 19.60780130
564 1 1 8.09291883268e-05 4.41266451 0.84921768 19.60780130
