ITEM: TIMESTEP
0
ITEM: NUMBER OF ATOMS
240
ITEM: BOX BOUNDS pp pp ff
0.0000000000000000e+00 1.7650658050000001e+01
0.0000000000000000e+00 2.0381224350000000e+01
0.0000000000000000e+00 6.0000000000000000e+01
ITEM: ATOMS id type q
1 1 -0.0261064595108
2 1 -0.0261064444981
3 1 -0.026106432765
4 1 -0.0261064454089
5 1 -0.0261064595373
6 1 -0.0261064445072
7 1 -0.0261064327515
8 1 -0.0261064453805
9 1 -0.026106459516
10 1 -0.0261064445064
11 1 -0.0261064327702
12 1 -0.0261064454172
13 1 -0.0261064595426
14 1 -0.0261064445155
15 1 -0.0261064327567
16 1 -0.0261064453888
17 1 -0.0261064595256
18 1 -0.0261064445142
19 1 -0.0261064327798
20 1 -0.026106445425
21 1 -0.0261064595522
22 1 -0.0261064445233
23 1 -0.0261064327663
24 1 -0.0261064453966
25 1 -0.0261064595286
26 1 -0.0261064445112
27 1 -0.0261064327828
28 1 -0.026106445422
29 1 -0.0261064595552
30 1 -0.0261064445203
31 1 -0.0261064327693
32 1 -0.0261064453936
33 1 -0.0261064595208
34 1 -0.0261064445016
35 1 -0.026106432775
36 1 -0.0261064454124
37 1 -0.0261064595474
38 1 -0.0261064445107
39 1 -0.0261064327615
40 1 -0.026106445384
41 1 -0.0261064595125
42 1 -0.0261064444964
43 1 -0.0261064327667
44 1 -0.0261064454071
45 1 -0.0261064595391
46 1 -0.0261064445054
47 1 -0.0261064327532
48 1 -0.0261064453788
49 1 0.000787498746154
50 1 0.000787520679709
51 1 0.000787520413016
52 1 0.000787499255927
53 1 0.000787498730114
54 1 0.000787520680351
55 1 0.000787520429921
56 1 0.000787499279352
57 1 0.00078749874106
58 1 0.000787520673574
59 1 0.000787520407922
60 1 0.000787499249792
61 1 0.00078749872502
62 1 0.000787520674216
63 1 0.000787520424827
64 1 0.000787499273217
65 1 0.000787498735914
66 1 0.000787520671546
67 1 0.000787520402776
68 1 0.000787499247764
69 1 0.000787498719874
70 1 0.000787520672188
71 1 0.000787520419681
72 1 0.000787499271189
73 1 0.000787498737942
74 1 0.000787520676692
75 1 0.000787520404804
76 1 0.000787499252911
77 1 0.000787498721902
78 1 0.000787520677334
79 1 0.000787520421709
80 1 0.000787499276335
81 1 0.000787498744077
82 1 0.000787520681786
83 1 0.000787520410939
84 1 0.000787499258005
85 1 0.000787498728037
86 1 0.000787520682428
87 1 0.000787520427844
88 1 0.000787499281429
89 1 0.000787498747021
90 1 0.000787520682652
91 1 0.000787520413882
92 1 0.000787499258871
93 1 0.00078749873098
94 1 0.000787520683294
95 1 0.000787520430788
96 1 0.000787499282296
97 1 -7.65610812536e-06
98 1 -7.64932430359e-06
99 1 -7.65614818926e-06
100 1 -7.66293551401e-06
101 1 -7.65611143919e-06
102 1 -7.64931674186e-06
103 1 -7.65613431378e-06
104 1 -7.66292373258e-06
105 1 -7.65610810902e-06
106 1 -7.64932428937e-06
107 1 -7.65614817293e-06
108 1 -7.66293549972e-06
109 1 -7.65611142285e-06
110 1 -7.64931672764e-06
111 1 -7.65613429747e-06
112 1 -7.66292371833e-06
113 1 -7.65610810301e-06
114 1 -7.64932429539e-06
115 1 -7.65614816691e-06
116 1 -7.66293550574e-06
117 1 -7.65611141686e-06
118 1 -7.64931673366e-06
119 1 -7.65613429142e-06
120 1 -7.66292372433e-06
121 1 -7.65610811727e-06
122 1 -7.64932431166e-06
123 1 -7.65614818117e-06
124 1 -7.66293552204e-06
125 1 -7.6561114311e-06
126 1 -7.64931674995e-06
127 1 -7.65613430569e-06
128 1 -7.66292374066e-06
129 1 -7.65610813159e-06
130 1 -7.64932432131e-06
131 1 -7.65614819549e-06
132 1 -7.66293553168e-06
133 1 -7.65611144543e-06
134 1 -7.64931675962e-06
135 1 -7.65613432002e-06
136 1 -7.66292375033e-06
137 1 -7.65610813499e-06
138 1 -7.64932431792e-06
139 1 -7.65614819888e-06
140 1 -7.66293552834e-06
141 1 -7.65611144884e-06
142 1 -7.64931675624e-06
143 1 -7.65613432342e-06
144 1 -7.66292374695e-06
145 1 -0.000724251521887
146 1 -0.000724252080056
147 1 -0.000724273102769
148 1 -0.000724273319927
149 1 -0.000724251515748
150 1 -0.000724252069486
151 1 -0.000724273094966
152 1 -0.000724273319098
153 1 -0.000724251516797
154 1 -0.000724252078057
155 1 -0.000724273097679
156 1 -0.000724273317928
157 1 -0.000724251510657
158 1 -0.000724252067487
159 1 -0.000724273089875
160 1 -0.000724273317099
161 1 -0.000724251518795
162 1 -0.000724252083147
163 1 -0.000724273099677
164 1 -0.000724273323018
165 1 -0.000724251512656
166 1 -0.000724252072578
167 1 -0.000724273091874
168 1 -0.00072427332219
169 1 -0.000724251524893
170 1 -0.00072425208823
171 1 -0.000724273105775
172 1 -0.000724273328101
173 1 -0.000724251518753
174 1 -0.000724252077661
175 1 -0.000724273097972
176 1 -0.000724273327273
177 1 -0.000724251527838
178 1 -0.000724252089098
179 1 -0.00072427310872
180 1 -0.00072427332897
181 1 -0.000724251521699
182 1 -0.000724252078529
183 1 -0.000724273100917
184 1 -0.000724273328141
185 1 -0.00072425152697
186 1 -0.000724252086153
187 1 -0.000724273107852
188 1 -0.000724273326024
189 1 -0.000724251520831
190 1 -0.000724252075584
191 1 -0.000724273100049
192 1 -0.000724273325196
193 1 0.0260508683714
194 1 0.0260508542451
195 1 0.0260508416546
196 1 0.0260508533917
197 1 0.0260508683824
198 1 0.0260508542543
199 1 0.0260508416558
200 1 0.026050853385
201 1 0.0260508683745
202 1 0.026050854242
203 1 0.0260508416577
204 1 0.0260508533886
205 1 0.0260508683855
206 1 0.0260508542512
207 1 0.0260508416589
208 1 0.0260508533819
209 1 0.0260508683665
210 1 0.0260508542324
211 1 0.0260508416497
212 1 0.0260508533789
213 1 0.0260508683775
214 1 0.0260508542416
215 1 0.0260508416509
216 1 0.0260508533722
217 1 0.0260508683582
218 1 0.0260508542271
219 1 0.0260508416414
220 1 0.0260508533737
221 1 0.0260508683692
222 1 0.0260508542363
223 1 0.0260508416426
224 1 0.026050853367
225 1 0.0260508683565
226 1 0.0260508542288
227 1 0.0260508416397
228 1 0.0260508533754
229 1 0.0260508683675
230 1 0.0260508542381
231 1 0.0260508416409
232 1 0.0260508533687
233 1 0.0260508683617
234 1 0.0260508542372
235 1 0.0260508416449
236 1 0.0260508533837
237 1 0.0260508683727
238 1 0.0260508542464
239 1 0.0260508416461
240 1 0.026050853377
