ITEM: TIMESTEP
0
ITEM: NUMBER OF ATOMS
2162
ITEM: BOX BOUNDS pp pp ff
0.0000000000000000e+00 5.2951974149999998e+01
0.0000000000000000e+00 6.1143673049999997e+01
0.0000000000000000e+00 6.0000000000000000e+01
ITEM: ATOMS id mol type q x y z
1 1 1 -0.0120798281925 0.00000000 0.00000000 25.00000000
2 1 1 -0.0235967937753 1.47088817 2.54765304 25.00000000
3 1 1 -0.0815119583841 0.00000000 5.09530609 25.00000000
4 1 1 -0.0794844597853 1.47088817 7.64295913 25.00000000
5 1 1 -0.0455269553414 0.00000000 10.19061218 25.00000000
6 1 1 0.0281701283605 1.47088817 12.73826522 25.00000000
7 1 1 0.0924717939557 0.00000000 15.28591827 25.00000000
8 1 1 0.0828542299004 1.47088817 17.83357131 25.00000000
9 1 1 0.027111538383 2.94177634 0.00000000 25.00000000
10 1 1 0.0415506153071 4.41266451 2.54765304 25.00000000
11 1 1 -0.0283658311201 2.94177634 5.09530609 25.00000000
12 1 1 0.000794544412999 4.41266451 7.64295913 25.00000000
13 1 1 -0.0227015620761 2.94177634 10.19061218 25.00000000
14 1 1 -0.000484230218773 4.41266451 12.73826522 25.00000000
15 1 1 0.0364023961512 2.94177634 15.28591827 25.00000000
16 1 1 -0.034507036649 4.41266451 17.83357131 25.00000000
17 1 1 0.061580765896 5.88355268 0.00000000 25.00000000
18 1 1 0.045606529331 7.35444085 2.54765304 25.00000000
19 1 1 0.0495046084845 5.88355268 5.09530609 25.00000000
20 1 1 0.0596554492535 7.35444085 7.64295913 25.00000000
21 1 1 0.0214787070882 5.88355268 10.19061218 25.00000000
22 1 1 -0.0137419803974 7.35444085 12.73826522 25.00000000
23 1 1 -0.0531925293916 5.88355268 15.28591827 25.00000000
24 1 1 -0.0989742800218 7.35444085 17.83357131 25.00000000
25 1 1 -0.00526485415047 8.82532903 0.00000000 25.00000000
26 1 1 -0.0395101435425 10.29621720 2.54765304 25.00000000
27 1 1 0.037380820719 8.82532903 5.09530609 25.00000000
28 1 1 0.0366176311705 10.29621720 7.64295913 25.00000000
29 1 1 0.0425575896001 8.82532903 10.19061218 25.00000000
30 1 1 0.00366327223758 10.29621720 12.73826522 25.00000000
31 1 1 -0.0605355310836 8.82532903 15.28591827 25.00000000
32 1 1 -0.0323587879593 10.29621720 17.83357131 25.00000000
33 1 1 -0.0909027355734 11.76710537 0.00000000 25.00000000
34 1 1 -0.0796556643393 13.23799354 2.54765304 25.00000000
35 1 1 -0.0338766950992 11.76710537 5.09530609 25.00000000
36 1 1 -0.0167241552577 13.23799354 7.64295913 25.00000000
37 1 1 0.0254406927564 11.76710537 10.19061218 25.00000000
38 1 1 0.0163459437911 13.23799354 12.73826522 25.00000000
39 1 1 -0.00151141779941 11.76710537 15.28591827 25.00000000
40 1 1 0.0436440126677 13.23799354 17.83357131 25.00000000
41 1 1 -0.0470887548589 14.70888171 0.00000000 25.00000000
42 1 1 0.00442212387579 16.17976988 2.54765304 25.00000000
43 1 1 -0.0480422719108 14.70888171 5.09530609 25.00000000
44 1 1 -0.0320465704589 16.17976988 7.64295913 25.00000000
45 1 1 -0.00452202975632 14.70888171 10.19061218 25.00000000
46 1 1 0.00438078257699 16.17976988 12.73826522 25.00000000
47 1 1 0.0211563273587 14.70888171 15.28591827 25.00000000
48 1 1 0.0117714558189 16.17976988 17.83357131 25.00000000
49 1 1 -0.000614106931287 1.47088817 0.84921768 27.40195032
50 1 1 -0.000694952375194 2.94177634 3.39687073 27.40195032
51 1 1 -0.0517896200235 1.47088817 5.94452377 27.40195032
52 1 1 -0.0260615894775 2.94177634 8.49217681 27.40195032
53 1 1 -0.00975401728568 1.47088817 11.03982986 27.40195032
54 1 1 0.020424853143 2.94177634 13.58748290 27.40195032
55 1 1 0.0617533992791 1.47088817 16.13513595 27.40195032
56 1 1 0.0184651249246 2.94177634 18.68278899 27.40195032
57 1 1 0.0390901943261 4.41266451 0.84921768 27.40195032
58 1 1 0.0414144542459 5.88355268 3.39687073 27.40195032
59 1 1 0.00946311971697 4.41266451 5.94452377 27.40195032
60 1 1 0.0277636972727 5.88355268 8.49217681 27.40195032
61 1 1 0.00323495852658 4.41266451 11.03982986 27.40195032
62 1 1 -0.0151282376634 5.88355268 13.58748290 27.40195032
63 1 1 -0.0119473345801 4.41266451 16.13513595 27.40195032
64 1 1 -0.0600138065935 5.88355268 18.68278899 27.40195032
65 1 1 0.0306668799922 7.35444085 0.84921768 27.40195032
66 1 1 0.0139499812365 8.82532903 3.39687073 27.40195032
67 1 1 0.0451082941305 7.35444085 5.94452377 27.40195032
68 1 1 0.0437654352867 8.82532903 8.49217681 27.40195032
69 1 1 0.0193431995941 7.35444085 11.03982986 27.40195032
70 1 1 -0.0156950902864 8.82532903 13.58748290 27.40195032
71 1 1 -0.0569520999717 7.35444085 16.13513595 27.40195032
72 1 1 -0.0483758339808 8.82532903 18.68278899 27.40195032
73 1 1 -0.0378703686276 10.29621720 0.84921768 27.40195032
74 1 1 -0.0430973074688 11.76710537 3.39687073 27.40195032
75 1 1 0.0135535570939 10.29621720 5.94452377 27.40195032
76 1 1 0.0159066375177 11.76710537 8.49217681 27.40195032
77 1 1 0.0246414338432 10.29621720 11.03982986 27.40195032
78 1 1 0.00881454318398 11.76710537 13.58748290 27.40195032
79 1 1 -0.0232309196247 10.29621720 16.13513595 27.40195032
80 1 1 0.0254810806456 11.76710537 18.68278899 27.40195032
81 1 1 -0.0615100577579 13.23799354 0.84921768 27.40195032
82 1 1 -0.0341558183235 14.70888171 3.39687073 27.40195032
83 1 1 -0.0265240100727 13.23799354 5.94452377 27.40195032
84 1 1 -0.0118648530303 14.70888171 8.49217681 27.40195032
85 1 1 0.0140413166064 13.23799354 11.03982986 27.40195032
86 1 1 0.0156247406799 14.70888171 13.58748290 27.40195032
87 1 1 0.0218481598066 13.23799354 16.13513595 27.40195032
88 1 1 0.0436225212373 14.70888171 18.68278899 27.40195032
89 1 1 0.015050553988 16.17976988 0.84921768 27.40195032
90 1 1 -0.0347553452862 0.00000000 3.39687073 27.40195032
91 1 1 -0.0191195641426 16.17976988 5.94452377 27.40195032
92 1 1 -0.0565274209205 0.00000000 8.49217681 27.40195032
93 1 1 0.000102473404226 16.17976988 11.03982986 27.40195032
94 1 1 0.0434040502672 0.00000000 13.58748290 27.40195032
95 1 1 0.0114219969195 16.17976988 16.13513595 27.40195032
96 1 1 0.0716572340029 0.00000000 18.68278899 27.40195032
97 1 1 -0.000323289472559 2.94177634 1.69843536 29.80390065
98 1 1 -4.60814647402e-05 4.41266451 4.24608841 29.80390065
99 1 1 0.000815899480506 2.94177634 6.79374145 29.80390065
100 1 1 0.000543710226278 4.41266451 9.34139450 29.80390065
101 1 1 0.000207787035815 2.94177634 11.88904754 29.80390065
102 1 1 -0.000194689235809 4.41266451 14.43670058 29.80390065
103 1 1 -0.000979566408471 2.94177634 16.98435363 29.80390065
104 1 1 -0.000652901662678 4.41266451 19.53200667 29.80390065
105 1 1 -0.000752025617306 5.88355268 1.69843536 29.80390065
106 1 1 -0.000432253318609 7.35444085 4.24608841 29.80390065
107 1 1 0.000122697977562 5.88355268 6.79374145 29.80390065
108 1 1 0.000302572790408 7.35444085 9.34139450 29.80390065
109 1 1 0.00034214419707 5.88355268 11.88904754 29.80390065
110 1 1 0.000359064900173 7.35444085 14.43670058 29.80390065
111 1 1 -0.000156509298378 5.88355268 16.98435363 29.80390065
112 1 1 -0.000148988852305 7.35444085 19.53200667 29.80390065
113 1 1 -0.000654717192509 8.82532903 1.69843536 29.80390065
114 1 1 -0.000213751220124 10.29621720 4.24608841 29.80390065
115 1 1 2.34254331319e-06 8.82532903 6.79374145 29.80390065
116 1 1 0.000488715636997 10.29621720 9.34139450 29.80390065
117 1 1 0.000550264437189 8.82532903 11.88904754 29.80390065
118 1 1 0.000451499117224 10.29621720 14.43670058 29.80390065
119 1 1 0.000147188876093 8.82532903 16.98435363 29.80390065
120 1 1 -0.000428724825769 10.29621720 19.53200667 29.80390065
121 1 1 -0.000426185582988 11.76710537 1.69843536 29.80390065
122 1 1 -3.35479012616e-05 13.23799354 4.24608841 29.80390065
123 1 1 0.000341680090909 11.76710537 6.79374145 29.80390065
124 1 1 0.000759229745449 13.23799354 9.34139450 29.80390065
125 1 1 0.000665240278569 11.76710537 11.88904754 29.80390065
126 1 1 0.000230345280309 13.23799354 14.43670058 29.80390065
127 1 1 -0.000217452255914 11.76710537 16.98435363 29.80390065
128 1 1 -0.000953641570114 13.23799354 19.53200667 29.80390065
129 1 1 -0.000737087657104 14.70888171 1.69843536 29.80390065
130 1 1 -0.000257158660974 16.17976988 4.24608841 29.80390065
131 1 1 0.00053228823246 14.70888171 6.79374145 29.80390065
132 1 1 0.000847211701766 16.17976988 9.34139450 29.80390065
133 1 1 0.000665624788582 14.70888171 11.88904754 29.80390065
134 1 1 0.000160740335431 16.17976988 14.43670058 29.80390065
135 1 1 -0.000479500283255 14.70888171 16.98435363 29.80390065
136 1 1 -0.000838569934569 16.17976988 19.53200667 29.80390065
137 1 1 -2.13595406027e-06 0.00000000 1.69843536 29.80390065
138 1 1 0.000609627182839 1.47088817 4.24608841 29.80390065
139 1 1 0.00124452168335 0.00000000 6.79374145 29.80390065
140 1 1 0.000964257197876 1.47088817 9.34139450 29.80390065
141 1 1 0.000179225973294 0.00000000 11.88904754 29.80390065
142 1 1 -0.000729608955327 1.47088817 14.43670058 29.80390065
143 1 1 -0.00142002325082 0.00000000 16.98435363 29.80390065
144 1 1 -0.00133015240435 1.47088817 19.53200667 29.80390065
145 1 1 -0.0318910341476 4.41266451 2.54765304 32.20585097
146 1 1 -0.0379220323589 5.88355268 5.09530609 32.20585097
147 1 1 -0.00314602242069 4.41266451 7.64295913 32.20585097
148 1 1 -0.0182757174864 5.88355268 10.19061218 32.20585097
149 1 1 -0.00237769661429 4.41266451 12.73826522 32.20585097
150 1 1 0.0354191166873 5.88355268 15.28591827 32.20585097
151 1 1 0.0221080551473 4.41266451 17.83357131 32.20585097
152 1 1 -0.046027537278 5.88355268 0.00000000 32.20585097
153 1 1 -0.0346899971099 7.35444085 2.54765304 32.20585097
154 1 1 -0.0291744678527 8.82532903 5.09530609 32.20585097
155 1 1 -0.0455902744246 7.35444085 7.64295913 32.20585097
156 1 1 -0.0335370061484 8.82532903 10.19061218 32.20585097
157 1 1 0.00693026480912 7.35444085 12.73826522 32.20585097
158 1 1 0.0402575206226 8.82532903 15.28591827 32.20585097
159 1 1 0.0679157401892 7.35444085 17.83357131 32.20585097
160 1 1 0.00217144192289 8.82532903 0.00000000 32.20585097
161 1 1 0.026556000238 10.29621720 2.54765304 32.20585097
162 1 1 0.0220420098745 11.76710537 5.09530609 32.20585097
163 1 1 -0.0290346519196 10.29621720 7.64295913 32.20585097
164 1 1 -0.0214421184411 11.76710537 10.19061218 32.20585097
165 1 1 -0.00590413850462 10.29621720 12.73826522 32.20585097
166 1 1 -0.00293697168683 11.76710537 15.28591827 32.20585097
167 1 1 0.0192020802778 10.29621720 17.83357131 32.20585097
168 1 1 0.0636630745376 11.76710537 0.00000000 32.20585097
169 1 1 0.0552878238702 13.23799354 2.54765304 32.20585097
170 1 1 0.032058313128 14.70888171 5.09530609 32.20585097
171 1 1 0.00915736187238 13.23799354 7.64295913 32.20585097
172 1 1 -0.000348969979885 14.70888171 10.19061218 32.20585097
173 1 1 -0.0156294664938 13.23799354 12.73826522 32.20585097
174 1 1 -0.0202343936567 14.70888171 15.28591827 32.20585097
175 1 1 -0.0367613736074 13.23799354 17.83357131 32.20585097
176 1 1 0.0319690055686 14.70888171 0.00000000 32.20585097
177 1 1 -0.00533040982989 16.17976988 2.54765304 32.20585097
178 1 1 0.0564588251438 0.00000000 5.09530609 32.20585097
179 1 1 0.0198687765152 16.17976988 7.64295913 32.20585097
180 1 1 0.0302729507286 0.00000000 10.19061218 32.20585097
181 1 1 -0.00771607856867 16.17976988 12.73826522 32.20585097
182 1 1 -0.0688118609006 0.00000000 15.28591827 32.20585097
183 1 1 -0.015450954425 16.17976988 17.83357131 32.20585097
184 1 1 0.0066792548519 0.00000000 0.00000000 32.20585097
185 1 1 0.0149049634407 1.47088817 2.54765304 32.20585097
186 1 1 0.0181613173588 2.94177634 5.09530609 32.20585097
187 1 1 0.0548009382103 1.47088817 7.64295913 32.20585097
188 1 1 0.0137130983308 2.94177634 10.19061218 32.20585097
189 1 1 -0.0227595050634 1.47088817 12.73826522 32.20585097
190 1 1 -0.0286624806768 2.94177634 15.28591827 32.20585097
191 1 1 -0.0618739247072 1.47088817 17.83357131 32.20585097
192 1 1 -0.0214281171785 2.94177634 0.00000000 32.20585097
193 1 1 -0.0544699741664 5.88355268 3.39687073 34.60780130
194 1 1 -0.0597643782771 7.35444085 5.94452377 34.60780130
195 1 1 -0.0358223207823 5.88355268 8.49217681 34.60780130
196 1 1 -0.0236071344969 7.35444085 11.03982986 34.60780130
197 1 1 0.0247008060757 5.88355268 13.58748290 34.60780130
198 1 1 0.0837195374211 7.35444085 16.13513595 34.60780130
199 1 1 0.0882925965603 5.88355268 18.68278899 34.60780130
200 1 1 -0.0390683290447 7.35444085 0.84921768 34.60780130
201 1 1 -0.0160353239418 8.82532903 3.39687073 34.60780130
202 1 1 -0.0156246137605 10.29621720 5.94452377 34.60780130
203 1 1 -0.0577066662684 8.82532903 8.49217681 34.60780130
204 1 1 -0.0304697106194 10.29621720 11.03982986 34.60780130
205 1 1 0.025980996514 8.82532903 13.58748290 34.60780130
206 1 1 0.0376623021697 10.29621720 16.13513595 34.60780130
207 1 1 0.0730278462809 8.82532903 18.68278899 34.60780130
208 1 1 0.0563063765646 10.29621720 0.84921768 34.60780130
209 1 1 0.0633504572971 11.76710537 3.39687073 34.60780130
210 1 1 0.0402513676077 13.23799354 5.94452377 34.60780130
211 1 1 -0.0186347163051 11.76710537 8.49217681 34.60780130
212 1 1 -0.0153763447857 13.23799354 11.03982986 34.60780130
213 1 1 -0.00747238679451 11.76710537 13.58748290 34.60780130
214 1 1 -0.0239023800849 13.23799354 16.13513595 34.60780130
215 1 1 -0.0280598037712 11.76710537 18.68278899 34.60780130
216 1 1 0.0891463299437 13.23799354 0.84921768 34.60780130
217 1 1 0.0510400667655 14.70888171 3.39687073 34.60780130
218 1 1 0.0301511325159 16.17976988 5.94452377 34.60780130
219 1 1 0.0201484496809 14.70888171 8.49217681 34.60780130
220 1 1 0.00435490348651 16.17976988 11.03982986 34.60780130
221 1 1 -0.0162678493119 14.70888171 13.58748290 34.60780130
222 1 1 -0.00777064135096 16.17976988 16.13513595 34.60780130
223 1 1 -0.0510395850482 14.70888171 18.68278899 34.60780130
224 1 1 -0.0170254282674 16.17976988 0.84921768 34.60780130
225 1 1 0.0510208441072 0.00000000 3.39687073 34.60780130
226 1 1 0.0746839468454 1.47088817 5.94452377 34.60780130
227 1 1 0.0813360668197 0.00000000 8.49217681 34.60780130
228 1 1 0.0165913974611 1.47088817 11.03982986 34.60780130
229 1 1 -0.0566602639666 0.00000000 13.58748290 34.60780130
230 1 1 -0.0814411157981 1.47088817 16.13513595 34.60780130
231 1 1 -0.0946003785645 0.00000000 18.68278899 34.60780130
232 1 1 0.00365839113873 1.47088817 0.84921768 34.60780130
233 1 1 0.00378406833873 2.94177634 3.39687073 34.60780130
234 1 1 -0.0104290854429 4.41266451 5.94452377 34.60780130
235 1 1 0.0389306308883 2.94177634 8.49217681 34.60780130
236 1 1 -0.00150088081581 4.41266451 11.03982986 34.60780130
237 1 1 -0.0247969353965 2.94177634 13.58748290 34.60780130
238 1 1 0.0208620370101 4.41266451 16.13513595 34.60780130
239 1 1 -0.0208403907363 2.94177634 18.68278899 34.60780130
240 1 1 -0.0511705610338 4.41266451 0.84921768 34.60780130
241 1 1 0.0787516405709 0.00000000 20.38122435 25.00000000
242 1 1 0.0342457668773 1.47088817 22.92887739 25.00000000
243 1 1 0.0386393349706 0.00000000 25.47653044 25.00000000
244 1 1 0.0306559781572 1.47088817 28.02418348 25.00000000
245 1 1 0.0450811149927 0.00000000 30.57183653 25.00000000
246 1 1 0.0307939017637 1.47088817 33.11948957 25.00000000
247 1 1 0.0387978397156 0.00000000 35.66714262 25.00000000
248 1 1 0.0343188365512 1.47088817 38.21479566 25.00000000
249 1 1 0.00859371823137 2.94177634 20.38122435 25.00000000
250 1 1 -0.0475998954566 4.41266451 22.92887739 25.00000000
251 1 1 -0.00452994602812 2.94177634 25.47653044 25.00000000
252 1 1 -0.0242443874225 4.41266451 28.02418348 25.00000000
253 1 1 0.00836641203467 2.94177634 30.57183653 25.00000000
254 1 1 -0.024049264211 4.41266451 33.11948957 25.00000000
255 1 1 -0.0043158610609 2.94177634 35.66714262 25.00000000
256 1 1 -0.0474349361714 4.41266451 38.21479566 25.00000000
257 1 1 -0.0869723658275 5.88355268 20.38122435 25.00000000
258 1 1 -0.0563356241492 7.35444085 22.92887739 25.00000000
259 1 1 -0.04901854931 5.88355268 25.47653044 25.00000000
260 1 1 -0.0311652102745 7.35444085 28.02418348 25.00000000
261 1 1 -0.035832723765 5.88355268 30.57183653 25.00000000
262 1 1 -0.0309193915358 7.35444085 33.11948957 25.00000000
263 1 1 -0.0487044331451 5.88355268 35.66714262 25.00000000
264 1 1 -0.0560868691925 7.35444085 38.21479566 25.00000000
265 1 1 -0.0508135139548 8.82532903 20.38122435 25.00000000
266 1 1 0.0475888055686 10.29621720 22.92887739 25.00000000
267 1 1 0.00381267199952 8.82532903 25.47653044 25.00000000
268 1 1 0.0178745273121 10.29621720 28.02418348 25.00000000
269 1 1 -0.017055899936 8.82532903 30.57183653 25.00000000
270 1 1 0.0181389104934 10.29621720 33.11948957 25.00000000
271 1 1 0.00418013413077 8.82532903 35.66714262 25.00000000
272 1 1 0.0478694017146 10.29621720 38.21479566 25.00000000
273 1 1 0.0618163282055 11.76710537 20.38122435 25.00000000
274 1 1 0.110673516646 13.23799354 22.92887739 25.00000000
275 1 1 0.0784237546847 11.76710537 25.47653044 25.00000000
276 1 1 0.0146032656869 13.23799354 28.02418348 25.00000000
277 1 1 0.00136627842997 11.76710537 30.57183653 25.00000000
278 1 1 0.0148896452691 13.23799354 33.11948957 25.00000000
279 1 1 0.0788134983498 11.76710537 35.66714262 25.00000000
280 1 1 0.110981807464 13.23799354 38.21479566 25.00000000
281 1 1 0.0746971836116 14.70888171 20.38122435 25.00000000
282 1 1 0.0355634977013 16.17976988 22.92887739 25.00000000
283 1 1 0.048645887102 14.70888171 25.47653044 25.00000000
284 1 1 -0.0577134727418 16.17976988 28.02418348 25.00000000
285 1 1 -0.0535765116548 14.70888171 30.57183653 25.00000000
286 1 1 -0.057391184209 16.17976988 33.11948957 25.00000000
287 1 1 0.0490790719251 14.70888171 35.66714262 25.00000000
288 1 1 0.0359086220626 16.17976988 38.21479566 25.00000000
289 1 1 0.0376435970033 1.47088817 21.23044203 27.40195032
290 1 1 -0.00151140144888 2.94177634 23.77809508 27.40195032
291 1 1 0.0230613747405 1.47088817 26.32574812 27.40195032
292 1 1 0.00900047523958 2.94177634 28.87340116 27.40195032
293 1 1 0.0287749189455 1.47088817 31.42105421 27.40195032
294 1 1 0.00488448527401 2.94177634 33.96870725 27.40195032
295 1 1 0.0224504721728 1.47088817 36.51636030 27.40195032
296 1 1 0.000989853205145 2.94177634 39.06401334 27.40195032
297 1 1 -0.0331481611423 4.41266451 21.23044203 27.40195032
298 1 1 -0.0403293604221 5.88355268 23.77809508 27.40195032
299 1 1 -0.0181799339761 4.41266451 26.32574812 27.40195032
300 1 1 -0.0211372722541 5.88355268 28.87340116 27.40195032
301 1 1 -0.0096519924358 4.41266451 31.42105421 27.40195032
302 1 1 -0.0242421723986 5.88355268 33.96870725 27.40195032
303 1 1 -0.0250080084013 4.41266451 36.51636030 27.40195032
304 1 1 -0.0512449059942 5.88355268 39.06401334 27.40195032
305 1 1 -0.052117820727 7.35444085 21.23044203 27.40195032
306 1 1 0.00329417239954 8.82532903 23.77809508 27.40195032
307 1 1 -0.0172617642037 7.35444085 26.32574812 27.40195032
308 1 1 -0.00210826937812 8.82532903 28.87340116 27.40195032
309 1 1 -0.0177013438785 7.35444085 31.42105421 27.40195032
310 1 1 0.00466545579104 8.82532903 33.96870725 27.40195032
311 1 1 -0.0234990927468 7.35444085 36.51636030 27.40195032
312 1 1 -0.0121363580765 8.82532903 39.06401334 27.40195032
313 1 1 0.02172495211 10.29621720 21.23044203 27.40195032
314 1 1 0.0756217536027 11.76710537 23.77809508 27.40195032
315 1 1 0.0358010941064 10.29621720 26.32574812 27.40195032
316 1 1 0.0198562719497 11.76710537 28.87340116 27.40195032
317 1 1 0.00926609017103 10.29621720 31.42105421 27.40195032
318 1 1 0.0415568224718 11.76710537 33.96870725 27.40195032
319 1 1 0.0443744102742 10.29621720 36.51636030 27.40195032
320 1 1 0.0694837191068 11.76710537 39.06401334 27.40195032
321 1 1 0.0784768837408 13.23799354 21.23044203 27.40195032
322 1 1 0.0685555541077 14.70888171 23.77809508 27.40195032
323 1 1 0.0524855102907 13.23799354 26.32574812 27.40195032
324 1 1 -0.0106978150323 14.70888171 28.87340116 27.40195032
325 1 1 0.00233011622603 13.23799354 31.42105421 27.40195032
326 1 1 0.0168530678318 14.70888171 33.96870725 27.40195032
327 1 1 0.0776759151645 13.23799354 36.51636030 27.40195032
328 1 1 0.072011233735 14.70888171 39.06401334 27.40195032
329 1 1 0.0343694033777 16.17976988 21.23044203 27.40195032
330 1 1 0.0345645080188 0.00000000 23.77809508 27.40195032
331 1 1 0.00628948459043 16.17976988 26.32574812 27.40195032
332 1 1 0.0353629339983 0.00000000 28.87340116 27.40195032
333 1 1 -0.0382750213505 16.17976988 31.42105421 27.40195032
334 1 1 0.0324650268468 0.00000000 33.96870725 27.40195032
335 1 1 0.0285541186746 16.17976988 36.51636030 27.40195032
336 1 1 0.0441616962985 0.00000000 39.06401334 27.40195032
337 1 1 -0.000684692904031 2.94177634 22.07965971 29.80390065
338 1 1 2.74942327209e-05 4.41266451 24.62731276 29.80390065
339 1 1 0.000489037732111 2.94177634 27.17496580 29.80390065
340 1 1 0.000743336984199 4.41266451 29.72261885 29.80390065
341 1 1 0.000604172001764 2.94177634 32.27027189 29.80390065
342 1 1 0.000144869486721 4.41266451 34.81792493 29.80390065
343 1 1 -0.000456971503044 2.94177634 37.36557798 29.80390065
344 1 1 -0.000540651834193 4.41266451 39.91323102 29.80390065
345 1 1 -0.000229203266436 5.88355268 22.07965971 29.80390065
346 1 1 0.000126507833286 7.35444085 24.62731276 29.80390065
347 1 1 0.000532439518842 5.88355268 27.17496580 29.80390065
348 1 1 0.000718335188454 7.35444085 29.72261885 29.80390065
349 1 1 0.000569253784712 5.88355268 32.27027189 29.80390065
350 1 1 0.000111168059077 7.35444085 34.81792493 29.80390065
351 1 1 -0.000213650680626 5.88355268 37.36557798 29.80390065
352 1 1 -0.000253632539074 7.35444085 39.91323102 29.80390065
353 1 1 -0.00027389418884 8.82532903 22.07965971 29.80390065
354 1 1 -0.000196770750459 10.29621720 24.62731276 29.80390065
355 1 1 0.000457848323734 8.82532903 27.17496580 29.80390065
356 1 1 0.000583519429123 10.29621720 29.72261885 29.80390065
357 1 1 0.000463913615103 8.82532903 32.27027189 29.80390065
358 1 1 -0.000230173211931 10.29621720 34.81792493 29.80390065
359 1 1 -0.000412091079072 8.82532903 37.36557798 29.80390065
360 1 1 -0.000694480118592 10.29621720 39.91323102 29.80390065
361 1 1 -0.000841245186742 11.76710537 22.07965971 29.80390065
362 1 1 -0.000629064917619 13.23799354 24.62731276 29.80390065
363 1 1 0.000160593014657 11.76710537 27.17496580 29.80390065
364 1 1 0.000374956036279 13.23799354 29.72261885 29.80390065
365 1 1 0.000197898395652 11.76710537 32.27027189 29.80390065
366 1 1 -0.000601154811574 13.23799354 34.81792493 29.80390065
367 1 1 -0.00100109411098 11.76710537 37.36557798 29.80390065
368 1 1 -0.00126624377883 13.23799354 39.91323102 29.80390065
369 1 1 -0.00109210720868 14.70888171 22.07965971 29.80390065
370 1 1 -0.000551147959508 16.17976988 24.62731276 29.80390065
371 1 1 5.82605934993e-06 14.70888171 27.17496580 29.80390065
372 1 1 0.000411309855551 16.17976988 29.72261885 29.80390065
373 1 1 6.45671335641e-05 14.70888171 32.27027189 29.80390065
374 1 1 -0.000515467497056 16.17976988 34.81792493 29.80390065
375 1 1 -0.00121407236669 14.70888171 37.36557798 29.80390065
376 1 1 -0.0011108495165 16.17976988 39.91323102 29.80390065
377 1 1 -0.000959353813286 0.00000000 22.07965971 29.80390065
378 1 1 -0.000180807133661 1.47088817 24.62731276 29.80390065
379 1 1 0.000475580925378 0.00000000 27.17496580 29.80390065
380 1 1 0.000794494783496 1.47088817 29.72261885 29.80390065
381 1 1 0.000632884240445 0.00000000 32.27027189 29.80390065
382 1 1 7.22331676406e-05 1.47088817 34.81792493 29.80390065
383 1 1 -0.00063080151375 0.00000000 37.36557798 29.80390065
384 1 1 -0.00106082076714 1.47088817 39.91323102 29.80390065
385 1 1 0.0306760059335 4.41266451 22.92887739 32.20585097
386 1 1 0.0307208418119 5.88355268 25.47653044 32.20585097
387 1 1 0.0129415983916 4.41266451 28.02418348 32.20585097
388 1 1 0.0206750722034 5.88355268 30.57183653 32.20585097
389 1 1 0.0129049029907 4.41266451 33.11948957 32.20585097
390 1 1 0.0306784233889 5.88355268 35.66714262 32.20585097
391 1 1 0.0306606884379 4.41266451 38.21479566 32.20585097
392 1 1 0.0591942868589 5.88355268 20.38122435 32.20585097
393 1 1 0.0362145211852 7.35444085 22.92887739 32.20585097
394 1 1 -0.00825983706275 8.82532903 25.47653044 32.20585097
395 1 1 0.0169442291687 7.35444085 28.02418348 32.20585097
396 1 1 0.00593638357189 8.82532903 30.57183653 32.20585097
397 1 1 0.0168947235339 7.35444085 33.11948957 32.20585097
398 1 1 -0.00834879648748 8.82532903 35.66714262 32.20585097
399 1 1 0.0361830992647 7.35444085 38.21479566 32.20585097
400 1 1 0.0324302862638 8.82532903 20.38122435 32.20585097
401 1 1 -0.0397227487086 10.29621720 22.92887739 32.20585097
402 1 1 -0.0642673826722 11.76710537 25.47653044 32.20585097
403 1 1 -0.0200476557246 10.29621720 28.02418348 32.20585097
404 1 1 -0.0103073512139 11.76710537 30.57183653 32.20585097
405 1 1 -0.0201376854487 10.29621720 33.11948957 32.20585097
406 1 1 -0.0643995893687 11.76710537 35.66714262 32.20585097
407 1 1 -0.0398088399288 10.29621720 38.21479566 32.20585097
408 1 1 -0.0499637291676 11.76710537 20.38122435 32.20585097
409 1 1 -0.0877795664162 13.23799354 22.92887739 32.20585097
410 1 1 -0.0480280785886 14.70888171 25.47653044 32.20585097
411 1 1 -0.022075029317 13.23799354 28.02418348 32.20585097
412 1 1 0.022267049384 14.70888171 30.57183653 32.20585097
413 1 1 -0.0221804921827 13.23799354 33.11948957 32.20585097
414 1 1 -0.0481336791657 14.70888171 35.66714262 32.20585097
415 1 1 -0.0878755137786 13.23799354 38.21479566 32.20585097
416 1 1 -0.0615985831359 14.70888171 20.38122435 32.20585097
417 1 1 -0.0384622120367 16.17976988 22.92887739 32.20585097
418 1 1 -0.031020328423 0.00000000 25.47653044 32.20585097
419 1 1 0.0207734858672 16.17976988 28.02418348 32.20585097
420 1 1 -0.0359950701879 0.00000000 30.57183653 32.20585097
421 1 1 0.0206851568638 16.17976988 33.11948957 32.20585097
422 1 1 -0.0310977363039 0.00000000 35.66714262 32.20585097
423 1 1 -0.0385211666258 16.17976988 38.21479566 32.20585097
424 1 1 -0.0590314619923 0.00000000 20.38122435 32.20585097
425 1 1 -0.0275393602394 1.47088817 22.92887739 32.20585097
426 1 1 -0.000431755979991 2.94177634 25.47653044 32.20585097
427 1 1 -0.0256918649896 1.47088817 28.02418348 32.20585097
428 1 1 -0.0101174243357 2.94177634 30.57183653 32.20585097
429 1 1 -0.0257457092407 1.47088817 33.11948957 32.20585097
430 1 1 -0.00048721130661 2.94177634 35.66714262 32.20585097
431 1 1 -0.0275820176683 1.47088817 38.21479566 32.20585097
432 1 1 -0.00889695677625 2.94177634 20.38122435 32.20585097
433 1 1 0.0614348852729 5.88355268 23.77809508 34.60780130
434 1 1 0.0304282400489 7.35444085 26.32574812 34.60780130
435 1 1 0.0347772468381 5.88355268 28.87340116 34.60780130
436 1 1 0.0312001448096 7.35444085 31.42105421 34.60780130
437 1 1 0.0392923101813 5.88355268 33.96870725 34.60780130
438 1 1 0.0392296027468 7.35444085 36.51636030 34.60780130
439 1 1 0.0766616670827 5.88355268 39.06401334 34.60780130
440 1 1 0.0782501462244 7.35444085 21.23044203 34.60780130
441 1 1 0.00289522866427 8.82532903 23.77809508 34.60780130
442 1 1 -0.0399164717549 10.29621720 26.32574812 34.60780130
443 1 1 0.0110766356333 8.82532903 28.87340116 34.60780130
444 1 1 -0.00254488315151 10.29621720 31.42105421 34.60780130
445 1 1 0.0017365350121 8.82532903 33.96870725 34.60780130
446 1 1 -0.0521307014646 10.29621720 36.51636030 34.60780130
447 1 1 0.023982392878 8.82532903 39.06401334 34.60780130
448 1 1 -0.0223754044471 10.29621720 21.23044203 34.60780130
449 1 1 -0.094247415599 11.76710537 23.77809508 34.60780130
450 1 1 -0.0578428849931 13.23799354 26.32574812 34.60780130
451 1 1 -0.0147663730403 11.76710537 28.87340116 34.60780130
452 1 1 0.0132745887977 13.23799354 31.42105421 34.60780130
453 1 1 -0.04516589224 11.76710537 33.96870725 34.60780130
454 1 1 -0.0939069000806 13.23799354 36.51636030 34.60780130
455 1 1 -0.0867476370811 11.76710537 39.06401334 34.60780130
456 1 1 -0.0983899441708 13.23799354 21.23044203 34.60780130
457 1 1 -0.0792342115257 14.70888171 23.77809508 34.60780130
458 1 1 0.0164362464915 16.17976988 26.32574812 34.60780130
459 1 1 0.0361575261895 14.70888171 28.87340116 34.60780130
460 1 1 0.0827539066233 16.17976988 31.42105421 34.60780130
461 1 1 -0.00315730024068 14.70888171 33.96870725 34.60780130
462 1 1 -0.0175424382549 16.17976988 36.51636030 34.60780130
463 1 1 -0.0861815761816 14.70888171 39.06401334 34.60780130
464 1 1 -0.032612176848 16.17976988 21.23044203 34.60780130
465 1 1 -0.0430040693762 0.00000000 23.77809508 34.60780130
466 1 1 -0.0272316251131 1.47088817 26.32574812 34.60780130
467 1 1 -0.0443422435974 0.00000000 28.87340116 34.60780130
468 1 1 -0.03521965398 1.47088817 31.42105421 34.60780130
469 1 1 -0.0402342880126 0.00000000 33.96870725 34.60780130
470 1 1 -0.0262264890874 1.47088817 36.51636030 34.60780130
471 1 1 -0.0562829858177 0.00000000 39.06401334 34.60780130
472 1 1 -0.0472185279551 1.47088817 21.23044203 34.60780130
473 1 1 0.00699637963747 2.94177634 23.77809508 34.60780130
474 1 1 0.0301390703515 4.41266451 26.32574812 34.60780130
475 1 1 -0.00782485011643 2.94177634 28.87340116 34.60780130
476 1 1 0.0182963892916 4.41266451 31.42105421 34.60780130
477 1 1 -0.00195953819254 2.94177634 33.96870725 34.60780130
478 1 1 0.0398834063698 4.41266451 36.51636030 34.60780130
479 1 1 0.00363476307477 2.94177634 39.06401334 34.60780130
480 1 1 0.051053953345 4.41266451 21.23044203 34.60780130
481 1 1 0.0786373060993 0.00000000 40.76244870 25.00000000
482 1 1 0.0826094591033 1.47088817 43.31010174 25.00000000
483 1 1 0.0922292498256 0.00000000 45.85775479 25.00000000
484 1 1 0.028069065403 1.47088817 48.40540783 25.00000000
485 1 1 -0.045378160765 0.00000000 50.95306088 25.00000000
486 1 1 -0.07913762916 1.47088817 53.50071392 25.00000000
487 1 1 -0.0810962192066 0.00000000 56.04836697 25.00000000
488 1 1 -0.0233193499655 1.47088817 58.59602001 25.00000000
489 1 1 0.00851389838378 2.94177634 40.76244870 25.00000000
490 1 1 -0.0347460090525 4.41266451 43.31010174 25.00000000
491 1 1 0.0361330771994 2.94177634 45.85775479 25.00000000
492 1 1 -0.000660822845685 4.41266451 48.40540783 25.00000000
493 1 1 -0.0225978659162 2.94177634 50.95306088 25.00000000
494 1 1 0.00107870739748 4.41266451 53.50071392 25.00000000
495 1 1 -0.0279676521229 2.94177634 56.04836697 25.00000000
496 1 1 0.0418139948449 4.41266451 58.59602001 25.00000000
497 1 1 -0.0869875236895 5.88355268 40.76244870 25.00000000
498 1 1 -0.0992017852818 7.35444085 43.31010174 25.00000000
499 1 1 -0.0535095676424 5.88355268 45.85775479 25.00000000
500 1 1 -0.0139963055644 7.35444085 48.40540783 25.00000000
501 1 1 0.0214837534696 5.88355268 50.95306088 25.00000000
502 1 1 0.0598430395102 7.35444085 53.50071392 25.00000000
503 1 1 0.0498477688557 5.88355268 56.04836697 25.00000000
504 1 1 0.0458333100675 7.35444085 58.59602001 25.00000000
505 1 1 -0.0507879812806 8.82532903 40.76244870 25.00000000
506 1 1 -0.0325689575259 10.29621720 43.31010174 25.00000000
507 1 1 -0.0608714202868 8.82532903 45.85775479 25.00000000
508 1 1 0.00337750756249 10.29621720 48.40540783 25.00000000
509 1 1 0.0424758013609 8.82532903 50.95306088 25.00000000
510 1 1 0.0367182413918 10.29621720 53.50071392 25.00000000
511 1 1 0.0376423861199 8.82532903 56.04836697 25.00000000
512 1 1 -0.0393301560789 10.29621720 58.59602001 25.00000000
513 1 1 0.0618626285419 11.76710537 40.76244870 25.00000000
514 1 1 0.0434501542604 13.23799354 43.31010174 25.00000000
515 1 1 -0.001837365026 11.76710537 45.85775479 25.00000000
516 1 1 0.0160584516893 13.23799354 48.40540783 25.00000000
517 1 1 0.0253154434091 11.76710537 50.95306088 25.00000000
518 1 1 -0.0166573665749 13.23799354 53.50071392 25.00000000
519 1 1 -0.0336783130394 11.76710537 56.04836697 25.00000000
520 1 1 -0.0794944092566 13.23799354 58.59602001 25.00000000
521 1 1 0.0747654911494 14.70888171 40.76244870 25.00000000
522 1 1 0.0115765170742 16.17976988 43.31010174 25.00000000
523 1 1 0.0208353965102 14.70888171 45.85775479 25.00000000
524 1 1 0.00410147769748 16.17976988 48.40540783 25.00000000
525 1 1 -0.00464522597184 14.70888171 50.95306088 25.00000000
526 1 1 -0.0319374413248 16.17976988 53.50071392 25.00000000
527 1 1 -0.0478365377262 14.70888171 56.04836697 25.00000000
528 1 1 0.00461617502714 16.17976988 58.59602001 25.00000000
529 1 1 0.0508767979332 1.47088817 41.61166638 27.40195032
530 1 1 0.0267568032008 2.94177634 44.15931943 27.40195032
531 1 1 0.0487502987178 1.47088817 46.70697247 27.40195032
532 1 1 0.00473151780404 2.94177634 49.25462551 27.40195032
533 1 1 -0.0384635579233 1.47088817 51.80227856 27.40195032
534 1 1 -0.0279360517669 2.94177634 54.34993160 27.40195032
535 1 1 -0.0357192901663 1.47088817 56.89758465 27.40195032
536 1 1 0.0147835285703 2.94177634 59.44523769 27.40195032
537 1 1 -0.0302035962586 4.41266451 41.61166638 27.40195032
538 1 1 -0.0515209309478 5.88355268 44.15931943 27.40195032
539 1 1 -0.00267268712209 4.41266451 46.70697247 27.40195032
540 1 1 0.00390702005208 5.88355268 49.25462551 27.40195032
541 1 1 0.0022216748441 4.41266451 51.80227856 27.40195032
542 1 1 0.0334433909326 5.88355268 54.34993160 27.40195032
543 1 1 0.0199700857655 4.41266451 56.89758465 27.40195032
544 1 1 0.0443135460863 5.88355268 59.44523769 27.40195032
545 1 1 -0.0648484064166 7.35444085 41.61166638 27.40195032
546 1 1 -0.0518096434691 8.82532903 44.15931943 27.40195032
547 1 1 -0.0344803973737 7.35444085 46.70697247 27.40195032
548 1 1 0.0119702863347 8.82532903 49.25462551 27.40195032
549 1 1 0.0373844485349 7.35444085 51.80227856 27.40195032
550 1 1 0.0408960746514 8.82532903 54.34993160 27.40195032
551 1 1 0.0400184089217 7.35444085 56.89758465 27.40195032
552 1 1 0.00202958749482 8.82532903 59.44523769 27.40195032
553 1 1 -0.00146453641728 10.29621720 41.61166638 27.40195032
554 1 1 0.00820095868514 11.76710537 44.15931943 27.40195032
555 1 1 -0.0126316389338 10.29621720 46.70697247 27.40195032
556 1 1 0.0179477627824 11.76710537 49.25462551 27.40195032
557 1 1 0.0334888962235 10.29621720 51.80227856 27.40195032
558 1 1 -0.000214011666599 11.76710537 54.34993160 27.40195032
559 1 1 -0.00751635005797 10.29621720 56.89758465 27.40195032
560 1 1 -0.0582703996125 11.76710537 59.44523769 27.40195032
561 1 1 0.057972670289 13.23799354 41.61166638 27.40195032
562 1 1 0.0288693074148 14.70888171 44.15931943 27.40195032
563 1 1 0.0165640067063 13.23799354 46.70697247 27.40195032
564 1 1 0.0103783592595 14.70888171 49.25462551 27.40195032
565 1 1 0.0059250924206 13.23799354 51.80227856 27.40195032
566 1 1 -0.0241476577125 14.70888171 54.34993160 27.40195032
567 1 1 -0.0432432821077 13.23799354 56.89758465 27.40195032
568 1 1 -0.0332588281812 14.70888171 59.44523769 27.40195032
569 1 1 0.0240734527932 16.17976988 41.61166638 27.40195032
570 1 1 0.0770342028662 0.00000000 44.15931943 27.40195032
571 1 1 0.010821258165 16.17976988 46.70697247 27.40195032
572 1 1 0.00753791903083 0.00000000 49.25462551 27.40195032
573 1 1 -0.0110405096386 16.17976988 51.80227856 27.40195032
574 1 1 -0.0654769961548 0.00000000 54.34993160 27.40195032
575 1 1 -0.009380972146 16.17976988 56.89758465 27.40195032
576 1 1 -0.0149640311098 0.00000000 59.44523769 27.40195032
577 1 1 -0.000875097869227 2.94177634 42.46088406 29.80390065
578 1 1 -0.000187499872687 4.41266451 45.00853711 29.80390065
579 1 1 -8.07336840167e-05 2.94177634 47.55619015 29.80390065
580 1 1 0.00039875377005 4.41266451 50.10384320 29.80390065
581 1 1 0.000595472211275 2.94177634 52.65149624 29.80390065
582 1 1 -3.34624507682e-05 4.41266451 55.19914928 29.80390065
583 1 1 -0.000241721505976 2.94177634 57.74680233 29.80390065
584 1 1 -0.000784435405698 4.41266451 60.29445537 29.80390065
585 1 1 -0.000120776293493 5.88355268 42.46088406 29.80390065
586 1 1 0.000479406660119 7.35444085 45.00853711 29.80390065
587 1 1 0.000439640474235 5.88355268 47.55619015 29.80390065
588 1 1 0.000525731925248 7.35444085 50.10384320 29.80390065
589 1 1 0.000153990474671 5.88355268 52.65149624 29.80390065
590 1 1 -0.000404224021036 7.35444085 55.19914928 29.80390065
591 1 1 -0.000729921963578 5.88355268 57.74680233 29.80390065
592 1 1 -0.000907963496847 7.35444085 60.29445537 29.80390065
593 1 1 3.49009672242e-05 8.82532903 42.46088406 29.80390065
594 1 1 0.000488236297243 10.29621720 45.00853711 29.80390065
595 1 1 0.000835827840167 8.82532903 47.55619015 29.80390065
596 1 1 0.000797602586557 10.29621720 50.10384320 29.80390065
597 1 1 0.000176395494573 8.82532903 52.65149624 29.80390065
598 1 1 -0.000174735916116 10.29621720 55.19914928 29.80390065
599 1 1 -0.000683407988673 8.82532903 57.74680233 29.80390065
600 1 1 -0.000626041796645 10.29621720 60.29445537 29.80390065
601 1 1 -0.000484325038664 11.76710537 42.46088406 29.80390065
602 1 1 0.000123222696348 13.23799354 45.00853711 29.80390065
603 1 1 0.000851832136848 11.76710537 47.55619015 29.80390065
604 1 1 0.000953166726114 13.23799354 50.10384320 29.80390065
605 1 1 0.000527243449708 11.76710537 52.65149624 29.80390065
606 1 1 0.000112798655105 13.23799354 55.19914928 29.80390065
607 1 1 -0.000410995257292 11.76710537 57.74680233 29.80390065
608 1 1 -0.000666115806483 13.23799354 60.29445537 29.80390065
609 1 1 -0.000770972828676 14.70888171 42.46088406 29.80390065
610 1 1 6.90473607084e-05 16.17976988 45.00853711 29.80390065
611 1 1 0.000705508144055 14.70888171 47.55619015 29.80390065
612 1 1 0.000926792250385 16.17976988 50.10384320 29.80390065
613 1 1 0.000728192364056 14.70888171 52.65149624 29.80390065
614 1 1 8.04562022285e-05 16.17976988 55.19914928 29.80390065
615 1 1 -0.000553282846281 14.70888171 57.74680233 29.80390065
616 1 1 -0.00125484020744 16.17976988 60.29445537 29.80390065
617 1 1 -0.00130185942864 0.00000000 42.46088406 29.80390065
618 1 1 -0.000890187445635 1.47088817 45.00853711 29.80390065
619 1 1 -0.000310693445923 0.00000000 47.55619015 29.80390065
620 1 1 0.000452627791127 1.47088817 50.10384320 29.80390065
621 1 1 0.000892858252751 0.00000000 52.65149624 29.80390065
622 1 1 0.000584831123529 1.47088817 55.19914928 29.80390065
623 1 1 0.000101690942421 0.00000000 57.74680233 29.80390065
624 1 1 -0.000356518576766 1.47088817 60.29445537 29.80390065
625 1 1 0.0221649036131 4.41266451 43.31010174 32.20585097
626 1 1 0.0354821978493 5.88355268 45.85775479 32.20585097
627 1 1 -0.00234283586035 4.41266451 48.40540783 32.20585097
628 1 1 -0.0182854445341 5.88355268 50.95306088 32.20585097
629 1 1 -0.00321565330749 4.41266451 53.50071392 32.20585097
630 1 1 -0.0379818778101 5.88355268 56.04836697 32.20585097
631 1 1 -0.0319421772929 4.41266451 58.59602001 32.20585097
632 1 1 0.0592172260798 5.88355268 40.76244870 32.20585097
633 1 1 0.0679671215813 7.35444085 43.31010174 32.20585097
634 1 1 0.0403417638286 8.82532903 45.85775479 32.20585097
635 1 1 0.00698268673404 7.35444085 48.40540783 32.20585097
636 1 1 -0.0335180102995 8.82532903 50.95306088 32.20585097
637 1 1 -0.0456289997117 7.35444085 53.50071392 32.20585097
638 1 1 -0.0292259848305 8.82532903 56.04836697 32.20585097
639 1 1 -0.0347207314204 7.35444085 58.59602001 32.20585097
640 1 1 0.0324244707791 8.82532903 40.76244870 32.20585097
641 1 1 0.0192504266841 10.29621720 43.31010174 32.20585097
642 1 1 -0.00282844672963 11.76710537 45.85775479 32.20585097
643 1 1 -0.00581200228068 10.29621720 48.40540783 32.20585097
644 1 1 -0.0214076811089 11.76710537 50.95306088 32.20585097
645 1 1 -0.0290718208774 10.29621720 53.50071392 32.20585097
646 1 1 0.0219691211553 11.76710537 56.04836697 32.20585097
647 1 1 0.0265149673884 10.29621720 58.59602001 32.20585097
648 1 1 -0.0499993151488 11.76710537 40.76244870 32.20585097
649 1 1 -0.0367191213881 13.23799354 43.31010174 32.20585097
650 1 1 -0.0201354434612 14.70888171 45.85775479 32.20585097
651 1 1 -0.0155236351281 13.23799354 48.40540783 32.20585097
652 1 1 -0.000323509584969 14.70888171 50.95306088 32.20585097
653 1 1 0.00910831495234 13.23799354 53.50071392 32.20585097
654 1 1 0.0319845747689 14.70888171 56.04836697 32.20585097
655 1 1 0.0552365079762 13.23799354 58.59602001 32.20585097
656 1 1 -0.0616325850687 14.70888171 40.76244870 32.20585097
657 1 1 -0.0154189378113 16.17976988 43.31010174 32.20585097
658 1 1 -0.0687296771586 0.00000000 45.85775479 32.20585097
659 1 1 -0.00763498837966 16.17976988 48.40540783 32.20585097
660 1 1 0.0302402978149 0.00000000 50.95306088 32.20585097
661 1 1 0.0198205190875 16.17976988 53.50071392 32.20585097
662 1 1 0.056326772329 0.00000000 56.04836697 32.20585097
663 1 1 -0.00536637802943 16.17976988 58.59602001 32.20585097
664 1 1 -0.0590233801514 0.00000000 40.76244870 32.20585097
665 1 1 -0.0618119756869 1.47088817 43.31010174 32.20585097
666 1 1 -0.0285912225173 2.94177634 45.85775479 32.20585097
667 1 1 -0.0227157246216 1.47088817 48.40540783 32.20585097
668 1 1 0.0136848951877 2.94177634 50.95306088 32.20585097
669 1 1 0.0546976767738 1.47088817 53.50071392 32.20585097
670 1 1 0.0180563765495 2.94177634 56.04836697 32.20585097
671 1 1 0.0148223776201 1.47088817 58.59602001 32.20585097
672 1 1 -0.00887817272577 2.94177634 40.76244870 32.20585097
673 1 1 0.0759563724118 5.88355268 44.15931943 34.60780130
674 1 1 0.0518137271778 7.35444085 46.70697247 34.60780130
675 1 1 -0.00228297387972 5.88355268 49.25462551 34.60780130
676 1 1 -0.0489402895354 7.35444085 51.80227856 34.60780130
677 1 1 -0.0435316533346 5.88355268 54.34993160 34.60780130
678 1 1 -0.0522788971875 7.35444085 56.89758465 34.60780130
679 1 1 -0.0581572875248 5.88355268 59.44523769 34.60780130
680 1 1 0.0955306551876 7.35444085 41.61166638 34.60780130
681 1 1 0.0770389551781 8.82532903 44.15931943 34.60780130
682 1 1 0.0221349161425 10.29621720 46.70697247 34.60780130
683 1 1 -0.01304535977 8.82532903 49.25462551 34.60780130
684 1 1 -0.0431347400129 10.29621720 51.80227856 34.60780130
685 1 1 -0.053664015109 8.82532903 54.34993160 34.60780130
686 1 1 0.013912388989 10.29621720 56.89758465 34.60780130
687 1 1 0.000858619882648 8.82532903 59.44523769 34.60780130
688 1 1 0.00892358553491 10.29621720 41.61166638 34.60780130
689 1 1 -0.00521822559992 11.76710537 44.15931943 34.60780130
690 1 1 -0.0176784689847 13.23799354 46.70697247 34.60780130
691 1 1 -0.0208394625653 11.76710537 49.25462551 34.60780130
692 1 1 -0.00457153173065 13.23799354 51.80227856 34.60780130
693 1 1 0.0036632854341 11.76710537 54.34993160 34.60780130
694 1 1 0.063623376371 13.23799354 56.89758465 34.60780130
695 1 1 0.0846515062831 11.76710537 59.44523769 34.60780130
696 1 1 -0.0715315243545 13.23799354 41.61166638 34.60780130
697 1 1 -0.0323663074935 14.70888171 44.15931943 34.60780130
698 1 1 -0.00866062276758 16.17976988 46.70697247 34.60780130
699 1 1 -0.00992798387648 14.70888171 49.25462551 34.60780130
700 1 1 0.0192394244962 16.17976988 51.80227856 34.60780130
701 1 1 0.0370878034224 14.70888171 54.34993160 34.60780130
702 1 1 0.0168386596191 16.17976988 56.89758465 34.60780130
703 1 1 0.0499864506768 14.70888171 59.44523769 34.60780130
704 1 1 -0.0211342038721 16.17976988 41.61166638 34.60780130
705 1 1 -0.102558224684 0.00000000 44.15931943 34.60780130
706 1 1 -0.0639697262069 1.47088817 46.70697247 34.60780130
707 1 1 -0.00723161170244 0.00000000 49.25462551 34.60780130
708 1 1 0.0563941470028 1.47088817 51.80227856 34.60780130
709 1 1 0.0939258148576 0.00000000 54.34993160 34.60780130
710 1 1 0.0525776587726 1.47088817 56.89758465 34.60780130
711 1 1 0.0236334456604 0.00000000 59.44523769 34.60780130
712 1 1 -0.0657878933209 1.47088817 41.61166638 34.60780130
713 1 1 -0.0328403568988 2.94177634 44.15931943 34.60780130
714 1 1 0.00734652328772 4.41266451 46.70697247 34.60780130
715 1 1 -0.00344398418875 2.94177634 49.25462551 34.60780130
716 1 1 -0.000250933882512 4.41266451 51.80227856 34.60780130
717 1 1 0.0417183743444 2.94177634 54.34993160 34.60780130
718 1 1 -0.0246566168438 4.41266451 56.89758465 34.60780130
719 1 1 -0.0175195119015 2.94177634 59.44523769 34.60780130
720 1 1 0.0467864863351 4.41266451 41.61166638 34.60780130
721 1 1 0.0908807664394 17.65065805 0.00000000 25.00000000
722 1 1 0.0951875601915 19.12154622 2.54765304 25.00000000
723 1 1 0.0025274561099 17.65065805 5.09530609 25.00000000
724 1 1 -0.0232736596919 19.12154622 7.64295913 25.00000000
725 1 1 -0.0156286502001 17.65065805 10.19061218 25.00000000
726 1 1 0.00348438631967 19.12154622 12.73826522 25.00000000
727 1 1 -0.0109860169754 17.65065805 15.28591827 25.00000000
728 1 1 -0.0654690287213 19.12154622 17.83357131 25.00000000
729 1 1 0.138329588594 20.59243439 0.00000000 25.00000000
730 1 1 0.0576677585287 22.06332256 2.54765304 25.00000000
731 1 1 0.00989550679091 20.59243439 5.09530609 25.00000000
732 1 1 -0.0405408838348 22.06332256 7.64295913 25.00000000
733 1 1 -0.00207542167746 20.59243439 10.19061218 25.00000000
734 1 1 0.0462346218904 22.06332256 12.73826522 25.00000000
735 1 1 -0.0154598522054 20.59243439 15.28591827 25.00000000
736 1 1 -0.0686174694525 22.06332256 17.83357131 25.00000000
737 1 1 0.0450155962973 23.53421073 0.00000000 25.00000000
738 1 1 -0.0429839889146 25.00509890 2.54765304 25.00000000
739 1 1 -0.0622520728283 23.53421073 5.09530609 25.00000000
740 1 1 -0.0744111355851 25.00509890 7.64295913 25.00000000
741 1 1 0.0187454391369 23.53421073 10.19061218 25.00000000
742 1 1 0.0982113453662 25.00509890 12.73826522 25.00000000
743 1 1 0.0399099758893 23.53421073 15.28591827 25.00000000
744 1 1 -0.0171153239218 25.00509890 17.83357131 25.00000000
745 1 1 -0.0251060777612 26.47598708 0.00000000 25.00000000
746 1 1 -0.0429839886313 27.94687525 2.54765304 25.00000000
747 1 1 -0.111441813584 26.47598708 5.09530609 25.00000000
748 1 1 -0.0744111355229 27.94687525 7.64295913 25.00000000
749 1 1 0.0280282785709 26.47598708 10.19061218 25.00000000
750 1 1 0.0982113452257 27.94687525 12.73826522 25.00000000
751 1 1 0.0777849706794 26.47598708 15.28591827 25.00000000
752 1 1 -0.0171153240515 27.94687525 17.83357131 25.00000000
753 1 1 0.0450155968075 29.41776342 0.00000000 25.00000000
754 1 1 0.0576677589692 30.88865159 2.54765304 25.00000000
755 1 1 -0.0622520725213 29.41776342 5.09530609 25.00000000
756 1 1 -0.0405408837359 30.88865159 7.64295913 25.00000000
757 1 1 0.0187454390281 29.41776342 10.19061218 25.00000000
758 1 1 0.0462346216209 30.88865159 12.73826522 25.00000000
759 1 1 0.039909975635 29.41776342 15.28591827 25.00000000
760 1 1 -0.0686174696103 30.88865159 17.83357131 25.00000000
761 1 1 0.138329588855 32.35953976 0.00000000 25.00000000
762 1 1 0.0951875601341 33.83042793 2.54765304 25.00000000
763 1 1 0.00989550698244 32.35953976 5.09530609 25.00000000
764 1 1 -0.0232736596736 33.83042793 7.64295913 25.00000000
765 1 1 -0.00207542178744 32.35953976 10.19061218 25.00000000
766 1 1 0.00348438620242 33.83042793 12.73826522 25.00000000
767 1 1 -0.015459852385 32.35953976 15.28591827 25.00000000
768 1 1 -0.065469028595 33.83042793 17.83357131 25.00000000
769 1 1 0.0946795261669 19.12154622 0.84921768 27.40195032
770 1 1 0.0491919589415 20.59243439 3.39687073 27.40195032
771 1 1 0.00134283479738 19.12154622 5.94452377 27.40195032
772 1 1 -0.0126152789851 20.59243439 8.49217681 27.40195032
773 1 1 0.00243867619125 19.12154622 11.03982986 27.40195032
774 1 1 0.0165869128427 20.59243439 13.58748290 27.40195032
775 1 1 -0.0191398913644 19.12154622 16.13513595 27.40195032
776 1 1 -0.0559504196761 20.59243439 18.68278899 27.40195032
777 1 1 0.0708527540151 22.06332256 0.84921768 27.40195032
778 1 1 -0.0120649549276 23.53421073 3.39687073 27.40195032
779 1 1 -0.0227006525209 22.06332256 5.94452377 27.40195032
780 1 1 -0.0223777169918 23.53421073 8.49217681 27.40195032
781 1 1 0.0247407587282 22.06332256 11.03982986 27.40195032
782 1 1 0.0593430888593 23.53421073 13.58748290 27.40195032
783 1 1 -0.00446159197161 22.06332256 16.13513595 27.40195032
784 1 1 -0.0303360979946 23.53421073 18.68278899 27.40195032
785 1 1 -0.00504674901261 25.00509890 0.84921768 27.40195032
786 1 1 -0.0556923078468 26.47598708 3.39687073 27.40195032
787 1 1 -0.0686188998286 25.00509890 5.94452377 27.40195032
788 1 1 -0.0303217314243 26.47598708 8.49217681 27.40195032
789 1 1 0.0472571309714 25.00509890 11.03982986 27.40195032
790 1 1 0.0846064039778 26.47598708 13.58748290 27.40195032
791 1 1 0.0369571277553 25.00509890 16.13513595 27.40195032
792 1 1 -0.00374582254379 26.47598708 18.68278899 27.40195032
793 1 1 -0.00504674878287 27.94687525 0.84921768 27.40195032
794 1 1 -0.0120649546224 29.41776342 3.39687073 27.40195032
795 1 1 -0.0686188997145 27.94687525 5.94452377 27.40195032
796 1 1 -0.0223777169612 29.41776342 8.49217681 27.40195032
797 1 1 0.047257130906 27.94687525 11.03982986 27.40195032
798 1 1 0.0593430886713 29.41776342 13.58748290 27.40195032
799 1 1 0.0369571276423 27.94687525 16.13513595 27.40195032
800 1 1 -0.0303360981305 29.41776342 18.68278899 27.40195032
801 1 1 0.0708527543668 30.88865159 0.84921768 27.40195032
802 1 1 0.0491919591126 32.35953976 3.39687073 27.40195032
803 1 1 -0.0227006523325 30.88865159 5.94452377 27.40195032
804 1 1 -0.0126152789677 32.35953976 8.49217681 27.40195032
805 1 1 0.0247407586005 30.88865159 11.03982986 27.40195032
806 1 1 0.0165869126835 32.35953976 13.58748290 27.40195032
807 1 1 -0.00446159214809 30.88865159 16.13513595 27.40195032
808 1 1 -0.0559504196787 32.35953976 18.68278899 27.40195032
809 1 1 0.0946795261042 33.83042793 0.84921768 27.40195032
810 1 1 0.0315704962516 17.65065805 3.39687073 27.40195032
811 1 1 0.00134283481863 33.83042793 5.94452377 27.40195032
812 1 1 -0.01496606235 17.65065805 8.49217681 27.40195032
813 1 1 0.00243867614135 33.83042793 11.03982986 27.40195032
814 1 1 0.00451316989456 17.65065805 13.58748290 27.40195032
815 1 1 -0.0191398913622 33.83042793 16.13513595 27.40195032
816 1 1 -0.0150717424305 17.65065805 18.68278899 27.40195032
817 1 1 -0.00124078139838 20.59243439 1.69843536 29.80390065
818 1 1 9.17166410333e-05 22.06332256 4.24608841 29.80390065
819 1 1 0.000689065345004 20.59243439 6.79374145 29.80390065
820 1 1 0.000821271315037 22.06332256 9.34139450 29.80390065
821 1 1 0.00042381238475 20.59243439 11.88904754 29.80390065
822 1 1 -0.00023709023172 22.06332256 14.43670058 29.80390065
823 1 1 -0.000213876770689 20.59243439 16.98435363 29.80390065
824 1 1 -0.000612241619535 22.06332256 19.53200667 29.80390065
825 1 1 -0.000572226353405 23.53421073 1.69843536 29.80390065
826 1 1 0.000682599042716 25.00509890 4.24608841 29.80390065
827 1 1 0.00108033988055 23.53421073 6.79374145 29.80390065
828 1 1 0.000813879065654 25.00509890 9.34139450 29.80390065
829 1 1 4.13880192067e-05 23.53421073 11.88904754 29.80390065
830 1 1 -0.000789758691497 25.00509890 14.43670058 29.80390065
831 1 1 -0.00077399733238 23.53421073 16.98435363 29.80390065
832 1 1 -0.00126162932058 25.00509890 19.53200667 29.80390065
833 1 1 -0.000165624248189 26.47598708 1.69843536 29.80390065
834 1 1 0.000682599057436 27.94687525 4.24608841 29.80390065
835 1 1 0.00129397354171 26.47598708 6.79374145 29.80390065
836 1 1 0.000813879077789 27.94687525 9.34139450 29.80390065
837 1 1 -0.000174320534022 26.47598708 11.88904754 29.80390065
838 1 1 -0.000789758702903 27.94687525 14.43670058 29.80390065
839 1 1 -0.00116582940543 26.47598708 16.98435363 29.80390065
840 1 1 -0.00126162932815 27.94687525 19.53200667 29.80390065
841 1 1 -0.000572226336619 29.41776342 1.69843536 29.80390065
842 1 1 9.17166642006e-05 30.88865159 4.24608841 29.80390065
843 1 1 0.00108033991068 29.41776342 6.79374145 29.80390065
844 1 1 0.000821271343049 30.88865159 9.34139450 29.80390065
845 1 1 4.13880222977e-05 29.41776342 11.88904754 29.80390065
846 1 1 -0.000237090245216 30.88865159 14.43670058 29.80390065
847 1 1 -0.000773997354994 29.41776342 16.98435363 29.80390065
848 1 1 -0.000612241632289 30.88865159 19.53200667 29.80390065
849 1 1 -0.0012407813934 32.35953976 1.69843536 29.80390065
850 1 1 -0.000364746418271 33.83042793 4.24608841 29.80390065
851 1 1 0.00068906536894 32.35953976 6.79374145 29.80390065
852 1 1 0.000832956002871 33.83042793 9.34139450 29.80390065
853 1 1 0.000423812400534 32.35953976 11.88904754 29.80390065
854 1 1 0.000154407172104 33.83042793 14.43670058 29.80390065
855 1 1 -0.000213876785614 32.35953976 16.98435363 29.80390065
856 1 1 -0.000389608938273 33.83042793 19.53200667 29.80390065
857 1 1 -0.00128718225891 17.65065805 1.69843536 29.80390065
858 1 1 -0.000364746414291 19.12154622 4.24608841 29.80390065
859 1 1 0.000519603034451 17.65065805 6.79374145 29.80390065
860 1 1 0.000832955979158 19.12154622 9.34139450 29.80390065
861 1 1 0.000621919098204 17.65065805 11.88904754 29.80390065
862 1 1 0.000154407158609 19.12154622 14.43670058 29.80390065
863 1 1 -0.000252498635404 17.65065805 16.98435363 29.80390065
864 1 1 -0.000389608932507 19.12154622 19.53200667 29.80390065
865 1 1 -0.0438955257077 22.06332256 2.54765304 32.20585097
866 1 1 0.0417902762209 23.53421073 5.09530609 32.20585097
867 1 1 0.0255409140982 22.06332256 7.64295913 32.20585097
868 1 1 -0.0180950341116 23.53421073 10.19061218 32.20585097
869 1 1 -0.0387927496332 22.06332256 12.73826522 32.20585097
870 1 1 -0.0364134260205 23.53421073 15.28591827 32.20585097
871 1 1 0.0385410127195 22.06332256 17.83357131 32.20585097
872 1 1 -0.0347345491576 23.53421073 0.00000000 32.20585097
873 1 1 0.028258810066 25.00509890 2.54765304 32.20585097
874 1 1 0.0770623225053 26.47598708 5.09530609 32.20585097
875 1 1 0.0497517302048 25.00509890 7.64295913 32.20585097
876 1 1 -0.0248862376127 26.47598708 10.19061218 32.20585097
877 1 1 -0.0765322132875 25.00509890 12.73826522 32.20585097
878 1 1 -0.0640838939496 26.47598708 15.28591827 32.20585097
879 1 1 -0.000140001730682 25.00509890 17.83357131 32.20585097
880 1 1 0.0155215847888 26.47598708 0.00000000 32.20585097
881 1 1 0.02825880988 27.94687525 2.54765304 32.20585097
882 1 1 0.0417902760373 29.41776342 5.09530609 32.20585097
883 1 1 0.0497517301831 27.94687525 7.64295913 32.20585097
884 1 1 -0.0180950340125 29.41776342 10.19061218 32.20585097
885 1 1 -0.0765322131948 27.94687525 12.73826522 32.20585097
886 1 1 -0.0364134258694 29.41776342 15.28591827 32.20585097
887 1 1 -0.000140001655077 27.94687525 17.83357131 32.20585097
888 1 1 -0.0347345494971 29.41776342 0.00000000 32.20585097
889 1 1 -0.043895526001 30.88865159 2.54765304 32.20585097
890 1 1 -0.0099151440935 32.35953976 5.09530609 32.20585097
891 1 1 0.0255409140708 30.88865159 7.64295913 32.20585097
892 1 1 -0.0028767011992 32.35953976 10.19061218 32.20585097
893 1 1 -0.0387927494442 30.88865159 12.73826522 32.20585097
894 1 1 0.00430296191265 32.35953976 15.28591827 32.20585097
895 1 1 0.0385410128044 30.88865159 17.83357131 32.20585097
896 1 1 -0.101566810791 32.35953976 0.00000000 32.20585097
897 1 1 -0.0706966868768 33.83042793 2.54765304 32.20585097
898 1 1 -0.00447848625357 17.65065805 5.09530609 32.20585097
899 1 1 0.0133096387073 33.83042793 7.64295913 32.20585097
900 1 1 0.00718369703389 17.65065805 10.19061218 32.20585097
901 1 1 -0.00759950843931 33.83042793 12.73826522 32.20585097
902 1 1 0.00195854311163 17.65065805 15.28591827 32.20585097
903 1 1 0.0383212854436 33.83042793 17.83357131 32.20585097
904 1 1 -0.0673343033619 17.65065805 0.00000000 32.20585097
905 1 1 -0.0706966869008 19.12154622 2.54765304 32.20585097
906 1 1 -0.0099151439755 20.59243439 5.09530609 32.20585097
907 1 1 0.013309638705 19.12154622 7.64295913 32.20585097
908 1 1 -0.00287670130946 20.59243439 10.19061218 32.20585097
909 1 1 -0.00759950854916 19.12154622 12.73826522 32.20585097
910 1 1 0.00430296179758 20.59243439 15.28591827 32.20585097
911 1 1 0.0383212855367 19.12154622 17.83357131 32.20585097
912 1 1 -0.101566810614 20.59243439 0.00000000 32.20585097
913 1 1 0.020584281548 23.53421073 3.39687073 34.60780130
914 1 1 0.0992403303928 25.00509890 5.94452377 34.60780130
915 1 1 0.0355860186907 23.53421073 8.49217681 34.60780130
916 1 1 -0.0595753093744 25.00509890 11.03982986 34.60780130
917 1 1 -0.0736464768999 23.53421073 13.58748290 34.60780130
918 1 1 -0.0374820136616 25.00509890 16.13513595 34.60780130
919 1 1 0.0630546444583 23.53421073 18.68278899 34.60780130
920 1 1 0.0106882290753 25.00509890 0.84921768 34.60780130
921 1 1 0.0810221732377 26.47598708 3.39687073 34.60780130
922 1 1 0.0992403302661 27.94687525 5.94452377 34.60780130
923 1 1 0.0466660903991 26.47598708 8.49217681 34.60780130
924 1 1 -0.0595753092764 27.94687525 11.03982986 34.60780130
925 1 1 -0.108438482513 26.47598708 13.58748290 34.60780130
926 1 1 -0.0374820135356 27.94687525 16.13513595 34.60780130
927 1 1 0.0275577372567 26.47598708 18.68278899 34.60780130
928 1 1 0.0106882287773 27.94687525 0.84921768 34.60780130
929 1 1 0.0205842811625 29.41776342 3.39687073 34.60780130
930 1 1 0.0355139550872 30.88865159 5.94452377 34.60780130
931 1 1 0.0355860186955 29.41776342 8.49217681 34.60780130
932 1 1 -0.028615074309 30.88865159 11.03982986 34.60780130
933 1 1 -0.0736464766645 29.41776342 13.58748290 34.60780130
934 1 1 0.0188213521378 30.88865159 16.13513595 34.60780130
935 1 1 0.0630546446041 29.41776342 18.68278899 34.60780130
936 1 1 -0.0943834192002 30.88865159 0.84921768 34.60780130
937 1 1 -0.0643326405043 32.35953976 3.39687073 34.60780130
938 1 1 0.00198691504428 33.83042793 5.94452377 34.60780130
939 1 1 0.0218053327864 32.35953976 8.49217681 34.60780130
940 1 1 0.00173184417708 33.83042793 11.03982986 34.60780130
941 1 1 -0.0151985084596 32.35953976 13.58748290 34.60780130
942 1 1 0.0370104720511 33.83042793 16.13513595 34.60780130
943 1 1 0.0950125648402 32.35953976 18.68278899 34.60780130
944 1 1 -0.127374451539 33.83042793 0.84921768 34.60780130
945 1 1 -0.0400079290305 17.65065805 3.39687073 34.60780130
946 1 1 0.00198691507556 19.12154622 5.94452377 34.60780130
947 1 1 0.0247137804794 17.65065805 8.49217681 34.60780130
948 1 1 0.00173184406756 19.12154622 11.03982986 34.60780130
949 1 1 0.000246664509733 17.65065805 13.58748290 34.60780130
950 1 1 0.0370104720579 19.12154622 16.13513595 34.60780130
951 1 1 0.0339508265586 17.65065805 18.68278899 34.60780130
952 1 1 -0.12737445161 19.12154622 0.84921768 34.60780130
953 1 1 -0.0643326402766 20.59243439 3.39687073 34.60780130
954 1 1 0.035513955296 22.06332256 5.94452377 34.60780130
955 1 1 0.0218053327628 20.59243439 8.49217681 34.60780130
956 1 1 -0.028615074511 22.06332256 11.03982986 34.60780130
957 1 1 -0.0151985086789 20.59243439 13.58748290 34.60780130
958 1 1 0.0188213519433 22.06332256 16.13513595 34.60780130
959 1 1 0.0950125648783 20.59243439 18.68278899 34.60780130
960 1 1 -0.0943834187391 22.06332256 0.84921768 34.60780130
961 1 1 -0.0309531175523 17.65065805 20.38122435 25.00000000
962 1 1 -0.0625040806253 19.12154622 22.92887739 25.00000000
963 1 1 -0.038367349502 17.65065805 25.47653044 25.00000000
964 1 1 -0.0737821003083 19.12154622 28.02418348 25.00000000
965 1 1 -0.103829897688 17.65065805 30.57183653 25.00000000
966 1 1 -0.0734552129096 19.12154622 33.11948957 25.00000000
967 1 1 -0.0379019265556 17.65065805 35.66714262 25.00000000
968 1 1 -0.0621829265593 19.12154622 38.21479566 25.00000000
969 1 1 -0.102753650716 20.59243439 20.38122435 25.00000000
970 1 1 -0.0474818255965 22.06332256 22.92887739 25.00000000
971 1 1 -0.0360515970103 20.59243439 25.47653044 25.00000000
972 1 1 0.00588575347391 22.06332256 28.02418348 25.00000000
973 1 1 -0.0521593259442 20.59243439 30.57183653 25.00000000
974 1 1 0.00615260516852 22.06332256 33.11948957 25.00000000
975 1 1 -0.0356448653672 20.59243439 35.66714262 25.00000000
976 1 1 -0.0472939933414 22.06332256 38.21479566 25.00000000
977 1 1 -0.0681183965774 23.53421073 20.38122435 25.00000000
978 1 1 0.0279734642126 25.00509890 22.92887739 25.00000000
979 1 1 0.0554662692113 23.53421073 25.47653044 25.00000000
980 1 1 0.063703522432 25.00509890 28.02418348 25.00000000
981 1 1 0.0142649324845 23.53421073 30.57183653 25.00000000
982 1 1 0.0638758662868 25.00509890 33.11948957 25.00000000
983 1 1 0.0557230986058 23.53421073 35.66714262 25.00000000
984 1 1 0.0280183135575 25.00509890 38.21479566 25.00000000
985 1 1 -0.0291689644489 26.47598708 20.38122435 25.00000000
986 1 1 0.0279734640719 27.94687525 22.92887739 25.00000000
987 1 1 0.106525295943 26.47598708 25.47653044 25.00000000
988 1 1 0.0637035223156 27.94687525 28.02418348 25.00000000
989 1 1 0.0185878421762 26.47598708 30.57183653 25.00000000
990 1 1 0.0638758661683 27.94687525 33.11948957 25.00000000
991 1 1 0.106689653158 26.47598708 35.66714262 25.00000000
992 1 1 0.0280183134142 27.94687525 38.21479566 25.00000000
993 1 1 -0.0681183967371 29.41776342 20.38122435 25.00000000
994 1 1 -0.047481825778 30.88865159 22.92887739 25.00000000
995 1 1 0.055466268908 29.41776342 25.47653044 25.00000000
996 1 1 0.00588575302534 30.88865159 28.02418348 25.00000000
997 1 1 0.0142649322497 29.41776342 30.57183653 25.00000000
998 1 1 0.0061526047126 30.88865159 33.11948957 25.00000000
999 1 1 0.0557230982957 29.41776342 35.66714262 25.00000000
1000 1 1 -0.0472939935271 30.88865159 38.21479566 25.00000000
1001 1 1 -0.102753650654 32.35953976 20.38122435 25.00000000
1002 1 1 -0.0625040804418 33.83042793 22.92887739 25.00000000
1003 1 1 -0.0360515972795 32.35953976 25.47653044 25.00000000
1004 1 1 -0.0737821006186 33.83042793 28.02418348 25.00000000
1005 1 1 -0.0521593264892 32.35953976 30.57183653 25.00000000
1006 1 1 -0.0734552132339 33.83042793 33.11948957 25.00000000
1007 1 1 -0.0356448656501 32.35953976 35.66714262 25.00000000
1008 1 1 -0.0621829263782 33.83042793 38.21479566 25.00000000
1009 1 1 -0.0395647605631 19.12154622 21.23044203 27.40195032
1010 1 1 -0.0106445564337 20.59243439 23.77809508 27.40195032
1011 1 1 -0.00741596652347 19.12154622 26.32574812 27.40195032
1012 1 1 0.0305182169509 20.59243439 28.87340116 27.40195032
1013 1 1 -0.0177291052766 19.12154622 31.42105421 27.40195032
1014 1 1 0.0276402014856 20.59243439 33.96870725 27.40195032
1015 1 1 -0.0114382626198 19.12154622 36.51636030 27.40195032
1016 1 1 -0.039584872502 20.59243439 39.06401334 27.40195032
1017 1 1 -0.040098573922 22.06332256 21.23044203 27.40195032
1018 1 1 0.0572011550021 23.53421073 23.77809508 27.40195032
1019 1 1 0.071657586861 22.06332256 26.32574812 27.40195032
1020 1 1 0.146731405797 23.53421073 28.87340116 27.40195032
1021 1 1 0.0910617930995 22.06332256 31.42105421 27.40195032
1022 1 1 0.136162132152 23.53421073 33.96870725 27.40195032
1023 1 1 0.0391445804056 22.06332256 36.51636030 27.40195032
1024 1 1 0.00471380842085 23.53421073 39.06401334 27.40195032
1025 1 1 0.00749097605538 25.00509890 21.23044203 27.40195032
1026 1 1 0.102422380888 26.47598708 23.77809508 27.40195032
1027 1 1 0.163424451453 25.00509890 26.32574812 27.40195032
1028 1 1 0.199822829705 26.47598708 28.87340116 27.40195032
1029 1 1 0.186556740875 25.00509890 31.42105421 27.40195032
1030 1 1 0.190632372405 26.47598708 33.96870725 27.40195032
1031 1 1 0.118957747728 25.00509890 36.51636030 27.40195032
1032 1 1 0.041279342671 26.47598708 39.06401334 27.40195032
1033 1 1 0.00749097596315 27.94687525 21.23044203 27.40195032
1034 1 1 0.0572011547899 29.41776342 23.77809508 27.40195032
1035 1 1 0.163424451267 27.94687525 26.32574812 27.40195032
1036 1 1 0.146731405388 29.41776342 28.87340116 27.40195032
1037 1 1 0.186556740656 27.94687525 31.42105421 27.40195032
1038 1 1 0.136162131778 29.41776342 33.96870725 27.40195032
1039 1 1 0.118957747574 27.94687525 36.51636030 27.40195032
1040 1 1 0.00471380826714 29.41776342 39.06401334 27.40195032
1041 1 1 -0.0400985740145 30.88865159 21.23044203 27.40195032
1042 1 1 -0.0106445565432 32.35953976 23.77809508 27.40195032
1043 1 1 0.0716575864674 30.88865159 26.32574812 27.40195032
1044 1 1 0.0305182164283 32.35953976 28.87340116 27.40195032
1045 1 1 0.0910617925411 30.88865159 31.42105421 27.40195032
1046 1 1 0.0276402010577 32.35953976 33.96870725 27.40195032
1047 1 1 0.039144580125 30.88865159 36.51636030 27.40195032
1048 1 1 -0.0395848725079 32.35953976 39.06401334 27.40195032
1049 1 1 -0.0395647603969 33.83042793 21.23044203 27.40195032
1050 1 1 0.00117449890563 17.65065805 23.77809508 27.40195032
1051 1 1 -0.00741596669426 33.83042793 26.32574812 27.40195032
1052 1 1 -0.0359039010168 17.65065805 28.87340116 27.40195032
1053 1 1 -0.0177291056817 33.83042793 31.42105421 27.40195032
1054 1 1 -0.0199938113328 17.65065805 33.96870725 27.40195032
1055 1 1 -0.0114382626553 33.83042793 36.51636030 27.40195032
1056 1 1 -0.00309705137733 17.65065805 39.06401334 27.40195032
1057 1 1 -0.000489909734767 20.59243439 22.07965971 29.80390065
1058 1 1 -0.000679730837793 22.06332256 24.62731276 29.80390065
1059 1 1 2.65425218883e-05 20.59243439 27.17496580 29.80390065
1060 1 1 -0.000230484238444 22.06332256 29.72261885 29.80390065
1061 1 1 -3.88494664605e-05 20.59243439 32.27027189 29.80390065
1062 1 1 -0.000834370297984 22.06332256 34.81792493 29.80390065
1063 1 1 -0.000723254715219 20.59243439 37.36557798 29.80390065
1064 1 1 -0.000718880564207 22.06332256 39.91323102 29.80390065
1065 1 1 -0.00117380244169 23.53421073 22.07965971 29.80390065
1066 1 1 -0.00157076923577 25.00509890 24.62731276 29.80390065
1067 1 1 -0.000910931784246 23.53421073 27.17496580 29.80390065
1068 1 1 -0.001329224292 25.00509890 29.72261885 29.80390065
1069 1 1 -0.000989323109003 23.53421073 32.27027189 29.80390065
1070 1 1 -0.00166185651251 25.00509890 34.81792493 29.80390065
1071 1 1 -0.00134559994096 23.53421073 37.36557798 29.80390065
1072 1 1 -0.00136684331571 25.00509890 39.91323102 29.80390065
1073 1 1 -0.00166675969981 26.47598708 22.07965971 29.80390065
1074 1 1 -0.00157076922936 27.94687525 24.62731276 29.80390065
1075 1 1 -0.00155482496924 26.47598708 27.17496580 29.80390065
1076 1 1 -0.00132922429498 27.94687525 29.72261885 29.80390065
1077 1 1 -0.00166077933738 26.47598708 32.27027189 29.80390065
1078 1 1 -0.00166185651374 27.94687525 34.81792493 29.80390065
1079 1 1 -0.00181935105616 26.47598708 37.36557798 29.80390065
1080 1 1 -0.00136684331648 27.94687525 39.91323102 29.80390065
1081 1 1 -0.00117380243817 29.41776342 22.07965971 29.80390065
1082 1 1 -0.000679730826678 30.88865159 24.62731276 29.80390065
1083 1 1 -0.00091093177922 29.41776342 27.17496580 29.80390065
1084 1 1 -0.000230484250274 30.88865159 29.72261885 29.80390065
1085 1 1 -0.000989323120489 29.41776342 32.27027189 29.80390065
1086 1 1 -0.000834370308546 30.88865159 34.81792493 29.80390065
1087 1 1 -0.00134559993874 29.41776342 37.36557798 29.80390065
1088 1 1 -0.000718880564597 30.88865159 39.91323102 29.80390065
1089 1 1 -0.000489909733752 32.35953976 22.07965971 29.80390065
1090 1 1 -0.000243434844976 33.83042793 24.62731276 29.80390065
1091 1 1 2.65425214263e-05 32.35953976 27.17496580 29.80390065
1092 1 1 0.0004418577344 33.83042793 29.72261885 29.80390065
1093 1 1 -3.88494889947e-05 32.35953976 32.27027189 29.80390065
1094 1 1 -0.000339010548024 33.83042793 34.81792493 29.80390065
1095 1 1 -0.000723254719394 32.35953976 37.36557798 29.80390065
1096 1 1 -0.000593199615035 33.83042793 39.91323102 29.80390065
1097 1 1 -0.000663975855093 17.65065805 22.07965971 29.80390065
1098 1 1 -0.00024343484957 19.12154622 24.62731276 29.80390065
1099 1 1 0.000187739490308 17.65065805 27.17496580 29.80390065
1100 1 1 0.00044185774588 19.12154622 29.72261885 29.80390065
1101 1 1 0.000194549027139 17.65065805 32.27027189 29.80390065
1102 1 1 -0.000339010524344 19.12154622 34.81792493 29.80390065
1103 1 1 -0.000825687042561 17.65065805 37.36557798 29.80390065
1104 1 1 -0.000593199620038 19.12154622 39.91323102 29.80390065
1105 1 1 0.00400191572207 22.06332256 22.92887739 32.20585097
1106 1 1 -0.105536051441 23.53421073 25.47653044 32.20585097
1107 1 1 -0.0855585494065 22.06332256 28.02418348 32.20585097
1108 1 1 -0.145882185831 23.53421073 30.57183653 32.20585097
1109 1 1 -0.0856384084616 22.06332256 33.11948957 32.20585097
1110 1 1 -0.105607289347 23.53421073 35.66714262 32.20585097
1111 1 1 0.00397268064593 22.06332256 38.21479566 32.20585097
1112 1 1 0.0291935110056 23.53421073 20.38122435 32.20585097
1113 1 1 -0.0595371132016 25.00509890 22.92887739 32.20585097
1114 1 1 -0.157926386113 26.47598708 25.47653044 32.20585097
1115 1 1 -0.181472108782 25.00509890 28.02418348 32.20585097
1116 1 1 -0.197499900167 26.47598708 30.57183653 32.20585097
1117 1 1 -0.181539922138 25.00509890 33.11948957 32.20585097
1118 1 1 -0.157984040483 26.47598708 35.66714262 32.20585097
1119 1 1 -0.0595481881474 25.00509890 38.21479566 32.20585097
1120 1 1 -0.000949812976841 26.47598708 20.38122435 32.20585097
1121 1 1 -0.0595371130808 27.94687525 22.92887739 32.20585097
1122 1 1 -0.105536051133 29.41776342 25.47653044 32.20585097
1123 1 1 -0.181472108575 27.94687525 28.02418348 32.20585097
1124 1 1 -0.145882185435 29.41776342 30.57183653 32.20585097
1125 1 1 -0.181539921939 27.94687525 33.11948957 32.20585097
1126 1 1 -0.105607289051 29.41776342 35.66714262 32.20585097
1127 1 1 -0.0595481880267 27.94687525 38.21479566 32.20585097
1128 1 1 0.0291935111163 29.41776342 20.38122435 32.20585097
1129 1 1 0.00400191588767 30.88865159 22.92887739 32.20585097
1130 1 1 -0.0136041773072 32.35953976 25.47653044 32.20585097
1131 1 1 -0.085558548923 30.88865159 28.02418348 32.20585097
1132 1 1 -0.0283638490084 32.35953976 30.57183653 32.20585097
1133 1 1 -0.0856384079946 30.88865159 33.11948957 32.20585097
1134 1 1 -0.0136900970519 32.35953976 35.66714262 32.20585097
1135 1 1 0.00397268081051 30.88865159 38.21479566 32.20585097
1136 1 1 0.0585996006306 32.35953976 20.38122435 32.20585097
1137 1 1 0.0248996068987 33.83042793 22.92887739 32.20585097
1138 1 1 0.00512711443953 17.65065805 25.47653044 32.20585097
1139 1 1 0.0131827324307 33.83042793 28.02418348 32.20585097
1140 1 1 0.0437089281788 17.65065805 30.57183653 32.20585097
1141 1 1 0.013102256836 33.83042793 33.11948957 32.20585097
1142 1 1 0.00505258711619 17.65065805 35.66714262 32.20585097
1143 1 1 0.0248490739901 33.83042793 38.21479566 32.20585097
1144 1 1 0.0111445223158 17.65065805 20.38122435 32.20585097
1145 1 1 0.0248996070067 19.12154622 22.92887739 32.20585097
1146 1 1 -0.0136041775716 20.59243439 25.47653044 32.20585097
1147 1 1 0.0131827321308 19.12154622 28.02418348 32.20585097
1148 1 1 -0.0283638495276 20.59243439 30.57183653 32.20585097
1149 1 1 0.0131022565596 19.12154622 33.11948957 32.20585097
1150 1 1 -0.0136900972998 20.59243439 35.66714262 32.20585097
1151 1 1 0.0248490741007 19.12154622 38.21479566 32.20585097
1152 1 1 0.0585996006751 20.59243439 20.38122435 32.20585097
1153 1 1 -0.0177262746177 23.53421073 23.77809508 34.60780130
1154 1 1 -0.0934423975234 25.00509890 26.32574812 34.60780130
1155 1 1 -0.0307485680188 23.53421073 28.87340116 34.60780130
1156 1 1 -0.0273443068261 25.00509890 31.42105421 34.60780130
1157 1 1 -0.0554202908031 23.53421073 33.96870725 34.60780130
1158 1 1 -0.0784282075853 25.00509890 36.51636030 34.60780130
1159 1 1 0.0351263224799 23.53421073 39.06401334 34.60780130
1160 1 1 0.0269385206043 25.00509890 21.23044203 34.60780130
1161 1 1 -0.0698475521282 26.47598708 23.77809508 34.60780130
1162 1 1 -0.0934423973635 27.94687525 26.32574812 34.60780130
1163 1 1 -0.0458186052198 26.47598708 28.87340116 34.60780130
1164 1 1 -0.0273443067744 27.94687525 31.42105421 34.60780130
1165 1 1 -0.0916929514023 26.47598708 33.96870725 34.60780130
1166 1 1 -0.0784282074203 27.94687525 36.51636030 34.60780130
1167 1 1 -0.0105345506899 26.47598708 39.06401334 34.60780130
1168 1 1 0.0269385207181 27.94687525 21.23044203 34.60780130
1169 1 1 -0.0177262743645 29.41776342 23.77809508 34.60780130
1170 1 1 -0.0128036504658 30.88865159 26.32574812 34.60780130
1171 1 1 -0.0307485677789 29.41776342 28.87340116 34.60780130
1172 1 1 0.00705481752596 30.88865159 31.42105421 34.60780130
1173 1 1 -0.0554202905158 29.41776342 33.96870725 34.60780130
1174 1 1 0.00755496641771 30.88865159 36.51636030 34.60780130
1175 1 1 0.0351263226683 29.41776342 39.06401334 34.60780130
1176 1 1 0.0864689325408 30.88865159 21.23044203 34.60780130
1177 1 1 0.0563430266365 32.35953976 23.77809508 34.60780130
1178 1 1 0.056754853502 33.83042793 26.32574812 34.60780130
1179 1 1 0.0440415480909 32.35953976 28.87340116 34.60780130
1180 1 1 0.0857129026137 33.83042793 31.42105421 34.60780130
1181 1 1 0.0340775171892 32.35953976 33.96870725 34.60780130
1182 1 1 0.0532643433245 33.83042793 36.51636030 34.60780130
1183 1 1 0.085816200143 32.35953976 39.06401334 34.60780130
1184 1 1 0.0771486738282 33.83042793 21.23044203 34.60780130
1185 1 1 0.0239190696715 17.65065805 23.77809508 34.60780130
1186 1 1 0.0567548533554 19.12154622 26.32574812 34.60780130
1187 1 1 0.0905016791354 17.65065805 28.87340116 34.60780130
1188 1 1 0.0857129022559 19.12154622 31.42105421 34.60780130
1189 1 1 0.0645865861546 17.65065805 33.96870725 34.60780130
1190 1 1 0.0532643433679 19.12154622 36.51636030 34.60780130
1191 1 1 0.0250375019601 17.65065805 39.06401334 34.60780130
1192 1 1 0.0771486740921 19.12154622 21.23044203 34.60780130
1193 1 1 0.0563430265349 20.59243439 23.77809508 34.60780130
1194 1 1 -0.0128036508604 22.06332256 26.32574812 34.60780130
1195 1 1 0.0440415476127 20.59243439 28.87340116 34.60780130
1196 1 1 0.00705481711928 22.06332256 31.42105421 34.60780130
1197 1 1 0.0340775168033 20.59243439 33.96870725 34.60780130
1198 1 1 0.00755496612328 22.06332256 36.51636030 34.60780130
1199 1 1 0.0858162001651 20.59243439 39.06401334 34.60780130
1200 1 1 0.0864689324449 22.06332256 21.23044203 34.60780130
1201 1 1 -0.0308888925544 17.65065805 40.76244870 25.00000000
1202 1 1 -0.0656957841558 19.12154622 43.31010174 25.00000000
1203 1 1 -0.0113141895053 17.65065805 45.85775479 25.00000000
1204 1 1 0.00323868536015 19.12154622 48.40540783 25.00000000
1205 1 1 -0.0157018563856 17.65065805 50.95306088 25.00000000
1206 1 1 -0.0230665320707 19.12154622 53.50071392 25.00000000
1207 1 1 0.00281285923751 17.65065805 56.04836697 25.00000000
1208 1 1 0.095442242947 19.12154622 58.59602001 25.00000000
1209 1 1 -0.10276673418 20.59243439 40.76244870 25.00000000
1210 1 1 -0.0688982402709 22.06332256 43.31010174 25.00000000
1211 1 1 -0.0157862129553 20.59243439 45.85775479 25.00000000
1212 1 1 0.0460538928216 22.06332256 48.40540783 25.00000000
1213 1 1 -0.00205934655317 20.59243439 50.95306088 25.00000000
1214 1 1 -0.0402340162536 22.06332256 53.50071392 25.00000000
1215 1 1 0.0102765653101 20.59243439 56.04836697 25.00000000
1216 1 1 0.0579677897367 22.06332256 58.59602001 25.00000000
1217 1 1 -0.0682508438603 23.53421073 40.76244870 25.00000000
1218 1 1 -0.0174354582284 25.00509890 43.31010174 25.00000000
1219 1 1 0.0396009619034 23.53421073 45.85775479 25.00000000
1220 1 1 0.098087219457 25.00509890 48.40540783 25.00000000
1221 1 1 0.0188500818821 23.53421073 50.95306088 25.00000000
1222 1 1 -0.0740470637192 25.00509890 53.50071392 25.00000000
1223 1 1 -0.0618119191917 23.53421073 56.04836697 25.00000000
1224 1 1 -0.0426676507973 25.00509890 58.59602001 25.00000000
1225 1 1 -0.0293573748471 26.47598708 40.76244870 25.00000000
1226 1 1 -0.0174354583563 27.94687525 43.31010174 25.00000000
1227 1 1 0.0774872004312 26.47598708 45.85775479 25.00000000
1228 1 1 0.0980872193126 27.94687525 48.40540783 25.00000000
1229 1 1 0.0281699746446 26.47598708 50.95306088 25.00000000
1230 1 1 -0.0740470636589 27.94687525 53.50071392 25.00000000
1231 1 1 -0.11098494992 26.47598708 56.04836697 25.00000000
1232 1 1 -0.0426676505106 27.94687525 58.59602001 25.00000000
1233 1 1 -0.0682508440172 29.41776342 40.76244870 25.00000000
1234 1 1 -0.0688982404207 30.88865159 43.31010174 25.00000000
1235 1 1 0.039600961647 29.41776342 45.85775479 25.00000000
1236 1 1 0.0460538925425 30.88865159 48.40540783 25.00000000
1237 1 1 0.0188500817663 29.41776342 50.95306088 25.00000000
1238 1 1 -0.0402340161575 30.88865159 53.50071392 25.00000000
1239 1 1 -0.0618119188806 29.41776342 56.04836697 25.00000000
1240 1 1 0.0579677901873 30.88865159 58.59602001 25.00000000
1241 1 1 -0.102766734108 32.35953976 40.76244870 25.00000000
1242 1 1 -0.0656957840125 33.83042793 43.31010174 25.00000000
1243 1 1 -0.0157862131352 32.35953976 45.85775479 25.00000000
1244 1 1 0.00323868522953 33.83042793 48.40540783 25.00000000
1245 1 1 -0.00205934667603 32.35953976 50.95306088 25.00000000
1246 1 1 -0.0230665320539 33.83042793 53.50071392 25.00000000
1247 1 1 0.0102765655119 32.35953976 56.04836697 25.00000000
1248 1 1 0.0954422429063 33.83042793 58.59602001 25.00000000
1249 1 1 -0.0459622150696 19.12154622 41.61166638 27.40195032
1250 1 1 -0.0336826081986 20.59243439 44.15931943 27.40195032
1251 1 1 -0.000186246163669 19.12154622 46.70697247 27.40195032
1252 1 1 0.0180114824592 20.59243439 49.25462551 27.40195032
1253 1 1 -0.00898454422115 19.12154622 51.80227856 27.40195032
1254 1 1 -0.0129857918663 20.59243439 54.34993160 27.40195032
1255 1 1 0.0329670118019 19.12154622 56.89758465 27.40195032
1256 1 1 0.0856511339783 20.59243439 59.44523769 27.40195032
1257 1 1 -0.0534714896292 22.06332256 41.61166638 27.40195032
1258 1 1 -0.00187055950564 23.53421073 44.15931943 27.40195032
1259 1 1 0.0274842853584 22.06332256 46.70697247 27.40195032
1260 1 1 0.0522733390801 23.53421073 49.25462551 27.40195032
1261 1 1 -0.00344303539938 22.06332256 51.80227856 27.40195032
1262 1 1 -0.046612486346 23.53421073 54.34993160 27.40195032
1263 1 1 0.00483084102013 22.06332256 56.89758465 27.40195032
1264 1 1 0.0202233773461 23.53421073 59.44523769 27.40195032
1265 1 1 -0.0145141877932 25.00509890 41.61166638 27.40195032
1266 1 1 0.0247927495791 26.47598708 44.15931943 27.40195032
1267 1 1 0.0704359410802 25.00509890 46.70697247 27.40195032
1268 1 1 0.0706845838716 26.47598708 49.25462551 27.40195032
1269 1 1 -0.00298105285302 25.00509890 51.80227856 27.40195032
1270 1 1 -0.0693326301599 26.47598708 54.34993160 27.40195032
1271 1 1 -0.0572538682719 25.00509890 56.89758465 27.40195032
1272 1 1 -0.0282473609244 26.47598708 59.44523769 27.40195032
1273 1 1 -0.0145141878808 27.94687525 41.61166638 27.40195032
1274 1 1 -0.00187055967158 29.41776342 44.15931943 27.40195032
1275 1 1 0.0704359409591 27.94687525 46.70697247 27.40195032
1276 1 1 0.0522733389202 29.41776342 49.25462551 27.40195032
1277 1 1 -0.00298105286913 27.94687525 51.80227856 27.40195032
1278 1 1 -0.046612486211 29.41776342 54.34993160 27.40195032
1279 1 1 -0.0572538681004 27.94687525 56.89758465 27.40195032
1280 1 1 0.0202233777052 29.41776342 59.44523769 27.40195032
1281 1 1 -0.0534714897095 30.88865159 41.61166638 27.40195032
1282 1 1 -0.0336826082616 32.35953976 44.15931943 27.40195032
1283 1 1 0.0274842851413 30.88865159 46.70697247 27.40195032
1284 1 1 0.0180114823032 32.35953976 49.25462551 27.40195032
1285 1 1 -0.00344303544024 30.88865159 51.80227856 27.40195032
1286 1 1 -0.0129857917713 32.35953976 54.34993160 27.40195032
1287 1 1 0.00483084129969 30.88865159 56.89758465 27.40195032
1288 1 1 0.0856511341752 32.35953976 59.44523769 27.40195032
1289 1 1 -0.045962214901 33.83042793 41.61166638 27.40195032
1290 1 1 -0.0107951388011 17.65065805 44.15931943 27.40195032
1291 1 1 -0.000186246233282 33.83042793 46.70697247 27.40195032
1292 1 1 0.00253686369666 17.65065805 49.25462551 27.40195032
1293 1 1 -0.00898454425068 33.83042793 51.80227856 27.40195032
1294 1 1 -0.0127181367438 17.65065805 54.34993160 27.40195032
1295 1 1 0.0329670118166 33.83042793 56.89758465 27.40195032
1296 1 1 0.0562972330456 17.65065805 59.44523769 27.40195032
1297 1 1 -0.000163807643616 20.59243439 42.46088406 29.80390065
1298 1 1 -7.778331726e-05 22.06332256 45.00853711 29.80390065
1299 1 1 0.000394363778098 20.59243439 47.55619015 29.80390065
1300 1 1 0.000475561506519 22.06332256 50.10384320 29.80390065
1301 1 1 0.00067703173618 20.59243439 52.65149624 29.80390065
1302 1 1 0.000321682909544 22.06332256 55.19914928 29.80390065
1303 1 1 -0.000840077401085 20.59243439 57.74680233 29.80390065
1304 1 1 -0.0012432299614 22.06332256 60.29445537 29.80390065
1305 1 1 -0.000655134237804 23.53421073 42.46088406 29.80390065
1306 1 1 -0.000671763632999 25.00509890 45.00853711 29.80390065
1307 1 1 -0.000142063463226 23.53421073 47.55619015 29.80390065
1308 1 1 0.000176463503942 25.00509890 50.10384320 29.80390065
1309 1 1 0.000705391388695 23.53421073 52.65149624 29.80390065
1310 1 1 0.000670512314211 25.00509890 55.19914928 29.80390065
1311 1 1 -0.000278233939941 23.53421073 57.74680233 29.80390065
1312 1 1 -0.000607569662619 25.00509890 60.29445537 29.80390065
1313 1 1 -0.00107920048616 26.47598708 42.46088406 29.80390065
1314 1 1 -0.000671763649705 27.94687525 45.00853711 29.80390065
1315 1 1 -0.000460630258089 26.47598708 47.55619015 29.80390065
1316 1 1 0.000176463501478 27.94687525 50.10384320 29.80390065
1317 1 1 0.000726353996901 26.47598708 52.65149624 29.80390065
1318 1 1 0.000670512333497 27.94687525 55.19914928 29.80390065
1319 1 1 5.55765643324e-05 26.47598708 57.74680233 29.80390065
1320 1 1 -0.000607569650487 27.94687525 60.29445537 29.80390065
1321 1 1 -0.000655134252691 29.41776342 42.46088406 29.80390065
1322 1 1 -7.77833434701e-05 30.88865159 45.00853711 29.80390065
1323 1 1 -0.000142063487278 29.41776342 47.55619015 29.80390065
1324 1 1 0.000475561501787 30.88865159 50.10384320 29.80390065
1325 1 1 0.000705391407549 29.41776342 52.65149624 29.80390065
1326 1 1 0.000321682945593 30.88865159 55.19914928 29.80390065
1327 1 1 -0.00027823391093 29.41776342 57.74680233 29.80390065
1328 1 1 -0.00124322994189 30.88865159 60.29445537 29.80390065
1329 1 1 -0.00016380764577 32.35953976 42.46088406 29.80390065
1330 1 1 0.000222474674878 33.83042793 45.00853711 29.80390065
1331 1 1 0.00039436376176 32.35953976 47.55619015 29.80390065
1332 1 1 0.000773293831515 33.83042793 50.10384320 29.80390065
1333 1 1 0.000677031752648 32.35953976 52.65149624 29.80390065
1334 1 1 4.48820685669e-05 33.83042793 55.19914928 29.80390065
1335 1 1 -0.000840077372754 32.35953976 57.74680233 29.80390065
1336 1 1 -0.00163465103691 33.83042793 60.29445537 29.80390065
1337 1 1 -0.000398619285837 17.65065805 42.46088406 29.80390065
1338 1 1 0.000222474670592 19.12154622 45.00853711 29.80390065
1339 1 1 0.000630701180583 17.65065805 47.55619015 29.80390065
1340 1 1 0.000773293839493 19.12154622 50.10384320 29.80390065
1341 1 1 0.000707216621167 17.65065805 52.65149624 29.80390065
1342 1 1 4.48820532738e-05 19.12154622 55.19914928 29.80390065
1343 1 1 -0.000922395909399 17.65065805 57.74680233 29.80390065
1344 1 1 -0.00163465104172 19.12154622 60.29445537 29.80390065
1345 1 1 0.038605185968 22.06332256 43.31010174 32.20585097
1346 1 1 -0.036321227856 23.53421073 45.85775479 32.20585097
1347 1 1 -0.0387333196231 22.06332256 48.40540783 32.20585097
1348 1 1 -0.0181225112911 23.53421073 50.95306088 32.20585097
1349 1 1 0.0254571111291 22.06332256 53.50071392 32.20585097
1350 1 1 0.0416720981896 23.53421073 56.04836697 32.20585097
1351 1 1 -0.0439421933383 22.06332256 58.59602001 32.20585097
1352 1 1 0.029224019034 23.53421073 40.76244870 32.20585097
1353 1 1 -8.33628145811e-05 25.00509890 43.31010174 32.20585097
1354 1 1 -0.0639898699728 26.47598708 45.85775479 32.20585097
1355 1 1 -0.0764661367526 25.00509890 48.40540783 32.20585097
1356 1 1 -0.0249235650238 26.47598708 50.95306088 32.20585097
1357 1 1 0.0496228753648 25.00509890 53.50071392 32.20585097
1358 1 1 0.076908935599 26.47598708 56.04836697 32.20585097
1359 1 1 0.0281732275549 25.00509890 58.59602001 32.20585097
1360 1 1 -0.000934339470531 26.47598708 40.76244870 32.20585097
1361 1 1 -8.33627387974e-05 27.94687525 43.31010174 32.20585097
1362 1 1 -0.0363212277102 29.41776342 45.85775479 32.20585097
1363 1 1 -0.0764661366658 27.94687525 48.40540783 32.20585097
1364 1 1 -0.0181225112038 29.41776342 50.95306088 32.20585097
1365 1 1 0.0496228753431 27.94687525 53.50071392 32.20585097
1366 1 1 0.0416720980137 29.41776342 56.04836697 32.20585097
1367 1 1 0.0281732273725 27.94687525 58.59602001 32.20585097
1368 1 1 0.0292240191474 29.41776342 40.76244870 32.20585097
1369 1 1 0.0386051860564 30.88865159 43.31010174 32.20585097
1370 1 1 0.00438139819321 32.35953976 45.85775479 32.20585097
1371 1 1 -0.0387333194513 30.88865159 48.40540783 32.20585097
1372 1 1 -0.00288595985464 32.35953976 50.95306088 32.20585097
1373 1 1 0.0254571111001 30.88865159 53.50071392 32.20585097
1374 1 1 -0.00997668345496 32.35953976 56.04836697 32.20585097
1375 1 1 -0.0439421936209 30.88865159 58.59602001 32.20585097
1376 1 1 0.0586077682226 32.35953976 40.76244870 32.20585097
1377 1 1 0.0383606782669 33.83042793 43.31010174 32.20585097
1378 1 1 0.00203393113963 17.65065805 45.85775479 32.20585097
1379 1 1 -0.00754112472709 33.83042793 48.40540783 32.20585097
1380 1 1 0.00719112952848 17.65065805 50.95306088 32.20585097
1381 1 1 0.0132600639775 33.83042793 53.50071392 32.20585097
1382 1 1 -0.00452997649191 17.65065805 56.04836697 32.20585097
1383 1 1 -0.0707191412837 33.83042793 58.59602001 32.20585097
1384 1 1 0.0111239363087 17.65065805 40.76244870 32.20585097
1385 1 1 0.0383606783465 19.12154622 43.31010174 32.20585097
1386 1 1 0.00438139808366 20.59243439 45.85775479 32.20585097
1387 1 1 -0.00754112481053 19.12154622 48.40540783 32.20585097
1388 1 1 -0.00288595994404 20.59243439 50.95306088 32.20585097
1389 1 1 0.0132600639796 19.12154622 53.50071392 32.20585097
1390 1 1 -0.00997668335345 20.59243439 56.04836697 32.20585097
1391 1 1 -0.0707191413271 19.12154622 58.59602001 32.20585097
1392 1 1 0.0586077682563 20.59243439 40.76244870 32.20585097
1393 1 1 0.0178624802291 23.53421073 44.15931943 34.60780130
1394 1 1 -0.0875741264792 25.00509890 46.70697247 34.60780130
1395 1 1 -0.0658960243357 23.53421073 49.25462551 34.60780130
1396 1 1 0.00916646656151 25.00509890 51.80227856 34.60780130
1397 1 1 0.0690332608206 23.53421073 54.34993160 34.60780130
1398 1 1 0.0835194812026 25.00509890 56.89758465 34.60780130
1399 1 1 -0.0241174195445 23.53421073 59.44523769 34.60780130
1400 1 1 0.0459587848449 25.00509890 41.61166638 34.60780130
1401 1 1 -0.0183817164687 26.47598708 44.15931943 34.60780130
1402 1 1 -0.0875741263432 27.94687525 46.70697247 34.60780130
1403 1 1 -0.0912451905411 26.47598708 49.25462551 34.60780130
1404 1 1 0.00916646659673 27.94687525 51.80227856 34.60780130
1405 1 1 0.100550847939 26.47598708 54.34993160 34.60780130
1406 1 1 0.0835194810012 27.94687525 56.89758465 34.60780130
1407 1 1 0.0429706189207 26.47598708 59.44523769 34.60780130
1408 1 1 0.0459587849487 27.94687525 41.61166638 34.60780130
1409 1 1 0.0178624804107 29.41776342 44.15931943 34.60780130
1410 1 1 -0.0287312484987 30.88865159 46.70697247 34.60780130
1411 1 1 -0.0658960241378 29.41776342 49.25462551 34.60780130
1412 1 1 0.00960198000226 30.88865159 51.80227856 34.60780130
1413 1 1 0.0690332606893 29.41776342 54.34993160 34.60780130
1414 1 1 -0.00249571440657 30.88865159 56.89758465 34.60780130
1415 1 1 -0.0241174199987 29.41776342 59.44523769 34.60780130
1416 1 1 0.0965851451896 30.88865159 41.61166638 34.60780130
1417 1 1 0.0598281301689 32.35953976 44.15931943 34.60780130
1418 1 1 0.00818717703019 33.83042793 46.70697247 34.60780130
1419 1 1 -0.0189961030347 32.35953976 49.25462551 34.60780130
1420 1 1 0.0168381341411 33.83042793 51.80227856 34.60780130
1421 1 1 0.0222439423259 32.35953976 54.34993160 34.60780130
1422 1 1 -0.0416269194114 33.83042793 56.89758465 34.60780130
1423 1 1 -0.114712170429 32.35953976 59.44523769 34.60780130
1424 1 1 0.0809576675744 33.83042793 41.61166638 34.60780130
1425 1 1 0.0251476183629 17.65065805 44.15931943 34.60780130
1426 1 1 0.00818717694092 19.12154622 46.70697247 34.60780130
1427 1 1 0.00159824860839 17.65065805 49.25462551 34.60780130
1428 1 1 0.0168381341061 19.12154622 51.80227856 34.60780130
1429 1 1 0.0215337291148 17.65065805 54.34993160 34.60780130
1430 1 1 -0.0416269194199 19.12154622 56.89758465 34.60780130
1431 1 1 -0.074094823996 17.65065805 59.44523769 34.60780130
1432 1 1 0.0809576677966 19.12154622 41.61166638 34.60780130
1433 1 1 0.0598281301047 20.59243439 44.15931943 34.60780130
1434 1 1 -0.0287312487465 22.06332256 46.70697247 34.60780130
1435 1 1 -0.0189961032286 20.59243439 49.25462551 34.60780130
1436 1 1 0.0096019799228 22.06332256 51.80227856 34.60780130
1437 1 1 0.0222439424088 20.59243439 54.34993160 34.60780130
1438 1 1 -0.00249571408573 22.06332256 56.89758465 34.60780130
1439 1 1 -0.114712170188 20.59243439 59.44523769 34.60780130
1440 1 1 0.0965851451034 22.06332256 41.61166638 34.60780130
1441 1 1 0.0908807660158 35.30131610 0.00000000 25.00000000
1442 1 1 0.00442212338303 36.77220427 2.54765304 25.00000000
1443 1 1 0.00252745595819 35.30131610 5.09530609 25.00000000
1444 1 1 -0.0320465704471 36.77220427 7.64295913 25.00000000
1445 1 1 -0.0156286501802 35.30131610 10.19061218 25.00000000
1446 1 1 0.00438078267007 36.77220427 12.73826522 25.00000000
1447 1 1 -0.0109860169082 35.30131610 15.28591827 25.00000000
1448 1 1 0.0117714560442 36.77220427 17.83357131 25.00000000
1449 1 1 -0.0470887554154 38.24309244 0.00000000 25.00000000
1450 1 1 -0.0796556645793 39.71398061 2.54765304 25.00000000
1451 1 1 -0.0480422720857 38.24309244 5.09530609 25.00000000
1452 1 1 -0.0167241551079 39.71398061 7.64295913 25.00000000
1453 1 1 -0.00452202959291 38.24309244 10.19061218 25.00000000
1454 1 1 0.0163459438796 39.71398061 12.73826522 25.00000000
1455 1 1 0.0211563274244 38.24309244 15.28591827 25.00000000
1456 1 1 0.0436440125474 39.71398061 17.83357131 25.00000000
1457 1 1 -0.0909027355733 41.18486878 0.00000000 25.00000000
1458 1 1 -0.0395101432996 42.65575695 2.54765304 25.00000000
1459 1 1 -0.0338766949692 41.18486878 5.09530609 25.00000000
1460 1 1 0.0366176313505 42.65575695 7.64295913 25.00000000
1461 1 1 0.0254406929208 41.18486878 10.19061218 25.00000000
1462 1 1 0.00366327219877 42.65575695 12.73826522 25.00000000
1463 1 1 -0.00151141796494 41.18486878 15.28591827 25.00000000
1464 1 1 -0.032358788336 42.65575695 17.83357131 25.00000000
1465 1 1 -0.00526485344544 44.12664513 0.00000000 25.00000000
1466 1 1 0.0456065295091 45.59753330 2.54765304 25.00000000
1467 1 1 0.0373808211058 44.12664513 5.09530609 25.00000000
1468 1 1 0.0596554491605 45.59753330 7.64295913 25.00000000
1469 1 1 0.0425575895981 44.12664513 10.19061218 25.00000000
1470 1 1 -0.013741980433 45.59753330 12.73826522 25.00000000
1471 1 1 -0.060535531368 44.12664513 15.28591827 25.00000000
1472 1 1 -0.0989742800138 45.59753330 17.83357131 25.00000000
1473 1 1 0.0615807659377 47.06842147 0.00000000 25.00000000
1474 1 1 0.0415506150704 48.53930964 2.54765304 25.00000000
1475 1 1 0.0495046082935 47.06842147 5.09530609 25.00000000
1476 1 1 0.00079454403223 48.53930964 7.64295913 25.00000000
1477 1 1 0.0214787069 47.06842147 10.19061218 25.00000000
1478 1 1 -0.000484230143284 48.53930964 12.73826522 25.00000000
1479 1 1 -0.0531925291573 47.06842147 15.28591827 25.00000000
1480 1 1 -0.0345070360877 48.53930964 17.83357131 25.00000000
1481 1 1 0.027111538126 50.01019781 0.00000000 25.00000000
1482 1 1 -0.0235967939844 51.48108598 2.54765304 25.00000000
1483 1 1 -0.0283658315006 50.01019781 5.09530609 25.00000000
1484 1 1 -0.0794844600137 51.48108598 7.64295913 25.00000000
1485 1 1 -0.0227015622775 50.01019781 10.19061218 25.00000000
1486 1 1 0.0281701284238 51.48108598 12.73826522 25.00000000
1487 1 1 0.0364023965466 50.01019781 15.28591827 25.00000000
1488 1 1 0.0828542302701 51.48108598 17.83357131 25.00000000
1489 1 1 0.0150505535615 36.77220427 0.84921768 27.40195032
1490 1 1 -0.0341558185976 38.24309244 3.39687073 27.40195032
1491 1 1 -0.0191195642506 36.77220427 5.94452377 27.40195032
1492 1 1 -0.0118648529499 38.24309244 8.49217681 27.40195032
1493 1 1 0.00010247348909 36.77220427 11.03982986 27.40195032
1494 1 1 0.0156247407657 38.24309244 13.58748290 27.40195032
1495 1 1 0.0114219970308 36.77220427 16.13513595 27.40195032
1496 1 1 0.0436225213188 38.24309244 18.68278899 27.40195032
1497 1 1 -0.061510057978 39.71398061 0.84921768 27.40195032
1498 1 1 -0.0430973074301 41.18486878 3.39687073 27.40195032
1499 1 1 -0.0265240100608 39.71398061 5.94452377 27.40195032
1500 1 1 0.0159066376535 41.18486878 8.49217681 27.40195032
1501 1 1 0.0140413167303 39.71398061 11.03982986 27.40195032
1502 1 1 0.00881454316501 41.18486878 13.58748290 27.40195032
1503 1 1 0.0218481597539 39.71398061 16.13513595 27.40195032
1504 1 1 0.0254810803957 41.18486878 18.68278899 27.40195032
1505 1 1 -0.0378703684327 42.65575695 0.84921768 27.40195032
1506 1 1 0.0139499816235 44.12664513 3.39687073 27.40195032
1507 1 1 0.0135535572372 42.65575695 5.94452377 27.40195032
1508 1 1 0.0437654353621 44.12664513 8.49217681 27.40195032
1509 1 1 0.0246414338904 42.65575695 11.03982986 27.40195032
1510 1 1 -0.0156950904049 44.12664513 13.58748290 27.40195032
1511 1 1 -0.0232309198217 42.65575695 16.13513595 27.40195032
1512 1 1 -0.0483758344158 44.12664513 18.68278899 27.40195032
1513 1 1 0.0306668801751 45.59753330 0.84921768 27.40195032
1514 1 1 0.0414144541827 47.06842147 3.39687073 27.40195032
1515 1 1 0.045108294118 45.59753330 5.94452377 27.40195032
1516 1 1 0.0277636971028 47.06842147 8.49217681 27.40195032
1517 1 1 0.0193431995473 45.59753330 11.03982986 27.40195032
1518 1 1 -0.0151282375828 47.06842147 13.58748290 27.40195032
1519 1 1 -0.0569520999557 45.59753330 16.13513595 27.40195032
1520 1 1 -0.0600138063677 47.06842147 18.68278899 27.40195032
1521 1 1 0.0390901941962 48.53930964 0.84921768 27.40195032
1522 1 1 -0.000694952614719 50.01019781 3.39687073 27.40195032
1523 1 1 0.0094631194543 48.53930964 5.94452377 27.40195032
1524 1 1 -0.0260615896981 50.01019781 8.49217681 27.40195032
1525 1 1 0.00323495844942 48.53930964 11.03982986 27.40195032
1526 1 1 0.0204248532969 50.01019781 13.58748290 27.40195032
1527 1 1 -0.0119473342499 48.53930964 16.13513595 27.40195032
1528 1 1 0.0184651253559 50.01019781 18.68278899 27.40195032
1529 1 1 -0.000614107069751 51.48108598 0.84921768 27.40195032
1530 1 1 0.0315704960419 35.30131610 3.39687073 27.40195032
1531 1 1 -0.0517896201971 51.48108598 5.94452377 27.40195032
1532 1 1 -0.0149660623342 35.30131610 8.49217681 27.40195032
1533 1 1 -0.00975401732204 51.48108598 11.03982986 27.40195032
1534 1 1 0.0045131699141 35.30131610 13.58748290 27.40195032
1535 1 1 0.0617533994959 51.48108598 16.13513595 27.40195032
1536 1 1 -0.0150717422265 35.30131610 18.68278899 27.40195032
1537 1 1 -0.000737087675618 38.24309244 1.69843536 29.80390065
1538 1 1 -3.35479428058e-05 39.71398061 4.24608841 29.80390065
1539 1 1 0.000532288192085 38.24309244 6.79374145 29.80390065
1540 1 1 0.000759229729759 39.71398061 9.34139450 29.80390065
1541 1 1 0.000665624814394 38.24309244 11.88904754 29.80390065
1542 1 1 0.000230345311657 39.71398061 14.43670058 29.80390065
1543 1 1 -0.000479500262215 38.24309244 16.98435363 29.80390065
1544 1 1 -0.000953641579344 39.71398061 19.53200667 29.80390065
1545 1 1 -0.000426185585847 41.18486878 1.69843536 29.80390065
1546 1 1 -0.000213751244498 42.65575695 4.24608841 29.80390065
1547 1 1 0.000341680050968 41.18486878 6.79374145 29.80390065
1548 1 1 0.000488715631991 42.65575695 9.34139450 29.80390065
1549 1 1 0.000665240293587 41.18486878 11.88904754 29.80390065
1550 1 1 0.000451499130458 42.65575695 14.43670058 29.80390065
1551 1 1 -0.000217452253772 41.18486878 16.98435363 29.80390065
1552 1 1 -0.000428724847238 42.65575695 19.53200667 29.80390065
1553 1 1 -0.000654717191035 44.12664513 1.69843536 29.80390065
1554 1 1 -0.00043225332701 45.59753330 4.24608841 29.80390065
1555 1 1 2.34253238535e-06 44.12664513 6.79374145 29.80390065
1556 1 1 0.000302572816786 45.59753330 9.34139450 29.80390065
1557 1 1 0.000550264457345 44.12664513 11.88904754 29.80390065
1558 1 1 0.000359064910786 45.59753330 14.43670058 29.80390065
1559 1 1 0.00014718886251 44.12664513 16.98435363 29.80390065
1560 1 1 -0.000148988872801 45.59753330 19.53200667 29.80390065
1561 1 1 -0.000752025627248 47.06842147 1.69843536 29.80390065
1562 1 1 -4.60814678865e-05 48.53930964 4.24608841 29.80390065
1563 1 1 0.000122697995166 47.06842147 6.79374145 29.80390065
1564 1 1 0.000543710269685 48.53930964 9.34139450 29.80390065
1565 1 1 0.000342144233054 47.06842147 11.88904754 29.80390065
1566 1 1 -0.000194689218814 48.53930964 14.43670058 29.80390065
1567 1 1 -0.000156509309015 47.06842147 16.98435363 29.80390065
1568 1 1 -0.000652901671686 48.53930964 19.53200667 29.80390065
1569 1 1 -0.000323289487523 50.01019781 1.69843536 29.80390065
1570 1 1 0.000609627181628 51.48108598 4.24608841 29.80390065
1571 1 1 0.000815899503014 50.01019781 6.79374145 29.80390065
1572 1 1 0.000964257218947 51.48108598 9.34139450 29.80390065
1573 1 1 0.000207787071326 50.01019781 11.88904754 29.80390065
1574 1 1 -0.000729608946459 51.48108598 14.43670058 29.80390065
1575 1 1 -0.000979566407848 50.01019781 16.98435363 29.80390065
1576 1 1 -0.0013301524055 51.48108598 19.53200667 29.80390065
1577 1 1 -0.00128718227555 35.30131610 1.69843536 29.80390065
1578 1 1 -0.000257158697705 36.77220427 4.24608841 29.80390065
1579 1 1 0.000519603024646 35.30131610 6.79374145 29.80390065
1580 1 1 0.000847211702834 36.77220427 9.34139450 29.80390065
1581 1 1 0.000621919127754 35.30131610 11.88904754 29.80390065
1582 1 1 0.000160740372959 36.77220427 14.43670058 29.80390065
1583 1 1 -0.000252498622198 35.30131610 16.98435363 29.80390065
1584 1 1 -0.000838569935543 36.77220427 19.53200667 29.80390065
1585 1 1 0.0552878239989 39.71398061 2.54765304 32.20585097
1586 1 1 0.022042009716 41.18486878 5.09530609 32.20585097
1587 1 1 0.00915736170448 39.71398061 7.64295913 32.20585097
1588 1 1 -0.0214421185707 41.18486878 10.19061218 32.20585097
1589 1 1 -0.0156294665248 39.71398061 12.73826522 32.20585097
1590 1 1 -0.00293697155009 41.18486878 15.28591827 32.20585097
1591 1 1 -0.036761373517 39.71398061 17.83357131 32.20585097
1592 1 1 0.0636630745536 41.18486878 0.00000000 32.20585097
1593 1 1 0.0265560000442 42.65575695 2.54765304 32.20585097
1594 1 1 -0.0291744681621 44.12664513 5.09530609 32.20585097
1595 1 1 -0.0290346520865 42.65575695 7.64295913 32.20585097
1596 1 1 -0.0335370061336 44.12664513 10.19061218 32.20585097
1597 1 1 -0.00590413845951 42.65575695 12.73826522 32.20585097
1598 1 1 0.0402575208252 44.12664513 15.28591827 32.20585097
1599 1 1 0.0192020805225 42.65575695 17.83357131 32.20585097
1600 1 1 0.00217144143786 44.12664513 0.00000000 32.20585097
1601 1 1 -0.034689997254 45.59753330 2.54765304 32.20585097
1602 1 1 -0.0379220322281 47.06842147 5.09530609 32.20585097
1603 1 1 -0.0455902743483 45.59753330 7.64295913 32.20585097
1604 1 1 -0.0182757173025 47.06842147 10.19061218 32.20585097
1605 1 1 0.00693026486247 45.59753330 12.73826522 32.20585097
1606 1 1 0.0354191165229 47.06842147 15.28591827 32.20585097
1607 1 1 0.0679157401547 45.59753330 17.83357131 32.20585097
1608 1 1 -0.0460275373138 47.06842147 0.00000000 32.20585097
1609 1 1 -0.0318910340029 48.53930964 2.54765304 32.20585097
1610 1 1 0.0181613176339 50.01019781 5.09530609 32.20585097
1611 1 1 -0.00314602211082 48.53930964 7.64295913 32.20585097
1612 1 1 0.0137130985245 50.01019781 10.19061218 32.20585097
1613 1 1 -0.00237769662613 48.53930964 12.73826522 32.20585097
1614 1 1 -0.0286624809469 50.01019781 15.28591827 32.20585097
1615 1 1 0.0221080547355 48.53930964 17.83357131 32.20585097
1616 1 1 -0.0214281170146 50.01019781 0.00000000 32.20585097
1617 1 1 0.0149049635776 51.48108598 2.54765304 32.20585097
1618 1 1 -0.0044784861824 35.30131610 5.09530609 32.20585097
1619 1 1 0.0548009383943 51.48108598 7.64295913 32.20585097
1620 1 1 0.00718369704188 35.30131610 10.19061218 32.20585097
1621 1 1 -0.0227595050873 51.48108598 12.73826522 32.20585097
1622 1 1 0.001958543096 35.30131610 15.28591827 32.20585097
1623 1 1 -0.0618739249723 51.48108598 17.83357131 32.20585097
1624 1 1 -0.0673343030764 35.30131610 0.00000000 32.20585097
1625 1 1 -0.00533040952698 36.77220427 2.54765304 32.20585097
1626 1 1 0.0320583131794 38.24309244 5.09530609 32.20585097
1627 1 1 0.0198687764715 36.77220427 7.64295913 32.20585097
1628 1 1 -0.000348970098369 38.24309244 10.19061218 32.20585097
1629 1 1 -0.00771607859063 36.77220427 12.73826522 32.20585097
1630 1 1 -0.020234393659 38.24309244 15.28591827 32.20585097
1631 1 1 -0.0154509545672 36.77220427 17.83357131 32.20585097
1632 1 1 0.0319690059539 38.24309244 0.00000000 32.20585097
1633 1 1 0.063350457187 41.18486878 3.39687073 34.60780130
1634 1 1 -0.0156246140227 42.65575695 5.94452377 34.60780130
1635 1 1 -0.0186347165535 41.18486878 8.49217681 34.60780130
1636 1 1 -0.0304697106793 42.65575695 11.03982986 34.60780130
1637 1 1 -0.00747238674172 41.18486878 13.58748290 34.60780130
1638 1 1 0.0376623024188 42.65575695 16.13513595 34.60780130
1639 1 1 -0.0280598034741 41.18486878 18.68278899 34.60780130
1640 1 1 0.0563063763213 42.65575695 0.84921768 34.60780130
1641 1 1 -0.0160353245001 44.12664513 3.39687073 34.60780130
1642 1 1 -0.0597643782648 45.59753330 5.94452377 34.60780130
1643 1 1 -0.0577066663786 44.12664513 8.49217681 34.60780130
1644 1 1 -0.0236071343859 45.59753330 11.03982986 34.60780130
1645 1 1 0.0259809966868 44.12664513 13.58748290 34.60780130
1646 1 1 0.0837195373655 45.59753330 16.13513595 34.60780130
1647 1 1 0.0730278468085 44.12664513 18.68278899 34.60780130
1648 1 1 -0.0390683292858 45.59753330 0.84921768 34.60780130
1649 1 1 -0.0544699740961 47.06842147 3.39687073 34.60780130
1650 1 1 -0.0104290850559 48.53930964 5.94452377 34.60780130
1651 1 1 -0.0358223204902 47.06842147 8.49217681 34.60780130
1652 1 1 -0.00150088063351 48.53930964 11.03982986 34.60780130
1653 1 1 0.0247008059945 47.06842147 13.58748290 34.60780130
1654 1 1 0.0208620365457 48.53930964 16.13513595 34.60780130
1655 1 1 0.0882925962001 47.06842147 18.68278899 34.60780130
1656 1 1 -0.0511705608783 48.53930964 0.84921768 34.60780130
1657 1 1 0.00378406865152 50.01019781 3.39687073 34.60780130
1658 1 1 0.074683947098 51.48108598 5.94452377 34.60780130
1659 1 1 0.0389306312543 50.01019781 8.49217681 34.60780130
1660 1 1 0.0165913975494 51.48108598 11.03982986 34.60780130
1661 1 1 -0.0247969355708 50.01019781 13.58748290 34.60780130
1662 1 1 -0.0814411160935 51.48108598 16.13513595 34.60780130
1663 1 1 -0.0208403913449 50.01019781 18.68278899 34.60780130
1664 1 1 0.00365839131065 51.48108598 0.84921768 34.60780130
1665 1 1 -0.040007928796 35.30131610 3.39687073 34.60780130
1666 1 1 0.030151132586 36.77220427 5.94452377 34.60780130
1667 1 1 0.0247137804578 35.30131610 8.49217681 34.60780130
1668 1 1 0.00435490339994 36.77220427 11.03982986 34.60780130
1669 1 1 0.000246664529558 35.30131610 13.58748290 34.60780130
1670 1 1 -0.00777064146482 36.77220427 16.13513595 34.60780130
1671 1 1 0.0339508262635 35.30131610 18.68278899 34.60780130
1672 1 1 -0.0170254277192 36.77220427 0.84921768 34.60780130
1673 1 1 0.0510400670598 38.24309244 3.39687073 34.60780130
1674 1 1 0.0402513674872 39.71398061 5.94452377 34.60780130
1675 1 1 0.0201484495143 38.24309244 8.49217681 34.60780130
1676 1 1 -0.0153763449525 39.71398061 11.03982986 34.60780130
1677 1 1 -0.0162678493719 38.24309244 13.58748290 34.60780130
1678 1 1 -0.0239023799892 39.71398061 16.13513595 34.60780130
1679 1 1 -0.0510395851734 38.24309244 18.68278899 34.60780130
1680 1 1 0.0891463302381 39.71398061 0.84921768 34.60780130
1681 1 1 -0.030953117173 35.30131610 20.38122435 25.00000000
1682 1 1 0.035563498124 36.77220427 22.92887739 25.00000000
1683 1 1 -0.038367349311 35.30131610 25.47653044 25.00000000
1684 1 1 -0.057713472477 36.77220427 28.02418348 25.00000000
1685 1 1 -0.103829897801 35.30131610 30.57183653 25.00000000
1686 1 1 -0.0573911839647 36.77220427 33.11948957 25.00000000
1687 1 1 -0.0379019263824 35.30131610 35.66714262 25.00000000
1688 1 1 0.0359086224855 36.77220427 38.21479566 25.00000000
1689 1 1 0.0746971838034 38.24309244 20.38122435 25.00000000
1690 1 1 0.110673516699 39.71398061 22.92887739 25.00000000
1691 1 1 0.0486458874804 38.24309244 25.47653044 25.00000000
1692 1 1 0.0146032660515 39.71398061 28.02418348 25.00000000
1693 1 1 -0.0535765112529 38.24309244 30.57183653 25.00000000
1694 1 1 0.0148896456079 39.71398061 33.11948957 25.00000000
1695 1 1 0.0490790722811 38.24309244 35.66714262 25.00000000
1696 1 1 0.110981807519 39.71398061 38.21479566 25.00000000
1697 1 1 0.061816327868 41.18486878 20.38122435 25.00000000
1698 1 1 0.0475888051733 42.65575695 22.92887739 25.00000000
1699 1 1 0.0784237546707 41.18486878 25.47653044 25.00000000
1700 1 1 0.0178745272858 42.65575695 28.02418348 25.00000000
1701 1 1 0.00136627868409 41.18486878 30.57183653 25.00000000
1702 1 1 0.0181389104391 42.65575695 33.11948957 25.00000000
1703 1 1 0.0788134983099 41.18486878 35.66714262 25.00000000
1704 1 1 0.0478694013202 42.65575695 38.21479566 25.00000000
1705 1 1 -0.0508135146597 44.12664513 20.38122435 25.00000000
1706 1 1 -0.0563356242996 45.59753330 22.92887739 25.00000000
1707 1 1 0.0038126714221 44.12664513 25.47653044 25.00000000
1708 1 1 -0.0311652104243 45.59753330 28.02418348 25.00000000
1709 1 1 -0.0170559001743 44.12664513 30.57183653 25.00000000
1710 1 1 -0.030919391711 45.59753330 33.11948957 25.00000000
1711 1 1 0.00418013352701 44.12664513 35.66714262 25.00000000
1712 1 1 -0.0560868693429 45.59753330 38.21479566 25.00000000
1713 1 1 -0.0869723655405 47.06842147 20.38122435 25.00000000
1714 1 1 -0.0475998950401 48.53930964 22.92887739 25.00000000
1715 1 1 -0.0490185492678 47.06842147 25.47653044 25.00000000
1716 1 1 -0.0242443873227 48.53930964 28.02418348 25.00000000
1717 1 1 -0.0358327238357 47.06842147 30.57183653 25.00000000
1718 1 1 -0.024049264129 48.53930964 33.11948957 25.00000000
1719 1 1 -0.0487044331251 47.06842147 35.66714262 25.00000000
1720 1 1 -0.0474349357552 48.53930964 38.21479566 25.00000000
1721 1 1 0.00859371882997 50.01019781 20.38122435 25.00000000
1722 1 1 0.0342457671935 51.48108598 22.92887739 25.00000000
1723 1 1 -0.00452994571943 50.01019781 25.47653044 25.00000000
1724 1 1 0.0306559782804 51.48108598 28.02418348 25.00000000
1725 1 1 0.00836641214188 50.01019781 30.57183653 25.00000000
1726 1 1 0.0307939018804 51.48108598 33.11948957 25.00000000
1727 1 1 -0.00431586076516 50.01019781 35.66714262 25.00000000
1728 1 1 0.0343188368673 51.48108598 38.21479566 25.00000000
1729 1 1 0.0343694036464 36.77220427 21.23044203 27.40195032
1730 1 1 0.0685555543316 38.24309244 23.77809508 27.40195032
1731 1 1 0.00628948480381 36.77220427 26.32574812 27.40195032
1732 1 1 -0.0106978147528 38.24309244 28.87340116 27.40195032
1733 1 1 -0.0382750212433 36.77220427 31.42105421 27.40195032
1734 1 1 0.0168530680705 38.24309244 33.96870725 27.40195032
1735 1 1 0.0285541189126 36.77220427 36.51636030 27.40195032
1736 1 1 0.0720112339204 38.24309244 39.06401334 27.40195032
1737 1 1 0.0784768836946 39.71398061 21.23044203 27.40195032
1738 1 1 0.0756217534809 41.18486878 23.77809508 27.40195032
1739 1 1 0.0524855104897 39.71398061 26.32574812 27.40195032
1740 1 1 0.0198562721217 41.18486878 28.87340116 27.40195032
1741 1 1 0.00233011650311 39.71398061 31.42105421 27.40195032
1742 1 1 0.0415568225277 41.18486878 33.96870725 27.40195032
1743 1 1 0.0776759152489 39.71398061 36.51636030 27.40195032
1744 1 1 0.0694837189053 41.18486878 39.06401334 27.40195032
1745 1 1 0.0217249517719 42.65575695 21.23044203 27.40195032
1746 1 1 0.00329417188318 44.12664513 23.77809508 27.40195032
1747 1 1 0.0358010940089 42.65575695 26.32574812 27.40195032
1748 1 1 -0.00210826958433 44.12664513 28.87340116 27.40195032
1749 1 1 0.00926609019135 42.65575695 31.42105421 27.40195032
1750 1 1 0.00466545544918 44.12664513 33.96870725 27.40195032
1751 1 1 0.0443744100396 42.65575695 36.51636030 27.40195032
1752 1 1 -0.0121363586231 44.12664513 39.06401334 27.40195032
1753 1 1 -0.0521178208125 45.59753330 21.23044203 27.40195032
1754 1 1 -0.040329360341 47.06842147 23.77809508 27.40195032
1755 1 1 -0.0172617643226 45.59753330 26.32574812 27.40195032
1756 1 1 -0.0211372723088 47.06842147 28.87340116 27.40195032
1757 1 1 -0.0177013440054 45.59753330 31.42105421 27.40195032
1758 1 1 -0.024242172456 47.06842147 33.96870725 27.40195032
1759 1 1 -0.0234990928995 45.59753330 36.51636030 27.40195032
1760 1 1 -0.0512449058448 47.06842147 39.06401334 27.40195032
1761 1 1 -0.0331481607763 48.53930964 21.23044203 27.40195032
1762 1 1 -0.00151140114878 50.01019781 23.77809508 27.40195032
1763 1 1 -0.0181799338542 48.53930964 26.32574812 27.40195032
1764 1 1 0.00900047531568 50.01019781 28.87340116 27.40195032
1765 1 1 -0.0096519924367 48.53930964 31.42105421 27.40195032
1766 1 1 0.00488448538786 50.01019781 33.96870725 27.40195032
1767 1 1 -0.0250080082153 48.53930964 36.51636030 27.40195032
1768 1 1 0.000989853586837 50.01019781 39.06401334 27.40195032
1769 1 1 0.0376435972676 51.48108598 21.23044203 27.40195032
1770 1 1 0.00117449910996 35.30131610 23.77809508 27.40195032
1771 1 1 0.0230613748623 51.48108598 26.32574812 27.40195032
1772 1 1 -0.0359039011283 35.30131610 28.87340116 27.40195032
1773 1 1 0.0287749189933 51.48108598 31.42105421 27.40195032
1774 1 1 -0.0199938113783 35.30131610 33.96870725 27.40195032
1775 1 1 0.0224504723394 51.48108598 36.51636030 27.40195032
1776 1 1 -0.00309705111011 35.30131610 39.06401334 27.40195032
1777 1 1 -0.0010921072158 38.24309244 22.07965971 29.80390065
1778 1 1 -0.000629064894986 39.71398061 24.62731276 29.80390065
1779 1 1 5.82609945942e-06 38.24309244 27.17496580 29.80390065
1780 1 1 0.000374956096107 39.71398061 29.72261885 29.80390065
1781 1 1 6.45671499861e-05 38.24309244 32.27027189 29.80390065
1782 1 1 -0.000601154813599 39.71398061 34.81792493 29.80390065
1783 1 1 -0.00121407238133 38.24309244 37.36557798 29.80390065
1784 1 1 -0.00126624376904 39.71398061 39.91323102 29.80390065
1785 1 1 -0.000841245194478 41.18486878 22.07965971 29.80390065
1786 1 1 -0.00019677072041 42.65575695 24.62731276 29.80390065
1787 1 1 0.000160593077975 41.18486878 27.17496580 29.80390065
1788 1 1 0.000583519485647 42.65575695 29.72261885 29.80390065
1789 1 1 0.000197898432226 41.18486878 32.27027189 29.80390065
1790 1 1 -0.000230173213579 42.65575695 34.81792493 29.80390065
1791 1 1 -0.00100109411877 41.18486878 37.36557798 29.80390065
1792 1 1 -0.000694480110394 42.65575695 39.91323102 29.80390065
1793 1 1 -0.00027389419339 44.12664513 22.07965971 29.80390065
1794 1 1 0.000126507849644 45.59753330 24.62731276 29.80390065
1795 1 1 0.000457848367139 44.12664513 27.17496580 29.80390065
1796 1 1 0.00071833518721 45.59753330 29.72261885 29.80390065
1797 1 1 0.000463913620377 44.12664513 32.27027189 29.80390065
1798 1 1 0.0001111680305 45.59753330 34.81792493 29.80390065
1799 1 1 -0.000412091085355 44.12664513 37.36557798 29.80390065
1800 1 1 -0.0002536325288 45.59753330 39.91323102 29.80390065
1801 1 1 -0.000229203269277 47.06842147 22.07965971 29.80390065
1802 1 1 2.74942309714e-05 48.53930964 24.62731276 29.80390065
1803 1 1 0.000532439513985 47.06842147 27.17496580 29.80390065
1804 1 1 0.000743336934454 48.53930964 29.72261885 29.80390065
1805 1 1 0.00056925373432 47.06842147 32.27027189 29.80390065
1806 1 1 0.000144869438907 48.53930964 34.81792493 29.80390065
1807 1 1 -0.000213650694518 47.06842147 37.36557798 29.80390065
1808 1 1 -0.000540651822174 48.53930964 39.91323102 29.80390065
1809 1 1 -0.000684692904921 50.01019781 22.07965971 29.80390065
1810 1 1 -0.000180807137422 51.48108598 24.62731276 29.80390065
1811 1 1 0.000489037706386 50.01019781 27.17496580 29.80390065
1812 1 1 0.000794494753524 51.48108598 29.72261885 29.80390065
1813 1 1 0.000604171944627 50.01019781 32.27027189 29.80390065
1814 1 1 7.22331430432e-05 51.48108598 34.81792493 29.80390065
1815 1 1 -0.000456971514791 50.01019781 37.36557798 29.80390065
1816 1 1 -0.00106082076164 51.48108598 39.91323102 29.80390065
1817 1 1 -0.000663975859456 35.30131610 22.07965971 29.80390065
1818 1 1 -0.000551147952697 36.77220427 24.62731276 29.80390065
1819 1 1 0.000187739499106 35.30131610 27.17496580 29.80390065
1820 1 1 0.000411309874531 36.77220427 29.72261885 29.80390065
1821 1 1 0.000194549010164 35.30131610 32.27027189 29.80390065
1822 1 1 -0.00051546751679 36.77220427 34.81792493 29.80390065
1823 1 1 -0.000825687057026 35.30131610 37.36557798 29.80390065
1824 1 1 -0.00111084950623 36.77220427 39.91323102 29.80390065
1825 1 1 -0.0877795664442 39.71398061 22.92887739 32.20585097
1826 1 1 -0.064267382589 41.18486878 25.47653044 32.20585097
1827 1 1 -0.0220750294689 39.71398061 28.02418348 32.20585097
1828 1 1 -0.010307351292 41.18486878 30.57183653 32.20585097
1829 1 1 -0.0221804923737 39.71398061 33.11948957 32.20585097
1830 1 1 -0.06439958933 41.18486878 35.66714262 32.20585097
1831 1 1 -0.0878755138108 39.71398061 38.21479566 32.20585097
1832 1 1 -0.0499637289493 41.18486878 20.38122435 32.20585097
1833 1 1 -0.0397227484142 42.65575695 22.92887739 32.20585097
1834 1 1 -0.00825983658661 44.12664513 25.47653044 32.20585097
1835 1 1 -0.0200476556038 42.65575695 28.02418348 32.20585097
1836 1 1 0.00593638379605 44.12664513 30.57183653 32.20585097
1837 1 1 -0.0201376853716 42.65575695 33.11948957 32.20585097
1838 1 1 -0.00834879605616 44.12664513 35.66714262 32.20585097
1839 1 1 -0.0398088396395 42.65575695 38.21479566 32.20585097
1840 1 1 0.0324302867449 44.12664513 20.38122435 32.20585097
1841 1 1 0.0362145213016 45.59753330 22.92887739 32.20585097
1842 1 1 0.0307208417956 47.06842147 25.47653044 32.20585097
1843 1 1 0.016944229305 45.59753330 28.02418348 32.20585097
1844 1 1 0.0206750722065 47.06842147 30.57183653 32.20585097
1845 1 1 0.0168947236298 45.59753330 33.11948957 32.20585097
1846 1 1 0.0306784233358 47.06842147 35.66714262 32.20585097
1847 1 1 0.0361830993773 45.59753330 38.21479566 32.20585097
1848 1 1 0.0591942866386 47.06842147 20.38122435 32.20585097
1849 1 1 0.0306760056403 48.53930964 22.92887739 32.20585097
1850 1 1 -0.000431756211941 50.01019781 25.47653044 32.20585097
1851 1 1 0.0129415982836 48.53930964 28.02418348 32.20585097
1852 1 1 -0.010117424484 50.01019781 30.57183653 32.20585097
1853 1 1 0.0129049028538 48.53930964 33.11948957 32.20585097
1854 1 1 -0.000487211558227 50.01019781 35.66714262 32.20585097
1855 1 1 0.0306606881426 48.53930964 38.21479566 32.20585097
1856 1 1 -0.00889695720622 50.01019781 20.38122435 32.20585097
1857 1 1 -0.027539360465 51.48108598 22.92887739 32.20585097
1858 1 1 0.00512711434748 35.30131610 25.47653044 32.20585097
1859 1 1 -0.0256918651056 51.48108598 28.02418348 32.20585097
1860 1 1 0.0437089283161 35.30131610 30.57183653 32.20585097
1861 1 1 -0.0257457093672 51.48108598 33.11948957 32.20585097
1862 1 1 0.00505258699779 35.30131610 35.66714262 32.20585097
1863 1 1 -0.0275820178948 51.48108598 38.21479566 32.20585097
1864 1 1 0.0111445220465 35.30131610 20.38122435 32.20585097
1865 1 1 -0.0384622123281 36.77220427 22.92887739 32.20585097
1866 1 1 -0.0480280788037 38.24309244 25.47653044 32.20585097
1867 1 1 0.0207734857489 36.77220427 28.02418348 32.20585097
1868 1 1 0.0222670491783 38.24309244 30.57183653 32.20585097
1869 1 1 0.0206851567146 36.77220427 33.11948957 32.20585097
1870 1 1 -0.0481336794179 38.24309244 35.66714262 32.20585097
1871 1 1 -0.0385211669195 36.77220427 38.21479566 32.20585097
1872 1 1 -0.0615985832793 38.24309244 20.38122435 32.20585097
1873 1 1 -0.0942474154275 41.18486878 23.77809508 34.60780130
1874 1 1 -0.0399164715406 42.65575695 26.32574812 34.60780130
1875 1 1 -0.0147663731662 41.18486878 28.87340116 34.60780130
1876 1 1 -0.00254488312317 42.65575695 31.42105421 34.60780130
1877 1 1 -0.0451658923164 41.18486878 33.96870725 34.60780130
1878 1 1 -0.0521307011747 42.65575695 36.51636030 34.60780130
1879 1 1 -0.0867476368163 41.18486878 39.06401334 34.60780130
1880 1 1 -0.0223754040358 42.65575695 21.23044203 34.60780130
1881 1 1 0.00289522937484 44.12664513 23.77809508 34.60780130
1882 1 1 0.0304282402384 45.59753330 26.32574812 34.60780130
1883 1 1 0.0110766359632 44.12664513 28.87340116 34.60780130
1884 1 1 0.0312001449385 45.59753330 31.42105421 34.60780130
1885 1 1 0.00173653543803 44.12664513 33.96870725 34.60780130
1886 1 1 0.0392296029091 45.59753330 36.51636030 34.60780130
1887 1 1 0.0239823936167 44.12664513 39.06401334 34.60780130
1888 1 1 0.078250146299 45.59753330 21.23044203 34.60780130
1889 1 1 0.0614348851568 47.06842147 23.77809508 34.60780130
1890 1 1 0.0301390701514 48.53930964 26.32574812 34.60780130
1891 1 1 0.0347772468611 47.06842147 28.87340116 34.60780130
1892 1 1 0.0182963891682 48.53930964 31.42105421 34.60780130
1893 1 1 0.0392923101589 47.06842147 33.96870725 34.60780130
1894 1 1 0.0398834060576 48.53930964 36.51636030 34.60780130
1895 1 1 0.0766616668774 47.06842147 39.06401334 34.60780130
1896 1 1 0.0510539528214 48.53930964 21.23044203 34.60780130
1897 1 1 0.00699637921534 50.01019781 23.77809508 34.60780130
1898 1 1 -0.0272316253042 51.48108598 26.32574812 34.60780130
1899 1 1 -0.0078248503051 50.01019781 28.87340116 34.60780130
1900 1 1 -0.0352196541132 51.48108598 31.42105421 34.60780130
1901 1 1 -0.00195953844673 50.01019781 33.96870725 34.60780130
1902 1 1 -0.0262264893423 51.48108598 36.51636030 34.60780130
1903 1 1 0.00363476255564 50.01019781 39.06401334 34.60780130
1904 1 1 -0.0472185283214 51.48108598 21.23044203 34.60780130
1905 1 1 0.0239190693471 35.30131610 23.77809508 34.60780130
1906 1 1 0.0164362461824 36.77220427 26.32574812 34.60780130
1907 1 1 0.0905016791976 35.30131610 28.87340116 34.60780130
1908 1 1 0.0827539064206 36.77220427 31.42105421 34.60780130
1909 1 1 0.0645865860904 35.30131610 33.96870725 34.60780130
1910 1 1 -0.0175424386576 36.77220427 36.51636030 34.60780130
1911 1 1 0.0250375015691 35.30131610 39.06401334 34.60780130
1912 1 1 -0.0326121772571 36.77220427 21.23044203 34.60780130
1913 1 1 -0.0792342118546 38.24309244 23.77809508 34.60780130
1914 1 1 -0.057842885207 39.71398061 26.32574812 34.60780130
1915 1 1 0.0361575258467 38.24309244 28.87340116 34.60780130
1916 1 1 0.0132745884687 39.71398061 31.42105421 34.60780130
1917 1 1 -0.00315730061514 38.24309244 33.96870725 34.60780130
1918 1 1 -0.0939069002427 39.71398061 36.51636030 34.60780130
1919 1 1 -0.0861815764538 38.24309244 39.06401334 34.60780130
1920 1 1 -0.098389944155 39.71398061 21.23044203 34.60780130
1921 1 1 -0.0308888921563 35.30131610 40.76244870 25.00000000
1922 1 1 0.0115765173249 36.77220427 43.31010174 25.00000000
1923 1 1 -0.0113141894336 35.30131610 45.85775479 25.00000000
1924 1 1 0.004101477772 36.77220427 48.40540783 25.00000000
1925 1 1 -0.0157018563834 35.30131610 50.95306088 25.00000000
1926 1 1 -0.0319374413131 36.77220427 53.50071392 25.00000000
1927 1 1 0.00281285910486 35.30131610 56.04836697 25.00000000
1928 1 1 0.00461617455778 36.77220427 58.59602001 25.00000000
1929 1 1 0.0747654913669 38.24309244 40.76244870 25.00000000
1930 1 1 0.0434501541689 39.71398061 43.31010174 25.00000000
1931 1 1 0.0208353965801 38.24309244 45.85775479 25.00000000
1932 1 1 0.0160584517518 39.71398061 48.40540783 25.00000000
1933 1 1 -0.00464522583222 38.24309244 50.95306088 25.00000000
1934 1 1 -0.0166573664253 39.71398061 53.50071392 25.00000000
1935 1 1 -0.0478365378756 38.24309244 56.04836697 25.00000000
1936 1 1 -0.0794944094687 39.71398061 58.59602001 25.00000000
1937 1 1 0.0618626282324 41.18486878 40.76244870 25.00000000
1938 1 1 -0.0325689578747 42.65575695 43.31010174 25.00000000
1939 1 1 -0.00183736519093 41.18486878 45.85775479 25.00000000
1940 1 1 0.00337750749398 42.65575695 48.40540783 25.00000000
1941 1 1 0.0253154435446 41.18486878 50.95306088 25.00000000
1942 1 1 0.0367182415712 42.65575695 53.50071392 25.00000000
1943 1 1 -0.0336783128816 41.18486878 56.04836697 25.00000000
1944 1 1 -0.0393301558075 42.65575695 58.59602001 25.00000000
1945 1 1 -0.0507879819593 44.12664513 40.76244870 25.00000000
1946 1 1 -0.0992017852495 45.59753330 43.31010174 25.00000000
1947 1 1 -0.0608714205728 44.12664513 45.85775479 25.00000000
1948 1 1 -0.0139963056253 45.59753330 48.40540783 25.00000000
1949 1 1 0.0424758013309 44.12664513 50.95306088 25.00000000
1950 1 1 0.0598430394167 45.59753330 53.50071392 25.00000000
1951 1 1 0.037642386533 44.12664513 56.04836697 25.00000000
1952 1 1 0.0458333102696 45.59753330 58.59602001 25.00000000
1953 1 1 -0.086987523381 47.06842147 40.76244870 25.00000000
1954 1 1 -0.0347460084737 48.53930964 43.31010174 25.00000000
1955 1 1 -0.0535095674084 47.06842147 45.85775479 25.00000000
1956 1 1 -0.000660822786117 48.53930964 48.40540783 25.00000000
1957 1 1 0.0214837532606 47.06842147 50.95306088 25.00000000
1958 1 1 0.00107870701668 48.53930964 53.50071392 25.00000000
1959 1 1 0.0498477686851 47.06842147 56.04836697 25.00000000
1960 1 1 0.0418139946241 48.53930964 58.59602001 25.00000000
1961 1 1 0.00851389899496 50.01019781 40.76244870 25.00000000
1962 1 1 0.0826094594796 51.48108598 43.31010174 25.00000000
1963 1 1 0.0361330775963 50.01019781 45.85775479 25.00000000
1964 1 1 0.0280690654613 51.48108598 48.40540783 25.00000000
1965 1 1 -0.0225978661274 50.01019781 50.95306088 25.00000000
1966 1 1 -0.0791376293881 51.48108598 53.50071392 25.00000000
1967 1 1 -0.0279676524918 50.01019781 56.04836697 25.00000000
1968 1 1 -0.0233193501691 51.48108598 58.59602001 25.00000000
1969 1 1 0.0240734530444 36.77220427 41.61166638 27.40195032
1970 1 1 0.0288693074935 38.24309244 44.15931943 27.40195032
1971 1 1 0.010821258236 36.77220427 46.70697247 27.40195032
1972 1 1 0.0103783593318 38.24309244 49.25462551 27.40195032
1973 1 1 -0.0110405095996 36.77220427 51.80227856 27.40195032
1974 1 1 -0.0241476577153 38.24309244 54.34993160 27.40195032
1975 1 1 -0.00938097235664 36.77220427 56.89758465 27.40195032
1976 1 1 -0.0332588285259 38.24309244 59.44523769 27.40195032
1977 1 1 0.0579726702377 39.71398061 41.61166638 27.40195032
1978 1 1 0.00820095851011 41.18486878 44.15931943 27.40195032
1979 1 1 0.0165640066958 39.71398061 46.70697247 27.40195032
1980 1 1 0.0179477627964 41.18486878 49.25462551 27.40195032
1981 1 1 0.00592509252229 39.71398061 51.80227856 27.40195032
1982 1 1 -0.000214011536226 41.18486878 54.34993160 27.40195032
1983 1 1 -0.043243282158 39.71398061 56.89758465 27.40195032
1984 1 1 -0.0582703995721 41.18486878 59.44523769 27.40195032
1985 1 1 -0.00146453671352 42.65575695 41.61166638 27.40195032
1986 1 1 -0.0518096437685 44.12664513 44.15931943 27.40195032
1987 1 1 -0.0126316390618 42.65575695 46.70697247 27.40195032
1988 1 1 0.0119702862329 44.12664513 49.25462551 27.40195032
1989 1 1 0.0334888962828 42.65575695 51.80227856 27.40195032
1990 1 1 0.040896074828 44.12664513 54.34993160 27.40195032
1991 1 1 -0.00751634985772 42.65575695 56.89758465 27.40195032
1992 1 1 0.00202958799757 44.12664513 59.44523769 27.40195032
1993 1 1 -0.0648484064286 45.59753330 41.61166638 27.40195032
1994 1 1 -0.0515209307119 47.06842147 44.15931943 27.40195032
1995 1 1 -0.0344803973828 45.59753330 46.70697247 27.40195032
1996 1 1 0.00390701999228 47.06842147 49.25462551 27.40195032
1997 1 1 0.0373844484386 45.59753330 51.80227856 27.40195032
1998 1 1 0.0334433907682 47.06842147 54.34993160 27.40195032
1999 1 1 0.0400184090141 45.59753330 56.89758465 27.40195032
2000 1 1 0.0443135461082 47.06842147 59.44523769 27.40195032
2001 1 1 -0.0302035958291 48.53930964 41.61166638 27.40195032
2002 1 1 0.0267568035948 50.01019781 44.15931943 27.40195032
2003 1 1 -0.00267268692008 48.53930964 46.70697247 27.40195032
2004 1 1 0.0047315177903 50.01019781 49.25462551 27.40195032
2005 1 1 0.00222167463296 48.53930964 51.80227856 27.40195032
2006 1 1 -0.0279360520294 50.01019781 54.34993160 27.40195032
2007 1 1 0.0199700855646 48.53930964 56.89758465 27.40195032
2008 1 1 0.0147835283753 50.01019781 59.44523769 27.40195032
2009 1 1 0.0508767982217 51.48108598 41.61166638 27.40195032
2010 1 1 -0.0107951386609 35.30131610 44.15931943 27.40195032
2011 1 1 0.0487502988567 51.48108598 46.70697247 27.40195032
2012 1 1 0.00253686368052 35.30131610 49.25462551 27.40195032
2013 1 1 -0.0384635580385 51.48108598 51.80227856 27.40195032
2014 1 1 -0.0127181367691 35.30131610 54.34993160 27.40195032
2015 1 1 -0.0357192903261 51.48108598 56.89758465 27.40195032
2016 1 1 0.0562972327812 35.30131610 59.44523769 27.40195032
2017 1 1 -0.000770972791555 38.24309244 42.46088406 29.80390065
2018 1 1 0.000123222725655 39.71398061 45.00853711 29.80390065
2019 1 1 0.000705508147576 38.24309244 47.55619015 29.80390065
2020 1 1 0.000953166681858 39.71398061 50.10384320 29.80390065
2021 1 1 0.000728192319776 38.24309244 52.65149624 29.80390065
2022 1 1 0.000112798631821 39.71398061 55.19914928 29.80390065
2023 1 1 -0.000553282844471 38.24309244 57.74680233 29.80390065
2024 1 1 -0.000666115791398 39.71398061 60.29445537 29.80390065
2025 1 1 -0.000484325011926 41.18486878 42.46088406 29.80390065
2026 1 1 0.000488236302685 42.65575695 45.00853711 29.80390065
2027 1 1 0.000851832118979 41.18486878 47.55619015 29.80390065
2028 1 1 0.000797602538252 42.65575695 50.10384320 29.80390065
2029 1 1 0.000527243401144 41.18486878 52.65149624 29.80390065
2030 1 1 -0.000174735918596 42.65575695 55.19914928 29.80390065
2031 1 1 -0.000410995236848 41.18486878 57.74680233 29.80390065
2032 1 1 -0.0006260417669 42.65575695 60.29445537 29.80390065
2033 1 1 3.49009832121e-05 44.12664513 42.46088406 29.80390065
2034 1 1 0.000479406657684 45.59753330 45.00853711 29.80390065
2035 1 1 0.000835827812327 44.12664513 47.55619015 29.80390065
2036 1 1 0.000525731903432 45.59753330 50.10384320 29.80390065
2037 1 1 0.000176395473055 44.12664513 52.65149624 29.80390065
2038 1 1 -0.000404223997069 45.59753330 55.19914928 29.80390065
2039 1 1 -0.000683407956126 44.12664513 57.74680233 29.80390065
2040 1 1 -0.000907963478716 45.59753330 60.29445537 29.80390065
2041 1 1 -0.000120776277604 47.06842147 42.46088406 29.80390065
2042 1 1 -0.000187499866903 48.53930964 45.00853711 29.80390065
2043 1 1 0.000439640465 47.06842147 47.55619015 29.80390065
2044 1 1 0.000398753778793 48.53930964 50.10384320 29.80390065
2045 1 1 0.00015399049176 47.06842147 52.65149624 29.80390065
2046 1 1 -3.34624187046e-05 48.53930964 55.19914928 29.80390065
2047 1 1 -0.00072992193641 47.06842147 57.74680233 29.80390065
2048 1 1 -0.000784435409172 48.53930964 60.29445537 29.80390065
2049 1 1 -0.000875097855425 50.01019781 42.46088406 29.80390065
2050 1 1 -0.000890187439876 51.48108598 45.00853711 29.80390065
2051 1 1 -8.07336806744e-05 50.01019781 47.55619015 29.80390065
2052 1 1 0.000452627801285 51.48108598 50.10384320 29.80390065
2053 1 1 0.000595472234891 50.01019781 52.65149624 29.80390065
2054 1 1 0.000584831138042 51.48108598 55.19914928 29.80390065
2055 1 1 -0.000241721494891 50.01019781 57.74680233 29.80390065
2056 1 1 -0.000356518582838 51.48108598 60.29445537 29.80390065
2057 1 1 -0.000398619261026 35.30131610 42.46088406 29.80390065
2058 1 1 6.90473946808e-05 36.77220427 45.00853711 29.80390065
2059 1 1 0.00063070118418 35.30131610 47.55619015 29.80390065
2060 1 1 0.000926792227987 36.77220427 50.10384320 29.80390065
2061 1 1 0.000707216608063 35.30131610 52.65149624 29.80390065
2062 1 1 8.04561871546e-05 36.77220427 55.19914928 29.80390065
2063 1 1 -0.000922395903125 35.30131610 57.74680233 29.80390065
2064 1 1 -0.00125484020904 36.77220427 60.29445537 29.80390065
2065 1 1 -0.0367191212648 39.71398061 43.31010174 32.20585097
2066 1 1 -0.00282844659829 41.18486878 45.85775479 32.20585097
2067 1 1 -0.0155236352008 39.71398061 48.40540783 32.20585097
2068 1 1 -0.0214076812833 41.18486878 50.95306088 32.20585097
2069 1 1 0.00910831477957 39.71398061 53.50071392 32.20585097
2070 1 1 0.0219691210345 41.18486878 56.04836697 32.20585097
2071 1 1 0.0552365081408 39.71398061 58.59602001 32.20585097
2072 1 1 -0.0499993148947 41.18486878 40.76244870 32.20585097
2073 1 1 0.0192504269634 42.65575695 43.31010174 32.20585097
2074 1 1 0.0403417640237 44.12664513 45.85775479 32.20585097
2075 1 1 -0.00581200228263 42.65575695 48.40540783 32.20585097
2076 1 1 -0.0335180103301 44.12664513 50.95306088 32.20585097
2077 1 1 -0.0290718210485 42.65575695 53.50071392 32.20585097
2078 1 1 -0.0292259851019 44.12664513 56.04836697 32.20585097
2079 1 1 0.0265149672339 42.65575695 58.59602001 32.20585097
2080 1 1 0.0324244712962 44.12664513 40.76244870 32.20585097
2081 1 1 0.0679671215778 45.59753330 43.31010174 32.20585097
2082 1 1 0.035482197679 47.06842147 45.85775479 32.20585097
2083 1 1 0.00698268674272 45.59753330 48.40540783 32.20585097
2084 1 1 -0.0182854443863 47.06842147 50.95306088 32.20585097
2085 1 1 -0.0456289996388 45.59753330 53.50071392 32.20585097
2086 1 1 -0.0379818776482 47.06842147 56.04836697 32.20585097
2087 1 1 -0.0347207315286 45.59753330 58.59602001 32.20585097
2088 1 1 0.0592172258889 47.06842147 40.76244870 32.20585097
2089 1 1 0.0221649032237 48.53930964 43.31010174 32.20585097
2090 1 1 -0.0285912227924 50.01019781 45.85775479 32.20585097
2091 1 1 -0.00234283590346 48.53930964 48.40540783 32.20585097
2092 1 1 0.0136848953591 50.01019781 50.95306088 32.20585097
2093 1 1 -0.00321565299941 48.53930964 53.50071392 32.20585097
2094 1 1 0.0180563768409 50.01019781 56.04836697 32.20585097
2095 1 1 -0.0319421771231 48.53930964 58.59602001 32.20585097
2096 1 1 -0.00887817313909 50.01019781 40.76244870 32.20585097
2097 1 1 -0.0618119759436 51.48108598 43.31010174 32.20585097
2098 1 1 0.00203393111881 35.30131610 45.85775479 32.20585097
2099 1 1 -0.0227157246562 51.48108598 48.40540783 32.20585097
2100 1 1 0.0071911295055 35.30131610 50.95306088 32.20585097
2101 1 1 0.0546976769573 51.48108598 53.50071392 32.20585097
2102 1 1 -0.00452997639848 35.30131610 56.04836697 32.20585097
2103 1 1 0.0148223777659 51.48108598 58.59602001 32.20585097
2104 1 1 0.0111239360604 35.30131610 40.76244870 32.20585097
2105 1 1 -0.0154189379283 36.77220427 43.31010174 32.20585097
2106 1 1 -0.0201354434676 38.24309244 45.85775479 32.20585097
2107 1 1 -0.007634988436 36.77220427 48.40540783 32.20585097
2108 1 1 -0.000323509742827 38.24309244 50.95306088 32.20585097
2109 1 1 0.0198205190387 36.77220427 53.50071392 32.20585097
2110 1 1 0.0319845748505 38.24309244 56.04836697 32.20585097
2111 1 1 -0.00536637769808 36.77220427 58.59602001 32.20585097
2112 1 1 -0.0616325851821 38.24309244 40.76244870 32.20585097
2113 1 1 -0.00521822532075 41.18486878 44.15931943 34.60780130
2114 1 1 0.0221349162807 42.65575695 46.70697247 34.60780130
2115 1 1 -0.0208394626731 41.18486878 49.25462551 34.60780130
2116 1 1 -0.0431347401884 42.65575695 51.80227856 34.60780130
2117 1 1 0.00366328519421 41.18486878 54.34993160 34.60780130
2118 1 1 0.0139123887535 42.65575695 56.89758465 34.60780130
2119 1 1 0.0846515062781 41.18486878 59.44523769 34.60780130
2120 1 1 0.00892358596476 42.65575695 41.61166638 34.60780130
2121 1 1 0.0770389555888 44.12664513 44.15931943 34.60780130
2122 1 1 0.0518137271504 45.59753330 46.70697247 34.60780130
2123 1 1 -0.0130453597116 44.12664513 49.25462551 34.60780130
2124 1 1 -0.0489402894255 45.59753330 51.80227856 34.60780130
2125 1 1 -0.0536640153531 44.12664513 54.34993160 34.60780130
2126 1 1 -0.0522788972494 45.59753330 56.89758465 34.60780130
2127 1 1 0.000858619254174 44.12664513 59.44523769 34.60780130
2128 1 1 0.0955306552224 45.59753330 41.61166638 34.60780130
2129 1 1 0.0759563720914 47.06842147 44.15931943 34.60780130
2130 1 1 0.00734652300328 48.53930964 46.70697247 34.60780130
2131 1 1 -0.00228297382005 47.06842147 49.25462551 34.60780130
2132 1 1 -0.000250933556775 48.53930964 51.80227856 34.60780130
2133 1 1 -0.0435316530537 47.06842147 54.34993160 34.60780130
2134 1 1 -0.0246566165165 48.53930964 56.89758465 34.60780130
2135 1 1 -0.0581572875234 47.06842147 59.44523769 34.60780130
2136 1 1 0.0467864857714 48.53930964 41.61166638 34.60780130
2137 1 1 -0.0328403574256 50.01019781 44.15931943 34.60780130
2138 1 1 -0.0639697263916 51.48108598 46.70697247 34.60780130
2139 1 1 -0.00344398415625 50.01019781 49.25462551 34.60780130
2140 1 1 0.056394147186 51.48108598 51.80227856 34.60780130
2141 1 1 0.0417183747566 50.01019781 54.34993160 34.60780130
2142 1 1 0.0525776590092 51.48108598 56.89758465 34.60780130
2143 1 1 -0.0175195116361 50.01019781 59.44523769 34.60780130
2144 1 1 -0.0657878937017 51.48108598 41.61166638 34.60780130
2145 1 1 0.0251476182151 35.30131610 44.15931943 34.60780130
2146 1 1 -0.00866062283298 36.77220427 46.70697247 34.60780130
2147 1 1 0.00159824861029 35.30131610 49.25462551 34.60780130
2148 1 1 0.0192394243783 36.77220427 51.80227856 34.60780130
2149 1 1 0.0215337291352 35.30131610 54.34993160 34.60780130
2150 1 1 0.0168386598949 36.77220427 56.89758465 34.60780130
2151 1 1 -0.0740948236355 35.30131610 59.44523769 34.60780130
2152 1 1 -0.0211342041728 36.77220427 41.61166638 34.60780130
2153 1 1 -0.0323663075282 38.24309244 44.15931943 34.60780130
2154 1 1 -0.0176784689615 39.71398061 46.70697247 34.60780130
2155 1 1 -0.00992798402546 38.24309244 49.25462551 34.60780130
2156 1 1 -0.00457153198016 39.71398061 51.80227856 34.60780130
2157 1 1 0.0370878033562 38.24309244 54.34993160 34.60780130
2158 1 1 0.0636233764354 39.71398061 56.89758465 34.60780130
2159 1 1 0.0499864511564 38.24309244 59.44523769 34.60780130
2160 1 1 -0.0715315242407 39.71398061 41.61166638 34.60780130
2161 2 2 1 26.47598707 30.57183653 38.60780130
2162 3 2 -1 26.47598707 30.57183653 21.00000000
