TD.TimeStep             0.0055 #Timestep in Rydberg. 1 Ryd time = 4.84E-17 sec
TD.NumberOfTimeSteps    4500
TD_mxPC                 2
TD.Gauge                velocity
TD.ShapeOfEfield        Esin2sin
#TD.Restart.itime        3001
#TD.Restart T

TD.WritePops            T

TD.ExternalFrequency    530.9 eV          #Energy of the perturbing field
TD.ExternalPacket       T
TD.ExternalPacketCenter 1.3264 eV   # (1/(x/13.6058)*4.84e-17 will give the time in 1/Ry units)
TD.ExternalPacketSigma  2.6328 eV   # centered at t=0.5 fs with legnth of 0.25*4 = 1 fs

SystemName H2O
SystemLabel H2O

NumberOfAtoms   105
NumberOfSpecies 3

SolutionMethod     diagon

%block ChemicalSpeciesLabel
1  8  O
2  1  H
3  8  O1s
%endblock ChemicalSpeciesLabel

PAO.BasisSize  DZP
PAO.EnergyShift  10 meV
%block PAO.Basis                 # Define Basis set
O1s           5                    # Label, l-shells, ionic net charge
 n=1   0   2  P   0                       # n, l, Nzeta
   1.220      1.020
   1.000      1.000
 n=2   0   2  P   0                       # n, l, Nzeta
   5.965      3.998
   1.000      1.000
 n=3   0   2  P   0                       # n, l, Nzeta
   7.106      6.106
   1.000      1.000
 n=2   1   2  P   0                       # n, l, Nzeta
   6.930      4.310
   1.000      1.000
 n=3   2   2  P   0                       # n, l, Nzeta
   7.106      5.134
   1.000      1.000
H    2      0.46527
n=1   0   2   E    99.93138     2.59932
     4.20357     1.84463
     1.00000     1.00000
n=2   1   1   E    24.56504     2.20231
     3.52816
     1.00000
%endblock PAO.Basis

%block PS.Lmax
H  2
O1s  2
O  2
%endblock PS.Lmax

LatticeConstant 1.000000 Ang
%block LatticeVectors
9.857000000000 0.0000000000  0.0000000000
0.00000000000  9.85700000000 0.0000000000
0.0000000000   0.0000000000  29.8570000000
%endblock LatticeVectors

AtomicCoordinatesFormat Ang
#OccupationFunction FD

Kgrid_NoTRS  T
%block kgrid_MonkhorstPack
4       0       0       0.0
0       4       0       0.0
0       0       1       0.0
%endblock kgrid_MonkhorstPack

MaxSCFIterations             500
DM.MixingWeight              0.01

BlockSize 1
ProcessorY 8
Diag.ParallelOverK   T
Diag.DivideAndConquer F
Diag.Use2D T
MeshCutoff   400 Ry

DM.Tolerance  1E-5
DM.Require.Energy.Convergence T
DM.NumberPulay 4

UseSaveData        F

MD.TypeOfRun       CG
MD.VariableCell    F
MD.NumCGsteps      00
MD.MaxCGDispl      0.200000 Bohr
MD.MaxStressTol    1.000000 GPa
MD.MaxForceTol     0.010000 eV/Ang

WriteCoorStep    T
WriteEigenValues T

WriteDM    F
DM.UseSaveDM F
#TD.WriteDM F
%block AtomicCoordinatesAndAtomicSpecies 
 5.83440  3.51940  0.60281 1
 5.01576  3.49955  0.00000 2
 6.21985  4.42857  0.56648 2
 2.81767  7.95207  0.71982 1
 3.47029  8.46447  1.18995 2
 3.03127  7.03742  0.79111 2
 8.65183  7.45697  0.81579 1
 8.54258  8.37559  1.11051 2
 8.23887  6.92598  1.54363 2
 1.72870  4.24716  1.43995 1
 1.02264  4.80115  1.02338 2
 2.02846  4.87804  2.09679 2
 4.43804  9.77559  1.91642 1
 4.99853  8.84128  1.13870 2
 3.99765  8.14356  2.17390 2
 1.63137  1.30561  2.38025 1
 1.95662  2.19182  2.00837 2
 2.44090  1.00874  2.86558 2
 8.77345  2.46296  2.45501 1
 9.00120  2.49872  1.48390 2
 8.19542  1.71263  2.54969 2
 8.12412  5.25170  2.56593 1
 8.50460  4.34748  2.55029 2
 8.76179  5.85243  3.07581 2
 5.07902  2.16101  3.02310 1
 5.21434  2.89402  2.30332 2
 4.60778  2.57445  3.75228 2
 0.63270  7.68157  3.09516 1
 1.32400  7.54099  2.40302 2
 0.15617  7.58345  2.51705 2
 3.05062  5.95588  3.31532 1
 2.75246  6.37285  4.14311 2
 3.96919  6.19413  3.15729 2
 5.72414  6.03779  3.89802 1
 5.76628  6.94493  4.25016 2
 6.60258  5.79259  3.56490 2
 4.92319  8.61521  4.28836 1
 4.26644  8.57566  5.02261 2
 4.53581  8.80914  3.44577 2
 2.87233  0.27743  4.92173 1
 2.52884  0.29963  5.58447 2
 3.56008  0.77842  5.38982 2
 7.69095  2.69151  5.16194 1
 7.40901  3.47497  5.58256 2
 6.93488  2.40140  4.69333 2
 4.63648  4.00799  5.24722 1
 3.75266  4.14488  5.51164 2
 4.98309  4.82523  4.86237 2
 0.68435  2.21645  5.36779 1
 0.13464  1.70180  5.96606 2
 1.23459  1.50113  4.92056 2
 0.54014  6.68648  5.66858 1
 0.49930  7.00385  4.73831 2
 0.31468  6.98126  6.08938 2
 8.31845  8.23491  5.93189 1
 8.68831  8.49394  6.81191 2
 8.06852  7.33951  6.05081 2
 1.98758  4.47813  6.02339 1
 1.36158  5.16085  5.86890 2
 1.48225  3.70880  5.72744 2
 2.97161  8.32396  6.09780 1
 2.18528  7.84276  6.09796 2
 2.94198  9.26278  6.56177 2
 7.76993  5.49801  6.16644 1
 8.71894  5.27649  6.44340 2
 7.29531  5.37688  7.03273 2
 4.92040  1.65591  6.44960 1
 5.79062  1.27882  6.24201 2
 4.95423  2.61324  6.16972 2
 4.66745  6.51419  7.67133 1
 4.46019  7.41990  7.64118 2
 3.83480  6.08279  7.42850 2
 5.24718  9.34127  7.95233 1
 6.02730  9.54310  8.53563 2
 5.65623  9.37854  7.06976 2
 0.36795  0.75600  8.08512 1
 0.32694  1.34429  8.26244 2
 1.19434  1.27501  8.00515 2
 2.57023  2.69540  8.12844 1
 3.47871  2.45130  8.00522 2
 2.45089  3.37553  7.41358 2
 9.67839  2.29335  8.40364 1
 8.77086  2.21749  8.69244 2
 8.83912  3.09077  8.88228 2
 0.89691  9.09911  8.41893 1
 1.42760  8.32271  8.60703 2
 1.53228  9.80969  8.44590 2
 1.91438  6.18299  8.52087 1
 1.42631  5.61238  7.96676 2
 1.97544  5.70464  9.33698 2
 6.77400  4.72470  8.71001 1
 7.20826  5.27949  9.37986 2
 5.96917  5.24998  8.51643 2
 9.22516  8.63123  8.75969 1
 9.02949  7.85431  9.31306 2
 8.92426  9.47208  9.12660 2
 7.17674  1.87804  9.09204 1
 6.65841  1.04873  9.06507 2
 6.61708  2.64293  8.83709 2
 8.46424  6.26045 10.01397 3
 9.12179  5.57044 10.08558 2
 8.14337  6.33144 10.94642 2
 1.82055  4.05319 10.35471 3
 2.10441  3.96117 11.27922 2
 2.24166  3.36171  9.80828 2
%endblock AtomicCoordinatesAndAtomicSpecies
%block ExternalElectricField
0.0000 0.0000 0.1688139438  Har/Bohr/e #Field strength of the perturbing field.
%endblock ExternalElectricField
