LAMMPS (2 Sep 2026)
OMP_NUM_THREADS environment is not set. Defaulting to 1 thread.
  using 1 OpenMP thread(s) per MPI task
# referee item 4: NVE of SPC-FQ water, arm matched_tol1e-5 (run_nve.py)
units        metal
atom_style   full
boundary     p p p
lattice      sc 3.1
Lattice spacing in x,y,z = 3.1 3.1 3.1
region       box block 0 4 0 4 0 4
create_box   2 box
Created orthogonal box = (0 0 0) to (12.4 12.4 12.4)
  1 by 1 by 1 MPI processor grid
mass         1 15.9994
mass         2 1.008
molecule     h2o spcfq.mol
Read molecule template h2o:
# SPC-FQ 3-site water: O(type1) + 2H(type2), all charged via samqeq. SPC geom rOH=1.0 theta=109.47.
  1 molecules
  0 fragments
  0 bodies
  3 atoms with max type 2
  0 bonds with max type 0
  0 angles with max type 0
  0 dihedrals with max type 0
  0 impropers with max type 0
create_atoms 0 box mol h2o 12345
Created 192 atoms
  using lattice units in orthogonal box = (0 0 0) to (12.4 12.4 12.4)
  create_atoms CPU = 0.003 seconds
group        fq type 1 2
192 atoms in group fq
set          type 1 charge -0.85
Setting atom values ...
  64 settings made for charge
set          type 2 charge  0.425
Setting atom values ...
  128 settings made for charge
pair_style   hybrid/overlay lj/cut 10.0 coul/long 10.0 coul/shield/intra 10.0 all
pair_coeff   1 1 lj/cut 0.01275 3.176
pair_coeff   1 2 lj/cut 0.0 1.0
pair_coeff   2 2 lj/cut 0.0 1.0
pair_coeff   * * coul/long
pair_coeff   * * coul/shield/intra 1.11
pair_modify  pair lj/cut shift yes
kspace_style pppm/samqeq 1.0e-6
neighbor     2.0 bin
neigh_modify every 1 delay 0 check yes
fix          chg fq qeq/sam 1 0.0 10.0 1.0e-5 spcfq_expt.param
fix_modify   chg energy yes

compute      dip fq dipole/samqeq
timestep     0.001
velocity     all create 298 123456 mom yes rot yes dist gaussian
fix          integ all rigid/nvt/small molecule temp 298 298 0.1
Fix rigid/nvt/small setup ...
  create bodies CPU = 0.000 seconds
  64 rigid bodies with 192 atoms
  1.0000026 = max distance from body owner to body atom
thermo_style custom step temp pe etotal c_dip
thermo       1000
run          2000

CITE-CITE-CITE-CITE-CITE-CITE-CITE-CITE-CITE-CITE-CITE-CITE-CITE

Your simulation uses code contributions which should be cited:

- fix acks2/reaxff command: https://doi.org/10.1137/18M1224684

@Article{O'Hearn2020,
 author = {K. A. {O'Hearn} and A. Alperen and H. M. Aktulga},
 title = {Fast Solvers for Charge Distribution Models on Shared Memory Platforms},
 journal = {SIAM J.\ Sci.\ Comput.},
 year =    2020,
 volume =  42,
 number =  1,
 pages =   {1--22}
}

CITE-CITE-CITE-CITE-CITE-CITE-CITE-CITE-CITE-CITE-CITE-CITE-CITE

PPPM initialization ...
  using 12-bit tables for long-range coulomb
  G vector (1/distance) = 0.33957131
  grid = 18 18 18
  stencil order = 5
  estimated absolute RMS force accuracy = 1.4063135e-05
  estimated relative force accuracy = 9.7663066e-07
  using double precision FFTW3
  3d grid and FFT values/proc = 15625 5832
Generated 0 of 1 mixed pair_coeff terms from geometric mixing rule
samqeq: E_self = sum(chi q + 1/2 eta qs^2) INCLUDED in pe/etotal (fix_modify chg energy yes; eselfref qs = q - q0) -- pe + E_self is the energy the forces integrate
Neighbor list info ...
  update: every = 1 steps, delay = 0 steps, check = yes
  max neighbors/atom: 2000, page size: 100000
  master list distance cutoff = 12
  ghost atom cutoff = 12
  binsize = 6, bins = 3 3 3
  5 neighbor lists, perpetual/occasional/extra = 5 0 0
  (1) pair lj/cut, perpetual, half/full from (5)
      attributes: half, newton on
      pair build: halffull/newton
      stencil: none
      bin: none
  (2) pair coul/long, perpetual, copy from (1)
      attributes: half, newton on
      pair build: copy
      stencil: none
      bin: none
  (3) pair coul/shield/intra, perpetual, copy from (1)
      attributes: half, newton on
      pair build: copy
      stencil: none
      bin: none
  (4) fix qeq/sam, perpetual, half/full from (5)
      attributes: half, newton off
      pair build: halffull/newtoff
      stencil: none
      bin: none
  (5) fix qeq/sam, perpetual
      attributes: full, newton on
      pair build: full/bin
      stencil: full/bin/3d
      bin: standard
samqeq: recip_self ACTIVE at run start (step 0): not yet calibrated -- measured at the first solve by the K=16 deterministic-probe route
samqeq: calibrated grid reciprocal self-term recip_self=0.38207 +/- 0.00000 (raw, K=16 deterministic probes) = 5.5016 eV/e (subtracted so the QEq diagonal stays = eta)
samqeq SOLVER-DIAG step 0: CG 12 iters (=12 matvecs), resid/b=8.15e-06
Per MPI rank memory allocation (min/avg/max) = 24.65 | 24.65 | 24.65 Mbytes
   Step          Temp          PotEng         TotEng         c_dip     
         0   295.15635     -45.539089     -40.693791      2.0333777    
samqeq SOLVER-DIAG step 200: CG 11 iters (=11 matvecs), resid/b=8.80e-06
samqeq SOLVER-DIAG step 400: CG 13 iters (=13 matvecs), resid/b=4.09e-06
samqeq SOLVER-DIAG step 600: CG 13 iters (=13 matvecs), resid/b=3.62e-06
samqeq SOLVER-DIAG step 800: CG 13 iters (=13 matvecs), resid/b=3.49e-06
samqeq SOLVER-DIAG step 1000: CG 13 iters (=13 matvecs), resid/b=4.30e-06
      1000   279.48473     -71.289213     -66.701181      2.7586083    
samqeq SOLVER-DIAG step 1200: CG 13 iters (=13 matvecs), resid/b=3.26e-06
samqeq SOLVER-DIAG step 1400: CG 13 iters (=13 matvecs), resid/b=3.48e-06
samqeq SOLVER-DIAG step 1600: CG 13 iters (=13 matvecs), resid/b=4.79e-06
samqeq SOLVER-DIAG step 1800: CG 13 iters (=13 matvecs), resid/b=3.13e-06
samqeq SOLVER-DIAG step 2000: CG 13 iters (=13 matvecs), resid/b=3.40e-06
      2000   322.12114     -72.786704     -67.498751      2.8631897    
Loop time of 29.0523 on 1 procs for 2000 steps with 192 atoms

Performance: 5.948 ns/day, 4.035 hours/ns, 68.841 timesteps/s, 13.218 katom-step/s
100.0% CPU use with 1 MPI tasks x 1 OpenMP threads

MPI task timing breakdown:
Section |  min time  |  avg time  |  max time  |%varavg| %total
---------------------------------------------------------------
Pair    | 7.558      | 7.558      | 7.558      |   0.0 | 26.02
Bond    | 0.00054559 | 0.00054559 | 0.00054559 |   0.0 |  0.00
Kspace  | 1.1992     | 1.1992     | 1.1992     |   0.0 |  4.13
Neigh   | 0.3495     | 0.3495     | 0.3495     |   0.0 |  1.20
Comm    | 0.053424   | 0.053424   | 0.053424   |   0.0 |  0.18
Output  | 5.8416e-05 | 5.8416e-05 | 5.8416e-05 |   0.0 |  0.00
Modify  | 19.875     | 19.875     | 19.875     |   0.0 | 68.41
Other   |            | 0.01654    |            |       |  0.06

Nlocal:            192 ave         192 max         192 min
Histogram: 1 0 0 0 0 0 0 0 0 0
Nghost:           4674 ave        4674 max        4674 min
Histogram: 1 0 0 0 0 0 0 0 0 0
Neighs:          69641 ave       69641 max       69641 min
Histogram: 1 0 0 0 0 0 0 0 0 0
FullNghs:       139282 ave      139282 max      139282 min
Histogram: 1 0 0 0 0 0 0 0 0 0

Total # of neighbors = 139282
Ave neighs/atom = 725.42708
Ave special neighs/atom = 0
Neighbor list builds = 79
Dangerous builds = 0
unfix        integ
reset_timestep 0
fix          integ all rigid/nve/small molecule
Fix rigid/nve/small setup ...
  create bodies CPU = 0.000 seconds
  64 rigid bodies with 192 atoms
  1.0000026 = max distance from body owner to body atom
thermo       100
run          5000
PPPM initialization ...
  using 12-bit tables for long-range coulomb
  G vector (1/distance) = 0.34599221
  grid = 20 20 20
  stencil order = 5
  estimated absolute RMS force accuracy = 1.3183783e-05
  estimated relative force accuracy = 9.1556308e-07
  using double precision FFTW3
  3d grid and FFT values/proc = 24389 8000
Generated 0 of 1 mixed pair_coeff terms from geometric mixing rule
samqeq: E_self = sum(chi q + 1/2 eta qs^2) INCLUDED in pe/etotal (fix_modify chg energy yes; eselfref qs = q - q0) -- pe + E_self is the energy the forces integrate
samqeq: recip_self ACTIVE at run start (step 0): 0.38207 raw = 5.5016 eV/e, K=16 deterministic-probe route, calibration #1 at step 0 on the 18x18x18 mesh; first at this mesh 0.38207 (step 0), drift +0.000%
samqeq: calibrated grid reciprocal self-term recip_self=0.38931 +/- 0.00000 (raw, K=16 deterministic probes) = 5.6060 eV/e (subtracted so the QEq diagonal stays = eta)
samqeq SOLVER-DIAG step 0: CG 13 iters (=13 matvecs), resid/b=3.40e-06
Per MPI rank memory allocation (min/avg/max) = 25.19 | 25.19 | 25.19 Mbytes
   Step          Temp          PotEng         TotEng         c_dip     
         0   322.12114     -72.786746     -67.498793      2.8632761    
       100   305.21382     -72.485791     -67.475389      2.8282137    
samqeq SOLVER-DIAG step 200: CG 13 iters (=13 matvecs), resid/b=4.23e-06
       200   274.47328     -71.967227     -67.461463      2.8025356    
       300   292.15444     -72.243422     -67.447404      2.7843273    
samqeq SOLVER-DIAG step 400: CG 13 iters (=13 matvecs), resid/b=2.96e-06
       400   296.16887     -72.34255      -67.48063       2.8247228    
       500   309.19744     -72.578484     -67.502687      2.8538947    
samqeq SOLVER-DIAG step 600: CG 13 iters (=13 matvecs), resid/b=3.52e-06
       600   285.0953      -72.160339     -67.480204      2.8203458    
       700   290.93447     -72.255702     -67.479711      2.8621115    
samqeq SOLVER-DIAG step 800: CG 13 iters (=13 matvecs), resid/b=4.32e-06
       800   257.06992     -71.675298     -67.455228      2.8061151    
       900   283.0172      -72.097627     -67.451606      2.78519      
samqeq SOLVER-DIAG step 1000: CG 13 iters (=13 matvecs), resid/b=4.82e-06
      1000   316.50652     -72.693052     -67.497269      2.8701847    
      1100   298.0265      -72.408341     -67.515927      2.9034269    
samqeq SOLVER-DIAG step 1200: CG 13 iters (=13 matvecs), resid/b=4.29e-06
      1200   308.12184     -72.534036     -67.475896      2.8350437    
      1300   272.17332     -71.959011     -67.491004      2.8350266    
samqeq SOLVER-DIAG step 1400: CG 13 iters (=13 matvecs), resid/b=3.50e-06
      1400   344.71896     -73.161607     -67.502688      2.8715134    
      1500   277.44852     -72.049866     -67.495261      2.863329     
samqeq SOLVER-DIAG step 1600: CG 13 iters (=13 matvecs), resid/b=2.94e-06
      1600   266.69222     -71.838021     -67.459992      2.8108041    
      1700   292.321       -72.269977     -67.471225      2.8458284    
samqeq SOLVER-DIAG step 1800: CG 13 iters (=13 matvecs), resid/b=3.10e-06
      1800   265.78165     -71.831846     -67.468764      2.837171     
      1900   268.05636     -71.893672     -67.493249      2.8473784    
samqeq SOLVER-DIAG step 2000: CG 13 iters (=13 matvecs), resid/b=4.24e-06
      2000   287.82404     -72.217041     -67.492111      2.8542553    
      2100   283.89796     -72.115184     -67.454704      2.7885554    
samqeq SOLVER-DIAG step 2200: CG 13 iters (=13 matvecs), resid/b=4.05e-06
      2200   280.74231     -72.096655     -67.487979      2.8361344    
      2300   324.70724     -72.81173      -67.481323      2.8463894    
samqeq SOLVER-DIAG step 2400: CG 13 iters (=13 matvecs), resid/b=3.25e-06
      2400   258.86018     -71.707738     -67.458279      2.8138628    
      2500   257.79076     -71.693518     -67.461615      2.8215509    
samqeq SOLVER-DIAG step 2600: CG 13 iters (=13 matvecs), resid/b=3.51e-06
      2600   302.61215     -72.429891     -67.462198      2.8080053    
      2700   298.06195     -72.378303     -67.485307      2.8392993    
samqeq SOLVER-DIAG step 2800: CG 13 iters (=13 matvecs), resid/b=3.43e-06
      2800   287.6233      -72.173243     -67.451608      2.8002244    
      2900   265.021       -71.818383     -67.467788      2.822336     
samqeq SOLVER-DIAG step 3000: CG 13 iters (=13 matvecs), resid/b=3.92e-06
      3000   299.35477     -72.388604     -67.474385      2.814982     
      3100   278.15676     -72.030659     -67.464427      2.8178852    
samqeq SOLVER-DIAG step 3200: CG 13 iters (=13 matvecs), resid/b=3.84e-06
      3200   321.83397     -72.772716     -67.489477      2.8565324    
      3300   305.13529     -72.522006     -67.512893      2.8895755    
samqeq SOLVER-DIAG step 3400: CG 13 iters (=13 matvecs), resid/b=5.17e-06
      3400   292.06769     -72.286647     -67.492052      2.8698498    
      3500   320.5303      -72.758735     -67.496897      2.8803661    
samqeq SOLVER-DIAG step 3600: CG 13 iters (=13 matvecs), resid/b=5.55e-06
      3600   305.16873     -72.502808     -67.493147      2.8577708    
      3700   318.08937     -72.723097     -67.50133       2.8560979    
samqeq SOLVER-DIAG step 3800: CG 13 iters (=13 matvecs), resid/b=3.05e-06
      3800   300.71431     -72.411248     -67.474711      2.8340467    
      3900   287.13166     -72.163681     -67.450116      2.7849767    
samqeq SOLVER-DIAG step 4000: CG 13 iters (=13 matvecs), resid/b=2.87e-06
      4000   287.86704     -72.194992     -67.469355      2.8133246    
      4100   294.5099      -72.298526     -67.463841      2.8343109    
samqeq SOLVER-DIAG step 4200: CG 13 iters (=13 matvecs), resid/b=5.83e-06
      4200   298.86068     -72.419478     -67.51337       2.9075992    
      4300   298.34341     -72.387042     -67.489426      2.8630098    
samqeq SOLVER-DIAG step 4400: CG 13 iters (=13 matvecs), resid/b=3.14e-06
      4400   287.42516     -72.181176     -67.462794      2.8266841    
      4500   277.96414     -72.041406     -67.478336      2.8051895    
samqeq SOLVER-DIAG step 4600: CG 13 iters (=13 matvecs), resid/b=3.41e-06
      4600   270.25286     -71.891134     -67.454653      2.7807648    
      4700   275.51916     -71.975628     -67.452695      2.7935745    
samqeq SOLVER-DIAG step 4800: CG 13 iters (=13 matvecs), resid/b=3.32e-06
      4800   254.83582     -71.610046     -67.426652      2.7723779    
      4900   257.12544     -71.658763     -67.437782      2.7959097    
samqeq SOLVER-DIAG step 5000: CG 13 iters (=13 matvecs), resid/b=4.19e-06
      5000   278.23182     -72.05272      -67.485255      2.8473197    
Loop time of 67.7871 on 1 procs for 5000 steps with 192 atoms

Performance: 6.373 ns/day, 3.766 hours/ns, 73.760 timesteps/s, 14.162 katom-step/s
99.9% CPU use with 1 MPI tasks x 1 OpenMP threads

MPI task timing breakdown:
Section |  min time  |  avg time  |  max time  |%varavg| %total
---------------------------------------------------------------
Pair    | 17.943     | 17.943     | 17.943     |   0.0 | 26.47
Bond    | 0.0012182  | 0.0012182  | 0.0012182  |   0.0 |  0.00
Kspace  | 2.7234     | 2.7234     | 2.7234     |   0.0 |  4.02
Neigh   | 0.67323    | 0.67323    | 0.67323    |   0.0 |  0.99
Comm    | 0.12473    | 0.12473    | 0.12473    |   0.0 |  0.18
Output  | 0.0015492  | 0.0015492  | 0.0015492  |   0.0 |  0.00
Modify  | 46.283     | 46.283     | 46.283     |   0.0 | 68.28
Other   |            | 0.03648    |            |       |  0.05

Nlocal:            192 ave         192 max         192 min
Histogram: 1 0 0 0 0 0 0 0 0 0
Nghost:           4662 ave        4662 max        4662 min
Histogram: 1 0 0 0 0 0 0 0 0 0
Neighs:          69814 ave       69814 max       69814 min
Histogram: 1 0 0 0 0 0 0 0 0 0
FullNghs:       139628 ave      139628 max      139628 min
Histogram: 1 0 0 0 0 0 0 0 0 0

Total # of neighbors = 139628
Ave neighs/atom = 727.22917
Ave special neighs/atom = 0
Neighbor list builds = 164
Dangerous builds = 0
print        "NVE_DONE" file done.txt screen no
Total wall time: 0:01:36
