ITEM: TIMESTEP
0
ITEM: NUMBER OF ATOMS
2162
ITEM: BOX BOUNDS pp pp ff
0.0000000000000000e+00 5.2951974149999998e+01
0.0000000000000000e+00 6.1143673049999997e+01
0.0000000000000000e+00 6.0000000000000000e+01
ITEM: ATOMS id mol type q x y z
1 1 1 0.00049151193847 0.00000000 0.00000000 25.00000000
2 1 1 0.000496018930466 1.47088817 2.54765304 25.00000000
3 1 1 0.000506133364537 0.00000000 5.09530609 25.00000000
4 1 1 0.000525610780432 1.47088817 7.64295913 25.00000000
5 1 1 0.000549259094691 0.00000000 10.19061218 25.00000000
6 1 1 0.000583035574799 1.47088817 12.73826522 25.00000000
7 1 1 0.000616835619263 0.00000000 15.28591827 25.00000000
8 1 1 0.000661206767829 1.47088817 17.83357131 25.00000000
9 1 1 0.000494639617177 2.94177634 0.00000000 25.00000000
10 1 1 0.000502682835713 4.41266451 2.54765304 25.00000000
11 1 1 0.000510220315489 2.94177634 5.09530609 25.00000000
12 1 1 0.000536339522277 4.41266451 7.64295913 25.00000000
13 1 1 0.000556628311175 2.94177634 10.19061218 25.00000000
14 1 1 0.000603642486494 4.41266451 12.73826522 25.00000000
15 1 1 0.00063093919222 2.94177634 15.28591827 25.00000000
16 1 1 0.00070028706206 4.41266451 17.83357131 25.00000000
17 1 1 0.000503784045322 5.88355268 0.00000000 25.00000000
18 1 1 0.000515529713469 7.35444085 2.54765304 25.00000000
19 1 1 0.000522264143806 5.88355268 5.09530609 25.00000000
20 1 1 0.000557502097745 7.35444085 7.64295913 25.00000000
21 1 1 0.000578836620198 5.88355268 10.19061218 25.00000000
22 1 1 0.000646126039409 7.35444085 12.73826522 25.00000000
23 1 1 0.000674993523098 5.88355268 15.28591827 25.00000000
24 1 1 0.000785317976093 7.35444085 17.83357131 25.00000000
25 1 1 0.000518204280317 8.82532903 0.00000000 25.00000000
26 1 1 0.00053353751053 10.29621720 2.54765304 25.00000000
27 1 1 0.000541559710019 8.82532903 5.09530609 25.00000000
28 1 1 0.000588320996963 10.29621720 7.64295913 25.00000000
29 1 1 0.000616047628809 8.82532903 10.19061218 25.00000000
30 1 1 0.000712429102161 10.29621720 12.73826522 25.00000000
31 1 1 0.000753808538792 8.82532903 15.28591827 25.00000000
32 1 1 0.000927823914463 10.29621720 17.83357131 25.00000000
33 1 1 0.000536601186579 11.76710537 0.00000000 25.00000000
34 1 1 0.000555059546232 13.23799354 2.54765304 25.00000000
35 1 1 0.000566760635525 11.76710537 5.09530609 25.00000000
36 1 1 0.000627099044342 13.23799354 7.64295913 25.00000000
37 1 1 0.000667886110724 11.76710537 10.19061218 25.00000000
38 1 1 0.000803093082313 13.23799354 12.73826522 25.00000000
39 1 1 0.000872850215155 11.76710537 15.28591827 25.00000000
40 1 1 0.00113739800457 13.23799354 17.83357131 25.00000000
41 1 1 0.000557084696573 14.70888171 0.00000000 25.00000000
42 1 1 0.000577787708197 16.17976988 2.54765304 25.00000000
43 1 1 0.000595665073743 14.70888171 5.09530609 25.00000000
44 1 1 0.000670551333833 16.17976988 7.64295913 25.00000000
45 1 1 0.000732056463637 14.70888171 10.19061218 25.00000000
46 1 1 0.000913394860326 16.17976988 12.73826522 25.00000000
47 1 1 0.0010324486192 14.70888171 15.28591827 25.00000000
48 1 1 0.00141465067055 16.17976988 17.83357131 25.00000000
49 1 1 3.26675539439e-05 1.47088817 0.84921768 27.40195032
50 1 1 3.31078496348e-05 2.94177634 3.39687073 27.40195032
51 1 1 3.36573023339e-05 1.47088817 5.94452377 27.40195032
52 1 1 3.48452276924e-05 2.94177634 8.49217681 27.40195032
53 1 1 3.59645066379e-05 1.47088817 11.03982986 27.40195032
54 1 1 3.7757970358e-05 2.94177634 13.58748290 27.40195032
55 1 1 3.91376359148e-05 1.47088817 16.13513595 27.40195032
56 1 1 4.14406148031e-05 2.94177634 18.68278899 27.40195032
57 1 1 3.29776945964e-05 4.41266451 0.84921768 27.40195032
58 1 1 3.36001076871e-05 5.88355268 3.39687073 27.40195032
59 1 1 3.40463984904e-05 4.41266451 5.94452377 27.40195032
60 1 1 3.55333356056e-05 5.88355268 8.49217681 27.40195032
61 1 1 3.65433022497e-05 4.41266451 11.03982986 27.40195032
62 1 1 3.89878360068e-05 5.88355268 13.58748290 27.40195032
63 1 1 4.02469134082e-05 4.41266451 16.13513595 27.40195032
64 1 1 4.41872372228e-05 5.88355268 18.68278899 27.40195032
65 1 1 3.35660171326e-05 7.35444085 0.84921768 27.40195032
66 1 1 3.43597038017e-05 8.82532903 3.39687073 27.40195032
67 1 1 3.47809359582e-05 7.35444085 5.94452377 27.40195032
68 1 1 3.66454145357e-05 8.82532903 8.49217681 27.40195032
69 1 1 3.77488681213e-05 7.35444085 11.03982986 27.40195032
70 1 1 4.14230408781e-05 8.82532903 13.58748290 27.40195032
71 1 1 4.29924792898e-05 7.35444085 16.13513595 27.40195032
72 1 1 4.92203062604e-05 8.82532903 18.68278899 27.40195032
73 1 1 3.43688952571e-05 10.29621720 0.84921768 27.40195032
74 1 1 3.53045598034e-05 11.76710537 3.39687073 27.40195032
75 1 1 3.57933523239e-05 10.29621720 5.94452377 27.40195032
76 1 1 3.81840878052e-05 11.76710537 8.49217681 27.40195032
77 1 1 3.97259010336e-05 10.29621720 11.03982986 27.40195032
78 1 1 4.52603553067e-05 11.76710537 13.58748290 27.40195032
79 1 1 4.76097473322e-05 10.29621720 16.13513595 27.40195032
80 1 1 5.20372437855e-05 11.76710537 18.68278899 27.40195032
81 1 1 3.52952367476e-05 13.23799354 0.84921768 27.40195032
82 1 1 3.63356758699e-05 14.70888171 3.39687073 27.40195032
83 1 1 3.70126092032e-05 13.23799354 5.94452377 27.40195032
84 1 1 4.01381850179e-05 14.70888171 8.49217681 27.40195032
85 1 1 4.25776777482e-05 13.23799354 11.03982986 27.40195032
86 1 1 4.94663405321e-05 14.70888171 13.58748290 27.40195032
87 1 1 5.15280609032e-05 13.23799354 16.13513595 27.40195032
88 1 1 3.76512251131e-05 14.70888171 18.68278899 27.40195032
89 1 1 3.62362347686e-05 16.17976988 0.84921768 27.40195032
90 1 1 3.29374348794e-05 0.00000000 3.39687073 27.40195032
91 1 1 3.83540551322e-05 16.17976988 5.94452377 27.40195032
92 1 1 3.4609542857e-05 0.00000000 8.49217681 27.40195032
93 1 1 4.5962098455e-05 16.17976988 11.03982986 27.40195032
94 1 1 3.73872423047e-05 0.00000000 13.58748290 27.40195032
95 1 1 4.73613040267e-05 16.17976988 16.13513595 27.40195032
96 1 1 4.06852596287e-05 0.00000000 18.68278899 27.40195032
97 1 1 -1.90280655067e-07 2.94177634 1.69843536 29.80390065
98 1 1 -1.97311062741e-07 4.41266451 4.24608841 29.80390065
99 1 1 -2.03478197654e-07 2.94177634 6.79374145 29.80390065
100 1 1 -2.20701333901e-07 4.41266451 9.34139450 29.80390065
101 1 1 -2.33008334432e-07 2.94177634 11.88904754 29.80390065
102 1 1 -2.6145819134e-07 4.41266451 14.43670058 29.80390065
103 1 1 -2.75206963926e-07 2.94177634 16.98435363 29.80390065
104 1 1 -3.08935605933e-07 4.41266451 19.53200667 29.80390065
105 1 1 -1.94740566129e-07 5.88355268 1.69843536 29.80390065
106 1 1 -2.04558438662e-07 7.35444085 4.24608841 29.80390065
107 1 1 -2.11102015414e-07 5.88355268 6.79374145 29.80390065
108 1 1 -2.34633800718e-07 7.35444085 9.34139450 29.80390065
109 1 1 -2.47936079775e-07 5.88355268 11.88904754 29.80390065
110 1 1 -2.86419095133e-07 7.35444085 14.43670058 29.80390065
111 1 1 -2.98513268487e-07 5.88355268 16.98435363 29.80390065
112 1 1 -3.61999862882e-07 7.35444085 19.53200667 29.80390065
113 1 1 -2.01944711312e-07 8.82532903 1.69843536 29.80390065
114 1 1 -2.14714025443e-07 10.29621720 4.24608841 29.80390065
115 1 1 -2.23016068824e-07 8.82532903 6.79374145 29.80390065
116 1 1 -2.5336088159e-07 10.29621720 9.34139450 29.80390065
117 1 1 -2.70936327037e-07 8.82532903 11.88904754 29.80390065
118 1 1 -3.30527093577e-07 10.29621720 14.43670058 29.80390065
119 1 1 -3.50181622853e-07 8.82532903 16.98435363 29.80390065
120 1 1 -5.32083412314e-07 10.29621720 19.53200667 29.80390065
121 1 1 -2.11271081611e-07 11.76710537 1.69843536 29.80390065
122 1 1 -2.26353573549e-07 13.23799354 4.24608841 29.80390065
123 1 1 -2.37521041382e-07 11.76710537 6.79374145 29.80390065
124 1 1 -2.7611459663e-07 13.23799354 9.34139450 29.80390065
125 1 1 -3.04357265347e-07 11.76710537 11.88904754 29.80390065
126 1 1 -4.16555304227e-07 13.23799354 14.43670058 29.80390065
127 1 1 -4.77184336504e-07 11.76710537 16.98435363 29.80390065
128 1 1 -9.284540594e-07 13.23799354 19.53200667 29.80390065
129 1 1 -2.21566769859e-07 14.70888171 1.69843536 29.80390065
130 1 1 -2.37767167924e-07 16.17976988 4.24608841 29.80390065
131 1 1 -2.52822842945e-07 14.70888171 6.79374145 29.80390065
132 1 1 -3.05903154788e-07 16.17976988 9.34139450 29.80390065
133 1 1 -3.58437007574e-07 14.70888171 11.88904754 29.80390065
134 1 1 -5.69632683975e-07 16.17976988 14.43670058 29.80390065
135 1 1 -7.10769530616e-07 14.70888171 16.98435363 29.80390065
136 1 1 -1.35069697688e-06 16.17976988 19.53200667 29.80390065
137 1 1 -1.8878061568e-07 0.00000000 1.69843536 29.80390065
138 1 1 -1.93617223068e-07 1.47088817 4.24608841 29.80390065
139 1 1 -2.00888998012e-07 0.00000000 6.79374145 29.80390065
140 1 1 -2.13265870203e-07 1.47088817 9.34139450 29.80390065
141 1 1 -2.27692436973e-07 0.00000000 11.88904754 29.80390065
142 1 1 -2.48224801141e-07 1.47088817 14.43670058 29.80390065
143 1 1 -2.67189780246e-07 0.00000000 16.98435363 29.80390065
144 1 1 -2.90337733505e-07 1.47088817 19.53200667 29.80390065
145 1 1 -3.13957653288e-05 4.41266451 2.54765304 32.20585097
146 1 1 -3.22376382507e-05 5.88355268 5.09530609 32.20585097
147 1 1 -3.28483238632e-05 4.41266451 7.64295913 32.20585097
148 1 1 -3.44669905843e-05 5.88355268 10.19061218 32.20585097
149 1 1 -3.55141503756e-05 4.41266451 12.73826522 32.20585097
150 1 1 -3.81223640579e-05 5.88355268 15.28591827 32.20585097
151 1 1 -3.92343987079e-05 4.41266451 17.83357131 32.20585097
152 1 1 -3.14485754921e-05 5.88355268 0.00000000 32.20585097
153 1 1 -3.19621763418e-05 7.35444085 2.54765304 32.20585097
154 1 1 -3.29996148364e-05 8.82532903 5.09530609 32.20585097
155 1 1 -3.36062312732e-05 7.35444085 7.64295913 32.20585097
156 1 1 -3.57061730422e-05 8.82532903 10.19061218 32.20585097
157 1 1 -3.69015299262e-05 7.35444085 12.73826522 32.20585097
158 1 1 -4.10935596076e-05 8.82532903 15.28591827 32.20585097
159 1 1 -4.24684455931e-05 7.35444085 17.83357131 32.20585097
160 1 1 -3.20978881247e-05 8.82532903 0.00000000 32.20585097
161 1 1 -3.2731633906e-05 10.29621720 2.54765304 32.20585097
162 1 1 -3.39534661644e-05 11.76710537 5.09530609 32.20585097
163 1 1 -3.46830797668e-05 10.29621720 7.64295913 32.20585097
164 1 1 -3.75665448186e-05 11.76710537 10.19061218 32.20585097
165 1 1 -3.93522216434e-05 10.29621720 12.73826522 32.20585097
166 1 1 -4.53546694119e-05 11.76710537 15.28591827 32.20585097
167 1 1 -4.70874662766e-05 10.29621720 17.83357131 32.20585097
168 1 1 -3.29040399873e-05 11.76710537 0.00000000 32.20585097
169 1 1 -3.3617465223e-05 13.23799354 2.54765304 32.20585097
170 1 1 -3.50193455325e-05 14.70888171 5.09530609 32.20585097
171 1 1 -3.60582175487e-05 13.23799354 7.64295913 32.20585097
172 1 1 -4.00553366806e-05 14.70888171 10.19061218 32.20585097
173 1 1 -4.28480665992e-05 13.23799354 12.73826522 32.20585097
174 1 1 -4.77459206207e-05 14.70888171 15.28591827 32.20585097
175 1 1 -4.65810096428e-05 13.23799354 17.83357131 32.20585097
176 1 1 -3.37723372586e-05 14.70888171 0.00000000 32.20585097
177 1 1 -3.45201412994e-05 16.17976988 2.54765304 32.20585097
178 1 1 -3.15699363684e-05 0.00000000 5.09530609 32.20585097
179 1 1 -3.76781891387e-05 16.17976988 7.64295913 32.20585097
180 1 1 -3.35041387855e-05 0.00000000 10.19061218 32.20585097
181 1 1 -4.62680816779e-05 16.17976988 12.73826522 32.20585097
182 1 1 -3.62826979936e-05 0.00000000 15.28591827 32.20585097
183 1 1 -2.63869389308e-05 16.17976988 17.83357131 32.20585097
184 1 1 -3.08845010433e-05 0.00000000 0.00000000 32.20585097
185 1 1 -3.10959937753e-05 1.47088817 2.54765304 32.20585097
186 1 1 -3.17421799047e-05 2.94177634 5.09530609 32.20585097
187 1 1 -3.24500450179e-05 1.47088817 7.64295913 32.20585097
188 1 1 -3.37452802278e-05 2.94177634 10.19061218 32.20585097
189 1 1 -3.48976346503e-05 1.47088817 12.73826522 32.20585097
190 1 1 -3.66880142223e-05 2.94177634 15.28591827 32.20585097
191 1 1 -3.79435286587e-05 1.47088817 17.83357131 32.20585097
192 1 1 -3.10292186023e-05 2.94177634 0.00000000 32.20585097
193 1 1 -0.000512841456538 5.88355268 3.39687073 34.60780130
194 1 1 -0.00053955859235 7.35444085 5.94452377 34.60780130
195 1 1 -0.000556556332726 5.88355268 8.49217681 34.60780130
196 1 1 -0.000612040646828 7.35444085 11.03982986 34.60780130
197 1 1 -0.000639734471291 5.88355268 13.58748290 34.60780130
198 1 1 -0.000734941287862 7.35444085 16.13513595 34.60780130
199 1 1 -0.000759557711415 5.88355268 18.68278899 34.60780130
200 1 1 -0.000511839639793 7.35444085 0.84921768 34.60780130
201 1 1 -0.000529396367341 8.82532903 3.39687073 34.60780130
202 1 1 -0.00056435901662 10.29621720 5.94452377 34.60780130
203 1 1 -0.000585893046035 8.82532903 8.49217681 34.60780130
204 1 1 -0.000663002649129 10.29621720 11.03982986 34.60780130
205 1 1 -0.000701299746542 8.82532903 13.58748290 34.60780130
206 1 1 -0.000846892395704 10.29621720 16.13513595 34.60780130
207 1 1 -0.00088502301115 8.82532903 18.68278899 34.60780130
208 1 1 -0.00052863104731 10.29621720 0.84921768 34.60780130
209 1 1 -0.00055074248453 11.76710537 3.39687073 34.60780130
210 1 1 -0.000594878755224 13.23799354 5.94452377 34.60780130
211 1 1 -0.000625740583273 11.76710537 8.49217681 34.60780130
212 1 1 -0.000730724400812 13.23799354 11.03982986 34.60780130
213 1 1 -0.000791912688206 11.76710537 13.58748290 34.60780130
214 1 1 -0.00100789945423 13.23799354 16.13513595 34.60780130
215 1 1 -0.00108287743217 11.76710537 18.68278899 34.60780130
216 1 1 -0.000548577019746 13.23799354 0.84921768 34.60780130
217 1 1 -0.000574831963838 14.70888171 3.39687073 34.60780130
218 1 1 -0.000628232244717 16.17976988 5.94452377 34.60780130
219 1 1 -0.000673676045293 14.70888171 8.49217681 34.60780130
220 1 1 -0.000810977912163 16.17976988 11.03982986 34.60780130
221 1 1 -0.000910482682871 14.70888171 13.58748290 34.60780130
222 1 1 -0.00121363831274 16.17976988 16.13513595 34.60780130
223 1 1 -0.00136258113314 14.70888171 18.68278899 34.60780130
224 1 1 -0.0005694878525 16.17976988 0.84921768 34.60780130
225 1 1 -0.000498866771953 0.00000000 3.39687073 34.60780130
226 1 1 -0.000513376463694 1.47088817 5.94452377 34.60780130
227 1 1 -0.000532759299491 0.00000000 8.49217681 34.60780130
228 1 1 -0.000562025032812 1.47088817 11.03982986 34.60780130
229 1 1 -0.000593121497863 0.00000000 13.58748290 34.60780130
230 1 1 -0.000634759260976 1.47088817 16.13513595 34.60780130
231 1 1 -0.000671163763588 0.00000000 18.68278899 34.60780130
232 1 1 -0.000493547854246 1.47088817 0.84921768 34.60780130
233 1 1 -0.000502418783536 2.94177634 3.39687073 34.60780130
234 1 1 -0.000522242974072 4.41266451 5.94452377 34.60780130
235 1 1 -0.000538728944189 2.94177634 8.49217681 34.60780130
236 1 1 -0.000578547537486 4.41266451 11.03982986 34.60780130
237 1 1 -0.000604536500826 2.94177634 13.58748290 34.60780130
238 1 1 -0.000666683393148 4.41266451 16.13513595 34.60780130
239 1 1 -0.000692193772009 2.94177634 18.68278899 34.60780130
240 1 1 -0.000499806590309 4.41266451 0.84921768 34.60780130
241 1 1 0.000696826018035 0.00000000 20.38122435 25.00000000
242 1 1 0.000742113882132 1.47088817 22.92887739 25.00000000
243 1 1 0.000765329971403 0.00000000 25.47653044 25.00000000
244 1 1 0.000795843808964 1.47088817 28.02418348 25.00000000
245 1 1 0.000792920004023 0.00000000 30.57183653 25.00000000
246 1 1 0.000795846219635 1.47088817 33.11948957 25.00000000
247 1 1 0.000765332042673 0.00000000 35.66714262 25.00000000
248 1 1 0.000742115633235 1.47088817 38.21479566 25.00000000
249 1 1 0.000721854520226 2.94177634 20.38122435 25.00000000
250 1 1 0.000807043811787 4.41266451 22.92887739 25.00000000
251 1 1 0.000802439148505 2.94177634 25.47653044 25.00000000
252 1 1 0.000881665032678 4.41266451 28.02418348 25.00000000
253 1 1 0.000835595197846 2.94177634 30.57183653 25.00000000
254 1 1 0.00088166805056 4.41266451 33.11948957 25.00000000
255 1 1 0.000802443677298 2.94177634 35.66714262 25.00000000
256 1 1 0.000807046361207 4.41266451 38.21479566 25.00000000
257 1 1 0.000802914787618 5.88355268 20.38122435 25.00000000
258 1 1 0.000954015245539 7.35444085 22.92887739 25.00000000
259 1 1 0.000925317979306 5.88355268 25.47653044 25.00000000
260 1 1 0.00107963595387 7.35444085 28.02418348 25.00000000
261 1 1 0.000977887748564 5.88355268 30.57183653 25.00000000
262 1 1 0.00107961720766 7.35444085 33.11948957 25.00000000
263 1 1 0.000925310015879 5.88355268 35.66714262 25.00000000
264 1 1 0.000953976040882 7.35444085 38.21479566 25.00000000
265 1 1 0.000956402217655 8.82532903 20.38122435 25.00000000
266 1 1 0.00121285403614 10.29621720 22.92887739 25.00000000
267 1 1 0.00116603516134 8.82532903 25.47653044 25.00000000
268 1 1 0.00144180085082 10.29621720 28.02418348 25.00000000
269 1 1 0.00126041853297 8.82532903 30.57183653 25.00000000
270 1 1 0.00144169965738 10.29621720 33.11948957 25.00000000
271 1 1 0.00116593699165 8.82532903 35.66714262 25.00000000
272 1 1 0.00121265069722 10.29621720 38.21479566 25.00000000
273 1 1 0.00120326683995 11.76710537 20.38122435 25.00000000
274 1 1 0.00163099400051 13.23799354 22.92887739 25.00000000
275 1 1 0.00158138951706 11.76710537 25.47653044 25.00000000
276 1 1 0.00211972615065 13.23799354 28.02418348 25.00000000
277 1 1 0.00177283008468 11.76710537 30.57183653 25.00000000
278 1 1 0.00211948588393 13.23799354 33.11948957 25.00000000
279 1 1 0.00158105191939 11.76710537 35.66714262 25.00000000
280 1 1 0.00163049586447 13.23799354 38.21479566 25.00000000
281 1 1 0.00156760258814 14.70888171 20.38122435 25.00000000
282 1 1 0.0023592557362 16.17976988 22.92887739 25.00000000
283 1 1 0.0023641602393 14.70888171 25.47653044 25.00000000
284 1 1 0.00385115802532 16.17976988 28.02418348 25.00000000
285 1 1 0.00291765785953 14.70888171 30.57183653 25.00000000
286 1 1 0.00385085672715 16.17976988 33.11948957 25.00000000
287 1 1 0.00236352732914 14.70888171 35.66714262 25.00000000
288 1 1 0.00235862274961 16.17976988 38.21479566 25.00000000
289 1 1 4.2562981764e-05 1.47088817 21.23044203 27.40195032
290 1 1 4.51898450197e-05 2.94177634 23.77809508 27.40195032
291 1 1 4.53006197218e-05 1.47088817 26.32574812 27.40195032
292 1 1 4.74617682228e-05 2.94177634 28.87340116 27.40195032
293 1 1 4.61171748097e-05 1.47088817 31.42105421 27.40195032
294 1 1 4.69756399485e-05 2.94177634 33.96870725 27.40195032
295 1 1 4.45493691233e-05 1.47088817 36.51636030 27.40195032
296 1 1 4.40180587683e-05 2.94177634 39.06401334 27.40195032
297 1 1 4.48967877004e-05 4.41266451 21.23044203 27.40195032
298 1 1 4.98195548835e-05 5.88355268 23.77809508 27.40195032
299 1 1 4.88682292257e-05 4.41266451 26.32574812 27.40195032
300 1 1 5.26754266425e-05 5.88355268 28.87340116 27.40195032
301 1 1 5.00089691109e-05 4.41266451 31.42105421 27.40195032
302 1 1 5.21098533863e-05 5.88355268 33.96870725 27.40195032
303 1 1 4.77717538773e-05 4.41266451 36.51636030 27.40195032
304 1 1 4.8092054529e-05 5.88355268 39.06401334 27.40195032
305 1 1 4.99639905867e-05 7.35444085 21.23044203 27.40195032
306 1 1 5.31612587265e-05 8.82532903 23.77809508 27.40195032
307 1 1 5.37393024915e-05 7.35444085 26.32574812 27.40195032
308 1 1 4.93706757123e-05 8.82532903 28.87340116 27.40195032
309 1 1 5.39563427972e-05 7.35444085 31.42105421 27.40195032
310 1 1 5.06788066911e-05 8.82532903 33.96870725 27.40195032
311 1 1 5.30280722779e-05 7.35444085 36.51636030 27.40195032
312 1 1 5.28895049271e-05 8.82532903 39.06401334 27.40195032
313 1 1 5.2293981106e-05 10.29621720 21.23044203 27.40195032
314 1 1 2.96451386994e-05 11.76710537 23.77809508 27.40195032
315 1 1 3.88911681882e-05 10.29621720 26.32574812 27.40195032
316 1 1 -1.01627883521e-05 11.76710537 28.87340116 27.40195032
317 1 1 2.98053753043e-05 10.29621720 31.42105421 27.40195032
318 1 1 2.85929805942e-07 11.76710537 33.96870725 27.40195032
319 1 1 4.49413534787e-05 10.29621720 36.51636030 27.40195032
320 1 1 4.18322702801e-05 11.76710537 39.06401334 27.40195032
321 1 1 2.92271534923e-05 13.23799354 21.23044203 27.40195032
322 1 1 -6.6558194679e-05 14.70888171 23.77809508 27.40195032
323 1 1 -5.00202745722e-05 13.23799354 26.32574812 27.40195032
324 1 1 -0.000163840177154 14.70888171 28.87340116 27.40195032
325 1 1 -8.48054024925e-05 13.23799354 31.42105421 27.40195032
326 1 1 -0.0001436112197 14.70888171 33.96870725 27.40195032
327 1 1 -2.15440388773e-05 13.23799354 36.51636030 27.40195032
328 1 1 -2.18823983142e-05 14.70888171 39.06401334 27.40195032
329 1 1 -5.06237502905e-05 16.17976988 21.23044203 27.40195032
330 1 1 4.37512813139e-05 0.00000000 23.77809508 27.40195032
331 1 1 -0.000195222768303 16.17976988 26.32574812 27.40195032
332 1 1 4.55389512094e-05 0.00000000 28.87340116 27.40195032
333 1 1 -0.00020067647311 16.17976988 31.42105421 27.40195032
334 1 1 4.51601806037e-05 0.00000000 33.96870725 27.40195032
335 1 1 -0.000162579158741 16.17976988 36.51636030 27.40195032
336 1 1 4.28193309758e-05 0.00000000 39.06401334 27.40195032
337 1 1 -3.18562016638e-07 2.94177634 22.07965971 29.80390065
338 1 1 -3.61581406719e-07 4.41266451 24.62731276 29.80390065
339 1 1 -3.51704721867e-07 2.94177634 27.17496580 29.80390065
340 1 1 -3.96583806591e-07 4.41266451 29.72261885 29.80390065
341 1 1 -3.53527620826e-07 2.94177634 32.27027189 29.80390065
342 1 1 -3.80999641482e-07 4.41266451 34.81792493 29.80390065
343 1 1 -3.22227775082e-07 2.94177634 37.36557798 29.80390065
344 1 1 -3.2367225483e-07 4.41266451 39.91323102 29.80390065
345 1 1 -3.65348067925e-07 5.88355268 22.07965971 29.80390065
346 1 1 -4.93542208244e-07 7.35444085 24.62731276 29.80390065
347 1 1 -4.43802096531e-07 5.88355268 27.17496580 29.80390065
348 1 1 -5.91823995179e-07 7.35444085 29.72261885 29.80390065
349 1 1 -4.75079959528e-07 5.88355268 32.27027189 29.80390065
350 1 1 -5.69035614407e-07 7.35444085 34.81792493 29.80390065
351 1 1 -4.13038311173e-07 5.88355268 37.36557798 29.80390065
352 1 1 -4.30731605264e-07 7.35444085 39.91323102 29.80390065
353 1 1 -5.37581555955e-07 8.82532903 22.07965971 29.80390065
354 1 1 -9.36500535079e-07 10.29621720 24.62731276 29.80390065
355 1 1 -7.25871758601e-07 8.82532903 27.17496580 29.80390065
356 1 1 -1.02997851286e-06 10.29621720 29.72261885 29.80390065
357 1 1 -7.98529232648e-07 8.82532903 32.27027189 29.80390065
358 1 1 -8.96471979608e-07 10.29621720 34.81792493 29.80390065
359 1 1 -6.13516495306e-07 8.82532903 37.36557798 29.80390065
360 1 1 -6.09152549262e-07 10.29621720 39.91323102 29.80390065
361 1 1 -1.07669586025e-06 11.76710537 22.07965971 29.80390065
362 1 1 -2.01339165907e-06 13.23799354 24.62731276 29.80390065
363 1 1 -1.35903792517e-06 11.76710537 27.17496580 29.80390065
364 1 1 -1.57058716327e-06 13.23799354 29.72261885 29.80390065
365 1 1 -1.33188391681e-06 11.76710537 32.27027189 29.80390065
366 1 1 -1.02605229939e-06 13.23799354 34.81792493 29.80390065
367 1 1 -7.48512732013e-07 11.76710537 37.36557798 29.80390065
368 1 1 -7.44925899977e-07 13.23799354 39.91323102 29.80390065
369 1 1 -2.010196016e-06 14.70888171 22.07965971 29.80390065
370 1 1 -3.04212424733e-06 16.17976988 24.62731276 29.80390065
371 1 1 -2.14121437292e-06 14.70888171 27.17496580 29.80390065
372 1 1 -1.57584659463e-06 16.17976988 29.72261885 29.80390065
373 1 1 -1.76492452539e-06 14.70888171 32.27027189 29.80390065
374 1 1 -7.06003969022e-07 16.17976988 34.81792493 29.80390065
375 1 1 -4.59027714999e-07 14.70888171 37.36557798 29.80390065
376 1 1 -1.02044599718e-06 16.17976988 39.91323102 29.80390065
377 1 1 -3.0723386721e-07 0.00000000 22.07965971 29.80390065
378 1 1 -3.26138220519e-07 1.47088817 24.62731276 29.80390065
379 1 1 -3.31676907579e-07 0.00000000 27.17496580 29.80390065
380 1 1 -3.38695752015e-07 1.47088817 29.72261885 29.80390065
381 1 1 -3.27958552903e-07 0.00000000 32.27027189 29.80390065
382 1 1 -3.22452136503e-07 1.47088817 34.81792493 29.80390065
383 1 1 -3.02548942527e-07 0.00000000 37.36557798 29.80390065
384 1 1 -2.88866073873e-07 1.47088817 39.91323102 29.80390065
385 1 1 -4.35206466283e-05 4.41266451 22.92887739 32.20585097
386 1 1 -4.78334788204e-05 5.88355268 25.47653044 32.20585097
387 1 1 -4.64503634379e-05 4.41266451 28.02418348 32.20585097
388 1 1 -4.93339444325e-05 5.88355268 30.57183653 32.20585097
389 1 1 -4.64557459572e-05 4.41266451 33.11948957 32.20585097
390 1 1 -4.78582432995e-05 5.88355268 35.66714262 32.20585097
391 1 1 -4.35252011003e-05 4.41266451 38.21479566 32.20585097
392 1 1 -4.32854731787e-05 5.88355268 20.38122435 32.20585097
393 1 1 -4.83482939022e-05 7.35444085 22.92887739 32.20585097
394 1 1 -4.79974698551e-05 8.82532903 25.47653044 32.20585097
395 1 1 -5.00425530766e-05 7.35444085 28.02418348 32.20585097
396 1 1 -4.42089238013e-05 8.82532903 30.57183653 32.20585097
397 1 1 -5.00842597492e-05 7.35444085 33.11948957 32.20585097
398 1 1 -4.80631490102e-05 8.82532903 35.66714262 32.20585097
399 1 1 -4.83914964925e-05 7.35444085 38.21479566 32.20585097
400 1 1 -4.80516908615e-05 8.82532903 20.38122435 32.20585097
401 1 1 -4.53753768654e-05 10.29621720 22.92887739 32.20585097
402 1 1 -8.73394040288e-06 11.76710537 25.47653044 32.20585097
403 1 1 -2.77587188982e-05 10.29621720 28.02418348 32.20585097
404 1 1 2.1294131472e-05 11.76710537 30.57183653 32.20585097
405 1 1 -2.78624931065e-05 10.29621720 33.11948957 32.20585097
406 1 1 -8.64443128409e-06 11.76710537 35.66714262 32.20585097
407 1 1 -4.53898409562e-05 10.29621720 38.21479566 32.20585097
408 1 1 -4.48970784791e-05 11.76710537 20.38122435 32.20585097
409 1 1 -1.74826632579e-07 13.23799354 22.92887739 32.20585097
410 1 1 0.000120090128818 14.70888171 25.47653044 32.20585097
411 1 1 8.17756615962e-05 13.23799354 28.02418348 32.20585097
412 1 1 0.000184595440289 14.70888171 30.57183653 32.20585097
413 1 1 8.16442168804e-05 13.23799354 33.11948957 32.20585097
414 1 1 0.000120731623872 14.70888171 35.66714262 32.20585097
415 1 1 1.92582942238e-07 13.23799354 38.21479566 32.20585097
416 1 1 -8.03117019598e-06 14.70888171 20.38122435 32.20585097
417 1 1 0.000120345253987 16.17976988 22.92887739 32.20585097
418 1 1 -4.18142025714e-05 0.00000000 25.47653044 32.20585097
419 1 1 0.000222510797214 16.17976988 28.02418348 32.20585097
420 1 1 -4.28260407766e-05 0.00000000 30.57183653 32.20585097
421 1 1 0.000222380289861 16.17976988 33.11948957 32.20585097
422 1 1 -4.18081495812e-05 0.00000000 35.66714262 32.20585097
423 1 1 0.000120988099444 16.17976988 38.21479566 32.20585097
424 1 1 -3.93030670658e-05 0.00000000 20.38122435 32.20585097
425 1 1 -4.09680366074e-05 1.47088817 22.92887739 32.20585097
426 1 1 -4.33213793899e-05 2.94177634 25.47653044 32.20585097
427 1 1 -4.29848547889e-05 1.47088817 28.02418348 32.20585097
428 1 1 -4.46240425071e-05 2.94177634 30.57183653 32.20585097
429 1 1 -4.2981841331e-05 1.47088817 33.11948957 32.20585097
430 1 1 -4.33188913265e-05 2.94177634 35.66714262 32.20585097
431 1 1 -4.09618647944e-05 1.47088817 38.21479566 32.20585097
432 1 1 -4.01690773453e-05 2.94177634 20.38122435 32.20585097
433 1 1 -0.000890539076121 5.88355268 23.77809508 34.60780130
434 1 1 -0.00105035925283 7.35444085 26.32574812 34.60780130
435 1 1 -0.000973415926147 5.88355268 28.87340116 34.60780130
436 1 1 -0.00109792605708 7.35444085 31.42105421 34.60780130
437 1 1 -0.000955344651017 5.88355268 33.96870725 34.60780130
438 1 1 -0.00100725239521 7.35444085 36.51636030 34.60780130
439 1 1 -0.000848778597744 5.88355268 39.06401334 34.60780130
440 1 1 -0.000899517082543 7.35444085 21.23044203 34.60780130
441 1 1 -0.00110420360156 8.82532903 23.77809508 34.60780130
442 1 1 -0.00138561781968 10.29621720 26.32574812 34.60780130
443 1 1 -0.00125131445243 8.82532903 28.87340116 34.60780130
444 1 1 -0.00147551384654 10.29621720 31.42105421 34.60780130
445 1 1 -0.00121870429988 8.82532903 33.96870725 34.60780130
446 1 1 -0.00130681425908 10.29621720 36.51636030 34.60780130
447 1 1 -0.00103262592826 8.82532903 39.06401334 34.60780130
448 1 1 -0.00111741341876 10.29621720 21.23044203 34.60780130
449 1 1 -0.00146319578885 11.76710537 23.77809508 34.60780130
450 1 1 -0.00198565038124 13.23799354 26.32574812 34.60780130
451 1 1 -0.00175178925019 11.76710537 28.87340116 34.60780130
452 1 1 -0.002201082258 13.23799354 31.42105421 34.60780130
453 1 1 -0.00168439897403 11.76710537 33.96870725 34.60780130
454 1 1 -0.00181527601784 13.23799354 36.51636030 34.60780130
455 1 1 -0.0013343966477 11.76710537 39.06401334 34.60780130
456 1 1 -0.00145545416558 13.23799354 21.23044203 34.60780130
457 1 1 -0.00207839311371 14.70888171 23.77809508 34.60780130
458 1 1 -0.00337163831153 16.17976988 26.32574812 34.60780130
459 1 1 -0.00284741886911 14.70888171 28.87340116 34.60780130
460 1 1 -0.00416249195991 16.17976988 31.42105421 34.60780130
461 1 1 -0.00264330478755 14.70888171 33.96870725 34.60780130
462 1 1 -0.0028399359379 16.17976988 36.51636030 34.60780130
463 1 1 -0.00180908137576 14.70888171 39.06401334 34.60780130
464 1 1 -0.00197465582607 16.17976988 21.23044203 34.60780130
465 1 1 -0.000746955222015 0.00000000 23.77809508 34.60780130
466 1 1 -0.000784315013286 1.47088817 26.32574812 34.60780130
467 1 1 -0.000791088365493 0.00000000 28.87340116 34.60780130
468 1 1 -0.000803909622635 1.47088817 31.42105421 34.60780130
469 1 1 -0.000781673307871 0.00000000 33.96870725 34.60780130
470 1 1 -0.000765999410209 1.47088817 36.51636030 34.60780130
471 1 1 -0.000723679101466 0.00000000 39.06401334 34.60780130
472 1 1 -0.000717761987573 1.47088817 21.23044203 34.60780130
473 1 1 -0.000780406712755 2.94177634 23.77809508 34.60780130
474 1 1 -0.000865022118884 4.41266451 26.32574812 34.60780130
475 1 1 -0.000833180858694 2.94177634 28.87340116 34.60780130
476 1 1 -0.000892697785737 4.41266451 31.42105421 34.60780130
477 1 1 -0.000821836127974 2.94177634 33.96870725 34.60780130
478 1 1 -0.000839494428534 4.41266451 36.51636030 34.60780130
479 1 1 -0.000752984259283 2.94177634 39.06401334 34.60780130
480 1 1 -0.000773880662136 4.41266451 21.23044203 34.60780130
481 1 1 0.000696824653093 0.00000000 40.76244870 25.00000000
482 1 1 0.000661204407201 1.47088817 43.31010174 25.00000000
483 1 1 0.000616831162109 0.00000000 45.85775479 25.00000000
484 1 1 0.000583031537836 1.47088817 48.40540783 25.00000000
485 1 1 0.000549255888665 0.00000000 50.95306088 25.00000000
486 1 1 0.000525608855015 1.47088817 53.50071392 25.00000000
487 1 1 0.000506132417471 0.00000000 56.04836697 25.00000000
488 1 1 0.00049601852939 1.47088817 58.59602001 25.00000000
489 1 1 0.00072185667158 2.94177634 40.76244870 25.00000000
490 1 1 0.000700289906783 4.41266451 43.31010174 25.00000000
491 1 1 0.000630937199437 2.94177634 45.85775479 25.00000000
492 1 1 0.00060364078374 4.41266451 48.40540783 25.00000000
493 1 1 0.000556625354051 2.94177634 50.95306088 25.00000000
494 1 1 0.000536337522998 4.41266451 53.50071392 25.00000000
495 1 1 0.000510219259654 2.94177634 56.04836697 25.00000000
496 1 1 0.000502682356532 4.41266451 58.59602001 25.00000000
497 1 1 0.000802912683242 5.88355268 40.76244870 25.00000000
498 1 1 0.00078531639706 7.35444085 43.31010174 25.00000000
499 1 1 0.000674996788684 5.88355268 45.85775479 25.00000000
500 1 1 0.000646128503938 7.35444085 48.40540783 25.00000000
501 1 1 0.000578834882684 5.88355268 50.95306088 25.00000000
502 1 1 0.000557500551363 7.35444085 53.50071392 25.00000000
503 1 1 0.000522262965899 5.88355268 56.04836697 25.00000000
504 1 1 0.000515529227899 7.35444085 58.59602001 25.00000000
505 1 1 0.000956343587718 8.82532903 40.76244870 25.00000000
506 1 1 0.000927785213371 10.29621720 43.31010174 25.00000000
507 1 1 0.000753812269768 8.82532903 45.85775479 25.00000000
508 1 1 0.000712434496701 10.29621720 48.40540783 25.00000000
509 1 1 0.000616048300861 8.82532903 50.95306088 25.00000000
510 1 1 0.000588320531526 10.29621720 53.50071392 25.00000000
511 1 1 0.0005415587953 8.82532903 56.04836697 25.00000000
512 1 1 0.00053353727137 10.29621720 58.59602001 25.00000000
513 1 1 0.00120306357078 11.76710537 40.76244870 25.00000000
514 1 1 0.00113730000367 13.23799354 43.31010174 25.00000000
515 1 1 0.000872842902551 11.76710537 45.85775479 25.00000000
516 1 1 0.000803096396176 13.23799354 48.40540783 25.00000000
517 1 1 0.000667888344603 11.76710537 50.95306088 25.00000000
518 1 1 0.000627098748379 13.23799354 53.50071392 25.00000000
519 1 1 0.000566760342385 11.76710537 56.04836697 25.00000000
520 1 1 0.000555059744312 13.23799354 58.59602001 25.00000000
521 1 1 0.00156726489979 14.70888171 40.76244870 25.00000000
522 1 1 0.00141454938396 16.17976988 43.31010174 25.00000000
523 1 1 0.00103242993818 14.70888171 45.85775479 25.00000000
524 1 1 0.000913394524069 16.17976988 48.40540783 25.00000000
525 1 1 0.000732056131907 14.70888171 50.95306088 25.00000000
526 1 1 0.000670548422835 16.17976988 53.50071392 25.00000000
527 1 1 0.000595664845516 14.70888171 56.04836697 25.00000000
528 1 1 0.000577788092178 16.17976988 58.59602001 25.00000000
529 1 1 4.14443005192e-05 1.47088817 41.61166638 27.40195032
530 1 1 4.01586390066e-05 2.94177634 44.15931943 27.40195032
531 1 1 3.80196047123e-05 1.47088817 46.70697247 27.40195032
532 1 1 3.66822791146e-05 2.94177634 49.25462551 27.40195032
533 1 1 3.5071579257e-05 1.47088817 51.80227856 27.40195032
534 1 1 3.41154212434e-05 2.94177634 54.34993160 27.40195032
535 1 1 3.31665782751e-05 1.47088817 56.89758465 27.40195032
536 1 1 3.2849972278e-05 2.94177634 59.44523769 27.40195032
537 1 1 4.33030981169e-05 4.41266451 41.61166638 27.40195032
538 1 1 4.22714188865e-05 5.88355268 44.15931943 27.40195032
539 1 1 3.88855224757e-05 4.41266451 46.70697247 27.40195032
540 1 1 3.76587696856e-05 5.88355268 49.25462551 27.40195032
541 1 1 3.55705392905e-05 4.41266451 51.80227856 27.40195032
542 1 1 3.4719203885e-05 5.88355268 54.34993160 27.40195032
543 1 1 3.35174392738e-05 4.41266451 56.89758465 27.40195032
544 1 1 3.33126981283e-05 5.88355268 59.44523769 27.40195032
545 1 1 4.7679937247e-05 7.35444085 41.61166638 27.40195032
546 1 1 4.64761836037e-05 8.82532903 44.15931943 27.40195032
547 1 1 4.09429227205e-05 7.35444085 46.70697247 27.40195032
548 1 1 3.94640424326e-05 8.82532903 49.25462551 27.40195032
549 1 1 3.65545601774e-05 7.35444085 51.80227856 27.40195032
550 1 1 3.56628984702e-05 8.82532903 54.34993160 27.40195032
551 1 1 3.41794199387e-05 7.35444085 56.89758465 27.40195032
552 1 1 3.40290220439e-05 8.82532903 59.44523769 27.40195032
553 1 1 5.22691536252e-05 10.29621720 41.61166638 27.40195032
554 1 1 5.11859269302e-05 11.76710537 44.15931943 27.40195032
555 1 1 4.45850651977e-05 10.29621720 46.70697247 27.40195032
556 1 1 4.23070693845e-05 11.76710537 49.25462551 27.40195032
557 1 1 3.80470993608e-05 10.29621720 51.80227856 27.40195032
558 1 1 3.68899136013e-05 11.76710537 54.34993160 27.40195032
559 1 1 3.5081336907e-05 10.29621720 56.89758465 27.40195032
560 1 1 3.49195119188e-05 11.76710537 59.44523769 27.40195032
561 1 1 4.4018489572e-05 13.23799354 41.61166638 27.40195032
562 1 1 4.88666763056e-05 14.70888171 44.15931943 27.40195032
563 1 1 4.91098458015e-05 13.23799354 46.70697247 27.40195032
564 1 1 4.59762017991e-05 14.70888171 49.25462551 27.40195032
565 1 1 4.00949083625e-05 13.23799354 51.80227856 27.40195032
566 1 1 3.8343034695e-05 14.70888171 54.34993160 27.40195032
567 1 1 3.61335868417e-05 13.23799354 56.89758465 27.40195032
568 1 1 3.58825039075e-05 14.70888171 59.44523769 27.40195032
569 1 1 -7.16330492975e-07 16.17976988 41.61166638 27.40195032
570 1 1 3.95718677105e-05 0.00000000 44.15931943 27.40195032
571 1 1 5.13366041807e-05 16.17976988 46.70697247 27.40195032
572 1 1 3.63706442997e-05 0.00000000 49.25462551 27.40195032
573 1 1 4.25998205163e-05 16.17976988 51.80227856 27.40195032
574 1 1 3.39063700467e-05 0.00000000 54.34993160 27.40195032
575 1 1 3.72348520916e-05 16.17976988 56.89758465 27.40195032
576 1 1 3.26902180015e-05 0.00000000 59.44523769 27.40195032
577 1 1 -2.77411855373e-07 2.94177634 42.46088406 29.80390065
578 1 1 -2.65551100143e-07 4.41266451 45.00853711 29.80390065
579 1 1 -2.37795305975e-07 2.94177634 47.55619015 29.80390065
580 1 1 -2.26382061169e-07 4.41266451 50.10384320 29.80390065
581 1 1 -2.08578097979e-07 2.94177634 52.65149624 29.80390065
582 1 1 -2.01393650063e-07 4.41266451 55.19914928 29.80390065
583 1 1 -1.92023838714e-07 2.94177634 57.74680233 29.80390065
584 1 1 -1.91084855286e-07 4.41266451 60.29445537 29.80390065
585 1 1 -3.19584599741e-07 5.88355268 42.46088406 29.80390065
586 1 1 -3.05585616351e-07 7.35444085 45.00853711 29.80390065
587 1 1 -2.52993357612e-07 5.88355268 47.55619015 29.80390065
588 1 1 -2.41269052745e-07 7.35444085 50.10384320 29.80390065
589 1 1 -2.17291788114e-07 5.88355268 52.65149624 29.80390065
590 1 1 -2.1015621944e-07 7.35444085 55.19914928 29.80390065
591 1 1 -1.97205837863e-07 5.88355268 57.74680233 29.80390065
592 1 1 -1.96830023325e-07 7.35444085 60.29445537 29.80390065
593 1 1 -4.24194501629e-07 8.82532903 42.46088406 29.80390065
594 1 1 -3.92901598098e-07 10.29621720 45.00853711 29.80390065
595 1 1 -2.85292065557e-07 8.82532903 47.55619015 29.80390065
596 1 1 -2.65962770749e-07 10.29621720 50.10384320 29.80390065
597 1 1 -2.31180114097e-07 8.82532903 52.65149624 29.80390065
598 1 1 -2.22541257797e-07 10.29621720 55.19914928 29.80390065
599 1 1 -2.05465542208e-07 8.82532903 57.74680233 29.80390065
600 1 1 -2.05015058453e-07 10.29621720 60.29445537 29.80390065
601 1 1 -6.03994266841e-07 11.76710537 42.46088406 29.80390065
602 1 1 -5.49641783485e-07 13.23799354 45.00853711 29.80390065
603 1 1 -3.46599834543e-07 11.76710537 47.55619015 29.80390065
604 1 1 -3.04902896944e-07 13.23799354 50.10384320 29.80390065
605 1 1 -2.50600349999e-07 11.76710537 52.65149624 29.80390065
606 1 1 -2.38099061082e-07 13.23799354 55.19914928 29.80390065
607 1 1 -2.16246989516e-07 11.76710537 57.74680233 29.80390065
608 1 1 -2.14952562948e-07 13.23799354 60.29445537 29.80390065
609 1 1 -8.86152729819e-07 14.70888171 42.46088406 29.80390065
610 1 1 -7.81767373537e-07 16.17976988 45.00853711 29.80390065
611 1 1 -4.45724835813e-07 14.70888171 47.55619015 29.80390065
612 1 1 -3.57671569516e-07 16.17976988 50.10384320 29.80390065
613 1 1 -2.76006331346e-07 14.70888171 52.65149624 29.80390065
614 1 1 -2.55777036601e-07 16.17976988 55.19914928 29.80390065
615 1 1 -2.28761465584e-07 14.70888171 57.74680233 29.80390065
616 1 1 -2.25584221903e-07 16.17976988 60.29445537 29.80390065
617 1 1 -2.67895732457e-07 0.00000000 42.46088406 29.80390065
618 1 1 -2.51639665367e-07 1.47088817 45.00853711 29.80390065
619 1 1 -2.33261106491e-07 0.00000000 47.55619015 29.80390065
620 1 1 -2.19006318986e-07 1.47088817 50.10384320 29.80390065
621 1 1 -2.05553781304e-07 0.00000000 52.65149624 29.80390065
622 1 1 -1.96808061142e-07 1.47088817 55.19914928 29.80390065
623 1 1 -1.90260135616e-07 0.00000000 57.74680233 29.80390065
624 1 1 -1.88143382723e-07 1.47088817 60.29445537 29.80390065
625 1 1 -3.92320182622e-05 4.41266451 43.31010174 32.20585097
626 1 1 -3.81185509351e-05 5.88355268 45.85775479 32.20585097
627 1 1 -3.55115205765e-05 4.41266451 48.40540783 32.20585097
628 1 1 -3.44656800886e-05 5.88355268 50.95306088 32.20585097
629 1 1 -3.2848904191e-05 4.41266451 53.50071392 32.20585097
630 1 1 -3.22378537482e-05 5.88355268 56.04836697 32.20585097
631 1 1 -3.13955099418e-05 4.41266451 58.59602001 32.20585097
632 1 1 -4.32984254788e-05 5.88355268 40.76244870 32.20585097
633 1 1 -4.2481610108e-05 7.35444085 43.31010174 32.20585097
634 1 1 -4.10981944391e-05 8.82532903 45.85775479 32.20585097
635 1 1 -3.68966659201e-05 7.35444085 48.40540783 32.20585097
636 1 1 -3.57031434955e-05 8.82532903 50.95306088 32.20585097
637 1 1 -3.36062324361e-05 7.35444085 53.50071392 32.20585097
638 1 1 -3.29996586813e-05 8.82532903 56.04836697 32.20585097
639 1 1 -3.19619562294e-05 7.35444085 58.59602001 32.20585097
640 1 1 -4.81006843292e-05 8.82532903 40.76244870 32.20585097
641 1 1 -4.7131612806e-05 10.29621720 43.31010174 32.20585097
642 1 1 -4.53790241174e-05 11.76710537 45.85775479 32.20585097
643 1 1 -3.93495349131e-05 10.29621720 48.40540783 32.20585097
644 1 1 -3.7564005433e-05 11.76710537 50.95306088 32.20585097
645 1 1 -3.46824694587e-05 10.29621720 53.50071392 32.20585097
646 1 1 -3.39534125068e-05 11.76710537 56.04836697 32.20585097
647 1 1 -3.2731305982e-05 10.29621720 58.59602001 32.20585097
648 1 1 -4.49124713673e-05 11.76710537 40.76244870 32.20585097
649 1 1 -4.6647398648e-05 13.23799354 43.31010174 32.20585097
650 1 1 -4.77866155705e-05 14.70888171 45.85775479 32.20585097
651 1 1 -4.28522491212e-05 13.23799354 48.40540783 32.20585097
652 1 1 -4.00553977508e-05 14.70888171 50.95306088 32.20585097
653 1 1 -3.60585761398e-05 13.23799354 53.50071392 32.20585097
654 1 1 -3.5020238579e-05 14.70888171 56.04836697 32.20585097
655 1 1 -3.36170954781e-05 13.23799354 58.59602001 32.20585097
656 1 1 -7.94221626761e-06 14.70888171 40.76244870 32.20585097
657 1 1 -2.64907364329e-05 16.17976988 43.31010174 32.20585097
658 1 1 -3.62818514114e-05 0.00000000 45.85775479 32.20585097
659 1 1 -4.62674466407e-05 16.17976988 48.40540783 32.20585097
660 1 1 -3.35048346456e-05 0.00000000 50.95306088 32.20585097
661 1 1 -3.7681140087e-05 16.17976988 53.50071392 32.20585097
662 1 1 -3.15699854651e-05 0.00000000 56.04836697 32.20585097
663 1 1 -3.45202584373e-05 16.17976988 58.59602001 32.20585097
664 1 1 -3.92983416839e-05 0.00000000 40.76244870 32.20585097
665 1 1 -3.79407268674e-05 1.47088817 43.31010174 32.20585097
666 1 1 -3.6685352127e-05 2.94177634 45.85775479 32.20585097
667 1 1 -3.48973414932e-05 1.47088817 48.40540783 32.20585097
668 1 1 -3.37454859636e-05 2.94177634 50.95306088 32.20585097
669 1 1 -3.24507460934e-05 1.47088817 53.50071392 32.20585097
670 1 1 -3.1742314515e-05 2.94177634 56.04836697 32.20585097
671 1 1 -3.1095655695e-05 1.47088817 58.59602001 32.20585097
672 1 1 -4.01653060634e-05 2.94177634 40.76244870 32.20585097
673 1 1 -0.000716384675938 5.88355268 44.15931943 34.60780130
674 1 1 -0.000688251669543 7.35444085 46.70697247 34.60780130
675 1 1 -0.000607560300755 5.88355268 49.25462551 34.60780130
676 1 1 -0.000582527118451 7.35444085 51.80227856 34.60780130
677 1 1 -0.000537696774094 5.88355268 54.34993160 34.60780130
678 1 1 -0.000525605492788 7.35444085 56.89758465 34.60780130
679 1 1 -0.000506686529085 5.88355268 59.44523769 34.60780130
680 1 1 -0.000842251395834 7.35444085 41.61166638 34.60780130
681 1 1 -0.000816707406768 8.82532903 44.15931943 34.60780130
682 1 1 -0.000774817504299 10.29621720 46.70697247 34.60780130
683 1 1 -0.000655393412533 8.82532903 49.25462551 34.60780130
684 1 1 -0.000621898016381 10.29621720 51.80227856 34.60780130
685 1 1 -0.000561187000975 8.82532903 54.34993160 34.60780130
686 1 1 -0.000546243721838 10.29621720 56.89758465 34.60780130
687 1 1 -0.000521650603078 8.82532903 59.44523769 34.60780130
688 1 1 -0.00102078890074 10.29621720 41.61166638 34.60780130
689 1 1 -0.000971756221945 11.76710537 44.15931943 34.60780130
690 1 1 -0.000896390789297 13.23799354 46.70697247 34.60780130
691 1 1 -0.000723885156812 11.76710537 49.25462551 34.60780130
692 1 1 -0.000672750927842 13.23799354 51.80227856 34.60780130
693 1 1 -0.000592406740468 11.76710537 54.34993160 34.60780130
694 1 1 -0.000571205540484 13.23799354 56.89758465 34.60780130
695 1 1 -0.000540792938506 11.76710537 59.44523769 34.60780130
696 1 1 -0.00128959334617 13.23799354 41.61166638 34.60780130
697 1 1 -0.00118461168898 14.70888171 44.15931943 34.60780130
698 1 1 -0.00104787845433 16.17976988 46.70697247 34.60780130
699 1 1 -0.000811146447352 14.70888171 49.25462551 34.60780130
700 1 1 -0.000731344293166 16.17976988 51.80227856 34.60780130
701 1 1 -0.000628999447056 14.70888171 54.34993160 34.60780130
702 1 1 -0.000597941300527 16.17976988 56.89758465 34.60780130
703 1 1 -0.000562179494949 14.70888171 59.44523769 34.60780130
704 1 1 -0.00166602985953 16.17976988 41.61166638 34.60780130
705 1 1 -0.000644153843078 0.00000000 44.15931943 34.60780130
706 1 1 -0.000608440942965 1.47088817 46.70697247 34.60780130
707 1 1 -0.000570417994216 0.00000000 49.25462551 34.60780130
708 1 1 -0.000542773784888 1.47088817 51.80227856 34.60780130
709 1 1 -0.000518318146368 0.00000000 54.34993160 34.60780130
710 1 1 -0.000503479636731 1.47088817 56.89758465 34.60780130
711 1 1 -0.00049397794011 0.00000000 59.44523769 34.60780130
712 1 1 -0.00069035193569 1.47088817 41.61166638 34.60780130
713 1 1 -0.000661497706701 2.94177634 44.15931943 34.60780130
714 1 1 -0.000634190667733 4.41266451 46.70697247 34.60780130
715 1 1 -0.000579597312434 2.94177634 49.25462551 34.60780130
716 1 1 -0.000556037282738 4.41266451 51.80227856 34.60780130
717 1 1 -0.00052320662247 2.94177634 54.34993160 34.60780130
718 1 1 -0.000511010512443 4.41266451 56.89758465 34.60780130
719 1 1 -0.00049721463265 2.94177634 59.44523769 34.60780130
720 1 1 -0.000737671578227 4.41266451 41.61166638 34.60780130
721 1 1 0.000577239440563 17.65065805 0.00000000 25.00000000
722 1 1 0.000598860207091 19.12154622 2.54765304 25.00000000
723 1 1 0.000625053213679 17.65065805 5.09530609 25.00000000
724 1 1 0.00071327156005 19.12154622 7.64295913 25.00000000
725 1 1 0.000802462126585 17.65065805 10.19061218 25.00000000
726 1 1 0.00102971095932 19.12154622 12.73826522 25.00000000
727 1 1 0.00122092435057 17.65065805 15.28591827 25.00000000
728 1 1 0.00174943350813 19.12154622 17.83357131 25.00000000
729 1 1 0.000594361198222 20.59243439 0.00000000 25.00000000
730 1 1 0.000615210707885 22.06332256 2.54765304 25.00000000
731 1 1 0.000650809342905 20.59243439 5.09530609 25.00000000
732 1 1 0.000748080777417 22.06332256 7.64295913 25.00000000
733 1 1 0.000868282219164 20.59243439 10.19061218 25.00000000
734 1 1 0.00112967374282 22.06332256 12.73826522 25.00000000
735 1 1 0.00141075462482 20.59243439 15.28591827 25.00000000
736 1 1 0.00210091738354 22.06332256 17.83357131 25.00000000
737 1 1 0.000605889669607 23.53421073 0.00000000 25.00000000
738 1 1 0.000624172074127 25.00509890 2.54765304 25.00000000
739 1 1 0.000668579517982 23.53421073 5.09530609 25.00000000
740 1 1 0.000767780444256 25.00509890 7.64295913 25.00000000
741 1 1 0.000915811980032 23.53421073 10.19061218 25.00000000
742 1 1 0.00118821618188 25.00509890 12.73826522 25.00000000
743 1 1 0.00155844900436 23.53421073 15.28591827 25.00000000
744 1 1 0.00235006295793 25.00509890 17.83357131 25.00000000
745 1 1 0.000609961038061 26.47598708 0.00000000 25.00000000
746 1 1 0.00062417207452 27.94687525 2.54765304 25.00000000
747 1 1 0.000674939500888 26.47598708 5.09530609 25.00000000
748 1 1 0.00076778044461 27.94687525 7.64295913 25.00000000
749 1 1 0.00093322343271 26.47598708 10.19061218 25.00000000
750 1 1 0.00118821618211 27.94687525 12.73826522 25.00000000
751 1 1 0.00161537838873 26.47598708 15.28591827 25.00000000
752 1 1 0.00235006295747 27.94687525 17.83357131 25.00000000
753 1 1 0.000605889670418 29.41776342 0.00000000 25.00000000
754 1 1 0.000615210709115 30.88865159 2.54765304 25.00000000
755 1 1 0.000668579518762 29.41776342 5.09530609 25.00000000
756 1 1 0.000748080778564 30.88865159 7.64295913 25.00000000
757 1 1 0.000915811980684 29.41776342 10.19061218 25.00000000
758 1 1 0.00112967374369 30.88865159 12.73826522 25.00000000
759 1 1 0.00155844900455 29.41776342 15.28591827 25.00000000
760 1 1 0.00210091738311 30.88865159 17.83357131 25.00000000
761 1 1 0.000594361199878 32.35953976 0.00000000 25.00000000
762 1 1 0.000598860209116 33.83042793 2.54765304 25.00000000
763 1 1 0.000650809344523 32.35953976 5.09530609 25.00000000
764 1 1 0.000713271561989 33.83042793 7.64295913 25.00000000
765 1 1 0.000868282220618 32.35953976 10.19061218 25.00000000
766 1 1 0.00102971096098 33.83042793 12.73826522 25.00000000
767 1 1 0.00141075462574 32.35953976 15.28591827 25.00000000
768 1 1 0.00174943350876 33.83042793 17.83357131 25.00000000
769 1 1 3.70777399882e-05 19.12154622 0.84921768 27.40195032
770 1 1 3.82018296023e-05 20.59243439 3.39687073 27.40195032
771 1 1 3.96768989648e-05 19.12154622 5.94452377 27.40195032
772 1 1 4.43870675052e-05 20.59243439 8.49217681 27.40195032
773 1 1 4.89524865377e-05 19.12154622 11.03982986 27.40195032
774 1 1 4.85975773245e-05 20.59243439 13.58748290 27.40195032
775 1 1 2.8115887382e-05 19.12154622 16.13513595 27.40195032
776 1 1 -8.58196346362e-05 20.59243439 18.68278899 27.40195032
777 1 1 3.77126097175e-05 22.06332256 0.84921768 27.40195032
778 1 1 3.87866517465e-05 23.53421073 3.39687073 27.40195032
779 1 1 4.07654656721e-05 22.06332256 5.94452377 27.40195032
780 1 1 4.58205729209e-05 23.53421073 8.49217681 27.40195032
781 1 1 5.07290172634e-05 22.06332256 11.03982986 27.40195032
782 1 1 4.34313734936e-05 23.53421073 13.58748290 27.40195032
783 1 1 -1.03332150597e-06 22.06332256 16.13513595 27.40195032
784 1 1 -0.000144402359311 23.53421073 18.68278899 27.40195032
785 1 1 3.80546248011e-05 25.00509890 0.84921768 27.40195032
786 1 1 3.899482435e-05 26.47598708 3.39687073 27.40195032
787 1 1 4.1385691793e-05 25.00509890 5.94452377 27.40195032
788 1 1 4.63298264666e-05 26.47598708 8.49217681 27.40195032
789 1 1 5.13507230387e-05 25.00509890 11.03982986 27.40195032
790 1 1 4.08282482017e-05 26.47598708 13.58748290 27.40195032
791 1 1 -2.24939173375e-05 25.00509890 16.13513595 27.40195032
792 1 1 -0.000163129790352 26.47598708 18.68278899 27.40195032
793 1 1 3.80546253013e-05 27.94687525 0.84921768 27.40195032
794 1 1 3.87866527455e-05 29.41776342 3.39687073 27.40195032
795 1 1 4.13856922852e-05 27.94687525 5.94452377 27.40195032
796 1 1 4.58205738954e-05 29.41776342 8.49217681 27.40195032
797 1 1 5.13507235077e-05 27.94687525 11.03982986 27.40195032
798 1 1 4.34313744207e-05 29.41776342 13.58748290 27.40195032
799 1 1 -2.24939169218e-05 27.94687525 16.13513595 27.40195032
800 1 1 -0.000144402358663 29.41776342 18.68278899 27.40195032
801 1 1 3.7712611217e-05 30.88865159 0.84921768 27.40195032
802 1 1 3.82018315689e-05 32.35953976 3.39687073 27.40195032
803 1 1 4.07654671579e-05 30.88865159 5.94452377 27.40195032
804 1 1 4.43870694527e-05 32.35953976 8.49217681 27.40195032
805 1 1 5.07290187116e-05 30.88865159 11.03982986 27.40195032
806 1 1 4.85975792566e-05 32.35953976 13.58748290 27.40195032
807 1 1 -1.03332010873e-06 30.88865159 16.13513595 27.40195032
808 1 1 -8.58196327162e-05 32.35953976 18.68278899 27.40195032
809 1 1 3.70777423744e-05 33.83042793 0.84921768 27.40195032
810 1 1 3.73424347866e-05 17.65065805 3.39687073 27.40195032
811 1 1 3.96769013448e-05 33.83042793 5.94452377 27.40195032
812 1 1 4.23380627052e-05 17.65065805 8.49217681 27.40195032
813 1 1 4.89524889042e-05 33.83042793 11.03982986 27.40195032
814 1 1 5.12852408885e-05 17.65065805 13.58748290 27.40195032
815 1 1 2.81158898124e-05 33.83042793 16.13513595 27.40195032
816 1 1 -1.13434651484e-05 17.65065805 18.68278899 27.40195032
817 1 1 -2.39497080961e-07 20.59243439 1.69843536 29.80390065
818 1 1 -2.56340375331e-07 22.06332256 4.24608841 29.80390065
819 1 1 -2.86518714686e-07 20.59243439 6.79374145 29.80390065
820 1 1 -3.90354713068e-07 22.06332256 9.34139450 29.80390065
821 1 1 -5.47921025236e-07 20.59243439 11.88904754 29.80390065
822 1 1 -8.8393441646e-07 22.06332256 14.43670058 29.80390065
823 1 1 -1.32188274435e-06 20.59243439 16.98435363 29.80390065
824 1 1 -1.75827426873e-06 22.06332256 19.53200667 29.80390065
825 1 1 -2.44895713398e-07 23.53421073 1.69843536 29.80390065
826 1 1 -2.615015249e-07 25.00509890 4.24608841 29.80390065
827 1 1 -3.02442593217e-07 23.53421073 6.79374145 29.80390065
828 1 1 -4.17302471621e-07 25.00509890 9.34139450 29.80390065
829 1 1 -5.99583960613e-07 23.53421073 11.88904754 29.80390065
830 1 1 -7.40474694265e-07 25.00509890 14.43670058 29.80390065
831 1 1 -1.01850317893e-06 23.53421073 16.98435363 29.80390065
832 1 1 -7.00150819131e-07 25.00509890 19.53200667 29.80390065
833 1 1 -2.46811344878e-07 26.47598708 1.69843536 29.80390065
834 1 1 -2.61500954857e-07 27.94687525 4.24608841 29.80390065
835 1 1 -3.09138596764e-07 26.47598708 6.79374145 29.80390065
836 1 1 -4.17301901458e-07 27.94687525 9.34139450 29.80390065
837 1 1 -6.00885705325e-07 26.47598708 11.88904754 29.80390065
838 1 1 -7.40474122984e-07 27.94687525 14.43670058 29.80390065
839 1 1 -4.54586788839e-07 26.47598708 16.98435363 29.80390065
840 1 1 -7.00150245352e-07 27.94687525 19.53200667 29.80390065
841 1 1 -2.4489459086e-07 29.41776342 1.69843536 29.80390065
842 1 1 -2.56338733924e-07 30.88865159 4.24608841 29.80390065
843 1 1 -3.02441471503e-07 29.41776342 6.79374145 29.80390065
844 1 1 -3.90353071525e-07 30.88865159 9.34139450 29.80390065
845 1 1 -5.99582841407e-07 29.41776342 11.88904754 29.80390065
846 1 1 -8.83932774449e-07 30.88865159 14.43670058 29.80390065
847 1 1 -1.01850208011e-06 29.41776342 16.98435363 29.80390065
848 1 1 -1.75827262895e-06 30.88865159 19.53200667 29.80390065
849 1 1 -2.39494970604e-07 32.35953976 1.69843536 29.80390065
850 1 1 -2.47939598418e-07 33.83042793 4.24608841 29.80390065
851 1 1 -2.86516604103e-07 32.35953976 6.79374145 29.80390065
852 1 1 -3.46708795703e-07 33.83042793 9.34139450 29.80390065
853 1 1 -5.47918913889e-07 32.35953976 11.88904754 29.80390065
854 1 1 -7.81344456597e-07 33.83042793 14.43670058 29.80390065
855 1 1 -1.32188062288e-06 32.35953976 16.98435363 29.80390065
856 1 1 -1.56332048467e-06 33.83042793 19.53200667 29.80390065
857 1 1 -2.31397138609e-07 17.65065805 1.69843536 29.80390065
858 1 1 -2.47942112805e-07 19.12154622 4.24608841 29.80390065
859 1 1 -2.68894295523e-07 17.65065805 6.79374145 29.80390065
860 1 1 -3.46711308874e-07 19.12154622 9.34139450 29.80390065
861 1 1 -4.45851511103e-07 17.65065805 11.88904754 29.80390065
862 1 1 -7.81346966729e-07 19.12154622 14.43670058 29.80390065
863 1 1 -1.01745989568e-06 17.65065805 16.98435363 29.80390065
864 1 1 -1.56332296735e-06 19.12154622 19.53200667 29.80390065
865 1 1 -3.59576534413e-05 22.06332256 2.54765304 32.20585097
866 1 1 -3.77519606189e-05 23.53421073 5.09530609 32.20585097
867 1 1 -4.07728346452e-05 22.06332256 7.64295913 32.20585097
868 1 1 -4.64970361894e-05 23.53421073 10.19061218 32.20585097
869 1 1 -4.62365861469e-05 22.06332256 12.73826522 32.20585097
870 1 1 -7.47179004809e-06 23.53421073 15.28591827 32.20585097
871 1 1 8.26160000596e-05 22.06332256 17.83357131 32.20585097
872 1 1 -3.57297618463e-05 23.53421073 0.00000000 32.20585097
873 1 1 -3.62968585544e-05 25.00509890 2.54765304 32.20585097
874 1 1 -3.79997951569e-05 26.47598708 5.09530609 32.20585097
875 1 1 -4.15805676058e-05 25.00509890 7.64295913 32.20585097
876 1 1 -4.69174230506e-05 26.47598708 10.19061218 32.20585097
877 1 1 -4.41321788783e-05 25.00509890 12.73826522 32.20585097
878 1 1 9.8796467348e-07 26.47598708 15.28591827 32.20585097
879 1 1 0.000121445813384 25.00509890 17.83357131 32.20585097
880 1 1 -3.58870640193e-05 26.47598708 0.00000000 32.20585097
881 1 1 -3.62968579579e-05 27.94687525 2.54765304 32.20585097
882 1 1 -3.77519594561e-05 29.41776342 5.09530609 32.20585097
883 1 1 -4.15805669963e-05 27.94687525 7.64295913 32.20585097
884 1 1 -4.6497034994e-05 29.41776342 10.19061218 32.20585097
885 1 1 -4.41321782394e-05 27.94687525 12.73826522 32.20585097
886 1 1 -7.47178879769e-06 29.41776342 15.28591827 32.20585097
887 1 1 0.000121445814141 27.94687525 17.83357131 32.20585097
888 1 1 -3.57297606927e-05 29.41776342 0.00000000 32.20585097
889 1 1 -3.59576517871e-05 30.88865159 2.54765304 32.20585097
890 1 1 -3.70693887967e-05 32.35953976 5.09530609 32.20585097
891 1 1 -4.07728329706e-05 30.88865159 7.64295913 32.20585097
892 1 1 -4.51222048509e-05 32.35953976 10.19061218 32.20585097
893 1 1 -4.62365844347e-05 30.88865159 12.73826522 32.20585097
894 1 1 -2.62849163987e-05 32.35953976 15.28591827 32.20585097
895 1 1 8.26160018626e-05 30.88865159 17.83357131 32.20585097
896 1 1 -3.5279887864e-05 32.35953976 0.00000000 32.20585097
897 1 1 -3.53349542481e-05 33.83042793 2.54765304 32.20585097
898 1 1 -3.61023960401e-05 17.65065805 5.09530609 32.20585097
899 1 1 -3.93587215187e-05 33.83042793 7.64295913 32.20585097
900 1 1 -4.28051964054e-05 17.65065805 10.19061218 32.20585097
901 1 1 -4.76354115335e-05 33.83042793 12.73826522 32.20585097
902 1 1 -4.22380203114e-05 17.65065805 15.28591827 32.20585097
903 1 1 2.24977985597e-05 33.83042793 17.83357131 32.20585097
904 1 1 -3.45982380966e-05 17.65065805 0.00000000 32.20585097
905 1 1 -3.5334956691e-05 19.12154622 2.54765304 32.20585097
906 1 1 -3.7069390886e-05 20.59243439 5.09530609 32.20585097
907 1 1 -3.93587239701e-05 19.12154622 7.64295913 32.20585097
908 1 1 -4.51222069644e-05 20.59243439 10.19061218 32.20585097
909 1 1 -4.76354139877e-05 19.12154622 12.73826522 32.20585097
910 1 1 -2.62849185109e-05 20.59243439 15.28591827 32.20585097
911 1 1 2.24977962356e-05 19.12154622 17.83357131 32.20585097
912 1 1 -3.52798899459e-05 20.59243439 0.00000000 32.20585097
913 1 1 -0.000633753836173 23.53421073 3.39687073 34.60780130
914 1 1 -0.000700152367689 25.00509890 5.94452377 34.60780130
915 1 1 -0.000805092435142 23.53421073 8.49217681 34.60780130
916 1 1 -0.00100429230409 25.00509890 11.03982986 34.60780130
917 1 1 -0.00127925906378 23.53421073 13.58748290 34.60780130
918 1 1 -0.00179834037214 25.00509890 16.13513595 34.60780130
919 1 1 -0.00262923249452 23.53421073 18.68278899 34.60780130
920 1 1 -0.000611646256423 25.00509890 0.84921768 34.60780130
921 1 1 -0.000638773577053 26.47598708 3.39687073 34.60780130
922 1 1 -0.000700152367095 27.94687525 5.94452377 34.60780130
923 1 1 -0.000817230048021 26.47598708 8.49217681 34.60780130
924 1 1 -0.00100429230341 27.94687525 11.03982986 34.60780130
925 1 1 -0.00131640978348 26.47598708 13.58748290 34.60780130
926 1 1 -0.00179834037111 27.94687525 16.13513595 34.60780130
927 1 1 -0.00283025152034 26.47598708 18.68278899 34.60780130
928 1 1 -0.000611646255852 27.94687525 0.84921768 34.60780130
929 1 1 -0.000633753835062 29.41776342 3.39687073 34.60780130
930 1 1 -0.000685842218221 30.88865159 5.94452377 34.60780130
931 1 1 -0.000805092433947 29.41776342 8.49217681 34.60780130
932 1 1 -0.000963791443735 30.88865159 11.03982986 34.60780130
933 1 1 -0.0012792590623 29.41776342 13.58748290 34.60780130
934 1 1 -0.00166053003765 30.88865159 16.13513595 34.60780130
935 1 1 -0.00262923249138 29.41776342 18.68278899 34.60780130
936 1 1 -0.000603556894335 30.88865159 0.84921768 34.60780130
937 1 1 -0.000619629948903 32.35953976 3.39687073 34.60780130
938 1 1 -0.000660249043933 33.83042793 5.94452377 34.60780130
939 1 1 -0.000771730774144 32.35953976 8.49217681 34.60780130
940 1 1 -0.000893806371747 33.83042793 11.03982986 34.60780130
941 1 1 -0.00117995876141 32.35953976 13.58748290 34.60780130
942 1 1 -0.00144445527423 33.83042793 16.13513595 34.60780130
943 1 1 -0.00218285424406 32.35953976 18.68278899 34.60780130
944 1 1 -0.00058872836601 33.83042793 0.84921768 34.60780130
945 1 1 -0.000598892691208 17.65065805 3.39687073 34.60780130
946 1 1 -0.00066024904623 19.12154622 5.94452377 34.60780130
947 1 1 -0.000724874857857 17.65065805 8.49217681 34.60780130
948 1 1 -0.000893806374238 19.12154622 11.03982986 34.60780130
949 1 1 -0.00104701466288 17.65065805 13.58748290 34.60780130
950 1 1 -0.00144445527735 19.12154622 16.13513595 34.60780130
951 1 1 -0.00173025080562 17.65065805 18.68278899 34.60780130
952 1 1 -0.000588728368257 19.12154622 0.84921768 34.60780130
953 1 1 -0.000619629950854 20.59243439 3.39687073 34.60780130
954 1 1 -0.000685842219825 22.06332256 5.94452377 34.60780130
955 1 1 -0.000771730776203 20.59243439 8.49217681 34.60780130
956 1 1 -0.000963791445527 22.06332256 11.03982986 34.60780130
957 1 1 -0.00117995876382 20.59243439 13.58748290 34.60780130
958 1 1 -0.00166053004014 22.06332256 16.13513595 34.60780130
959 1 1 -0.00218285424816 20.59243439 18.68278899 34.60780130
960 1 1 -0.000603556895889 22.06332256 0.84921768 34.60780130
961 1 1 0.00210522578309 17.65065805 20.38122435 25.00000000
962 1 1 0.00384441853027 19.12154622 22.92887739 25.00000000
963 1 1 0.00431024936993 17.65065805 25.47653044 25.00000000
964 1 1 0.00936117585938 19.12154622 28.02418348 25.00000000
965 1 1 0.00656747669195 17.65065805 30.57183653 25.00000000
966 1 1 0.0093611824821 19.12154622 33.11948957 25.00000000
967 1 1 0.00430970979577 17.65065805 35.66714262 25.00000000
968 1 1 0.00384411685692 19.12154622 38.21479566 25.00000000
969 1 1 0.00290457486225 20.59243439 20.38122435 25.00000000
970 1 1 0.00656087305367 22.06332256 22.92887739 25.00000000
971 1 1 0.0093589173636 20.59243439 25.47653044 25.00000000
972 1 1 0.0236159476282 22.06332256 28.02418348 25.00000000
973 1 1 0.0182087756124 20.59243439 30.57183653 25.00000000
974 1 1 0.023616410588 22.06332256 33.11948957 25.00000000
975 1 1 0.00935892264264 20.59243439 35.66714262 25.00000000
976 1 1 0.00656087236681 22.06332256 38.21479566 25.00000000
977 1 1 0.00384039255747 23.53421073 20.38122435 25.00000000
978 1 1 0.00935598205398 25.00509890 22.92887739 25.00000000
979 1 1 0.0182060355015 23.53421073 25.47653044 25.00000000
980 1 1 0.0422860324672 25.00509890 28.02418348 25.00000000
981 1 1 0.0422866859825 23.53421073 30.57183653 25.00000000
982 1 1 0.0422860353007 25.00509890 33.11948957 25.00000000
983 1 1 0.0182060339101 23.53421073 35.66714262 25.00000000
984 1 1 0.00935597499565 25.00509890 38.21479566 25.00000000
985 1 1 0.00430247223692 26.47598708 20.38122435 25.00000000
986 1 1 0.00935598204639 27.94687525 22.92887739 25.00000000
987 1 1 0.0236145461499 26.47598708 25.47653044 25.00000000
988 1 1 0.0422860324182 27.94687525 28.02418348 25.00000000
989 1 1 0.0584704163293 26.47598708 30.57183653 25.00000000
990 1 1 0.0422860352516 27.94687525 33.11948957 25.00000000
991 1 1 0.0236140828698 26.47598708 35.66714262 25.00000000
992 1 1 0.00935597498806 27.94687525 38.21479566 25.00000000
993 1 1 0.00384039255407 29.41776342 20.38122435 25.00000000
994 1 1 0.00656087304123 30.88865159 22.92887739 25.00000000
995 1 1 0.0182060354664 29.41776342 25.47653044 25.00000000
996 1 1 0.0236159475573 30.88865159 28.02418348 25.00000000
997 1 1 0.0422866858854 29.41776342 30.57183653 25.00000000
998 1 1 0.0236164105171 30.88865159 33.11948957 25.00000000
999 1 1 0.018206033875 29.41776342 35.66714262 25.00000000
1000 1 1 0.00656087235437 30.88865159 38.21479566 25.00000000
1001 1 1 0.00290457485975 32.35953976 20.38122435 25.00000000
1002 1 1 0.00384441852398 33.83042793 22.92887739 25.00000000
1003 1 1 0.00935891733673 32.35953976 25.47653044 25.00000000
1004 1 1 0.00936117582722 33.83042793 28.02418348 25.00000000
1005 1 1 0.018208775546 32.35953976 30.57183653 25.00000000
1006 1 1 0.00936118244995 33.83042793 33.11948957 25.00000000
1007 1 1 0.00935892261579 32.35953976 35.66714262 25.00000000
1008 1 1 0.00384411685062 33.83042793 38.21479566 25.00000000
1009 1 1 -0.000164474331911 19.12154622 21.23044203 27.40195032
1010 1 1 -5.85837614744e-05 20.59243439 23.77809508 27.40195032
1011 1 1 7.26555307401e-05 19.12154622 26.32574812 27.40195032
1012 1 1 0.00172514234968 20.59243439 28.87340116 27.40195032
1013 1 1 0.00058626660447 19.12154622 31.42105421 27.40195032
1014 1 1 0.00105086939622 20.59243439 33.96870725 27.40195032
1015 1 1 -0.000136836614962 19.12154622 36.51636030 27.40195032
1016 1 1 -0.000201169916179 20.59243439 39.06401334 27.40195032
1017 1 1 -0.000201239654939 22.06332256 21.23044203 27.40195032
1018 1 1 0.000585989473135 23.53421073 23.77809508 27.40195032
1019 1 1 0.00172503118821 22.06332256 26.32574812 27.40195032
1020 1 1 0.00635137531008 23.53421073 28.87340116 27.40195032
1021 1 1 0.00418859002514 22.06332256 31.42105421 27.40195032
1022 1 1 0.00418850669601 23.53421073 33.96870725 27.40195032
1023 1 1 0.000586043084567 22.06332256 36.51636030 27.40195032
1024 1 1 -5.87106445699e-05 23.53421073 39.06401334 27.40195032
1025 1 1 -0.000137097759913 25.00509890 21.23044203 27.40195032
1026 1 1 0.00105068646223 26.47598708 23.77809508 27.40195032
1027 1 1 0.00418846701953 25.00509890 26.32574812 27.40195032
1028 1 1 0.00957477416804 26.47598708 28.87340116 27.40195032
1029 1 1 0.00957478317978 25.00509890 31.42105421 27.40195032
1030 1 1 0.00635131233415 26.47598708 33.96870725 27.40195032
1031 1 1 0.00172494983346 25.00509890 36.51636030 27.40195032
1032 1 1 7.23687505407e-05 26.47598708 39.06401334 27.40195032
1033 1 1 -0.000137097760319 27.94687525 21.23044203 27.40195032
1034 1 1 0.000585989469335 29.41776342 23.77809508 27.40195032
1035 1 1 0.0041884670117 27.94687525 26.32574812 27.40195032
1036 1 1 0.00635137528838 29.41776342 28.87340116 27.40195032
1037 1 1 0.00957478316369 27.94687525 31.42105421 27.40195032
1038 1 1 0.00418850668087 29.41776342 33.96870725 27.40195032
1039 1 1 0.00172494982948 27.94687525 36.51636030 27.40195032
1040 1 1 -5.87106456909e-05 29.41776342 39.06401334 27.40195032
1041 1 1 -0.000201239654667 30.88865159 21.23044203 27.40195032
1042 1 1 -5.85837624378e-05 32.35953976 23.77809508 27.40195032
1043 1 1 0.00172503117766 30.88865159 26.32574812 27.40195032
1044 1 1 0.00172514233686 32.35953976 28.87340116 27.40195032
1045 1 1 0.00418859000348 30.88865159 31.42105421 27.40195032
1046 1 1 0.00105086938749 32.35953976 33.96870725 27.40195032
1047 1 1 0.000586043079547 30.88865159 36.51636030 27.40195032
1048 1 1 -0.000201169915384 32.35953976 39.06401334 27.40195032
1049 1 1 -0.000164474329597 33.83042793 21.23044203 27.40195032
1050 1 1 -0.000195436815016 17.65065805 23.77809508 27.40195032
1051 1 1 7.26555288769e-05 33.83042793 26.32574812 27.40195032
1052 1 1 -5.82896624564e-05 17.65065805 28.87340116 27.40195032
1053 1 1 0.000586266598315 33.83042793 31.42105421 27.40195032
1054 1 1 -0.00013667018381 17.65065805 33.96870725 27.40195032
1055 1 1 -0.000136836614607 33.83042793 36.51636030 27.40195032
1056 1 1 -0.000144091308414 17.65065805 39.06401334 27.40195032
1057 1 1 -1.57248643923e-06 20.59243439 22.07965971 29.80390065
1058 1 1 -1.79533680326e-06 22.06332256 24.62731276 29.80390065
1059 1 1 -2.78915044056e-06 20.59243439 27.17496580 29.80390065
1060 1 1 -3.01120738913e-05 22.06332256 29.72261885 29.80390065
1061 1 1 -6.75948728334e-06 20.59243439 32.27027189 29.80390065
1062 1 1 -6.76005397774e-06 22.06332256 34.81792493 29.80390065
1063 1 1 -1.70134853402e-06 20.59243439 37.36557798 29.80390065
1064 1 1 -1.57127185934e-06 22.06332256 39.91323102 29.80390065
1065 1 1 -1.70039642807e-06 23.53421073 22.07965971 29.80390065
1066 1 1 -6.75967951878e-06 25.00509890 24.62731276 29.80390065
1067 1 1 -3.0112986136e-05 23.53421073 27.17496580 29.80390065
1068 1 1 -0.000164838565542 25.00509890 29.72261885 29.80390065
1069 1 1 -7.03725279312e-05 23.53421073 32.27027189 29.80390065
1070 1 1 -3.0114270942e-05 25.00509890 34.81792493 29.80390065
1071 1 1 -1.79281127874e-06 23.53421073 37.36557798 29.80390065
1072 1 1 -1.88138514958e-06 25.00509890 39.91323102 29.80390065
1073 1 1 -1.21885066756e-06 26.47598708 22.07965971 29.80390065
1074 1 1 -6.75967891405e-06 27.94687525 24.62731276 29.80390065
1075 1 1 -7.03735301924e-05 26.47598708 27.17496580 29.80390065
1076 1 1 -0.000164838564507 27.94687525 29.72261885 29.80390065
1077 1 1 -0.00016484103478 26.47598708 32.27027189 29.80390065
1078 1 1 -3.01142702986e-05 27.94687525 34.81792493 29.80390065
1079 1 1 -2.78674593148e-06 26.47598708 37.36557798 29.80390065
1080 1 1 -1.88138459043e-06 27.94687525 39.91323102 29.80390065
1081 1 1 -1.70039535906e-06 29.41776342 22.07965971 29.80390065
1082 1 1 -1.79533513613e-06 30.88865159 24.62731276 29.80390065
1083 1 1 -3.01129848497e-05 29.41776342 27.17496580 29.80390065
1084 1 1 -3.01120720271e-05 30.88865159 29.72261885 29.80390065
1085 1 1 -7.03725264389e-05 29.41776342 32.27027189 29.80390065
1086 1 1 -6.76005229626e-06 30.88865159 34.81792493 29.80390065
1087 1 1 -1.79281009715e-06 29.41776342 37.36557798 29.80390065
1088 1 1 -1.57127022793e-06 30.88865159 39.91323102 29.80390065
1089 1 1 -1.57248426529e-06 32.35953976 22.07965971 29.80390065
1090 1 1 -1.88571988904e-06 33.83042793 24.62731276 29.80390065
1091 1 1 -2.78914824879e-06 32.35953976 27.17496580 29.80390065
1092 1 1 -1.79422860611e-06 33.83042793 29.72261885 29.80390065
1093 1 1 -6.75948517136e-06 32.35953976 32.27027189 29.80390065
1094 1 1 -1.22267449205e-06 33.83042793 34.81792493 29.80390065
1095 1 1 -1.70134649577e-06 32.35953976 37.36557798 29.80390065
1096 1 1 -1.75921383922e-06 33.83042793 39.91323102 29.80390065
1097 1 1 -2.13711099405e-06 17.65065805 22.07965971 29.80390065
1098 1 1 -1.88572232843e-06 19.12154622 24.62731276 29.80390065
1099 1 1 -1.88619227578e-06 17.65065805 27.17496580 29.80390065
1100 1 1 -1.7942311003e-06 19.12154622 29.72261885 29.80390065
1101 1 1 -1.70409749736e-06 17.65065805 32.27027189 29.80390065
1102 1 1 -1.22267707165e-06 19.12154622 34.81792493 29.80390065
1103 1 1 -7.03337361094e-07 17.65065805 37.36557798 29.80390065
1104 1 1 -1.75921639739e-06 19.12154622 39.91323102 29.80390065
1105 1 1 5.32684598769e-05 22.06332256 22.92887739 32.20585097
1106 1 1 -0.00193489865539 23.53421073 25.47653044 32.20585097
1107 1 1 -0.00303620796732 22.06332256 28.02418348 32.20585097
1108 1 1 -0.00697911419864 23.53421073 30.57183653 32.20585097
1109 1 1 -0.00303656047307 22.06332256 33.11948957 32.20585097
1110 1 1 -0.00193489131829 23.53421073 35.66714262 32.20585097
1111 1 1 5.32740253518e-05 22.06332256 38.21479566 32.20585097
1112 1 1 0.000222941099597 23.53421073 20.38122435 32.20585097
1113 1 1 -0.000324410498272 25.00509890 22.92887739 32.20585097
1114 1 1 -0.00303645716417 26.47598708 25.47653044 32.20585097
1115 1 1 -0.00697908867868 25.00509890 28.02418348 32.20585097
1116 1 1 -0.010395233029 26.47598708 30.57183653 32.20585097
1117 1 1 -0.00697910573151 25.00509890 33.11948957 32.20585097
1118 1 1 -0.00303610766362 26.47598708 35.66714262 32.20585097
1119 1 1 -0.000324092470246 25.00509890 38.21479566 32.20585097
1120 1 1 0.000216746143791 26.47598708 20.38122435 32.20585097
1121 1 1 -0.000324410495554 27.94687525 22.92887739 32.20585097
1122 1 1 -0.0019348986448 29.41776342 25.47653044 32.20585097
1123 1 1 -0.00697908866556 27.94687525 28.02418348 32.20585097
1124 1 1 -0.00697911417325 29.41776342 30.57183653 32.20585097
1125 1 1 -0.00697910571847 27.94687525 33.11948957 32.20585097
1126 1 1 -0.00193489130772 29.41776342 35.66714262 32.20585097
1127 1 1 -0.000324092467521 27.94687525 38.21479566 32.20585097
1128 1 1 0.000222941101597 29.41776342 20.38122435 32.20585097
1129 1 1 5.32684644958e-05 30.88865159 22.92887739 32.20585097
1130 1 1 -0.000324262520483 32.35953976 25.47653044 32.20585097
1131 1 1 -0.00303620794755 30.88865159 28.02418348 32.20585097
1132 1 1 -0.00193503493063 32.35953976 30.57183653 32.20585097
1133 1 1 -0.00303656045341 30.88865159 33.11948957 32.20585097
1134 1 1 -0.0003245693531 32.35953976 35.66714262 32.20585097
1135 1 1 5.32740300244e-05 30.88865159 38.21479566 32.20585097
1136 1 1 0.000185282953001 32.35953976 20.38122435 32.20585097
1137 1 1 0.00022286402026 33.83042793 22.92887739 32.20585097
1138 1 1 0.000215804828132 17.65065805 25.47653044 32.20585097
1139 1 1 -0.000324378228936 33.83042793 28.02418348 32.20585097
1140 1 1 5.29200604815e-05 17.65065805 30.57183653 32.20585097
1141 1 1 -0.000324695326481 33.83042793 33.11948957 32.20585097
1142 1 1 0.000216354049277 17.65065805 35.66714262 32.20585097
1143 1 1 0.000222739805329 33.83042793 38.21479566 32.20585097
1144 1 1 8.25268416466e-05 17.65065805 20.38122435 32.20585097
1145 1 1 0.000222864017186 19.12154622 22.92887739 32.20585097
1146 1 1 -0.000324262528768 20.59243439 25.47653044 32.20585097
1147 1 1 -0.000324378238036 19.12154622 28.02418348 32.20585097
1148 1 1 -0.00193503494885 20.59243439 30.57183653 32.20585097
1149 1 1 -0.000324695335541 19.12154622 33.11948957 32.20585097
1150 1 1 -0.000324569361313 20.59243439 35.66714262 32.20585097
1151 1 1 0.000222739802219 19.12154622 38.21479566 32.20585097
1152 1 1 0.000185282950582 20.59243439 20.38122435 32.20585097
1153 1 1 -0.0107456791623 23.53421073 23.77809508 34.60780130
1154 1 1 -0.0285738148893 25.00509890 26.32574812 34.60780130
1155 1 1 -0.038380060831 23.53421073 28.87340116 34.60780130
1156 1 1 -0.0526850772502 25.00509890 31.42105421 34.60780130
1157 1 1 -0.0285744218694 23.53421073 33.96870725 34.60780130
1158 1 1 -0.0168555469564 25.00509890 36.51636030 34.60780130
1159 1 1 -0.00624216801663 23.53421073 39.06401334 34.60780130
1160 1 1 -0.00537149193172 25.00509890 21.23044203 34.60780130
1161 1 1 -0.0133321660655 26.47598708 23.77809508 34.60780130
1162 1 1 -0.0285738148576 27.94687525 26.32574812 34.60780130
1163 1 1 -0.0526848785559 26.47598708 28.87340116 34.60780130
1164 1 1 -0.0526850771862 27.94687525 31.42105421 34.60780130
1165 1 1 -0.0383792745024 26.47598708 33.96870725 34.60780130
1166 1 1 -0.0168555469392 27.94687525 36.51636030 34.60780130
1167 1 1 -0.00735398474501 26.47598708 39.06401334 34.60780130
1168 1 1 -0.00537149192746 27.94687525 21.23044203 34.60780130
1169 1 1 -0.0107456791427 29.41776342 23.77809508 34.60780130
1170 1 1 -0.0168571397266 30.88865159 26.32574812 34.60780130
1171 1 1 -0.0383800607429 29.41776342 28.87340116 34.60780130
1172 1 1 -0.0285755653686 30.88865159 31.42105421 34.60780130
1173 1 1 -0.0285744218069 29.41776342 33.96870725 34.60780130
1174 1 1 -0.0107466349396 30.88865159 36.51636030 34.60780130
1175 1 1 -0.00624216800658 29.41776342 39.06401334 34.60780130
1176 1 1 -0.00415250476952 30.88865159 21.23044203 34.60780130
1177 1 1 -0.0062444085865 32.35953976 23.77809508 34.60780130
1178 1 1 -0.00735910937027 33.83042793 26.32574812 34.60780130
1179 1 1 -0.0168587976724 32.35953976 28.87340116 34.60780130
1180 1 1 -0.0107504809497 33.83042793 31.42105421 34.60780130
1181 1 1 -0.013335470523 32.35953976 33.96870725 34.60780130
1182 1 1 -0.00537609542714 33.83042793 36.51636030 34.60780130
1183 1 1 -0.00415372101151 32.35953976 39.06401334 34.60780130
1184 1 1 -0.0028360503056 33.83042793 21.23044203 34.60780130
1185 1 1 -0.00336778294694 17.65065805 23.77809508 34.60780130
1186 1 1 -0.00735910939676 19.12154622 26.32574812 34.60780130
1187 1 1 -0.00624956749621 17.65065805 28.87340116 34.60780130
1188 1 1 -0.0107504809932 19.12154622 31.42105421 34.60780130
1189 1 1 -0.00537908184012 17.65065805 33.96870725 34.60780130
1190 1 1 -0.00537609544433 19.12154622 36.51636030 34.60780130
1191 1 1 -0.00263463237076 17.65065805 39.06401334 34.60780130
1192 1 1 -0.00283605031234 19.12154622 21.23044203 34.60780130
1193 1 1 -0.00624440860444 20.59243439 23.77809508 34.60780130
1194 1 1 -0.0168571397758 22.06332256 26.32574812 34.60780130
1195 1 1 -0.016858797736 20.59243439 28.87340116 34.60780130
1196 1 1 -0.0285755654607 22.06332256 31.42105421 34.60780130
1197 1 1 -0.0133354705706 20.59243439 33.96870725 34.60780130
1198 1 1 -0.010746634968 22.06332256 36.51636030 34.60780130
1199 1 1 -0.00415372102172 20.59243439 39.06401334 34.60780130
1200 1 1 -0.00415250477774 22.06332256 21.23044203 34.60780130
1201 1 1 0.00210498534152 17.65065805 40.76244870 25.00000000
1202 1 1 0.00174943330313 19.12154622 43.31010174 25.00000000
1203 1 1 0.00122092412505 17.65065805 45.85775479 25.00000000
1204 1 1 0.00102972904453 19.12154622 48.40540783 25.00000000
1205 1 1 0.000802458111164 17.65065805 50.95306088 25.00000000
1206 1 1 0.00071326535132 19.12154622 53.50071392 25.00000000
1207 1 1 0.000625051569714 17.65065805 56.04836697 25.00000000
1208 1 1 0.000598860123599 19.12154622 58.59602001 25.00000000
1209 1 1 0.00290457469164 20.59243439 40.76244870 25.00000000
1210 1 1 0.00210115737299 22.06332256 43.31010174 25.00000000
1211 1 1 0.00141085549632 20.59243439 45.85775479 25.00000000
1212 1 1 0.0011297711695 22.06332256 48.40540783 25.00000000
1213 1 1 0.000868288832734 20.59243439 50.95306088 25.00000000
1214 1 1 0.000748076079677 22.06332256 53.50071392 25.00000000
1215 1 1 0.000650805507458 20.59243439 56.04836697 25.00000000
1216 1 1 0.000615209716641 22.06332256 58.59602001 25.00000000
1217 1 1 0.00384069387136 23.53421073 40.76244870 25.00000000
1218 1 1 0.00235069553766 25.00509890 43.31010174 25.00000000
1219 1 1 0.0015587862311 23.53421073 45.85775479 25.00000000
1220 1 1 0.00118841880621 25.00509890 48.40540783 25.00000000
1221 1 1 0.000915849928967 23.53421073 50.95306088 25.00000000
1222 1 1 0.000767780748321 25.00509890 53.50071392 25.00000000
1223 1 1 0.000668574337066 23.53421073 56.04836697 25.00000000
1224 1 1 0.000624170394165 25.00509890 58.59602001 25.00000000
1225 1 1 0.00430301162026 26.47598708 40.76244870 25.00000000
1226 1 1 0.0023506955372 27.94687525 43.31010174 25.00000000
1227 1 1 0.00161587609888 26.47598708 45.85775479 25.00000000
1228 1 1 0.00118841880643 27.94687525 48.40540783 25.00000000
1229 1 1 0.000933281094597 26.47598708 50.95306088 25.00000000
1230 1 1 0.000767780748675 27.94687525 53.50071392 25.00000000
1231 1 1 0.000674934029478 26.47598708 56.04836697 25.00000000
1232 1 1 0.000624170394558 27.94687525 58.59602001 25.00000000
1233 1 1 0.00384069386797 29.41776342 40.76244870 25.00000000
1234 1 1 0.00210115737256 30.88865159 43.31010174 25.00000000
1235 1 1 0.00155878623129 29.41776342 45.85775479 25.00000000
1236 1 1 0.00112977117037 30.88865159 48.40540783 25.00000000
1237 1 1 0.000915849929619 29.41776342 50.95306088 25.00000000
1238 1 1 0.000748076080824 30.88865159 53.50071392 25.00000000
1239 1 1 0.000668574337847 29.41776342 56.04836697 25.00000000
1240 1 1 0.000615209717871 30.88865159 58.59602001 25.00000000
1241 1 1 0.00290457468915 32.35953976 40.76244870 25.00000000
1242 1 1 0.00174943330376 33.83042793 43.31010174 25.00000000
1243 1 1 0.00141085549723 32.35953976 45.85775479 25.00000000
1244 1 1 0.00102972904619 33.83042793 48.40540783 25.00000000
1245 1 1 0.000868288834187 32.35953976 50.95306088 25.00000000
1246 1 1 0.000713265353259 33.83042793 53.50071392 25.00000000
1247 1 1 0.000650805509076 32.35953976 56.04836697 25.00000000
1248 1 1 0.000598860125624 33.83042793 58.59602001 25.00000000
1249 1 1 -8.57429293466e-05 19.12154622 41.61166638 27.40195032
1250 1 1 -1.1496641731e-05 20.59243439 44.15931943 27.40195032
1251 1 1 4.72336346836e-05 19.12154622 46.70697247 27.40195032
1252 1 1 5.12376069799e-05 20.59243439 49.25462551 27.40195032
1253 1 1 4.51552903176e-05 19.12154622 51.80227856 27.40195032
1254 1 1 4.13722456698e-05 20.59243439 54.34993160 27.40195032
1255 1 1 3.82652709769e-05 19.12154622 56.89758465 27.40195032
1256 1 1 3.75735466315e-05 20.59243439 59.44523769 27.40195032
1257 1 1 -0.000164625258353 22.06332256 41.61166638 27.40195032
1258 1 1 -5.10341170319e-05 23.53421073 44.15931943 27.40195032
1259 1 1 3.72641211651e-05 22.06332256 46.70697247 27.40195032
1260 1 1 5.13888954499e-05 23.53421073 49.25462551 27.40195032
1261 1 1 4.71778787885e-05 22.06332256 51.80227856 27.40195032
1262 1 1 4.24251611231e-05 23.53421073 54.34993160 27.40195032
1263 1 1 3.90809308195e-05 22.06332256 56.89758465 27.40195032
1264 1 1 3.80851521655e-05 23.53421073 59.44523769 27.40195032
1265 1 1 -0.000195807670796 25.00509890 41.61166638 27.40195032
1266 1 1 -6.72574106338e-05 26.47598708 44.15931943 27.40195032
1267 1 1 2.84988071471e-05 25.00509890 46.70697247 27.40195032
1268 1 1 5.11484251185e-05 26.47598708 49.25462551 27.40195032
1269 1 1 4.82527368781e-05 25.00509890 51.80227856 27.40195032
1270 1 1 4.28097740092e-05 26.47598708 54.34993160 27.40195032
1271 1 1 3.95363631847e-05 25.00509890 56.89758465 27.40195032
1272 1 1 3.82649885587e-05 26.47598708 59.44523769 27.40195032
1273 1 1 -0.00019580767067 27.94687525 41.61166638 27.40195032
1274 1 1 -5.10341161885e-05 29.41776342 44.15931943 27.40195032
1275 1 1 2.84988075888e-05 27.94687525 46.70697247 27.40195032
1276 1 1 5.13888963953e-05 29.41776342 49.25462551 27.40195032
1277 1 1 4.82527373562e-05 27.94687525 51.80227856 27.40195032
1278 1 1 4.24251621085e-05 29.41776342 54.34993160 27.40195032
1279 1 1 3.9536363681e-05 27.94687525 56.89758465 27.40195032
1280 1 1 3.80851531676e-05 29.41776342 59.44523769 27.40195032
1281 1 1 -0.000164625257281 30.88865159 41.61166638 27.40195032
1282 1 1 -1.14966397938e-05 32.35953976 44.15931943 27.40195032
1283 1 1 3.72641225928e-05 30.88865159 46.70697247 27.40195032
1284 1 1 5.12376089078e-05 32.35953976 49.25462551 27.40195032
1285 1 1 4.71778802526e-05 30.88865159 51.80227856 27.40195032
1286 1 1 4.13722476249e-05 32.35953976 54.34993160 27.40195032
1287 1 1 3.90809323128e-05 30.88865159 56.89758465 27.40195032
1288 1 1 3.75735486002e-05 32.35953976 59.44523769 27.40195032
1289 1 1 -8.57429268417e-05 33.83042793 41.61166638 27.40195032
1290 1 1 2.8187028401e-05 17.65065805 44.15931943 27.40195032
1291 1 1 4.72336370736e-05 33.83042793 46.70697247 27.40195032
1292 1 1 4.93948696566e-05 17.65065805 49.25462551 27.40195032
1293 1 1 4.51552926881e-05 33.83042793 51.80227856 27.40195032
1294 1 1 3.99110272932e-05 17.65065805 54.34993160 27.40195032
1295 1 1 3.82652733603e-05 33.83042793 56.89758465 27.40195032
1296 1 1 3.68050679036e-05 17.65065805 59.44523769 27.40195032
1297 1 1 -1.56333540878e-06 20.59243439 42.46088406 29.80390065
1298 1 1 -1.34869070023e-06 22.06332256 45.00853711 29.80390065
1299 1 1 -7.08019728172e-07 20.59243439 47.55619015 29.80390065
1300 1 1 -4.72832034661e-07 22.06332256 50.10384320 29.80390065
1301 1 1 -3.28391030158e-07 20.59243439 52.65149624 29.80390065
1302 1 1 -2.84523390223e-07 22.06332256 55.19914928 29.80390065
1303 1 1 -2.52815485029e-07 20.59243439 57.74680233 29.80390065
1304 1 1 -2.43185842308e-07 22.06332256 60.29445537 29.80390065
1305 1 1 -2.13526212196e-06 23.53421073 42.46088406 29.80390065
1306 1 1 -2.00583207942e-06 25.00509890 45.00853711 29.80390065
1307 1 1 -9.23508702768e-07 23.53421073 47.55619015 29.80390065
1308 1 1 -5.24084427488e-07 25.00509890 50.10384320 29.80390065
1309 1 1 -3.44212665774e-07 23.53421073 52.65149624 29.80390065
1310 1 1 -2.90101496843e-07 25.00509890 55.19914928 29.80390065
1311 1 1 -2.60119837015e-07 23.53421073 57.74680233 29.80390065
1312 1 1 -2.47354681315e-07 25.00509890 60.29445537 29.80390065
1313 1 1 -3.03761362261e-06 26.47598708 42.46088406 29.80390065
1314 1 1 -2.00583151414e-06 27.94687525 45.00853711 29.80390065
1315 1 1 -1.06822399872e-06 26.47598708 47.55619015 29.80390065
1316 1 1 -5.24083858392e-07 27.94687525 50.10384320 29.80390065
1317 1 1 -3.49931290048e-07 26.47598708 52.65149624 29.80390065
1318 1 1 -2.90100927146e-07 27.94687525 55.19914928 29.80390065
1319 1 1 -2.62594739966e-07 26.47598708 57.74680233 29.80390065
1320 1 1 -2.47354111372e-07 27.94687525 60.29445537 29.80390065
1321 1 1 -2.13526096877e-06 29.41776342 42.46088406 29.80390065
1322 1 1 -1.34868906371e-06 30.88865159 45.00853711 29.80390065
1323 1 1 -9.23507575106e-07 29.41776342 47.55619015 29.80390065
1324 1 1 -4.72830394757e-07 30.88865159 50.10384320 29.80390065
1325 1 1 -3.44211542189e-07 29.41776342 52.65149624 29.80390065
1326 1 1 -2.84521749278e-07 30.88865159 55.19914928 29.80390065
1327 1 1 -2.60118714004e-07 29.41776342 57.74680233 29.80390065
1328 1 1 -2.43184200932e-07 30.88865159 60.29445537 29.80390065
1329 1 1 -1.56333333166e-06 32.35953976 42.46088406 29.80390065
1330 1 1 -1.01664085542e-06 33.83042793 45.00853711 29.80390065
1331 1 1 -7.08017622297e-07 32.35953976 47.55619015 29.80390065
1332 1 1 -4.14544460073e-07 33.83042793 50.10384320 29.80390065
1333 1 1 -3.28388921374e-07 32.35953976 52.65149624 29.80390065
1334 1 1 -2.72556828155e-07 33.83042793 55.19914928 29.80390065
1335 1 1 -2.52813375211e-07 32.35953976 57.74680233 29.80390065
1336 1 1 -2.35505540414e-07 33.83042793 60.29445537 29.80390065
1337 1 1 -1.32259264465e-06 17.65065805 42.46088406 29.80390065
1338 1 1 -1.01664337492e-06 19.12154622 45.00853711 29.80390065
1339 1 1 -5.68458292997e-07 17.65065805 47.55619015 29.80390065
1340 1 1 -4.14546975752e-07 19.12154622 50.10384320 29.80390065
1341 1 1 -3.04225908091e-07 17.65065805 52.65149624 29.80390065
1342 1 1 -2.72559343369e-07 19.12154622 55.19914928 29.80390065
1343 1 1 -2.4166121811e-07 17.65065805 57.74680233 29.80390065
1344 1 1 -2.35508055431e-07 19.12154622 60.29445537 29.80390065
1345 1 1 8.27442716975e-05 22.06332256 43.31010174 32.20585097
1346 1 1 -7.56043451584e-06 23.53421073 45.85775479 32.20585097
1347 1 1 -4.61700471228e-05 22.06332256 48.40540783 32.20585097
1348 1 1 -4.64535379022e-05 23.53421073 50.95306088 32.20585097
1349 1 1 -4.07685113679e-05 22.06332256 53.50071392 32.20585097
1350 1 1 -3.77558902153e-05 23.53421073 56.04836697 32.20585097
1351 1 1 -3.59599754494e-05 22.06332256 58.59602001 32.20585097
1352 1 1 0.000223066007756 23.53421073 40.76244870 32.20585097
1353 1 1 0.000120802892619 25.00509890 43.31010174 32.20585097
1354 1 1 6.22451802717e-07 26.47598708 45.85775479 32.20585097
1355 1 1 -4.41159947243e-05 25.00509890 48.40540783 32.20585097
1356 1 1 -4.68686730255e-05 26.47598708 50.95306088 32.20585097
1357 1 1 -4.15684302561e-05 25.00509890 53.50071392 32.20585097
1358 1 1 -3.80030105202e-05 26.47598708 56.04836697 32.20585097
1359 1 1 -3.62997378628e-05 25.00509890 58.59602001 32.20585097
1360 1 1 0.000216195238628 26.47598708 40.76244870 32.20585097
1361 1 1 0.000120802893373 27.94687525 43.31010174 32.20585097
1362 1 1 -7.56043326209e-06 29.41776342 45.85775479 32.20585097
1363 1 1 -4.41159940867e-05 27.94687525 48.40540783 32.20585097
1364 1 1 -4.64535367067e-05 29.41776342 50.95306088 32.20585097
1365 1 1 -4.15684296469e-05 27.94687525 53.50071392 32.20585097
1366 1 1 -3.77558890524e-05 29.41776342 56.04836697 32.20585097
1367 1 1 -3.62997372663e-05 27.94687525 58.59602001 32.20585097
1368 1 1 0.000223066009778 29.41776342 40.76244870 32.20585097
1369 1 1 8.27442735226e-05 30.88865159 43.31010174 32.20585097
1370 1 1 -2.61815969175e-05 32.35953976 45.85775479 32.20585097
1371 1 1 -4.61700454071e-05 30.88865159 48.40540783 32.20585097
1372 1 1 -4.50977743482e-05 32.35953976 50.95306088 32.20585097
1373 1 1 -4.07685096925e-05 30.88865159 53.50071392 32.20585097
1374 1 1 -3.70738240558e-05 32.35953976 56.04836697 32.20585097
1375 1 1 -3.5959973795e-05 30.88865159 58.59602001 32.20585097
1376 1 1 0.000185281335174 32.35953976 40.76244870 32.20585097
1377 1 1 2.24964889098e-05 33.83042793 43.31010174 32.20585097
1378 1 1 -4.22376943113e-05 17.65065805 45.85775479 32.20585097
1379 1 1 -4.75937508806e-05 33.83042793 48.40540783 32.20585097
1380 1 1 -4.28005411908e-05 17.65065805 50.95306088 32.20585097
1381 1 1 -3.93613055968e-05 33.83042793 53.50071392 32.20585097
1382 1 1 -3.61053952284e-05 17.65065805 56.04836697 32.20585097
1383 1 1 -3.53361710379e-05 33.83042793 58.59602001 32.20585097
1384 1 1 8.23961057588e-05 17.65065805 40.76244870 32.20585097
1385 1 1 2.24964865802e-05 19.12154622 43.31010174 32.20585097
1386 1 1 -2.61815990171e-05 20.59243439 45.85775479 32.20585097
1387 1 1 -4.75937533351e-05 19.12154622 48.40540783 32.20585097
1388 1 1 -4.50977764597e-05 20.59243439 50.95306088 32.20585097
1389 1 1 -3.93613080485e-05 19.12154622 53.50071392 32.20585097
1390 1 1 -3.70738261444e-05 20.59243439 56.04836697 32.20585097
1391 1 1 -3.53361734807e-05 19.12154622 58.59602001 32.20585097
1392 1 1 0.000185281332807 20.59243439 40.76244870 32.20585097
1393 1 1 -0.00196752052758 23.53421073 44.15931943 34.60780130
1394 1 1 -0.00144256276396 25.00509890 46.70697247 34.60780130
1395 1 1 -0.00107141003658 23.53421073 49.25462551 34.60780130
1396 1 1 -0.000867517635869 25.00509890 51.80227856 34.60780130
1397 1 1 -0.000725012171662 23.53421073 54.34993160 34.60780130
1398 1 1 -0.000653784047164 25.00509890 56.89758465 34.60780130
1399 1 1 -0.00061347971104 23.53421073 59.44523769 34.60780130
1400 1 1 -0.00336128686137 25.00509890 41.61166638 34.60780130
1401 1 1 -0.00206605455005 26.47598708 44.15931943 34.60780130
1402 1 1 -0.00144256276311 27.94687525 46.70697247 34.60780130
1403 1 1 -0.00109668665886 26.47598708 49.25462551 34.60780130
1404 1 1 -0.000867517635228 27.94687525 51.80227856 34.60780130
1405 1 1 -0.000733625725096 26.47598708 54.34993160 34.60780130
1406 1 1 -0.000653784046582 27.94687525 56.89758465 34.60780130
1407 1 1 -0.000617782687703 26.47598708 59.44523769 34.60780130
1408 1 1 -0.00336128685907 27.94687525 41.61166638 34.60780130
1409 1 1 -0.00196752052541 29.41776342 44.15931943 34.60780130
1410 1 1 -0.00135583490799 30.88865159 46.70697247 34.60780130
1411 1 1 -0.00107141003524 29.41776342 49.25462551 34.60780130
1412 1 1 -0.000839446444762 30.88865159 51.80227856 34.60780130
1413 1 1 -0.000725012170507 29.41776342 54.34993160 34.60780130
1414 1 1 -0.000642857557106 30.88865159 56.89758465 34.60780130
1415 1 1 -0.000613479709939 29.41776342 59.44523769 34.60780130
1416 1 1 -0.00283344596069 30.88865159 41.61166638 34.60780130
1417 1 1 -0.00172761644503 32.35953976 44.15931943 34.60780130
1418 1 1 -0.0012114408478 33.83042793 46.70697247 34.60780130
1419 1 1 -0.00100290869086 32.35953976 49.25462551 34.60780130
1420 1 1 -0.00079040649894 33.83042793 51.80227856 34.60780130
1421 1 1 -0.000701140555594 32.35953976 54.34993160 34.60780130
1422 1 1 -0.000623092853227 33.83042793 56.89758465 34.60780130
1423 1 1 -0.000601315604977 32.35953976 59.44523769 34.60780130
1424 1 1 -0.00218417964198 33.83042793 41.61166638 34.60780130
1425 1 1 -0.00144568258987 17.65065805 44.15931943 34.60780130
1426 1 1 -0.00121144085061 19.12154622 46.70697247 34.60780130
1427 1 1 -0.000909324727299 17.65065805 49.25462551 34.60780130
1428 1 1 -0.000790406501342 19.12154622 51.80227856 34.60780130
1429 1 1 -0.000667071733714 17.65065805 54.34993160 34.60780130
1430 1 1 -0.000623092855497 19.12154622 56.89758465 34.60780130
1431 1 1 -0.000583303532743 17.65065805 59.44523769 34.60780130
1432 1 1 -0.00218417964668 19.12154622 41.61166638 34.60780130
1433 1 1 -0.00172761644818 20.59243439 44.15931943 34.60780130
1434 1 1 -0.00135583491012 22.06332256 46.70697247 34.60780130
1435 1 1 -0.00100290869311 20.59243439 49.25462551 34.60780130
1436 1 1 -0.000839446446467 22.06332256 51.80227856 34.60780130
1437 1 1 -0.000701140557601 20.59243439 54.34993160 34.60780130
1438 1 1 -0.000642857558683 22.06332256 56.89758465 34.60780130
1439 1 1 -0.000601315606916 20.59243439 59.44523769 34.60780130
1440 1 1 -0.00283344596549 22.06332256 41.61166638 34.60780130
1441 1 1 0.000577239442912 35.30131610 0.00000000 25.00000000
1442 1 1 0.00057778771078 36.77220427 2.54765304 25.00000000
1443 1 1 0.000625053215993 35.30131610 5.09530609 25.00000000
1444 1 1 0.000670551336344 36.77220427 7.64295913 25.00000000
1445 1 1 0.000802462128748 35.30131610 10.19061218 25.00000000
1446 1 1 0.000913394862599 36.77220427 12.73826522 25.00000000
1447 1 1 0.00122092435229 35.30131610 15.28591827 25.00000000
1448 1 1 0.00141465067219 36.77220427 17.83357131 25.00000000
1449 1 1 0.000557084699327 38.24309244 0.00000000 25.00000000
1450 1 1 0.00055505954905 39.71398061 2.54765304 25.00000000
1451 1 1 0.000595665076469 38.24309244 5.09530609 25.00000000
1452 1 1 0.000627099047103 39.71398061 7.64295913 25.00000000
1453 1 1 0.000732056466241 38.24309244 10.19061218 25.00000000
1454 1 1 0.000803093084896 39.71398061 12.73826522 25.00000000
1455 1 1 0.00103244862147 38.24309244 15.28591827 25.00000000
1456 1 1 0.00113739800674 39.71398061 17.83357131 25.00000000
1457 1 1 0.000536601189363 41.18486878 0.00000000 25.00000000
1458 1 1 0.000533537513154 42.65575695 2.54765304 25.00000000
1459 1 1 0.000566760638289 41.18486878 5.09530609 25.00000000
1460 1 1 0.000588320999544 42.65575695 7.64295913 25.00000000
1461 1 1 0.000667886113399 41.18486878 10.19061218 25.00000000
1462 1 1 0.000712429104616 42.65575695 12.73826522 25.00000000
1463 1 1 0.000872850217593 41.18486878 15.28591827 25.00000000
1464 1 1 0.000927823916634 42.65575695 17.83357131 25.00000000
1465 1 1 0.00051820428263 44.12664513 0.00000000 25.00000000
1466 1 1 0.0005155297155 45.59753330 2.54765304 25.00000000
1467 1 1 0.000541559712294 44.12664513 5.09530609 25.00000000
1468 1 1 0.000557502099738 45.59753330 7.64295913 25.00000000
1469 1 1 0.000616047630942 44.12664513 10.19061218 25.00000000
1470 1 1 0.000646126041304 45.59753330 12.73826522 25.00000000
1471 1 1 0.000753808540581 44.12664513 15.28591827 25.00000000
1472 1 1 0.000785317977792 45.59753330 17.83357131 25.00000000
1473 1 1 0.000503784046984 47.06842147 0.00000000 25.00000000
1474 1 1 0.00050268283698 48.53930964 2.54765304 25.00000000
1475 1 1 0.000522264145452 47.06842147 5.09530609 25.00000000
1476 1 1 0.000536339523516 48.53930964 7.64295913 25.00000000
1477 1 1 0.000578836621788 47.06842147 10.19061218 25.00000000
1478 1 1 0.000603642487667 48.53930964 12.73826522 25.00000000
1479 1 1 0.000674993524569 47.06842147 15.28591827 25.00000000
1480 1 1 0.000700287063113 48.53930964 17.83357131 25.00000000
1481 1 1 0.00049463961804 50.01019781 0.00000000 25.00000000
1482 1 1 0.000496018930902 51.48108598 2.54765304 25.00000000
1483 1 1 0.000510220316342 50.01019781 5.09530609 25.00000000
1484 1 1 0.000525610780859 51.48108598 7.64295913 25.00000000
1485 1 1 0.000556628311997 50.01019781 10.19061218 25.00000000
1486 1 1 0.000583035575203 51.48108598 12.73826522 25.00000000
1487 1 1 0.00063093919298 50.01019781 15.28591827 25.00000000
1488 1 1 0.000661206768194 51.48108598 17.83357131 25.00000000
1489 1 1 3.62362377481e-05 36.77220427 0.84921768 27.40195032
1490 1 1 3.63356790177e-05 38.24309244 3.39687073 27.40195032
1491 1 1 3.83540581108e-05 36.77220427 5.94452377 27.40195032
1492 1 1 4.01381881675e-05 38.24309244 8.49217681 27.40195032
1493 1 1 4.59621014324e-05 36.77220427 11.03982986 27.40195032
1494 1 1 4.9466343697e-05 38.24309244 13.58748290 27.40195032
1495 1 1 4.73613070804e-05 36.77220427 16.13513595 27.40195032
1496 1 1 3.76512284482e-05 38.24309244 18.68278899 27.40195032
1497 1 1 3.52952399604e-05 39.71398061 0.84921768 27.40195032
1498 1 1 3.53045629696e-05 41.18486878 3.39687073 27.40195032
1499 1 1 3.70126124192e-05 39.71398061 5.94452377 27.40195032
1500 1 1 3.81840909774e-05 41.18486878 8.49217681 27.40195032
1501 1 1 4.25776809712e-05 39.71398061 11.03982986 27.40195032
1502 1 1 4.52603584911e-05 41.18486878 13.58748290 27.40195032
1503 1 1 5.15280641693e-05 39.71398061 16.13513595 27.40195032
1504 1 1 5.2037247041e-05 41.18486878 18.68278899 27.40195032
1505 1 1 3.43688982578e-05 42.65575695 0.84921768 27.40195032
1506 1 1 3.43597065299e-05 44.12664513 3.39687073 27.40195032
1507 1 1 3.57933553275e-05 42.65575695 5.94452377 27.40195032
1508 1 1 3.6645417264e-05 44.12664513 8.49217681 27.40195032
1509 1 1 3.97259040433e-05 42.65575695 11.03982986 27.40195032
1510 1 1 4.14230436019e-05 44.12664513 13.58748290 27.40195032
1511 1 1 4.76097503562e-05 42.65575695 16.13513595 27.40195032
1512 1 1 4.92203089867e-05 44.12664513 18.68278899 27.40195032
1513 1 1 3.35660195095e-05 45.59753330 0.84921768 27.40195032
1514 1 1 3.36001096512e-05 47.06842147 3.39687073 27.40195032
1515 1 1 3.47809383335e-05 45.59753330 5.94452377 27.40195032
1516 1 1 3.55333375641e-05 47.06842147 8.49217681 27.40195032
1517 1 1 3.77488704924e-05 45.59753330 11.03982986 27.40195032
1518 1 1 3.89878379543e-05 47.06842147 13.58748290 27.40195032
1519 1 1 4.29924816526e-05 45.59753330 16.13513595 27.40195032
1520 1 1 4.41872391521e-05 47.06842147 18.68278899 27.40195032
1521 1 1 3.29776961101e-05 48.53930964 0.84921768 27.40195032
1522 1 1 3.31078506664e-05 50.01019781 3.39687073 27.40195032
1523 1 1 3.40464000006e-05 48.53930964 5.94452377 27.40195032
1524 1 1 3.48452287191e-05 50.01019781 8.49217681 27.40195032
1525 1 1 3.65433037509e-05 48.53930964 11.03982986 27.40195032
1526 1 1 3.77579713756e-05 50.01019781 13.58748290 27.40195032
1527 1 1 4.02469148938e-05 48.53930964 16.13513595 27.40195032
1528 1 1 4.1440615806e-05 50.01019781 18.68278899 27.40195032
1529 1 1 3.26675544701e-05 51.48108598 0.84921768 27.40195032
1530 1 1 3.73424375107e-05 35.30131610 3.39687073 27.40195032
1531 1 1 3.36573028586e-05 51.48108598 5.94452377 27.40195032
1532 1 1 4.23380654229e-05 35.30131610 8.49217681 27.40195032
1533 1 1 3.59645071593e-05 51.48108598 11.03982986 27.40195032
1534 1 1 5.128524362e-05 35.30131610 13.58748290 27.40195032
1535 1 1 3.91376364304e-05 51.48108598 16.13513595 27.40195032
1536 1 1 -1.13434622201e-05 35.30131610 18.68278899 27.40195032
1537 1 1 -2.21563536608e-07 38.24309244 1.69843536 29.80390065
1538 1 1 -2.26350290561e-07 39.71398061 4.24608841 29.80390065
1539 1 1 -2.52819610406e-07 38.24309244 6.79374145 29.80390065
1540 1 1 -2.76111314512e-07 39.71398061 9.34139450 29.80390065
1541 1 1 -3.58433775939e-07 38.24309244 11.88904754 29.80390065
1542 1 1 -4.16552022646e-07 39.71398061 14.43670058 29.80390065
1543 1 1 -7.10766299419e-07 38.24309244 16.98435363 29.80390065
1544 1 1 -9.2845077773e-07 39.71398061 19.53200667 29.80390065
1545 1 1 -2.11267848195e-07 41.18486878 1.69843536 29.80390065
1546 1 1 -2.14710940473e-07 42.65575695 4.24608841 29.80390065
1547 1 1 -2.37517808285e-07 41.18486878 6.79374145 29.80390065
1548 1 1 -2.53357797435e-07 42.65575695 9.34139450 29.80390065
1549 1 1 -3.04354032849e-07 41.18486878 11.88904754 29.80390065
1550 1 1 -3.30524010344e-07 42.65575695 14.43670058 29.80390065
1551 1 1 -4.77181104192e-07 41.18486878 16.98435363 29.80390065
1552 1 1 -5.32080329397e-07 42.65575695 19.53200667 29.80390065
1553 1 1 -2.0194186802e-07 44.12664513 1.69843536 29.80390065
1554 1 1 -2.04555923921e-07 45.59753330 4.24608841 29.80390065
1555 1 1 -2.23013225927e-07 44.12664513 6.79374145 29.80390065
1556 1 1 -2.34631286594e-07 45.59753330 9.34139450 29.80390065
1557 1 1 -2.70933484844e-07 44.12664513 11.88904754 29.80390065
1558 1 1 -2.86416581866e-07 45.59753330 14.43670058 29.80390065
1559 1 1 -3.50178781193e-07 44.12664513 16.98435363 29.80390065
1560 1 1 -3.61997350354e-07 45.59753330 19.53200667 29.80390065
1561 1 1 -1.94738455966e-07 47.06842147 1.69843536 29.80390065
1562 1 1 -1.97309421407e-07 48.53930964 4.24608841 29.80390065
1563 1 1 -2.11099905695e-07 47.06842147 6.79374145 29.80390065
1564 1 1 -2.2069969294e-07 48.53930964 9.34139450 29.80390065
1565 1 1 -2.479339708e-07 47.06842147 11.88904754 29.80390065
1566 1 1 -2.61456550947e-07 48.53930964 14.43670058 29.80390065
1567 1 1 -2.98511160332e-07 47.06842147 16.98435363 29.80390065
1568 1 1 -3.0893396615e-07 48.53930964 19.53200667 29.80390065
1569 1 1 -1.9027953224e-07 50.01019781 1.69843536 29.80390065
1570 1 1 -1.93616653155e-07 51.48108598 4.24608841 29.80390065
1571 1 1 -2.03477074883e-07 50.01019781 6.79374145 29.80390065
1572 1 1 -2.13265300555e-07 51.48108598 9.34139450 29.80390065
1573 1 1 -2.33007211864e-07 50.01019781 11.88904754 29.80390065
1574 1 1 -2.48224231836e-07 51.48108598 14.43670058 29.80390065
1575 1 1 -2.7520584167e-07 50.01019781 16.98435363 29.80390065
1576 1 1 -2.90337164495e-07 51.48108598 19.53200667 29.80390065
1577 1 1 -2.31394295385e-07 35.30131610 1.69843536 29.80390065
1578 1 1 -2.37764082842e-07 36.77220427 4.24608841 29.80390065
1579 1 1 -2.6889145276e-07 35.30131610 6.79374145 29.80390065
1580 1 1 -3.05900070176e-07 36.77220427 9.34139450 29.80390065
1581 1 1 -4.4584866869e-07 35.30131610 11.88904754 29.80390065
1582 1 1 -5.69629599389e-07 36.77220427 14.43670058 29.80390065
1583 1 1 -1.01745705438e-06 35.30131610 16.98435363 29.80390065
1584 1 1 -1.35069389435e-06 36.77220427 19.53200667 29.80390065
1585 1 1 -3.3617462134e-05 39.71398061 2.54765304 32.20585097
1586 1 1 -3.39534631265e-05 41.18486878 5.09530609 32.20585097
1587 1 1 -3.60582144655e-05 39.71398061 7.64295913 32.20585097
1588 1 1 -3.75665417903e-05 41.18486878 10.19061218 32.20585097
1589 1 1 -4.28480635291e-05 39.71398061 12.73826522 32.20585097
1590 1 1 -4.53546664071e-05 41.18486878 15.28591827 32.20585097
1591 1 1 -4.65810066637e-05 39.71398061 17.83357131 32.20585097
1592 1 1 -3.29040369459e-05 41.18486878 0.00000000 32.20585097
1593 1 1 -3.27316309855e-05 42.65575695 2.54765304 32.20585097
1594 1 1 -3.29996121071e-05 44.12664513 5.09530609 32.20585097
1595 1 1 -3.46830768519e-05 42.65575695 7.64295913 32.20585097
1596 1 1 -3.57061703142e-05 44.12664513 10.19061218 32.20585097
1597 1 1 -3.93522187384e-05 42.65575695 12.73826522 32.20585097
1598 1 1 -4.10935568765e-05 44.12664513 15.28591827 32.20585097
1599 1 1 -4.70874634011e-05 42.65575695 17.83357131 32.20585097
1600 1 1 -3.20978853946e-05 44.12664513 0.00000000 32.20585097
1601 1 1 -3.19621738894e-05 45.59753330 2.54765304 32.20585097
1602 1 1 -3.22376361617e-05 47.06842147 5.09530609 32.20585097
1603 1 1 -3.36062288194e-05 45.59753330 7.64295913 32.20585097
1604 1 1 -3.44669884893e-05 47.06842147 10.19061218 32.20585097
1605 1 1 -3.6901527469e-05 45.59753330 12.73826522 32.20585097
1606 1 1 -3.81223619512e-05 47.06842147 15.28591827 32.20585097
1607 1 1 -4.24684431292e-05 45.59753330 17.83357131 32.20585097
1608 1 1 -3.14485734051e-05 47.06842147 0.00000000 32.20585097
1609 1 1 -3.13957636903e-05 48.53930964 2.54765304 32.20585097
1610 1 1 -3.17421787794e-05 50.01019781 5.09530609 32.20585097
1611 1 1 -3.28483222201e-05 48.53930964 7.64295913 32.20585097
1612 1 1 -3.37452790968e-05 50.01019781 10.19061218 32.20585097
1613 1 1 -3.55141487227e-05 48.53930964 12.73826522 32.20585097
1614 1 1 -3.66880130812e-05 50.01019781 15.28591827 32.20585097
1615 1 1 -3.92343970383e-05 48.53930964 17.83357131 32.20585097
1616 1 1 -3.10292174789e-05 50.01019781 0.00000000 32.20585097
1617 1 1 -3.10959932067e-05 51.48108598 2.54765304 32.20585097
1618 1 1 -3.61023933052e-05 35.30131610 5.09530609 32.20585097
1619 1 1 -3.24500444475e-05 51.48108598 7.64295913 32.20585097
1620 1 1 -4.28051936656e-05 35.30131610 10.19061218 32.20585097
1621 1 1 -3.48976340763e-05 51.48108598 12.73826522 32.20585097
1622 1 1 -4.22380176285e-05 35.30131610 15.28591827 32.20585097
1623 1 1 -3.79435280786e-05 51.48108598 17.83357131 32.20585097
1624 1 1 -3.4598235363e-05 35.30131610 0.00000000 32.20585097
1625 1 1 -3.45201383562e-05 36.77220427 2.54765304 32.20585097
1626 1 1 -3.50193424747e-05 38.24309244 5.09530609 32.20585097
1627 1 1 -3.76781861952e-05 36.77220427 7.64295913 32.20585097
1628 1 1 -4.00553336276e-05 38.24309244 10.19061218 32.20585097
1629 1 1 -4.62680787431e-05 36.77220427 12.73826522 32.20585097
1630 1 1 -4.7745917611e-05 38.24309244 15.28591827 32.20585097
1631 1 1 -2.63869361587e-05 36.77220427 17.83357131 32.20585097
1632 1 1 -3.37723341987e-05 38.24309244 0.00000000 32.20585097
1633 1 1 -0.000550742481803 41.18486878 3.39687073 34.60780130
1634 1 1 -0.000564359013971 42.65575695 5.94452377 34.60780130
1635 1 1 -0.000625740580487 41.18486878 8.49217681 34.60780130
1636 1 1 -0.00066300264639 42.65575695 11.03982986 34.60780130
1637 1 1 -0.000791912685245 41.18486878 13.58748290 34.60780130
1638 1 1 -0.000846892392741 42.65575695 16.13513595 34.60780130
1639 1 1 -0.00108287742883 41.18486878 18.68278899 34.60780130
1640 1 1 -0.000528631044687 42.65575695 0.84921768 34.60780130
1641 1 1 -0.0005293963648 44.12664513 3.39687073 34.60780130
1642 1 1 -0.000539558590084 45.59753330 5.94452377 34.60780130
1643 1 1 -0.000585893043396 44.12664513 8.49217681 34.60780130
1644 1 1 -0.00061204064449 45.59753330 11.03982986 34.60780130
1645 1 1 -0.00070129974364 44.12664513 13.58748290 34.60780130
1646 1 1 -0.000734941285365 45.59753330 16.13513595 34.60780130
1647 1 1 -0.000885023007713 44.12664513 18.68278899 34.60780130
1648 1 1 -0.00051183963755 45.59753330 0.84921768 34.60780130
1649 1 1 -0.000512841454604 47.06842147 3.39687073 34.60780130
1650 1 1 -0.000522242972532 48.53930964 5.94452377 34.60780130
1651 1 1 -0.000556556330753 47.06842147 8.49217681 34.60780130
1652 1 1 -0.000578547535895 48.53930964 11.03982986 34.60780130
1653 1 1 -0.000639734469224 47.06842147 13.58748290 34.60780130
1654 1 1 -0.000666683391458 48.53930964 16.13513595 34.60780130
1655 1 1 -0.000759557709177 47.06842147 18.68278899 34.60780130
1656 1 1 -0.000499806588787 48.53930964 0.84921768 34.60780130
1657 1 1 -0.000502418782484 50.01019781 3.39687073 34.60780130
1658 1 1 -0.000513376463155 51.48108598 5.94452377 34.60780130
1659 1 1 -0.000538728943114 50.01019781 8.49217681 34.60780130
1660 1 1 -0.000562025032256 51.48108598 11.03982986 34.60780130
1661 1 1 -0.000604536499701 50.01019781 13.58748290 34.60780130
1662 1 1 -0.000634759260386 51.48108598 16.13513595 34.60780130
1663 1 1 -0.000692193770799 50.01019781 18.68278899 34.60780130
1664 1 1 -0.000493547853713 51.48108598 0.84921768 34.60780130
1665 1 1 -0.000598892688705 35.30131610 3.39687073 34.60780130
1666 1 1 -0.000628232242015 36.77220427 5.94452377 34.60780130
1667 1 1 -0.000724874855254 35.30131610 8.49217681 34.60780130
1668 1 1 -0.000810977909296 36.77220427 11.03982986 34.60780130
1669 1 1 -0.00104701465997 35.30131610 13.58748290 34.60780130
1670 1 1 -0.00121363830942 36.77220427 16.13513595 34.60780130
1671 1 1 -0.00173025080167 35.30131610 18.68278899 34.60780130
1672 1 1 -0.000569487849842 36.77220427 0.84921768 34.60780130
1673 1 1 -0.000574831961079 38.24309244 3.39687073 34.60780130
1674 1 1 -0.000594878752427 39.71398061 5.94452377 34.60780130
1675 1 1 -0.000673676042455 38.24309244 8.49217681 34.60780130
1676 1 1 -0.00073072439789 39.71398061 11.03982986 34.60780130
1677 1 1 -0.000910482679788 38.24309244 13.58748290 34.60780130
1678 1 1 -0.00100789945099 39.71398061 16.13513595 34.60780130
1679 1 1 -0.00136258112946 38.24309244 18.68278899 34.60780130
1680 1 1 -0.000548577016982 39.71398061 0.84921768 34.60780130
1681 1 1 0.00210522578301 35.30131610 20.38122435 25.00000000
1682 1 1 0.00235925573534 36.77220427 22.92887739 25.00000000
1683 1 1 0.00431024936067 35.30131610 25.47653044 25.00000000
1684 1 1 0.00385115801752 36.77220427 28.02418348 25.00000000
1685 1 1 0.00656747667084 35.30131610 30.57183653 25.00000000
1686 1 1 0.00385085671935 36.77220427 33.11948957 25.00000000
1687 1 1 0.00430970978651 35.30131610 35.66714262 25.00000000
1688 1 1 0.00235862274874 36.77220427 38.21479566 25.00000000
1689 1 1 0.00156760258959 38.24309244 20.38122435 25.00000000
1690 1 1 0.00163099400181 39.71398061 22.92887739 25.00000000
1691 1 1 0.00236416023836 38.24309244 25.47653044 25.00000000
1692 1 1 0.00211972615048 39.71398061 28.02418348 25.00000000
1693 1 1 0.0029176578561 38.24309244 30.57183653 25.00000000
1694 1 1 0.00211948588377 39.71398061 33.11948957 25.00000000
1695 1 1 0.00236352732819 38.24309244 35.66714262 25.00000000
1696 1 1 0.00163049586576 39.71398061 38.21479566 25.00000000
1697 1 1 0.00120326684193 41.18486878 20.38122435 25.00000000
1698 1 1 0.00121285403786 42.65575695 22.92887739 25.00000000
1699 1 1 0.00158138951832 41.18486878 25.47653044 25.00000000
1700 1 1 0.00144180085211 42.65575695 28.02418348 25.00000000
1701 1 1 0.00177283008545 41.18486878 30.57183653 25.00000000
1702 1 1 0.00144169965867 42.65575695 33.11948957 25.00000000
1703 1 1 0.00158105192065 41.18486878 35.66714262 25.00000000
1704 1 1 0.00121265069895 42.65575695 38.21479566 25.00000000
1705 1 1 0.000956402218815 44.12664513 20.38122435 25.00000000
1706 1 1 0.000954015246954 45.59753330 22.92887739 25.00000000
1707 1 1 0.00116603516175 44.12664513 25.47653044 25.00000000
1708 1 1 0.00107963595505 45.59753330 28.02418348 25.00000000
1709 1 1 0.00126041853302 44.12664513 30.57183653 25.00000000
1710 1 1 0.00107961720884 45.59753330 33.11948957 25.00000000
1711 1 1 0.00116593699207 44.12664513 35.66714262 25.00000000
1712 1 1 0.000953976042297 45.59753330 38.21479566 25.00000000
1713 1 1 0.000802914788891 47.06842147 20.38122435 25.00000000
1714 1 1 0.000807043812676 48.53930964 22.92887739 25.00000000
1715 1 1 0.000925317980359 47.06842147 25.47653044 25.00000000
1716 1 1 0.000881665033436 48.53930964 28.02418348 25.00000000
1717 1 1 0.000977887749515 47.06842147 30.57183653 25.00000000
1718 1 1 0.000881668051319 48.53930964 33.11948957 25.00000000
1719 1 1 0.000925310016932 47.06842147 35.66714262 25.00000000
1720 1 1 0.000807046362096 48.53930964 38.21479566 25.00000000
1721 1 1 0.000721854520889 50.01019781 20.38122435 25.00000000
1722 1 1 0.000742113882445 51.48108598 22.92887739 25.00000000
1723 1 1 0.000802439149065 50.01019781 25.47653044 25.00000000
1724 1 1 0.000795843809237 51.48108598 28.02418348 25.00000000
1725 1 1 0.000835595198359 50.01019781 30.57183653 25.00000000
1726 1 1 0.000795846219908 51.48108598 33.11948957 25.00000000
1727 1 1 0.000802443677858 50.01019781 35.66714262 25.00000000
1728 1 1 0.000742115633549 51.48108598 38.21479566 25.00000000
1729 1 1 -5.06237469016e-05 36.77220427 21.23044203 27.40195032
1730 1 1 -6.65581909194e-05 38.24309244 23.77809508 27.40195032
1731 1 1 -0.000195222765214 36.77220427 26.32574812 27.40195032
1732 1 1 -0.000163840173351 38.24309244 28.87340116 27.40195032
1733 1 1 -0.000200676470681 36.77220427 31.42105421 27.40195032
1734 1 1 -0.000143611215857 38.24309244 33.96870725 27.40195032
1735 1 1 -0.000162579155377 36.77220427 36.51636030 27.40195032
1736 1 1 -2.18823946954e-05 38.24309244 39.06401334 27.40195032
1737 1 1 2.92271570049e-05 39.71398061 21.23044203 27.40195032
1738 1 1 2.96451422072e-05 41.18486878 23.77809508 27.40195032
1739 1 1 -5.00202706588e-05 39.71398061 26.32574812 27.40195032
1740 1 1 -1.01627845847e-05 41.18486878 28.87340116 27.40195032
1741 1 1 -8.4805398465e-05 39.71398061 31.42105421 27.40195032
1742 1 1 2.85933511467e-07 41.18486878 33.96870725 27.40195032
1743 1 1 -2.15440350858e-05 39.71398061 36.51636030 27.40195032
1744 1 1 4.1832273682e-05 41.18486878 39.06401334 27.40195032
1745 1 1 5.22939842088e-05 42.65575695 21.23044203 27.40195032
1746 1 1 5.31612615442e-05 44.12664513 23.77809508 27.40195032
1747 1 1 3.88911714705e-05 42.65575695 26.32574812 27.40195032
1748 1 1 4.93706786727e-05 44.12664513 28.87340116 27.40195032
1749 1 1 2.98053786668e-05 42.65575695 31.42105421 27.40195032
1750 1 1 5.06788096136e-05 44.12664513 33.96870725 27.40195032
1751 1 1 4.49413566976e-05 42.65575695 36.51636030 27.40195032
1752 1 1 5.28895076994e-05 44.12664513 39.06401334 27.40195032
1753 1 1 4.99639929456e-05 45.59753330 21.23044203 27.40195032
1754 1 1 4.98195567971e-05 47.06842147 23.77809508 27.40195032
1755 1 1 5.37393048714e-05 45.59753330 26.32574812 27.40195032
1756 1 1 5.26754285539e-05 47.06842147 28.87340116 27.40195032
1757 1 1 5.3956345191e-05 45.59753330 31.42105421 27.40195032
1758 1 1 5.21098552977e-05 47.06842147 33.96870725 27.40195032
1759 1 1 5.30280746489e-05 45.59753330 36.51636030 27.40195032
1760 1 1 4.80920564468e-05 47.06842147 39.06401334 27.40195032
1761 1 1 4.48967891639e-05 48.53930964 21.23044203 27.40195032
1762 1 1 4.51898460051e-05 50.01019781 23.77809508 27.40195032
1763 1 1 4.88682306713e-05 48.53930964 26.32574812 27.40195032
1764 1 1 4.74617691973e-05 50.01019781 28.87340116 27.40195032
1765 1 1 5.00089705521e-05 48.53930964 31.42105421 27.40195032
1766 1 1 4.69756409252e-05 50.01019781 33.96870725 27.40195032
1767 1 1 4.7771755328e-05 48.53930964 36.51636030 27.40195032
1768 1 1 4.4018059759e-05 50.01019781 39.06401334 27.40195032
1769 1 1 4.25629822714e-05 51.48108598 21.23044203 27.40195032
1770 1 1 -0.000195436812403 35.30131610 23.77809508 27.40195032
1771 1 1 4.53006202215e-05 51.48108598 26.32574812 27.40195032
1772 1 1 -5.82896626532e-05 35.30131610 28.87340116 27.40195032
1773 1 1 4.61171753072e-05 51.48108598 31.42105421 27.40195032
1774 1 1 -0.000136670182977 35.30131610 33.96870725 27.40195032
1775 1 1 4.45493696254e-05 51.48108598 36.51636030 27.40195032
1776 1 1 -0.000144091305443 35.30131610 39.06401334 27.40195032
1777 1 1 -2.01019278484e-06 38.24309244 22.07965971 29.80390065
1778 1 1 -2.01338837524e-06 39.71398061 24.62731276 29.80390065
1779 1 1 -2.14121114151e-06 38.24309244 27.17496580 29.80390065
1780 1 1 -1.5705838827e-06 39.71398061 29.72261885 29.80390065
1781 1 1 -1.76492129664e-06 38.24309244 32.27027189 29.80390065
1782 1 1 -1.02604902148e-06 39.71398061 34.81792493 29.80390065
1783 1 1 -4.59024487647e-07 38.24309244 37.36557798 29.80390065
1784 1 1 -7.44922621507e-07 39.71398061 39.91323102 29.80390065
1785 1 1 -1.076692627e-06 41.18486878 22.07965971 29.80390065
1786 1 1 -9.36497451527e-07 42.65575695 24.62731276 29.80390065
1787 1 1 -1.35903469281e-06 41.18486878 27.17496580 29.80390065
1788 1 1 -1.0299754297e-06 42.65575695 29.72261885 29.80390065
1789 1 1 -1.33188068578e-06 41.18486878 32.27027189 29.80390065
1790 1 1 -8.96468897116e-07 42.65575695 34.81792493 29.80390065
1791 1 1 -7.48509504241e-07 41.18486878 37.36557798 29.80390065
1792 1 1 -6.09149466764e-07 42.65575695 39.91323102 29.80390065
1793 1 1 -5.37578713352e-07 44.12664513 22.07965971 29.80390065
1794 1 1 -4.93539695914e-07 45.59753330 24.62731276 29.80390065
1795 1 1 -7.25868915957e-07 44.12664513 27.17496580 29.80390065
1796 1 1 -5.91821482851e-07 45.59753330 29.72261885 29.80390065
1797 1 1 -7.98526390132e-07 44.12664513 32.27027189 29.80390065
1798 1 1 -5.6903310191e-07 45.59753330 34.81792493 29.80390065
1799 1 1 -6.13513654635e-07 44.12664513 37.36557798 29.80390065
1800 1 1 -4.30729092572e-07 45.59753330 39.91323102 29.80390065
1801 1 1 -3.65345960325e-07 47.06842147 22.07965971 29.80390065
1802 1 1 -3.61579767327e-07 48.53930964 24.62731276 29.80390065
1803 1 1 -4.4379998902e-07 47.06842147 27.17496580 29.80390065
1804 1 1 -3.96582167257e-07 48.53930964 29.72261885 29.80390065
1805 1 1 -4.75077851604e-07 47.06842147 32.27027189 29.80390065
1806 1 1 -3.80998002003e-07 48.53930964 34.81792493 29.80390065
1807 1 1 -4.13036202903e-07 47.06842147 37.36557798 29.80390065
1808 1 1 -3.23670615086e-07 48.53930964 39.91323102 29.80390065
1809 1 1 -3.1856089475e-07 50.01019781 22.07965971 29.80390065
1810 1 1 -3.26137651567e-07 51.48108598 24.62731276 29.80390065
1811 1 1 -3.5170360036e-07 50.01019781 27.17496580 29.80390065
1812 1 1 -3.38695182806e-07 51.48108598 29.72261885 29.80390065
1813 1 1 -3.53526499618e-07 50.01019781 32.27027189 29.80390065
1814 1 1 -3.22451566904e-07 51.48108598 34.81792493 29.80390065
1815 1 1 -3.22226653972e-07 50.01019781 37.36557798 29.80390065
1816 1 1 -2.8886550399e-07 51.48108598 39.91323102 29.80390065
1817 1 1 -2.13710816424e-06 35.30131610 22.07965971 29.80390065
1818 1 1 -3.04212116469e-06 36.77220427 24.62731276 29.80390065
1819 1 1 -1.88618943102e-06 35.30131610 27.17496580 29.80390065
1820 1 1 -1.57584351872e-06 36.77220427 29.72261885 29.80390065
1821 1 1 -1.70409467432e-06 35.30131610 32.27027189 29.80390065
1822 1 1 -7.06000888906e-07 36.77220427 34.81792493 29.80390065
1823 1 1 -7.03334508572e-07 35.30131610 37.36557798 29.80390065
1824 1 1 -1.02044291665e-06 36.77220427 39.91323102 29.80390065
1825 1 1 -1.74823999267e-07 39.71398061 22.92887739 32.20585097
1826 1 1 -8.73393782906e-06 41.18486878 25.47653044 32.20585097
1827 1 1 8.17756638793e-05 39.71398061 28.02418348 32.20585097
1828 1 1 2.12941338655e-05 41.18486878 30.57183653 32.20585097
1829 1 1 8.16442191619e-05 39.71398061 33.11948957 32.20585097
1830 1 1 -8.64442871163e-06 41.18486878 35.66714262 32.20585097
1831 1 1 1.92585572805e-07 39.71398061 38.21479566 32.20585097
1832 1 1 -4.48970756013e-05 41.18486878 20.38122435 32.20585097
1833 1 1 -4.5375374113e-05 42.65575695 22.92887739 32.20585097
1834 1 1 -4.79974672833e-05 44.12664513 25.47653044 32.20585097
1835 1 1 -2.77587163281e-05 42.65575695 28.02418348 32.20585097
1836 1 1 -4.42089213363e-05 44.12664513 30.57183653 32.20585097
1837 1 1 -2.78624905358e-05 42.65575695 33.11948957 32.20585097
1838 1 1 -4.80631464388e-05 44.12664513 35.66714262 32.20585097
1839 1 1 -4.5389838204e-05 42.65575695 38.21479566 32.20585097
1840 1 1 -4.80516881559e-05 44.12664513 20.38122435 32.20585097
1841 1 1 -4.83482914443e-05 45.59753330 22.92887739 32.20585097
1842 1 1 -4.78334766868e-05 47.06842147 25.47653044 32.20585097
1843 1 1 -5.00425506459e-05 45.59753330 28.02418348 32.20585097
1844 1 1 -4.93339422991e-05 47.06842147 30.57183653 32.20585097
1845 1 1 -5.0084257318e-05 45.59753330 33.11948957 32.20585097
1846 1 1 -4.78582411656e-05 47.06842147 35.66714262 32.20585097
1847 1 1 -4.83914940343e-05 45.59753330 38.21479566 32.20585097
1848 1 1 -4.32854710548e-05 47.06842147 20.38122435 32.20585097
1849 1 1 -4.35206449379e-05 48.53930964 22.92887739 32.20585097
1850 1 1 -4.33213782181e-05 50.01019781 25.47653044 32.20585097
1851 1 1 -4.64503617344e-05 48.53930964 28.02418348 32.20585097
1852 1 1 -4.46240413289e-05 50.01019781 30.57183653 32.20585097
1853 1 1 -4.64557442534e-05 48.53930964 33.11948957 32.20585097
1854 1 1 -4.3318890155e-05 50.01019781 35.66714262 32.20585097
1855 1 1 -4.35251994095e-05 48.53930964 38.21479566 32.20585097
1856 1 1 -4.0169076189e-05 50.01019781 20.38122435 32.20585097
1857 1 1 -4.09680360194e-05 51.48108598 22.92887739 32.20585097
1858 1 1 0.000215804831645 35.30131610 25.47653044 32.20585097
1859 1 1 -4.29848541946e-05 51.48108598 28.02418348 32.20585097
1860 1 1 5.29200664376e-05 35.30131610 30.57183653 32.20585097
1861 1 1 -4.29818407366e-05 51.48108598 33.11948957 32.20585097
1862 1 1 0.00021635405281 35.30131610 35.66714262 32.20585097
1863 1 1 -4.09618642062e-05 51.48108598 38.21479566 32.20585097
1864 1 1 8.25268440642e-05 35.30131610 20.38122435 32.20585097
1865 1 1 0.000120345256428 36.77220427 22.92887739 32.20585097
1866 1 1 0.000120090131157 38.24309244 25.47653044 32.20585097
1867 1 1 0.000222510800378 36.77220427 28.02418348 32.20585097
1868 1 1 0.000184595442668 38.24309244 30.57183653 32.20585097
1869 1 1 0.000222380293008 36.77220427 33.11948957 32.20585097
1870 1 1 0.00012073162621 38.24309244 35.66714262 32.20585097
1871 1 1 0.00012098810189 36.77220427 38.21479566 32.20585097
1872 1 1 -8.03116747161e-06 38.24309244 20.38122435 32.20585097
1873 1 1 -0.00146319578487 41.18486878 23.77809508 34.60780130
1874 1 1 -0.00138561781585 42.65575695 26.32574812 34.60780130
1875 1 1 -0.00175178924552 41.18486878 28.87340116 34.60780130
1876 1 1 -0.00147551384251 42.65575695 31.42105421 34.60780130
1877 1 1 -0.00168439896954 41.18486878 33.96870725 34.60780130
1878 1 1 -0.00130681425539 42.65575695 36.51636030 34.60780130
1879 1 1 -0.00133439664397 41.18486878 39.06401334 34.60780130
1880 1 1 -0.0011174134154 42.65575695 21.23044203 34.60780130
1881 1 1 -0.00110420359737 44.12664513 23.77809508 34.60780130
1882 1 1 -0.0010503592498 45.59753330 26.32574812 34.60780130
1883 1 1 -0.00125131444768 44.12664513 28.87340116 34.60780130
1884 1 1 -0.00109792605396 45.59753330 31.42105421 34.60780130
1885 1 1 -0.00121870429526 44.12664513 33.96870725 34.60780130
1886 1 1 -0.00100725239226 45.59753330 36.51636030 34.60780130
1887 1 1 -0.00103262592433 44.12664513 39.06401334 34.60780130
1888 1 1 -0.000899517079785 45.59753330 21.23044203 34.60780130
1889 1 1 -0.000890539073659 47.06842147 23.77809508 34.60780130
1890 1 1 -0.000865022116887 48.53930964 26.32574812 34.60780130
1891 1 1 -0.000973415923528 47.06842147 28.87340116 34.60780130
1892 1 1 -0.00089269778369 48.53930964 31.42105421 34.60780130
1893 1 1 -0.000955344648433 47.06842147 33.96870725 34.60780130
1894 1 1 -0.000839494426581 48.53930964 36.51636030 34.60780130
1895 1 1 -0.000848778595356 47.06842147 39.06401334 34.60780130
1896 1 1 -0.000773880660293 48.53930964 21.23044203 34.60780130
1897 1 1 -0.000780406711438 50.01019781 23.77809508 34.60780130
1898 1 1 -0.0007843150126 51.48108598 26.32574812 34.60780130
1899 1 1 -0.000833180857304 50.01019781 28.87340116 34.60780130
1900 1 1 -0.000803909621934 51.48108598 31.42105421 34.60780130
1901 1 1 -0.0008218361266 50.01019781 33.96870725 34.60780130
1902 1 1 -0.000765999409536 51.48108598 36.51636030 34.60780130
1903 1 1 -0.000752984258002 50.01019781 39.06401334 34.60780130
1904 1 1 -0.000717761986934 51.48108598 21.23044203 34.60780130
1905 1 1 -0.00336778293722 35.30131610 23.77809508 34.60780130
1906 1 1 -0.00337163830094 36.77220427 26.32574812 34.60780130
1907 1 1 -0.00624956747201 35.30131610 28.87340116 34.60780130
1908 1 1 -0.0041624919452 36.77220427 31.42105421 34.60780130
1909 1 1 -0.00537908182061 35.30131610 33.96870725 34.60780130
1910 1 1 -0.00283993592983 36.77220427 36.51636030 34.60780130
1911 1 1 -0.00263463236405 35.30131610 39.06401334 34.60780130
1912 1 1 -0.00197465582123 36.77220427 21.23044203 34.60780130
1913 1 1 -0.00207839310831 38.24309244 23.77809508 34.60780130
1914 1 1 -0.00198565037597 39.71398061 26.32574812 34.60780130
1915 1 1 -0.00284741886053 38.24309244 28.87340116 34.60780130
1916 1 1 -0.00220108225195 39.71398061 31.42105421 34.60780130
1917 1 1 -0.00264330477993 38.24309244 33.96870725 34.60780130
1918 1 1 -0.00181527601309 39.71398061 36.51636030 34.60780130
1919 1 1 -0.00180908137117 38.24309244 39.06401334 34.60780130
1920 1 1 -0.00145545416166 39.71398061 21.23044203 34.60780130
1921 1 1 0.00210498534143 35.30131610 40.76244870 25.00000000
1922 1 1 0.0014145493856 36.77220427 43.31010174 25.00000000
1923 1 1 0.00122092412677 35.30131610 45.85775479 25.00000000
1924 1 1 0.000913394526342 36.77220427 48.40540783 25.00000000
1925 1 1 0.000802458113327 35.30131610 50.95306088 25.00000000
1926 1 1 0.000670548425345 36.77220427 53.50071392 25.00000000
1927 1 1 0.000625051572028 35.30131610 56.04836697 25.00000000
1928 1 1 0.000577788094762 36.77220427 58.59602001 25.00000000
1929 1 1 0.00156726490125 38.24309244 40.76244870 25.00000000
1930 1 1 0.00113730000584 39.71398061 43.31010174 25.00000000
1931 1 1 0.00103242994045 38.24309244 45.85775479 25.00000000
1932 1 1 0.000803096398759 39.71398061 48.40540783 25.00000000
1933 1 1 0.000732056134511 38.24309244 50.95306088 25.00000000
1934 1 1 0.00062709875114 39.71398061 53.50071392 25.00000000
1935 1 1 0.000595664848242 38.24309244 56.04836697 25.00000000
1936 1 1 0.000555059747129 39.71398061 58.59602001 25.00000000
1937 1 1 0.00120306357275 41.18486878 40.76244870 25.00000000
1938 1 1 0.000927785215542 42.65575695 43.31010174 25.00000000
1939 1 1 0.00087284290499 41.18486878 45.85775479 25.00000000
1940 1 1 0.000712434499156 42.65575695 48.40540783 25.00000000
1941 1 1 0.000667888347278 41.18486878 50.95306088 25.00000000
1942 1 1 0.000588320534108 42.65575695 53.50071392 25.00000000
1943 1 1 0.000566760345148 41.18486878 56.04836697 25.00000000
1944 1 1 0.000533537273994 42.65575695 58.59602001 25.00000000
1945 1 1 0.000956343588879 44.12664513 40.76244870 25.00000000
1946 1 1 0.000785316398759 45.59753330 43.31010174 25.00000000
1947 1 1 0.000753812271557 44.12664513 45.85775479 25.00000000
1948 1 1 0.000646128505833 45.59753330 48.40540783 25.00000000
1949 1 1 0.000616048302994 44.12664513 50.95306088 25.00000000
1950 1 1 0.000557500553356 45.59753330 53.50071392 25.00000000
1951 1 1 0.000541558797575 44.12664513 56.04836697 25.00000000
1952 1 1 0.000515529229929 45.59753330 58.59602001 25.00000000
1953 1 1 0.000802912684515 47.06842147 40.76244870 25.00000000
1954 1 1 0.000700289907836 48.53930964 43.31010174 25.00000000
1955 1 1 0.000674996790156 47.06842147 45.85775479 25.00000000
1956 1 1 0.000603640784913 48.53930964 48.40540783 25.00000000
1957 1 1 0.000578834884273 47.06842147 50.95306088 25.00000000
1958 1 1 0.000536337524237 48.53930964 53.50071392 25.00000000
1959 1 1 0.000522262967545 47.06842147 56.04836697 25.00000000
1960 1 1 0.0005026823578 48.53930964 58.59602001 25.00000000
1961 1 1 0.000721856672243 50.01019781 40.76244870 25.00000000
1962 1 1 0.000661204407565 51.48108598 43.31010174 25.00000000
1963 1 1 0.000630937200197 50.01019781 45.85775479 25.00000000
1964 1 1 0.00058303153824 51.48108598 48.40540783 25.00000000
1965 1 1 0.000556625354873 50.01019781 50.95306088 25.00000000
1966 1 1 0.000525608855442 51.48108598 53.50071392 25.00000000
1967 1 1 0.000510219260507 50.01019781 56.04836697 25.00000000
1968 1 1 0.000496018529827 51.48108598 58.59602001 25.00000000
1969 1 1 -7.16327231929e-07 36.77220427 41.61166638 27.40195032
1970 1 1 4.88666795494e-05 38.24309244 44.15931943 27.40195032
1971 1 1 5.13366071858e-05 36.77220427 46.70697247 27.40195032
1972 1 1 4.5976204954e-05 38.24309244 49.25462551 27.40195032
1973 1 1 4.2599823493e-05 36.77220427 51.80227856 27.40195032
1974 1 1 3.83430378443e-05 38.24309244 54.34993160 27.40195032
1975 1 1 3.72348550708e-05 36.77220427 56.89758465 27.40195032
1976 1 1 3.58825070549e-05 38.24309244 59.44523769 27.40195032
1977 1 1 4.40184929666e-05 39.71398061 41.61166638 27.40195032
1978 1 1 5.11859301469e-05 41.18486878 44.15931943 27.40195032
1979 1 1 4.91098490414e-05 39.71398061 46.70697247 27.40195032
1980 1 1 4.23070725634e-05 41.18486878 49.25462551 27.40195032
1981 1 1 4.00949115823e-05 39.71398061 51.80227856 27.40195032
1982 1 1 3.68899167711e-05 41.18486878 54.34993160 27.40195032
1983 1 1 3.61335900561e-05 39.71398061 56.89758465 27.40195032
1984 1 1 3.49195150841e-05 41.18486878 59.44523769 27.40195032
1985 1 1 5.22691566887e-05 42.65575695 41.61166638 27.40195032
1986 1 1 4.64761863245e-05 44.12664513 44.15931943 27.40195032
1987 1 1 4.45850682145e-05 42.65575695 46.70697247 27.40195032
1988 1 1 3.94640451588e-05 44.12664513 49.25462551 27.40195032
1989 1 1 3.80471023684e-05 42.65575695 51.80227856 27.40195032
1990 1 1 3.56629011986e-05 44.12664513 54.34993160 27.40195032
1991 1 1 3.50813399092e-05 42.65575695 56.89758465 27.40195032
1992 1 1 3.40290247719e-05 44.12664513 59.44523769 27.40195032
1993 1 1 4.76799396055e-05 45.59753330 41.61166638 27.40195032
1994 1 1 4.22714208226e-05 47.06842147 44.15931943 27.40195032
1995 1 1 4.09429250866e-05 45.59753330 46.70697247 27.40195032
1996 1 1 3.76587716377e-05 47.06842147 49.25462551 27.40195032
1997 1 1 3.65545625503e-05 45.59753330 51.80227856 27.40195032
1998 1 1 3.4719205846e-05 47.06842147 54.34993160 27.40195032
1999 1 1 3.41794223148e-05 45.59753330 56.89758465 27.40195032
2000 1 1 3.33127000932e-05 47.06842147 59.44523769 27.40195032
2001 1 1 4.33030995885e-05 48.53930964 41.61166638 27.40195032
2002 1 1 4.01586400146e-05 50.01019781 44.15931943 27.40195032
2003 1 1 3.88855239677e-05 48.53930964 46.70697247 27.40195032
2004 1 1 3.66822801354e-05 50.01019781 49.25462551 27.40195032
2005 1 1 3.55705407956e-05 48.53930964 51.80227856 27.40195032
2006 1 1 3.41154222721e-05 50.01019781 54.34993160 27.40195032
2007 1 1 3.35174407859e-05 48.53930964 56.89758465 27.40195032
2008 1 1 3.28499733102e-05 50.01019781 59.44523769 27.40195032
2009 1 1 4.14443010297e-05 51.48108598 41.61166638 27.40195032
2010 1 1 2.81870312391e-05 35.30131610 44.15931943 27.40195032
2011 1 1 3.80196052303e-05 51.48108598 46.70697247 27.40195032
2012 1 1 4.9394872375e-05 35.30131610 49.25462551 27.40195032
2013 1 1 3.50715797799e-05 51.48108598 51.80227856 27.40195032
2014 1 1 3.99110300139e-05 35.30131610 54.34993160 27.40195032
2015 1 1 3.31665788005e-05 51.48108598 56.89758465 27.40195032
2016 1 1 3.68050706284e-05 35.30131610 59.44523769 27.40195032
2017 1 1 -8.8614949921e-07 38.24309244 42.46088406 29.80390065
2018 1 1 -5.49638502141e-07 39.71398061 45.00853711 29.80390065
2019 1 1 -4.45721603396e-07 38.24309244 47.55619015 29.80390065
2020 1 1 -3.0489961467e-07 39.71398061 50.10384320 29.80390065
2021 1 1 -2.76003098397e-07 38.24309244 52.65149624 29.80390065
2022 1 1 -2.38095778139e-07 39.71398061 55.19914928 29.80390065
2023 1 1 -2.28758232241e-07 38.24309244 57.74680233 29.80390065
2024 1 1 -2.14949279677e-07 39.71398061 60.29445537 29.80390065
2025 1 1 -6.03991036946e-07 41.18486878 42.46088406 29.80390065
2026 1 1 -3.92898514404e-07 42.65575695 45.00853711 29.80390065
2027 1 1 -3.46596603223e-07 41.18486878 47.55619015 29.80390065
2028 1 1 -2.65959686406e-07 42.65575695 50.10384320 29.80390065
2029 1 1 -2.50597117668e-07 41.18486878 52.65149624 29.80390065
2030 1 1 -2.22538172808e-07 42.65575695 55.19914928 29.80390065
2031 1 1 -2.16243756357e-07 41.18486878 57.74680233 29.80390065
2032 1 1 -2.05011973185e-07 42.65575695 60.29445537 29.80390065
2033 1 1 -4.24191660356e-07 44.12664513 42.46088406 29.80390065
2034 1 1 -3.05583103104e-07 45.59753330 45.00853711 29.80390065
2035 1 1 -2.85289223733e-07 44.12664513 47.55619015 29.80390065
2036 1 1 -2.41266538807e-07 45.59753330 50.10384320 29.80390065
2037 1 1 -2.31177271509e-07 44.12664513 52.65149624 29.80390065
2038 1 1 -2.10153704826e-07 45.59753330 55.19914928 29.80390065
2039 1 1 -2.05462699013e-07 44.12664513 57.74680233 29.80390065
2040 1 1 -1.96827508405e-07 45.59753330 60.29445537 29.80390065
2041 1 1 -3.19582491017e-07 47.06842147 42.46088406 29.80390065
2042 1 1 -2.65549459996e-07 48.53930964 45.00853711 29.80390065
2043 1 1 -2.52991248344e-07 47.06842147 47.55619015 29.80390065
2044 1 1 -2.26380420454e-07 48.53930964 50.10384320 29.80390065
2045 1 1 -2.17289678253e-07 47.06842147 52.65149624 29.80390065
2046 1 1 -2.01392008855e-07 48.53930964 55.19914928 29.80390065
2047 1 1 -1.97203727652e-07 47.06842147 57.74680233 29.80390065
2048 1 1 -1.91083213853e-07 48.53930964 60.29445537 29.80390065
2049 1 1 -2.77410734066e-07 50.01019781 42.46088406 29.80390065
2050 1 1 -2.51639095345e-07 51.48108598 45.00853711 29.80390065
2051 1 1 -2.37794184206e-07 50.01019781 47.55619015 29.80390065
2052 1 1 -2.19005748884e-07 51.48108598 50.10384320 29.80390065
2053 1 1 -2.0857697568e-07 50.01019781 52.65149624 29.80390065
2054 1 1 -1.96807491013e-07 51.48108598 55.19914928 29.80390065
2055 1 1 -1.92022716039e-07 50.01019781 57.74680233 29.80390065
2056 1 1 -1.88142812644e-07 51.48108598 60.29445537 29.80390065
2057 1 1 -1.32258980435e-06 35.30131610 42.46088406 29.80390065
2058 1 1 -7.81764291361e-07 36.77220427 45.00853711 29.80390065
2059 1 1 -5.68455451267e-07 35.30131610 47.55619015 29.80390065
2060 1 1 -3.57668485738e-07 36.77220427 50.10384320 29.80390065
2061 1 1 -3.0422306546e-07 35.30131610 52.65149624 29.80390065
2062 1 1 -2.55773951972e-07 36.77220427 55.19914928 29.80390065
2063 1 1 -2.41658374951e-07 35.30131610 57.74680233 29.80390065
2064 1 1 -2.25581136752e-07 36.77220427 60.29445537 29.80390065
2065 1 1 -4.66473956702e-05 39.71398061 43.31010174 32.20585097
2066 1 1 -4.53790211126e-05 41.18486878 45.85775479 32.20585097
2067 1 1 -4.28522460513e-05 39.71398061 48.40540783 32.20585097
2068 1 1 -3.75640024046e-05 41.18486878 50.95306088 32.20585097
2069 1 1 -3.60585730568e-05 39.71398061 53.50071392 32.20585097
2070 1 1 -3.39534094689e-05 41.18486878 56.04836697 32.20585097
2071 1 1 -3.36170923892e-05 39.71398061 58.59602001 32.20585097
2072 1 1 -4.49124684906e-05 41.18486878 40.76244870 32.20585097
2073 1 1 -4.71316099303e-05 42.65575695 43.31010174 32.20585097
2074 1 1 -4.1098191708e-05 44.12664513 45.85775479 32.20585097
2075 1 1 -3.93495320077e-05 42.65575695 48.40540783 32.20585097
2076 1 1 -3.57031407676e-05 44.12664513 50.95306088 32.20585097
2077 1 1 -3.46824665436e-05 42.65575695 53.50071392 32.20585097
2078 1 1 -3.2999655952e-05 44.12664513 56.04836697 32.20585097
2079 1 1 -3.27313030615e-05 42.65575695 58.59602001 32.20585097
2080 1 1 -4.81006816242e-05 44.12664513 40.76244870 32.20585097
2081 1 1 -4.24816076438e-05 45.59753330 43.31010174 32.20585097
2082 1 1 -3.81185488282e-05 47.06842147 45.85775479 32.20585097
2083 1 1 -3.68966634627e-05 45.59753330 48.40540783 32.20585097
2084 1 1 -3.44656779935e-05 47.06842147 50.95306088 32.20585097
2085 1 1 -3.36062299824e-05 45.59753330 53.50071392 32.20585097
2086 1 1 -3.22378516591e-05 47.06842147 56.04836697 32.20585097
2087 1 1 -3.19619537769e-05 45.59753330 58.59602001 32.20585097
2088 1 1 -4.32984233545e-05 47.06842147 40.76244870 32.20585097
2089 1 1 -3.92320165923e-05 48.53930964 43.31010174 32.20585097
2090 1 1 -3.66853509863e-05 50.01019781 45.85775479 32.20585097
2091 1 1 -3.55115189234e-05 48.53930964 48.40540783 32.20585097
2092 1 1 -3.37454848328e-05 50.01019781 50.95306088 32.20585097
2093 1 1 -3.28489025477e-05 48.53930964 53.50071392 32.20585097
2094 1 1 -3.17423133898e-05 50.01019781 56.04836697 32.20585097
2095 1 1 -3.13955083033e-05 48.53930964 58.59602001 32.20585097
2096 1 1 -4.01653049075e-05 50.01019781 40.76244870 32.20585097
2097 1 1 -3.79407262872e-05 51.48108598 43.31010174 32.20585097
2098 1 1 -4.22376916276e-05 35.30131610 45.85775479 32.20585097
2099 1 1 -3.48973409192e-05 51.48108598 48.40540783 32.20585097
2100 1 1 -4.28005384505e-05 35.30131610 50.95306088 32.20585097
2101 1 1 -3.2450745523e-05 51.48108598 53.50071392 32.20585097
2102 1 1 -3.61053924933e-05 35.30131610 56.04836697 32.20585097
2103 1 1 -3.10956551264e-05 51.48108598 58.59602001 32.20585097
2104 1 1 8.23961081944e-05 35.30131610 40.76244870 32.20585097
2105 1 1 -2.6490733662e-05 36.77220427 43.31010174 32.20585097
2106 1 1 -4.77866125607e-05 38.24309244 45.85775479 32.20585097
2107 1 1 -4.62674437062e-05 36.77220427 48.40540783 32.20585097
2108 1 1 -4.00553946973e-05 38.24309244 50.95306088 32.20585097
2109 1 1 -3.76811371434e-05 36.77220427 53.50071392 32.20585097
2110 1 1 -3.5020235521e-05 38.24309244 56.04836697 32.20585097
2111 1 1 -3.45202554941e-05 36.77220427 58.59602001 32.20585097
2112 1 1 -7.94221354344e-06 38.24309244 40.76244870 32.20585097
2113 1 1 -0.000971756218755 41.18486878 44.15931943 34.60780130
2114 1 1 -0.000774817501431 42.65575695 46.70697247 34.60780130
2115 1 1 -0.000723885153928 41.18486878 49.25462551 34.60780130
2116 1 1 -0.000621898013683 42.65575695 51.80227856 34.60780130
2117 1 1 -0.00059240673771 41.18486878 54.34993160 34.60780130
2118 1 1 -0.000546243719203 42.65575695 56.89758465 34.60780130
2119 1 1 -0.000540792935785 41.18486878 59.44523769 34.60780130
2120 1 1 -0.00102078889753 42.65575695 41.61166638 34.60780130
2121 1 1 -0.000816707403542 44.12664513 44.15931943 34.60780130
2122 1 1 -0.000688251667111 45.59753330 46.70697247 34.60780130
2123 1 1 -0.000655393409744 44.12664513 49.25462551 34.60780130
2124 1 1 -0.000582527116144 45.59753330 51.80227856 34.60780130
2125 1 1 -0.000561186998381 44.12664513 54.34993160 34.60780130
2126 1 1 -0.000525605490534 45.59753330 56.89758465 34.60780130
2127 1 1 -0.000521650600549 44.12664513 59.44523769 34.60780130
2128 1 1 -0.000842251393171 45.59753330 41.61166638 34.60780130
2129 1 1 -0.000716384673767 47.06842147 44.15931943 34.60780130
2130 1 1 -0.000634190666082 48.53930964 46.70697247 34.60780130
2131 1 1 -0.000607560298727 47.06842147 49.25462551 34.60780130
2132 1 1 -0.000556037281169 48.53930964 51.80227856 34.60780130
2133 1 1 -0.000537696772139 47.06842147 54.34993160 34.60780130
2134 1 1 -0.000511010510912 48.53930964 56.89758465 34.60780130
2135 1 1 -0.000506686527157 47.06842147 59.44523769 34.60780130
2136 1 1 -0.000737671576439 48.53930964 41.61166638 34.60780130
2137 1 1 -0.000661497705523 50.01019781 44.15931943 34.60780130
2138 1 1 -0.000608440942388 51.48108598 46.70697247 34.60780130
2139 1 1 -0.000579597311329 50.01019781 49.25462551 34.60780130
2140 1 1 -0.000542773784339 51.48108598 51.80227856 34.60780130
2141 1 1 -0.000523206621406 50.01019781 54.34993160 34.60780130
2142 1 1 -0.000503479636195 51.48108598 56.89758465 34.60780130
2143 1 1 -0.000497214631601 50.01019781 59.44523769 34.60780130
2144 1 1 -0.000690351935069 51.48108598 41.61166638 34.60780130
2145 1 1 -0.00144568258644 35.30131610 44.15931943 34.60780130
2146 1 1 -0.00104787845121 36.77220427 46.70697247 34.60780130
2147 1 1 -0.000909324724526 35.30131610 49.25462551 34.60780130
2148 1 1 -0.000731344290375 36.77220427 51.80227856 34.60780130
2149 1 1 -0.000667071731159 35.30131610 54.34993160 34.60780130
2150 1 1 -0.000597941297848 36.77220427 56.89758465 34.60780130
2151 1 1 -0.00058330353025 35.30131610 59.44523769 34.60780130
2152 1 1 -0.00166602985546 36.77220427 41.61166638 34.60780130
2153 1 1 -0.00118461168556 38.24309244 44.15931943 34.60780130
2154 1 1 -0.000896390786188 39.71398061 46.70697247 34.60780130
2155 1 1 -0.000811146444378 38.24309244 49.25462551 34.60780130
2156 1 1 -0.000672750924977 39.71398061 51.80227856 34.60780130
2157 1 1 -0.000628999444256 38.24309244 54.34993160 34.60780130
2158 1 1 -0.000571205537704 39.71398061 56.89758465 34.60780130
2159 1 1 -0.000562179492199 38.24309244 59.44523769 34.60780130
2160 1 1 -0.00128959334253 39.71398061 41.61166638 34.60780130
2161 2 2 1 26.47598707 30.57183653 39.60780130
2162 3 2 -1 26.47598707 30.57183653 20.00000000
