ITEM: TIMESTEP
0
ITEM: NUMBER OF ATOMS
240
ITEM: BOX BOUNDS pp pp ff
0.0000000000000000e+00 1.7650658050000001e+01
0.0000000000000000e+00 2.0381224350000000e+01
0.0000000000000000e+00 6.0000000000000000e+01
ITEM: ATOMS id type q
1 1 -0.0240365618691
2 1 -0.0240365528221
3 1 -0.024036544465
4 1 -0.0240365519279
5 1 -0.0240365618884
6 1 -0.0240365528295
7 1 -0.0240365444563
8 1 -0.024036551908
9 1 -0.0240365618738
10 1 -0.0240365528295
11 1 -0.0240365444697
12 1 -0.0240365519352
13 1 -0.0240365618931
14 1 -0.0240365528368
15 1 -0.0240365444611
16 1 -0.0240365519154
17 1 -0.0240365618821
18 1 -0.0240365528362
19 1 -0.024036544478
20 1 -0.0240365519419
21 1 -0.0240365619014
22 1 -0.0240365528435
23 1 -0.0240365444694
24 1 -0.0240365519221
25 1 -0.0240365618847
26 1 -0.0240365528336
27 1 -0.0240365444806
28 1 -0.0240365519393
29 1 -0.024036561904
30 1 -0.0240365528409
31 1 -0.0240365444719
32 1 -0.0240365519195
33 1 -0.024036561878
34 1 -0.0240365528253
35 1 -0.0240365444739
36 1 -0.024036551931
37 1 -0.0240365618973
38 1 -0.0240365528326
39 1 -0.0240365444653
40 1 -0.0240365519112
41 1 -0.0240365618707
42 1 -0.0240365528205
43 1 -0.0240365444666
44 1 -0.0240365519263
45 1 -0.0240365618899
46 1 -0.0240365528279
47 1 -0.0240365444579
48 1 -0.0240365519065
49 1 -0.00162640726014
50 1 -0.00162639320351
51 1 -0.00162639243823
52 1 -0.00162640612889
53 1 -0.00162640727157
54 1 -0.00162639320409
55 1 -0.00162639242765
56 1 -0.00162640611322
57 1 -0.00162640726482
58 1 -0.00162639320897
59 1 -0.00162639244291
60 1 -0.00162640613435
61 1 -0.00162640727625
62 1 -0.00162639320955
63 1 -0.00162639243233
64 1 -0.00162640611868
65 1 -0.00162640726931
66 1 -0.00162639321072
67 1 -0.0016263924474
68 1 -0.0016264061361
69 1 -0.00162640728074
70 1 -0.0016263932113
71 1 -0.00162639243681
72 1 -0.00162640612043
73 1 -0.00162640726756
74 1 -0.00162639320624
75 1 -0.00162639244565
76 1 -0.00162640613161
77 1 -0.00162640727899
78 1 -0.00162639320681
79 1 -0.00162639243507
80 1 -0.00162640611595
81 1 -0.0016264072621
82 1 -0.00162639320156
83 1 -0.00162639244019
84 1 -0.00162640612693
85 1 -0.00162640727353
86 1 -0.00162639320213
87 1 -0.00162639242961
88 1 -0.00162640611127
89 1 -0.00162640725926
90 1 -0.00162639320067
91 1 -0.00162639243734
92 1 -0.00162640612604
93 1 -0.00162640727068
94 1 -0.00162639320124
95 1 -0.00162639242676
96 1 -0.00162640611038
97 1 -7.40175994262e-07
98 1 -7.36768849071e-07
99 1 -7.40194992171e-07
100 1 -7.43604210364e-07
101 1 -7.40177822727e-07
102 1 -7.36764713871e-07
103 1 -7.40187380042e-07
104 1 -7.43597758447e-07
105 1 -7.40175987057e-07
106 1 -7.36768843028e-07
107 1 -7.4019498496e-07
108 1 -7.43604204295e-07
109 1 -7.40177815494e-07
110 1 -7.36764707836e-07
111 1 -7.40187372841e-07
112 1 -7.43597752392e-07
113 1 -7.40175984528e-07
114 1 -7.36768845548e-07
115 1 -7.40194982432e-07
116 1 -7.43604206836e-07
117 1 -7.40177812989e-07
118 1 -7.36764710349e-07
119 1 -7.40187370319e-07
120 1 -7.43597754898e-07
121 1 -7.40175990566e-07
122 1 -7.36768852766e-07
123 1 -7.40194988475e-07
124 1 -7.43604214042e-07
125 1 -7.40177819042e-07
126 1 -7.36764717575e-07
127 1 -7.40187376352e-07
128 1 -7.43597762134e-07
129 1 -7.40175997268e-07
130 1 -7.36768857435e-07
131 1 -7.40194995175e-07
132 1 -7.43604218729e-07
133 1 -7.40177825717e-07
134 1 -7.36764722237e-07
135 1 -7.4018738306e-07
136 1 -7.43597766798e-07
137 1 -7.40175998945e-07
138 1 -7.36768855763e-07
139 1 -7.40194996847e-07
140 1 -7.43604217065e-07
141 1 -7.40177827391e-07
142 1 -7.36764720586e-07
143 1 -7.40187384738e-07
144 1 -7.43597765115e-07
145 1 0.00166733865162
146 1 0.00166733749167
147 1 0.00166732388892
148 1 0.0016673246847
149 1 0.00166733865658
150 1 0.00166733749756
151 1 0.00166732389163
152 1 0.00166732468287
153 1 0.00166733865606
154 1 0.0016673374934
155 1 0.00166732389337
156 1 0.00166732468643
157 1 0.00166733866103
158 1 0.00166733749929
159 1 0.00166732389608
160 1 0.0016673246846
161 1 0.00166733865434
162 1 0.00166733748895
163 1 0.00166732389164
164 1 0.00166732468198
165 1 0.0016673386593
166 1 0.00166733749484
167 1 0.00166732389435
168 1 0.00166732468015
169 1 0.0016673386489
170 1 0.00166733748428
171 1 0.00166732388621
172 1 0.00166732467731
173 1 0.00166733865386
174 1 0.00166733749016
175 1 0.00166732388891
176 1 0.00166732467548
177 1 0.00166733864605
178 1 0.00166733748339
179 1 0.00166732388336
180 1 0.00166732467642
181 1 0.00166733865102
182 1 0.00166733748928
183 1 0.00166732388607
184 1 0.00166732467459
185 1 0.00166733864694
186 1 0.00166733748623
187 1 0.00166732388425
188 1 0.00166732467927
189 1 0.00166733865191
190 1 0.00166733749212
191 1 0.00166732388695
192 1 0.00166732467744
193 1 0.0239963706488
194 1 0.0239963606862
195 1 0.0239963532467
196 1 0.0239963616107
197 1 0.0239963706567
198 1 0.0239963606909
199 1 0.0239963532449
200 1 0.023996361604
201 1 0.0239963706514
202 1 0.0239963606836
203 1 0.0239963532493
204 1 0.0239963616081
205 1 0.0239963706594
206 1 0.0239963606883
207 1 0.0239963532475
208 1 0.0239963616014
209 1 0.0239963706446
210 1 0.0239963606752
211 1 0.0239963532425
212 1 0.0239963615997
213 1 0.0239963706526
214 1 0.02399636068
215 1 0.0239963532408
216 1 0.023996361593
217 1 0.0239963706373
218 1 0.0239963606705
219 1 0.0239963532352
220 1 0.023996361595
221 1 0.0239963706452
222 1 0.0239963606752
223 1 0.0239963532334
224 1 0.0239963615883
225 1 0.0239963706357
226 1 0.023996360672
227 1 0.0239963532336
228 1 0.0239963615966
229 1 0.0239963706436
230 1 0.0239963606768
231 1 0.0239963532318
232 1 0.0239963615899
233 1 0.0239963706404
234 1 0.0239963606794
235 1 0.0239963532383
236 1 0.0239963616039
237 1 0.0239963706484
238 1 0.0239963606842
239 1 0.0239963532366
240 1 0.0239963615972
