LAMMPS (2 Sep 2026)
OMP_NUM_THREADS environment is not set. Defaulting to 1 thread.
  using 1 OpenMP thread(s) per MPI task
# referee item 4: NVE of SPC-FQ water, arm selfterm (run_nve.py)
units        metal
atom_style   full
boundary     p p p
lattice      sc 3.1
Lattice spacing in x,y,z = 3.1 3.1 3.1
region       box block 0 4 0 4 0 4
create_box   2 box
Created orthogonal box = (0 0 0) to (12.4 12.4 12.4)
  1 by 1 by 1 MPI processor grid
mass         1 15.9994
mass         2 1.008
molecule     h2o spcfq.mol
Read molecule template h2o:
# SPC-FQ 3-site water: O(type1) + 2H(type2), all charged via samqeq. SPC geom rOH=1.0 theta=109.47.
  1 molecules
  0 fragments
  0 bodies
  3 atoms with max type 2
  0 bonds with max type 0
  0 angles with max type 0
  0 dihedrals with max type 0
  0 impropers with max type 0
create_atoms 0 box mol h2o 12345
Created 192 atoms
  using lattice units in orthogonal box = (0 0 0) to (12.4 12.4 12.4)
  create_atoms CPU = 0.002 seconds
group        fq type 1 2
192 atoms in group fq
set          type 1 charge -0.85
Setting atom values ...
  64 settings made for charge
set          type 2 charge  0.425
Setting atom values ...
  128 settings made for charge
pair_style   hybrid/overlay lj/cut 10.0 coul/long 10.0 coul/shield/intra 5.0 all
pair_coeff   1 1 lj/cut 0.01275 3.176
pair_coeff   1 2 lj/cut 0.0 1.0
pair_coeff   2 2 lj/cut 0.0 1.0
pair_coeff   * * coul/long
pair_coeff   * * coul/shield/intra 1.11

kspace_style pppm/samqeq 1.0e-6
neighbor     2.0 bin
neigh_modify every 1 delay 0 check yes
fix          chg fq qeq/sam 1 0.0 10.0 1.0e-7 spcfq_expt.param
fix_modify   chg energy yes
fix_modify   chg recip_self 0.37933
samqeq: grid reciprocal self-term PINNED at recip_self=0.37933 (raw) = 5.4622 eV/e (not measured; operator is decomposition- and atom-order-independent)
compute      dip fq dipole/samqeq
timestep     0.001
velocity     all create 298 123456 mom yes rot yes dist gaussian
fix          integ all rigid/nvt/small molecule temp 298 298 0.1
Fix rigid/nvt/small setup ...
  create bodies CPU = 0.000 seconds
  64 rigid bodies with 192 atoms
  1.0000026 = max distance from body owner to body atom
thermo_style custom step temp pe c_dip
thermo       1000
run          20000

CITE-CITE-CITE-CITE-CITE-CITE-CITE-CITE-CITE-CITE-CITE-CITE-CITE

Your simulation uses code contributions which should be cited:

- fix acks2/reaxff command: https://doi.org/10.1137/18M1224684

@Article{O'Hearn2020,
 author = {K. A. {O'Hearn} and A. Alperen and H. M. Aktulga},
 title = {Fast Solvers for Charge Distribution Models on Shared Memory Platforms},
 journal = {SIAM J.\ Sci.\ Comput.},
 year =    2020,
 volume =  42,
 number =  1,
 pages =   {1--22}
}

CITE-CITE-CITE-CITE-CITE-CITE-CITE-CITE-CITE-CITE-CITE-CITE-CITE

PPPM initialization ...
  using 12-bit tables for long-range coulomb
  G vector (1/distance) = 0.33957131
  grid = 18 18 18
  stencil order = 5
  estimated absolute RMS force accuracy = 1.4063135e-05
  estimated relative force accuracy = 9.7663066e-07
  using double precision FFTW3
  3d grid and FFT values/proc = 15625 5832
Generated 0 of 1 mixed pair_coeff terms from geometric mixing rule
samqeq: E_self = sum(chi q + 1/2 eta qs^2) INCLUDED in pe/etotal (fix_modify chg energy yes; eselfref qs = q - q0) -- pe + E_self is the energy the forces integrate
Neighbor list info ...
  update: every = 1 steps, delay = 0 steps, check = yes
  max neighbors/atom: 2000, page size: 100000
  master list distance cutoff = 12
  ghost atom cutoff = 12
  binsize = 6, bins = 3 3 3
  5 neighbor lists, perpetual/occasional/extra = 5 0 0
  (1) pair lj/cut, perpetual, half/full from (5)
      attributes: half, newton on
      pair build: halffull/newton
      stencil: none
      bin: none
  (2) pair coul/long, perpetual, copy from (1)
      attributes: half, newton on
      pair build: copy
      stencil: none
      bin: none
  (3) pair coul/shield/intra, perpetual, trim from (2)
      attributes: half, newton on, cut 7
      pair build: trim
      stencil: none
      bin: none
  (4) fix qeq/sam, perpetual, half/full from (5)
      attributes: half, newton off
      pair build: halffull/newtoff
      stencil: none
      bin: none
  (5) fix qeq/sam, perpetual
      attributes: full, newton on
      pair build: full/bin
      stencil: full/bin/3d
      bin: standard
samqeq: recip_self ACTIVE at run start (step 0): 0.37933 raw = 5.4622 eV/e, PINNED (fix_modify recip_self)
samqeq SOLVER-DIAG step 0: CG 17 iters (=17 matvecs), resid/b=7.53e-08
Per MPI rank memory allocation (min/avg/max) = 24.9 | 24.9 | 24.9 Mbytes
   Step          Temp          PotEng         c_dip     
         0   295.15635     -45.775551      1.9949766    
samqeq SOLVER-DIAG step 200: CG 16 iters (=16 matvecs), resid/b=8.41e-08
samqeq SOLVER-DIAG step 400: CG 17 iters (=17 matvecs), resid/b=5.63e-08
samqeq SOLVER-DIAG step 600: CG 17 iters (=17 matvecs), resid/b=5.73e-08
samqeq SOLVER-DIAG step 800: CG 17 iters (=17 matvecs), resid/b=9.45e-08
samqeq SOLVER-DIAG step 1000: CG 17 iters (=17 matvecs), resid/b=7.32e-08
      1000   314.5619      -71.883761      2.6762963    
samqeq SOLVER-DIAG step 1200: CG 17 iters (=17 matvecs), resid/b=9.04e-08
samqeq SOLVER-DIAG step 1400: CG 18 iters (=18 matvecs), resid/b=4.22e-08
samqeq SOLVER-DIAG step 1600: CG 18 iters (=18 matvecs), resid/b=4.01e-08
samqeq SOLVER-DIAG step 1800: CG 17 iters (=17 matvecs), resid/b=4.93e-08
samqeq SOLVER-DIAG step 2000: CG 17 iters (=17 matvecs), resid/b=8.64e-08
      2000   305.97649     -70.163571      2.6114282    
samqeq SOLVER-DIAG step 2200: CG 18 iters (=18 matvecs), resid/b=3.02e-08
samqeq SOLVER-DIAG step 2400: CG 17 iters (=17 matvecs), resid/b=8.49e-08
samqeq SOLVER-DIAG step 2600: CG 18 iters (=18 matvecs), resid/b=5.35e-08
samqeq SOLVER-DIAG step 2800: CG 17 iters (=17 matvecs), resid/b=8.07e-08
samqeq SOLVER-DIAG step 3000: CG 17 iters (=17 matvecs), resid/b=8.03e-08
      3000   289.62585     -70.946833      2.6223565    
samqeq SOLVER-DIAG step 3200: CG 18 iters (=18 matvecs), resid/b=3.03e-08
samqeq SOLVER-DIAG step 3400: CG 18 iters (=18 matvecs), resid/b=3.20e-08
samqeq SOLVER-DIAG step 3600: CG 17 iters (=17 matvecs), resid/b=9.46e-08
samqeq SOLVER-DIAG step 3800: CG 17 iters (=17 matvecs), resid/b=8.92e-08
samqeq SOLVER-DIAG step 4000: CG 18 iters (=18 matvecs), resid/b=3.43e-08
      4000   294.72041     -70.854869      2.6178328    
samqeq SOLVER-DIAG step 4200: CG 17 iters (=17 matvecs), resid/b=7.26e-08
samqeq SOLVER-DIAG step 4400: CG 18 iters (=18 matvecs), resid/b=2.71e-08
samqeq SOLVER-DIAG step 4600: CG 18 iters (=18 matvecs), resid/b=2.77e-08
samqeq SOLVER-DIAG step 4800: CG 18 iters (=18 matvecs), resid/b=3.07e-08
samqeq SOLVER-DIAG step 5000: CG 18 iters (=18 matvecs), resid/b=3.24e-08
      5000   313.14579     -72.075664      2.7034429    
samqeq SOLVER-DIAG step 5200: CG 17 iters (=17 matvecs), resid/b=8.52e-08
samqeq SOLVER-DIAG step 5400: CG 18 iters (=18 matvecs), resid/b=5.20e-08
samqeq SOLVER-DIAG step 5600: CG 17 iters (=17 matvecs), resid/b=7.93e-08
samqeq SOLVER-DIAG step 5800: CG 18 iters (=18 matvecs), resid/b=3.41e-08
samqeq SOLVER-DIAG step 6000: CG 18 iters (=18 matvecs), resid/b=3.08e-08
      6000   276.83513     -69.99825       2.6166293    
samqeq SOLVER-DIAG step 6200: CG 17 iters (=17 matvecs), resid/b=6.15e-08
samqeq SOLVER-DIAG step 6400: CG 17 iters (=17 matvecs), resid/b=9.04e-08
samqeq SOLVER-DIAG step 6600: CG 18 iters (=18 matvecs), resid/b=4.23e-08
samqeq SOLVER-DIAG step 6800: CG 17 iters (=17 matvecs), resid/b=7.07e-08
samqeq SOLVER-DIAG step 7000: CG 17 iters (=17 matvecs), resid/b=7.16e-08
      7000   279.19944     -71.421884      2.6722836    
samqeq SOLVER-DIAG step 7200: CG 18 iters (=18 matvecs), resid/b=3.11e-08
samqeq SOLVER-DIAG step 7400: CG 17 iters (=17 matvecs), resid/b=8.46e-08
samqeq SOLVER-DIAG step 7600: CG 17 iters (=17 matvecs), resid/b=7.15e-08
samqeq SOLVER-DIAG step 7800: CG 17 iters (=17 matvecs), resid/b=5.69e-08
samqeq SOLVER-DIAG step 8000: CG 17 iters (=17 matvecs), resid/b=6.81e-08
      8000   290.13002     -70.327547      2.6347139    
samqeq SOLVER-DIAG step 8200: CG 17 iters (=17 matvecs), resid/b=7.13e-08
samqeq SOLVER-DIAG step 8400: CG 18 iters (=18 matvecs), resid/b=5.27e-08
samqeq SOLVER-DIAG step 8600: CG 17 iters (=17 matvecs), resid/b=9.70e-08
samqeq SOLVER-DIAG step 8800: CG 18 iters (=18 matvecs), resid/b=2.81e-08
samqeq SOLVER-DIAG step 9000: CG 18 iters (=18 matvecs), resid/b=3.79e-08
      9000   311.04683     -70.236885      2.6153441    
samqeq SOLVER-DIAG step 9200: CG 16 iters (=16 matvecs), resid/b=8.98e-08
samqeq SOLVER-DIAG step 9400: CG 17 iters (=17 matvecs), resid/b=7.12e-08
samqeq SOLVER-DIAG step 9600: CG 17 iters (=17 matvecs), resid/b=6.97e-08
samqeq SOLVER-DIAG step 9800: CG 18 iters (=18 matvecs), resid/b=3.28e-08
samqeq SOLVER-DIAG step 10000: CG 18 iters (=18 matvecs), resid/b=3.04e-08
     10000   277.70864     -71.913225      2.7499861    
samqeq SOLVER-DIAG step 10200: CG 17 iters (=17 matvecs), resid/b=9.95e-08
samqeq SOLVER-DIAG step 10400: CG 18 iters (=18 matvecs), resid/b=3.02e-08
samqeq SOLVER-DIAG step 10600: CG 18 iters (=18 matvecs), resid/b=3.91e-08
samqeq SOLVER-DIAG step 10800: CG 18 iters (=18 matvecs), resid/b=5.32e-08
samqeq SOLVER-DIAG step 11000: CG 17 iters (=17 matvecs), resid/b=7.98e-08
     11000   311.141       -71.446816      2.6925563    
samqeq SOLVER-DIAG step 11200: CG 17 iters (=17 matvecs), resid/b=7.11e-08
samqeq SOLVER-DIAG step 11400: CG 18 iters (=18 matvecs), resid/b=3.22e-08
samqeq SOLVER-DIAG step 11600: CG 17 iters (=17 matvecs), resid/b=5.53e-08
samqeq SOLVER-DIAG step 11800: CG 17 iters (=17 matvecs), resid/b=7.76e-08
samqeq SOLVER-DIAG step 12000: CG 17 iters (=17 matvecs), resid/b=9.65e-08
     12000   312.82791     -70.998698      2.6573727    
samqeq SOLVER-DIAG step 12200: CG 18 iters (=18 matvecs), resid/b=3.49e-08
samqeq SOLVER-DIAG step 12400: CG 18 iters (=18 matvecs), resid/b=3.77e-08
samqeq SOLVER-DIAG step 12600: CG 17 iters (=17 matvecs), resid/b=8.91e-08
samqeq SOLVER-DIAG step 12800: CG 18 iters (=18 matvecs), resid/b=4.08e-08
samqeq SOLVER-DIAG step 13000: CG 18 iters (=18 matvecs), resid/b=3.37e-08
     13000   316.47918     -72.002485      2.7192616    
samqeq SOLVER-DIAG step 13200: CG 18 iters (=18 matvecs), resid/b=3.21e-08
samqeq SOLVER-DIAG step 13400: CG 18 iters (=18 matvecs), resid/b=2.79e-08
samqeq SOLVER-DIAG step 13600: CG 18 iters (=18 matvecs), resid/b=3.90e-08
samqeq SOLVER-DIAG step 13800: CG 18 iters (=18 matvecs), resid/b=6.21e-08
samqeq SOLVER-DIAG step 14000: CG 18 iters (=18 matvecs), resid/b=3.18e-08
     14000   314.22086     -71.131316      2.6895354    
samqeq SOLVER-DIAG step 14200: CG 17 iters (=17 matvecs), resid/b=9.23e-08
samqeq SOLVER-DIAG step 14400: CG 18 iters (=18 matvecs), resid/b=4.10e-08
samqeq SOLVER-DIAG step 14600: CG 18 iters (=18 matvecs), resid/b=3.24e-08
samqeq SOLVER-DIAG step 14800: CG 17 iters (=17 matvecs), resid/b=8.39e-08
samqeq SOLVER-DIAG step 15000: CG 18 iters (=18 matvecs), resid/b=3.47e-08
     15000   296.86282     -70.948913      2.7037715    
samqeq SOLVER-DIAG step 15200: CG 18 iters (=18 matvecs), resid/b=3.72e-08
samqeq SOLVER-DIAG step 15400: CG 18 iters (=18 matvecs), resid/b=3.15e-08
samqeq SOLVER-DIAG step 15600: CG 18 iters (=18 matvecs), resid/b=4.00e-08
samqeq SOLVER-DIAG step 15800: CG 18 iters (=18 matvecs), resid/b=3.96e-08
samqeq SOLVER-DIAG step 16000: CG 18 iters (=18 matvecs), resid/b=4.08e-08
     16000   295.13538     -71.722043      2.7017058    
samqeq SOLVER-DIAG step 16200: CG 18 iters (=18 matvecs), resid/b=3.67e-08
samqeq SOLVER-DIAG step 16400: CG 17 iters (=17 matvecs), resid/b=7.31e-08
samqeq SOLVER-DIAG step 16600: CG 18 iters (=18 matvecs), resid/b=3.32e-08
samqeq SOLVER-DIAG step 16800: CG 18 iters (=18 matvecs), resid/b=4.45e-08
samqeq SOLVER-DIAG step 17000: CG 17 iters (=17 matvecs), resid/b=9.22e-08
     17000   300.22571     -71.471261      2.7005656    
samqeq SOLVER-DIAG step 17200: CG 18 iters (=18 matvecs), resid/b=4.14e-08
samqeq SOLVER-DIAG step 17400: CG 18 iters (=18 matvecs), resid/b=3.69e-08
samqeq SOLVER-DIAG step 17600: CG 18 iters (=18 matvecs), resid/b=4.97e-08
samqeq SOLVER-DIAG step 17800: CG 18 iters (=18 matvecs), resid/b=2.70e-08
samqeq SOLVER-DIAG step 18000: CG 17 iters (=17 matvecs), resid/b=6.74e-08
     18000   311.45577     -70.807134      2.6497874    
samqeq SOLVER-DIAG step 18200: CG 17 iters (=17 matvecs), resid/b=7.65e-08
samqeq SOLVER-DIAG step 18400: CG 17 iters (=17 matvecs), resid/b=9.00e-08
samqeq SOLVER-DIAG step 18600: CG 18 iters (=18 matvecs), resid/b=3.12e-08
samqeq SOLVER-DIAG step 18800: CG 18 iters (=18 matvecs), resid/b=4.41e-08
samqeq SOLVER-DIAG step 19000: CG 18 iters (=18 matvecs), resid/b=4.14e-08
     19000   259.27343     -71.432492      2.6915303    
samqeq SOLVER-DIAG step 19200: CG 18 iters (=18 matvecs), resid/b=4.93e-08
samqeq SOLVER-DIAG step 19400: CG 18 iters (=18 matvecs), resid/b=5.10e-08
samqeq SOLVER-DIAG step 19600: CG 18 iters (=18 matvecs), resid/b=2.62e-08
samqeq SOLVER-DIAG step 19800: CG 18 iters (=18 matvecs), resid/b=3.49e-08
samqeq SOLVER-DIAG step 20000: CG 17 iters (=17 matvecs), resid/b=9.28e-08
     20000   324.20527     -71.218065      2.6525859    
Loop time of 322.665 on 1 procs for 20000 steps with 192 atoms

Performance: 5.355 ns/day, 4.481 hours/ns, 61.984 timesteps/s, 11.901 katom-step/s
99.2% CPU use with 1 MPI tasks x 1 OpenMP threads

MPI task timing breakdown:
Section |  min time  |  avg time  |  max time  |%varavg| %total
---------------------------------------------------------------
Pair    | 45.113     | 45.113     | 45.113     |   0.0 | 13.98
Bond    | 0.012823   | 0.012823   | 0.012823   |   0.0 |  0.00
Kspace  | 13.605     | 13.605     | 13.605     |   0.0 |  4.22
Neigh   | 3.3898     | 3.3898     | 3.3898     |   0.0 |  1.05
Comm    | 0.77142    | 0.77142    | 0.77142    |   0.0 |  0.24
Output  | 0.00057813 | 0.00057813 | 0.00057813 |   0.0 |  0.00
Modify  | 259.47     | 259.47     | 259.47     |   0.0 | 80.41
Other   |            | 0.3062     |            |       |  0.09

Nlocal:            192 ave         192 max         192 min
Histogram: 1 0 0 0 0 0 0 0 0 0
Nghost:           4668 ave        4668 max        4668 min
Histogram: 1 0 0 0 0 0 0 0 0 0
Neighs:          69654 ave       69654 max       69654 min
Histogram: 1 0 0 0 0 0 0 0 0 0
FullNghs:       139308 ave      139308 max      139308 min
Histogram: 1 0 0 0 0 0 0 0 0 0

Total # of neighbors = 139308
Ave neighs/atom = 725.5625
Ave special neighs/atom = 0
Neighbor list builds = 731
Dangerous builds = 0
dump         d all custom 1000 traj.lammpstrj id type x y z
dump_modify  d sort id
run          50000
PPPM initialization ...
  using 12-bit tables for long-range coulomb
  G vector (1/distance) = 0.3451789
  grid = 20 20 20
  stencil order = 5
  estimated absolute RMS force accuracy = 1.1604098e-05
  estimated relative force accuracy = 8.0585997e-07
  using double precision FFTW3
  3d grid and FFT values/proc = 24389 8000
Generated 0 of 1 mixed pair_coeff terms from geometric mixing rule
samqeq: E_self = sum(chi q + 1/2 eta qs^2) INCLUDED in pe/etotal (fix_modify chg energy yes; eselfref qs = q - q0) -- pe + E_self is the energy the forces integrate
samqeq: recip_self ACTIVE at run start (step 20000): 0.37933 raw = 5.4622 eV/e, PINNED (fix_modify recip_self)
samqeq: setup solve SKIPPED at run-boundary step 20000 (2nd+ run / restart): the setup forces use the STORED atom->q (the first in-loop step re-solves) -- use `reset_timestep 0` before the run to force a solve
Per MPI rank memory allocation (min/avg/max) = 25.44 | 25.44 | 25.44 Mbytes
   Step          Temp          PotEng         c_dip     
     20000   324.20527     -71.218056      2.6525859    
WARNING: samqeq: pinned recip_self 0.37933 differs by -2.6% from 2 g_ewald/sqrt(pi) = 0.38949 at the current g_ewald 0.345179; a pin is valid only for the split it was measured at. Drop `fix_modify chg recip_self` to calibrate, or re-measure the pin (src/SAMQEQ/fix_qeq_sam_lr.cpp:169)
samqeq SOLVER-DIAG step 20200: CG 17 iters (=17 matvecs), resid/b=4.49e-08
samqeq SOLVER-DIAG step 20400: CG 16 iters (=16 matvecs), resid/b=8.94e-08
samqeq SOLVER-DIAG step 20600: CG 16 iters (=16 matvecs), resid/b=8.63e-08
samqeq SOLVER-DIAG step 20800: CG 16 iters (=16 matvecs), resid/b=8.45e-08
samqeq SOLVER-DIAG step 21000: CG 17 iters (=17 matvecs), resid/b=7.91e-08
     21000   262.04322     -68.656835      2.3863539    
samqeq SOLVER-DIAG step 21200: CG 16 iters (=16 matvecs), resid/b=7.25e-08
samqeq SOLVER-DIAG step 21400: CG 16 iters (=16 matvecs), resid/b=8.14e-08
samqeq SOLVER-DIAG step 21600: CG 17 iters (=17 matvecs), resid/b=5.16e-08
samqeq SOLVER-DIAG step 21800: CG 16 iters (=16 matvecs), resid/b=7.59e-08
samqeq SOLVER-DIAG step 22000: CG 16 iters (=16 matvecs), resid/b=7.52e-08
     22000   363.47146     -69.498945      2.4294089    
samqeq SOLVER-DIAG step 22200: CG 16 iters (=16 matvecs), resid/b=5.50e-08
samqeq SOLVER-DIAG step 22400: CG 16 iters (=16 matvecs), resid/b=8.03e-08
samqeq SOLVER-DIAG step 22600: CG 16 iters (=16 matvecs), resid/b=9.65e-08
samqeq SOLVER-DIAG step 22800: CG 16 iters (=16 matvecs), resid/b=9.15e-08
samqeq SOLVER-DIAG step 23000: CG 16 iters (=16 matvecs), resid/b=8.18e-08
     23000   299.78242     -68.708494      2.3966339    
samqeq SOLVER-DIAG step 23200: CG 16 iters (=16 matvecs), resid/b=8.88e-08
samqeq SOLVER-DIAG step 23400: CG 16 iters (=16 matvecs), resid/b=5.76e-08
samqeq SOLVER-DIAG step 23600: CG 16 iters (=16 matvecs), resid/b=9.81e-08
samqeq SOLVER-DIAG step 23800: CG 16 iters (=16 matvecs), resid/b=9.37e-08
samqeq SOLVER-DIAG step 24000: CG 17 iters (=17 matvecs), resid/b=4.98e-08
     24000   275.90187     -68.631425      2.4019092    
samqeq SOLVER-DIAG step 24200: CG 16 iters (=16 matvecs), resid/b=9.63e-08
samqeq SOLVER-DIAG step 24400: CG 16 iters (=16 matvecs), resid/b=9.57e-08
samqeq SOLVER-DIAG step 24600: CG 16 iters (=16 matvecs), resid/b=7.49e-08
samqeq SOLVER-DIAG step 24800: CG 16 iters (=16 matvecs), resid/b=6.66e-08
samqeq SOLVER-DIAG step 25000: CG 17 iters (=17 matvecs), resid/b=8.23e-08
     25000   308.73099     -68.844294      2.4129621    
samqeq SOLVER-DIAG step 25200: CG 16 iters (=16 matvecs), resid/b=9.35e-08
samqeq SOLVER-DIAG step 25400: CG 17 iters (=17 matvecs), resid/b=6.18e-08
samqeq SOLVER-DIAG step 25600: CG 16 iters (=16 matvecs), resid/b=7.23e-08
samqeq SOLVER-DIAG step 25800: CG 17 iters (=17 matvecs), resid/b=7.86e-08
samqeq SOLVER-DIAG step 26000: CG 16 iters (=16 matvecs), resid/b=7.32e-08
     26000   290.11459     -70.087237      2.4326265    
samqeq SOLVER-DIAG step 26200: CG 16 iters (=16 matvecs), resid/b=9.38e-08
samqeq SOLVER-DIAG step 26400: CG 16 iters (=16 matvecs), resid/b=5.87e-08
samqeq SOLVER-DIAG step 26600: CG 17 iters (=17 matvecs), resid/b=6.54e-08
samqeq SOLVER-DIAG step 26800: CG 16 iters (=16 matvecs), resid/b=6.87e-08
samqeq SOLVER-DIAG step 27000: CG 16 iters (=16 matvecs), resid/b=6.60e-08
     27000   297.04188     -69.048359      2.3944262    
samqeq SOLVER-DIAG step 27200: CG 16 iters (=16 matvecs), resid/b=8.06e-08
samqeq SOLVER-DIAG step 27400: CG 16 iters (=16 matvecs), resid/b=9.21e-08
samqeq SOLVER-DIAG step 27600: CG 16 iters (=16 matvecs), resid/b=4.76e-08
samqeq SOLVER-DIAG step 27800: CG 16 iters (=16 matvecs), resid/b=6.19e-08
samqeq SOLVER-DIAG step 28000: CG 17 iters (=17 matvecs), resid/b=4.05e-08
     28000   324.45523     -68.751688      2.3951343    
samqeq SOLVER-DIAG step 28200: CG 17 iters (=17 matvecs), resid/b=4.65e-08
samqeq SOLVER-DIAG step 28400: CG 16 iters (=16 matvecs), resid/b=7.14e-08
samqeq SOLVER-DIAG step 28600: CG 16 iters (=16 matvecs), resid/b=9.78e-08
samqeq SOLVER-DIAG step 28800: CG 16 iters (=16 matvecs), resid/b=6.74e-08
samqeq SOLVER-DIAG step 29000: CG 16 iters (=16 matvecs), resid/b=9.28e-08
     29000   331.13893     -70.234136      2.4611308    
samqeq SOLVER-DIAG step 29200: CG 17 iters (=17 matvecs), resid/b=6.92e-08
samqeq SOLVER-DIAG step 29400: CG 16 iters (=16 matvecs), resid/b=9.39e-08
samqeq SOLVER-DIAG step 29600: CG 16 iters (=16 matvecs), resid/b=8.80e-08
samqeq SOLVER-DIAG step 29800: CG 17 iters (=17 matvecs), resid/b=4.14e-08
samqeq SOLVER-DIAG step 30000: CG 16 iters (=16 matvecs), resid/b=8.11e-08
     30000   313.56146     -68.95578       2.3903457    
samqeq SOLVER-DIAG step 30200: CG 16 iters (=16 matvecs), resid/b=7.79e-08
samqeq SOLVER-DIAG step 30400: CG 16 iters (=16 matvecs), resid/b=9.41e-08
samqeq SOLVER-DIAG step 30600: CG 16 iters (=16 matvecs), resid/b=5.94e-08
samqeq SOLVER-DIAG step 30800: CG 16 iters (=16 matvecs), resid/b=7.47e-08
samqeq SOLVER-DIAG step 31000: CG 17 iters (=17 matvecs), resid/b=3.81e-08
     31000   287.10455     -69.803279      2.4434052    
samqeq SOLVER-DIAG step 31200: CG 16 iters (=16 matvecs), resid/b=7.69e-08
samqeq SOLVER-DIAG step 31400: CG 16 iters (=16 matvecs), resid/b=7.60e-08
samqeq SOLVER-DIAG step 31600: CG 16 iters (=16 matvecs), resid/b=8.74e-08
samqeq SOLVER-DIAG step 31800: CG 17 iters (=17 matvecs), resid/b=9.43e-08
samqeq SOLVER-DIAG step 32000: CG 16 iters (=16 matvecs), resid/b=7.92e-08
     32000   330.49736     -68.919409      2.428833     
samqeq SOLVER-DIAG step 32200: CG 16 iters (=16 matvecs), resid/b=9.12e-08
samqeq SOLVER-DIAG step 32400: CG 16 iters (=16 matvecs), resid/b=9.97e-08
samqeq SOLVER-DIAG step 32600: CG 17 iters (=17 matvecs), resid/b=6.52e-08
samqeq SOLVER-DIAG step 32800: CG 17 iters (=17 matvecs), resid/b=5.16e-08
samqeq SOLVER-DIAG step 33000: CG 16 iters (=16 matvecs), resid/b=9.65e-08
     33000   321.37426     -69.39557       2.4543858    
samqeq SOLVER-DIAG step 33200: CG 16 iters (=16 matvecs), resid/b=6.60e-08
samqeq SOLVER-DIAG step 33400: CG 16 iters (=16 matvecs), resid/b=9.69e-08
samqeq SOLVER-DIAG step 33600: CG 16 iters (=16 matvecs), resid/b=8.08e-08
samqeq SOLVER-DIAG step 33800: CG 17 iters (=17 matvecs), resid/b=5.04e-08
samqeq SOLVER-DIAG step 34000: CG 16 iters (=16 matvecs), resid/b=6.80e-08
     34000   314.42615     -69.510446      2.444696     
samqeq SOLVER-DIAG step 34200: CG 16 iters (=16 matvecs), resid/b=9.59e-08
samqeq SOLVER-DIAG step 34400: CG 16 iters (=16 matvecs), resid/b=6.82e-08
samqeq SOLVER-DIAG step 34600: CG 16 iters (=16 matvecs), resid/b=7.51e-08
samqeq SOLVER-DIAG step 34800: CG 17 iters (=17 matvecs), resid/b=4.18e-08
samqeq SOLVER-DIAG step 35000: CG 16 iters (=16 matvecs), resid/b=7.92e-08
     35000   293.80838     -69.977783      2.4390617    
samqeq SOLVER-DIAG step 35200: CG 17 iters (=17 matvecs), resid/b=5.85e-08
samqeq SOLVER-DIAG step 35400: CG 16 iters (=16 matvecs), resid/b=6.45e-08
samqeq SOLVER-DIAG step 35600: CG 17 iters (=17 matvecs), resid/b=6.53e-08
samqeq SOLVER-DIAG step 35800: CG 16 iters (=16 matvecs), resid/b=7.65e-08
samqeq SOLVER-DIAG step 36000: CG 16 iters (=16 matvecs), resid/b=7.13e-08
     36000   318.64513     -68.233362      2.3846168    
samqeq SOLVER-DIAG step 36200: CG 16 iters (=16 matvecs), resid/b=7.07e-08
samqeq SOLVER-DIAG step 36400: CG 17 iters (=17 matvecs), resid/b=6.11e-08
samqeq SOLVER-DIAG step 36600: CG 17 iters (=17 matvecs), resid/b=6.66e-08
samqeq SOLVER-DIAG step 36800: CG 16 iters (=16 matvecs), resid/b=7.89e-08
samqeq SOLVER-DIAG step 37000: CG 16 iters (=16 matvecs), resid/b=8.30e-08
     37000   244.73275     -69.37981       2.4238079    
samqeq SOLVER-DIAG step 37200: CG 16 iters (=16 matvecs), resid/b=8.04e-08
samqeq SOLVER-DIAG step 37400: CG 17 iters (=17 matvecs), resid/b=5.42e-08
samqeq SOLVER-DIAG step 37600: CG 17 iters (=17 matvecs), resid/b=6.31e-08
samqeq SOLVER-DIAG step 37800: CG 16 iters (=16 matvecs), resid/b=8.84e-08
samqeq SOLVER-DIAG step 38000: CG 17 iters (=17 matvecs), resid/b=6.64e-08
     38000   272.86523     -69.479309      2.4201749    
samqeq SOLVER-DIAG step 38200: CG 16 iters (=16 matvecs), resid/b=4.80e-08
samqeq SOLVER-DIAG step 38400: CG 16 iters (=16 matvecs), resid/b=9.80e-08
samqeq SOLVER-DIAG step 38600: CG 16 iters (=16 matvecs), resid/b=6.15e-08
samqeq SOLVER-DIAG step 38800: CG 16 iters (=16 matvecs), resid/b=6.63e-08
samqeq SOLVER-DIAG step 39000: CG 16 iters (=16 matvecs), resid/b=8.62e-08
     39000   312.01108     -69.74914       2.430893     
samqeq SOLVER-DIAG step 39200: CG 17 iters (=17 matvecs), resid/b=4.79e-08
samqeq SOLVER-DIAG step 39400: CG 17 iters (=17 matvecs), resid/b=5.75e-08
samqeq SOLVER-DIAG step 39600: CG 17 iters (=17 matvecs), resid/b=5.94e-08
samqeq SOLVER-DIAG step 39800: CG 17 iters (=17 matvecs), resid/b=5.11e-08
samqeq SOLVER-DIAG step 40000: CG 16 iters (=16 matvecs), resid/b=5.45e-08
     40000   287.83469     -69.478918      2.4087759    
samqeq SOLVER-DIAG step 40200: CG 16 iters (=16 matvecs), resid/b=5.53e-08
samqeq SOLVER-DIAG step 40400: CG 16 iters (=16 matvecs), resid/b=8.65e-08
samqeq SOLVER-DIAG step 40600: CG 17 iters (=17 matvecs), resid/b=5.75e-08
samqeq SOLVER-DIAG step 40800: CG 16 iters (=16 matvecs), resid/b=7.03e-08
samqeq SOLVER-DIAG step 41000: CG 16 iters (=16 matvecs), resid/b=5.41e-08
     41000   327.1905      -69.068879      2.3871075    
samqeq SOLVER-DIAG step 41200: CG 16 iters (=16 matvecs), resid/b=7.24e-08
samqeq SOLVER-DIAG step 41400: CG 16 iters (=16 matvecs), resid/b=5.89e-08
samqeq SOLVER-DIAG step 41600: CG 16 iters (=16 matvecs), resid/b=6.54e-08
samqeq SOLVER-DIAG step 41800: CG 16 iters (=16 matvecs), resid/b=6.37e-08
samqeq SOLVER-DIAG step 42000: CG 16 iters (=16 matvecs), resid/b=9.16e-08
     42000   268.83865     -69.218701      2.429197     
samqeq SOLVER-DIAG step 42200: CG 16 iters (=16 matvecs), resid/b=6.74e-08
samqeq SOLVER-DIAG step 42400: CG 16 iters (=16 matvecs), resid/b=9.72e-08
samqeq SOLVER-DIAG step 42600: CG 17 iters (=17 matvecs), resid/b=5.15e-08
samqeq SOLVER-DIAG step 42800: CG 17 iters (=17 matvecs), resid/b=6.31e-08
samqeq SOLVER-DIAG step 43000: CG 17 iters (=17 matvecs), resid/b=4.03e-08
     43000   309.69301     -68.681318      2.420233     
samqeq SOLVER-DIAG step 43200: CG 16 iters (=16 matvecs), resid/b=6.17e-08
samqeq SOLVER-DIAG step 43400: CG 16 iters (=16 matvecs), resid/b=9.37e-08
samqeq SOLVER-DIAG step 43600: CG 16 iters (=16 matvecs), resid/b=7.45e-08
samqeq SOLVER-DIAG step 43800: CG 16 iters (=16 matvecs), resid/b=9.22e-08
samqeq SOLVER-DIAG step 44000: CG 17 iters (=17 matvecs), resid/b=5.52e-08
     44000   303.46582     -70.016078      2.4514706    
samqeq SOLVER-DIAG step 44200: CG 17 iters (=17 matvecs), resid/b=6.27e-08
samqeq SOLVER-DIAG step 44400: CG 16 iters (=16 matvecs), resid/b=9.50e-08
samqeq SOLVER-DIAG step 44600: CG 16 iters (=16 matvecs), resid/b=5.64e-08
samqeq SOLVER-DIAG step 44800: CG 16 iters (=16 matvecs), resid/b=8.81e-08
samqeq SOLVER-DIAG step 45000: CG 16 iters (=16 matvecs), resid/b=6.91e-08
     45000   277.48479     -69.096547      2.4167412    
samqeq SOLVER-DIAG step 45200: CG 16 iters (=16 matvecs), resid/b=8.69e-08
samqeq SOLVER-DIAG step 45400: CG 17 iters (=17 matvecs), resid/b=7.14e-08
samqeq SOLVER-DIAG step 45600: CG 16 iters (=16 matvecs), resid/b=7.25e-08
samqeq SOLVER-DIAG step 45800: CG 16 iters (=16 matvecs), resid/b=8.90e-08
samqeq SOLVER-DIAG step 46000: CG 16 iters (=16 matvecs), resid/b=8.92e-08
     46000   339.06331     -69.181902      2.4044941    
samqeq SOLVER-DIAG step 46200: CG 16 iters (=16 matvecs), resid/b=9.61e-08
samqeq SOLVER-DIAG step 46400: CG 16 iters (=16 matvecs), resid/b=8.97e-08
samqeq SOLVER-DIAG step 46600: CG 16 iters (=16 matvecs), resid/b=6.09e-08
samqeq SOLVER-DIAG step 46800: CG 16 iters (=16 matvecs), resid/b=8.87e-08
samqeq SOLVER-DIAG step 47000: CG 17 iters (=17 matvecs), resid/b=6.78e-08
     47000   304.27916     -68.93143       2.4109605    
samqeq SOLVER-DIAG step 47200: CG 16 iters (=16 matvecs), resid/b=9.31e-08
samqeq SOLVER-DIAG step 47400: CG 16 iters (=16 matvecs), resid/b=7.71e-08
samqeq SOLVER-DIAG step 47600: CG 17 iters (=17 matvecs), resid/b=6.80e-08
samqeq SOLVER-DIAG step 47800: CG 17 iters (=17 matvecs), resid/b=3.32e-08
samqeq SOLVER-DIAG step 48000: CG 16 iters (=16 matvecs), resid/b=6.92e-08
     48000   303.72241     -69.184698      2.4276252    
samqeq SOLVER-DIAG step 48200: CG 17 iters (=17 matvecs), resid/b=3.76e-08
samqeq SOLVER-DIAG step 48400: CG 16 iters (=16 matvecs), resid/b=6.27e-08
samqeq SOLVER-DIAG step 48600: CG 16 iters (=16 matvecs), resid/b=5.88e-08
samqeq SOLVER-DIAG step 48800: CG 16 iters (=16 matvecs), resid/b=8.98e-08
samqeq SOLVER-DIAG step 49000: CG 16 iters (=16 matvecs), resid/b=8.23e-08
     49000   292.79484     -69.845939      2.4566637    
samqeq SOLVER-DIAG step 49200: CG 17 iters (=17 matvecs), resid/b=5.18e-08
samqeq SOLVER-DIAG step 49400: CG 16 iters (=16 matvecs), resid/b=8.31e-08
samqeq SOLVER-DIAG step 49600: CG 17 iters (=17 matvecs), resid/b=6.10e-08
samqeq SOLVER-DIAG step 49800: CG 16 iters (=16 matvecs), resid/b=7.98e-08
samqeq SOLVER-DIAG step 50000: CG 16 iters (=16 matvecs), resid/b=9.32e-08
     50000   311.87741     -68.837087      2.4238139    
samqeq SOLVER-DIAG step 50200: CG 16 iters (=16 matvecs), resid/b=5.40e-08
samqeq SOLVER-DIAG step 50400: CG 16 iters (=16 matvecs), resid/b=4.87e-08
samqeq SOLVER-DIAG step 50600: CG 16 iters (=16 matvecs), resid/b=9.13e-08
samqeq SOLVER-DIAG step 50800: CG 16 iters (=16 matvecs), resid/b=4.14e-08
samqeq SOLVER-DIAG step 51000: CG 16 iters (=16 matvecs), resid/b=9.18e-08
     51000   305.47931     -68.842839      2.4308097    
samqeq SOLVER-DIAG step 51200: CG 16 iters (=16 matvecs), resid/b=8.23e-08
samqeq SOLVER-DIAG step 51400: CG 16 iters (=16 matvecs), resid/b=8.36e-08
samqeq SOLVER-DIAG step 51600: CG 16 iters (=16 matvecs), resid/b=5.51e-08
samqeq SOLVER-DIAG step 51800: CG 16 iters (=16 matvecs), resid/b=7.78e-08
samqeq SOLVER-DIAG step 52000: CG 16 iters (=16 matvecs), resid/b=7.21e-08
     52000   296.92342     -69.269254      2.4111068    
samqeq SOLVER-DIAG step 52200: CG 16 iters (=16 matvecs), resid/b=9.03e-08
samqeq SOLVER-DIAG step 52400: CG 16 iters (=16 matvecs), resid/b=6.04e-08
samqeq SOLVER-DIAG step 52600: CG 16 iters (=16 matvecs), resid/b=5.49e-08
samqeq SOLVER-DIAG step 52800: CG 16 iters (=16 matvecs), resid/b=7.67e-08
samqeq SOLVER-DIAG step 53000: CG 16 iters (=16 matvecs), resid/b=8.44e-08
     53000   314.87768     -69.379261      2.416557     
samqeq SOLVER-DIAG step 53200: CG 16 iters (=16 matvecs), resid/b=4.68e-08
samqeq SOLVER-DIAG step 53400: CG 17 iters (=17 matvecs), resid/b=6.52e-08
samqeq SOLVER-DIAG step 53600: CG 17 iters (=17 matvecs), resid/b=6.03e-08
samqeq SOLVER-DIAG step 53800: CG 16 iters (=16 matvecs), resid/b=7.62e-08
samqeq SOLVER-DIAG step 54000: CG 16 iters (=16 matvecs), resid/b=9.11e-08
     54000   283.85753     -69.990478      2.4728362    
samqeq SOLVER-DIAG step 54200: CG 16 iters (=16 matvecs), resid/b=7.61e-08
samqeq SOLVER-DIAG step 54400: CG 17 iters (=17 matvecs), resid/b=4.42e-08
samqeq SOLVER-DIAG step 54600: CG 16 iters (=16 matvecs), resid/b=9.93e-08
samqeq SOLVER-DIAG step 54800: CG 16 iters (=16 matvecs), resid/b=8.18e-08
samqeq SOLVER-DIAG step 55000: CG 17 iters (=17 matvecs), resid/b=4.48e-08
     55000   286.36836     -70.14783       2.4641392    
samqeq SOLVER-DIAG step 55200: CG 17 iters (=17 matvecs), resid/b=4.49e-08
samqeq SOLVER-DIAG step 55400: CG 16 iters (=16 matvecs), resid/b=6.82e-08
samqeq SOLVER-DIAG step 55600: CG 16 iters (=16 matvecs), resid/b=7.75e-08
samqeq SOLVER-DIAG step 55800: CG 17 iters (=17 matvecs), resid/b=5.63e-08
samqeq SOLVER-DIAG step 56000: CG 17 iters (=17 matvecs), resid/b=5.95e-08
     56000   304.46396     -69.417991      2.4388303    
samqeq SOLVER-DIAG step 56200: CG 16 iters (=16 matvecs), resid/b=7.48e-08
samqeq SOLVER-DIAG step 56400: CG 16 iters (=16 matvecs), resid/b=5.78e-08
samqeq SOLVER-DIAG step 56600: CG 16 iters (=16 matvecs), resid/b=9.56e-08
samqeq SOLVER-DIAG step 56800: CG 16 iters (=16 matvecs), resid/b=9.56e-08
samqeq SOLVER-DIAG step 57000: CG 16 iters (=16 matvecs), resid/b=8.62e-08
     57000   311.11419     -69.513342      2.4277876    
samqeq SOLVER-DIAG step 57200: CG 16 iters (=16 matvecs), resid/b=5.24e-08
samqeq SOLVER-DIAG step 57400: CG 16 iters (=16 matvecs), resid/b=8.02e-08
samqeq SOLVER-DIAG step 57600: CG 16 iters (=16 matvecs), resid/b=9.90e-08
samqeq SOLVER-DIAG step 57800: CG 17 iters (=17 matvecs), resid/b=7.88e-08
samqeq SOLVER-DIAG step 58000: CG 16 iters (=16 matvecs), resid/b=9.79e-08
     58000   292.51182     -68.956201      2.3991357    
samqeq SOLVER-DIAG step 58200: CG 17 iters (=17 matvecs), resid/b=4.57e-08
samqeq SOLVER-DIAG step 58400: CG 16 iters (=16 matvecs), resid/b=9.47e-08
samqeq SOLVER-DIAG step 58600: CG 16 iters (=16 matvecs), resid/b=8.77e-08
samqeq SOLVER-DIAG step 58800: CG 17 iters (=17 matvecs), resid/b=4.86e-08
samqeq SOLVER-DIAG step 59000: CG 16 iters (=16 matvecs), resid/b=7.69e-08
     59000   292.40175     -68.385861      2.3951808    
samqeq SOLVER-DIAG step 59200: CG 16 iters (=16 matvecs), resid/b=1.00e-07
samqeq SOLVER-DIAG step 59400: CG 16 iters (=16 matvecs), resid/b=8.20e-08
samqeq SOLVER-DIAG step 59600: CG 16 iters (=16 matvecs), resid/b=8.55e-08
samqeq SOLVER-DIAG step 59800: CG 16 iters (=16 matvecs), resid/b=7.56e-08
samqeq SOLVER-DIAG step 60000: CG 16 iters (=16 matvecs), resid/b=8.66e-08
     60000   280.44608     -69.70823       2.4505978    
samqeq SOLVER-DIAG step 60200: CG 16 iters (=16 matvecs), resid/b=8.01e-08
samqeq SOLVER-DIAG step 60400: CG 17 iters (=17 matvecs), resid/b=5.51e-08
samqeq SOLVER-DIAG step 60600: CG 16 iters (=16 matvecs), resid/b=7.50e-08
samqeq SOLVER-DIAG step 60800: CG 16 iters (=16 matvecs), resid/b=8.38e-08
samqeq SOLVER-DIAG step 61000: CG 16 iters (=16 matvecs), resid/b=4.84e-08
     61000   347.65696     -68.786545      2.4031285    
samqeq SOLVER-DIAG step 61200: CG 17 iters (=17 matvecs), resid/b=6.03e-08
samqeq SOLVER-DIAG step 61400: CG 17 iters (=17 matvecs), resid/b=5.89e-08
samqeq SOLVER-DIAG step 61600: CG 16 iters (=16 matvecs), resid/b=8.18e-08
samqeq SOLVER-DIAG step 61800: CG 16 iters (=16 matvecs), resid/b=8.48e-08
samqeq SOLVER-DIAG step 62000: CG 17 iters (=17 matvecs), resid/b=8.50e-08
     62000   270.06334     -69.549815      2.4518388    
samqeq SOLVER-DIAG step 62200: CG 16 iters (=16 matvecs), resid/b=8.34e-08
samqeq SOLVER-DIAG step 62400: CG 16 iters (=16 matvecs), resid/b=6.07e-08
samqeq SOLVER-DIAG step 62600: CG 17 iters (=17 matvecs), resid/b=6.34e-08
samqeq SOLVER-DIAG step 62800: CG 16 iters (=16 matvecs), resid/b=6.80e-08
samqeq SOLVER-DIAG step 63000: CG 16 iters (=16 matvecs), resid/b=7.94e-08
     63000   278.68627     -68.62186       2.4028703    
samqeq SOLVER-DIAG step 63200: CG 16 iters (=16 matvecs), resid/b=8.12e-08
samqeq SOLVER-DIAG step 63400: CG 16 iters (=16 matvecs), resid/b=8.50e-08
samqeq SOLVER-DIAG step 63600: CG 16 iters (=16 matvecs), resid/b=9.56e-08
samqeq SOLVER-DIAG step 63800: CG 16 iters (=16 matvecs), resid/b=8.63e-08
samqeq SOLVER-DIAG step 64000: CG 16 iters (=16 matvecs), resid/b=7.33e-08
     64000   284.16462     -69.276949      2.3993699    
samqeq SOLVER-DIAG step 64200: CG 16 iters (=16 matvecs), resid/b=7.46e-08
samqeq SOLVER-DIAG step 64400: CG 16 iters (=16 matvecs), resid/b=6.22e-08
samqeq SOLVER-DIAG step 64600: CG 16 iters (=16 matvecs), resid/b=8.86e-08
samqeq SOLVER-DIAG step 64800: CG 17 iters (=17 matvecs), resid/b=4.40e-08
samqeq SOLVER-DIAG step 65000: CG 17 iters (=17 matvecs), resid/b=7.57e-08
     65000   275.23467     -69.425173      2.4494121    
samqeq SOLVER-DIAG step 65200: CG 17 iters (=17 matvecs), resid/b=4.88e-08
samqeq SOLVER-DIAG step 65400: CG 16 iters (=16 matvecs), resid/b=5.70e-08
samqeq SOLVER-DIAG step 65600: CG 17 iters (=17 matvecs), resid/b=5.78e-08
samqeq SOLVER-DIAG step 65800: CG 17 iters (=17 matvecs), resid/b=8.72e-08
samqeq SOLVER-DIAG step 66000: CG 16 iters (=16 matvecs), resid/b=9.53e-08
     66000   279.37467     -69.31991       2.4471675    
samqeq SOLVER-DIAG step 66200: CG 16 iters (=16 matvecs), resid/b=6.76e-08
samqeq SOLVER-DIAG step 66400: CG 16 iters (=16 matvecs), resid/b=6.25e-08
samqeq SOLVER-DIAG step 66600: CG 16 iters (=16 matvecs), resid/b=7.33e-08
samqeq SOLVER-DIAG step 66800: CG 17 iters (=17 matvecs), resid/b=4.44e-08
samqeq SOLVER-DIAG step 67000: CG 16 iters (=16 matvecs), resid/b=8.34e-08
     67000   295.4119      -68.737066      2.4153352    
samqeq SOLVER-DIAG step 67200: CG 16 iters (=16 matvecs), resid/b=6.40e-08
samqeq SOLVER-DIAG step 67400: CG 16 iters (=16 matvecs), resid/b=7.73e-08
samqeq SOLVER-DIAG step 67600: CG 17 iters (=17 matvecs), resid/b=6.04e-08
samqeq SOLVER-DIAG step 67800: CG 16 iters (=16 matvecs), resid/b=9.49e-08
samqeq SOLVER-DIAG step 68000: CG 16 iters (=16 matvecs), resid/b=9.80e-08
     68000   241.92479     -68.60723       2.4072534    
samqeq SOLVER-DIAG step 68200: CG 16 iters (=16 matvecs), resid/b=5.12e-08
samqeq SOLVER-DIAG step 68400: CG 16 iters (=16 matvecs), resid/b=8.65e-08
samqeq SOLVER-DIAG step 68600: CG 16 iters (=16 matvecs), resid/b=6.39e-08
samqeq SOLVER-DIAG step 68800: CG 16 iters (=16 matvecs), resid/b=7.74e-08
samqeq SOLVER-DIAG step 69000: CG 17 iters (=17 matvecs), resid/b=3.40e-08
     69000   269.12883     -68.564536      2.3866998    
samqeq SOLVER-DIAG step 69200: CG 17 iters (=17 matvecs), resid/b=5.50e-08
samqeq SOLVER-DIAG step 69400: CG 17 iters (=17 matvecs), resid/b=3.91e-08
samqeq SOLVER-DIAG step 69600: CG 16 iters (=16 matvecs), resid/b=5.64e-08
samqeq SOLVER-DIAG step 69800: CG 16 iters (=16 matvecs), resid/b=5.49e-08
samqeq SOLVER-DIAG step 70000: CG 16 iters (=16 matvecs), resid/b=7.56e-08
     70000   259.98529     -69.27765       2.4365165    
Loop time of 436.302 on 1 procs for 50000 steps with 192 atoms

Performance: 9.901 ns/day, 2.424 hours/ns, 114.600 timesteps/s, 22.003 katom-step/s
99.8% CPU use with 1 MPI tasks x 1 OpenMP threads

MPI task timing breakdown:
Section |  min time  |  avg time  |  max time  |%varavg| %total
---------------------------------------------------------------
Pair    | 65.319     | 65.319     | 65.319     |   0.0 | 14.97
Bond    | 0.0086292  | 0.0086292  | 0.0086292  |   0.0 |  0.00
Kspace  | 17.775     | 17.775     | 17.775     |   0.0 |  4.07
Neigh   | 5.3871     | 5.3871     | 5.3871     |   0.0 |  1.23
Comm    | 0.99197    | 0.99197    | 0.99197    |   0.0 |  0.23
Output  | 0.0095866  | 0.0095866  | 0.0095866  |   0.0 |  0.00
Modify  | 346.49     | 346.49     | 346.49     |   0.0 | 79.42
Other   |            | 0.3157     |            |       |  0.07

Nlocal:            192 ave         192 max         192 min
Histogram: 1 0 0 0 0 0 0 0 0 0
Nghost:           4653 ave        4653 max        4653 min
Histogram: 1 0 0 0 0 0 0 0 0 0
Neighs:          69781 ave       69781 max       69781 min
Histogram: 1 0 0 0 0 0 0 0 0 0
FullNghs:       139562 ave      139562 max      139562 min
Histogram: 1 0 0 0 0 0 0 0 0 0

Total # of neighbors = 139562
Ave neighs/atom = 726.88542
Ave special neighs/atom = 0
Neighbor list builds = 1881
Dangerous builds = 0
print        "TRAJ_DONE" file done.txt screen no
Total wall time: 0:12:39
