ITEM: TIMESTEP
0
ITEM: NUMBER OF ATOMS
240
ITEM: BOX BOUNDS pp pp ff
0.0000000000000000e+00 1.7650658050000001e+01
0.0000000000000000e+00 2.0381224350000000e+01
0.0000000000000000e+00 6.0000000000000000e+01
ITEM: ATOMS id type q
1 1 -0.0452231632565
2 1 -0.0452230033459
3 1 -0.0452229405746
4 1 -0.0452230733438
5 1 -0.0452231631324
6 1 -0.0452230032511
7 1 -0.0452229405598
8 1 -0.0452230734224
9 1 -0.0452231633124
10 1 -0.0452230034255
11 1 -0.0452229406305
12 1 -0.0452230734234
13 1 -0.0452231631883
14 1 -0.0452230033307
15 1 -0.0452229406158
16 1 -0.045223073502
17 1 -0.0452231633966
18 1 -0.0452230034901
19 1 -0.0452229407147
20 1 -0.045223073488
21 1 -0.0452231632725
22 1 -0.0452230033953
23 1 -0.0452229407
24 1 -0.0452230735666
25 1 -0.0452231634208
26 1 -0.0452230034659
27 1 -0.0452229407389
28 1 -0.0452230734638
29 1 -0.0452231632967
30 1 -0.0452230033711
31 1 -0.0452229407242
32 1 -0.0452230735424
33 1 -0.0452231633562
34 1 -0.0452230033817
35 1 -0.0452229406743
36 1 -0.0452230733796
37 1 -0.0452231632321
38 1 -0.0452230032869
39 1 -0.0452229406596
40 1 -0.0452230734582
41 1 -0.0452231632766
42 1 -0.0452230033258
43 1 -0.0452229405947
44 1 -0.0452230733237
45 1 -0.0452231631525
46 1 -0.045223003231
47 1 -0.04522294058
48 1 -0.0452230734023
49 1 0.0310339851967
50 1 0.0310341567934
51 1 0.0310341047186
52 1 0.0310339562491
53 1 0.0310339852948
54 1 0.0310341568504
55 1 0.0310341047013
56 1 0.0310339561677
57 1 0.0310339851512
58 1 0.0310341567436
59 1 0.0310341046731
60 1 0.0310339561994
61 1 0.0310339852493
62 1 0.0310341568007
63 1 0.0310341046558
64 1 0.0310339561179
65 1 0.0310339851118
66 1 0.0310341567285
67 1 0.0310341046337
68 1 0.0310339561842
69 1 0.0310339852099
70 1 0.0310341567855
71 1 0.0310341046164
72 1 0.0310339561028
73 1 0.031033985127
74 1 0.0310341567679
75 1 0.0310341046489
76 1 0.0310339562236
77 1 0.0310339852251
78 1 0.0310341568249
79 1 0.0310341046315
80 1 0.0310339561422
81 1 0.0310339851767
82 1 0.0310341568134
83 1 0.0310341046986
84 1 0.0310339562691
85 1 0.0310339852748
86 1 0.0310341568704
87 1 0.0310341046813
88 1 0.0310339561877
89 1 0.0310339852062
90 1 0.0310341568229
91 1 0.0310341047281
92 1 0.0310339562786
93 1 0.0310339853043
94 1 0.0310341568799
95 1 0.0310341047108
96 1 0.0310339561972
97 1 -0.000467569074861
98 1 -0.000467497298704
99 1 -0.000467572297213
100 1 -0.000467643892473
101 1 -0.000467569082305
102 1 -0.000467497285507
103 1 -0.00046757227479
104 1 -0.000467643877956
105 1 -0.000467569075043
106 1 -0.000467497298733
107 1 -0.000467572297395
108 1 -0.000467643892502
109 1 -0.000467569082487
110 1 -0.000467497285536
111 1 -0.000467572274972
112 1 -0.000467643877985
113 1 -0.00046756907502
114 1 -0.000467497298757
115 1 -0.000467572297371
116 1 -0.000467643892525
117 1 -0.000467569082463
118 1 -0.00046749728556
119 1 -0.000467572274949
120 1 -0.000467643878008
121 1 -0.000467569074991
122 1 -0.000467497298575
123 1 -0.000467572297343
124 1 -0.000467643892343
125 1 -0.000467569082435
126 1 -0.000467497285377
127 1 -0.00046757227492
128 1 -0.000467643877827
129 1 -0.000467569074709
130 1 -0.000467497298318
131 1 -0.00046757229706
132 1 -0.000467643892088
133 1 -0.000467569082152
134 1 -0.000467497285122
135 1 -0.000467572274638
136 1 -0.000467643877571
137 1 -0.000467569074605
138 1 -0.000467497298421
139 1 -0.000467572296957
140 1 -0.000467643892191
141 1 -0.000467569082049
142 1 -0.000467497285224
143 1 -0.000467572274535
144 1 -0.000467643877674
145 1 -0.030164621583
146 1 -0.0301645956253
147 1 -0.0301647420965
148 1 -0.0301647908619
149 1 -0.0301646216619
150 1 -0.030164595588
151 1 -0.0301647419775
152 1 -0.0301647907259
153 1 -0.0301646215453
154 1 -0.030164595611
155 1 -0.0301647420588
156 1 -0.0301647908475
157 1 -0.0301646216242
158 1 -0.0301645955737
159 1 -0.0301647419399
160 1 -0.0301647907116
161 1 -0.0301646215597
162 1 -0.0301645956486
163 1 -0.0301647420732
164 1 -0.0301647908851
165 1 -0.0301646216386
166 1 -0.0301645956113
167 1 -0.0301647419542
168 1 -0.0301647907492
169 1 -0.0301646216077
170 1 -0.0301645956928
171 1 -0.0301647421212
172 1 -0.0301647909293
173 1 -0.0301646216866
174 1 -0.0301645956555
175 1 -0.0301647420022
176 1 -0.0301647907934
177 1 -0.0301646216365
178 1 -0.0301645957021
179 1 -0.0301647421499
180 1 -0.0301647909386
181 1 -0.0301646217154
182 1 -0.0301645956648
183 1 -0.030164742031
184 1 -0.0301647908027
185 1 -0.0301646216272
186 1 -0.0301645956733
187 1 -0.0301647421407
188 1 -0.0301647909098
189 1 -0.0301646217061
190 1 -0.030164595636
191 1 -0.0301647420217
192 1 -0.0301647907739
193 1 0.0448213689772
194 1 0.0448212793996
195 1 0.0448211498707
196 1 0.0448212123834
197 1 0.0448213689258
198 1 0.0448212794895
199 1 0.0448211500426
200 1 0.0448212125433
201 1 0.0448213690019
202 1 0.0448212793749
203 1 0.0448211498954
204 1 0.0448212123587
205 1 0.0448213689505
206 1 0.0448212794648
207 1 0.0448211500674
208 1 0.0448212125185
209 1 0.0448213689364
210 1 0.0448212792905
211 1 0.0448211498299
212 1 0.0448212122743
213 1 0.044821368885
214 1 0.0448212793805
215 1 0.0448211500019
216 1 0.0448212124342
217 1 0.0448213688574
218 1 0.0448212792353
219 1 0.0448211497509
220 1 0.044821212219
221 1 0.044821368806
222 1 0.0448212793252
223 1 0.0448211499229
224 1 0.0448212123789
225 1 0.0448213688376
226 1 0.0448212792551
227 1 0.0448211497311
228 1 0.0448212122389
229 1 0.0448213687861
230 1 0.0448212793451
231 1 0.044821149903
232 1 0.0448212123988
233 1 0.0448213688928
234 1 0.0448212793341
235 1 0.0448211497863
236 1 0.0448212123179
237 1 0.0448213688414
238 1 0.0448212794241
239 1 0.0448211499583
240 1 0.0448212124778
