ITEM: TIMESTEP
500
ITEM: NUMBER OF ATOMS
1600
ITEM: BOX BOUNDS pp pp pp
0.0000000000000000e+00 3.6149999999999999e+01
0.0000000000000000e+00 3.6149999999999999e+01
0.0000000000000000e+00 1.5834399999999999e+02
ITEM: ATOMS id mol z q
1 90001 25.9995 0.000606453
2 90001 25.9995 -0.00178848
3 90001 27.8065 -0.00153178
4 90001 27.8065 -0.000921739
5 90001 29.6145 -0.00815102
6 90001 29.6145 0.001575
7 90001 31.4215 -0.00967344
8 90001 31.4215 -0.00484868
9 90001 25.9995 -0.00450176
10 90001 25.9995 -0.00174138
11 90001 27.8065 0.00235987
12 90001 27.8065 0.00060221
13 90001 29.6145 0.00340176
14 90001 29.6145 0.00093315
15 90001 31.4215 0.0086671
16 90001 31.4215 0.00943154
17 90001 25.9995 0.000672235
18 90001 25.9995 0.00134896
19 90001 27.8065 -0.000913254
20 90001 27.8065 0.00315725
21 90001 29.6145 -0.00256734
22 90001 29.6145 -0.00109426
23 90001 31.4215 0.0212676
24 90001 31.4215 -0.00799357
25 90001 25.9995 0.00256832
26 90001 25.9995 0.00126603
27 90001 27.8065 -0.00183563
28 90001 27.8065 -0.000510221
29 90001 29.6145 -0.000193761
30 90001 29.6145 -0.000466708
31 90001 31.4215 -0.00557805
32 90001 31.4215 0.0130873
33 90001 25.9995 -0.000349077
34 90001 25.9995 0.000264103
35 90001 27.8065 -0.00129365
36 90001 27.8065 -0.00116141
37 90001 29.6145 -0.00225851
38 90001 29.6145 -0.000327671
39 90001 31.4215 0.002552
40 90001 31.4215 -0.00454071
41 90001 25.9995 -0.00153851
42 90001 25.9995 -0.00344579
43 90001 27.8065 -0.00249897
44 90001 27.8065 0.000113793
45 90001 29.6145 0.000723072
46 90001 29.6145 -0.00082116
47 90001 31.4215 -0.00482224
48 90001 31.4215 0.0026032
49 90001 25.9995 -0.00123326
50 90001 25.9995 -0.00128601
51 90001 27.8065 -0.00188158
52 90001 27.8065 -0.00177417
53 90001 29.6145 0.00056603
54 90001 29.6145 -0.00209689
55 90001 31.4215 0.00498808
56 90001 31.4215 -0.00250234
57 90001 25.9995 0.0011691
58 90001 25.9995 0.00458334
59 90001 27.8065 -0.00173949
60 90001 27.8065 -0.00195042
61 90001 29.6145 -0.00277789
62 90001 29.6145 -0.00225595
63 90001 31.4215 0.0501298
64 90001 31.4215 0.00228808
65 90001 25.9995 0.00461978
66 90001 25.9995 0.00164979
67 90001 27.8065 -0.0038568
68 90001 27.8065 -0.00227351
69 90001 29.6145 0.00794222
70 90001 29.6145 -0.00400635
71 90001 31.4215 0.0230066
72 90001 31.4215 0.0516442
73 90001 25.9995 0.0035725
74 90001 25.9995 0.00275878
75 90001 27.8065 -0.00344279
76 90001 27.8065 -0.00318955
77 90001 29.6145 -0.00176178
78 90001 29.6145 -0.00203833
79 90001 31.4215 -0.0183447
80 90001 31.4215 0.00810458
81 90001 25.9995 0.00340963
82 90001 25.9995 -0.00333585
83 90001 27.8065 0.00369198
84 90001 27.8065 0.00448266
85 90001 29.6145 0.000582054
86 90001 29.6145 0.00493675
87 90001 31.4215 0.00292275
88 90001 31.4215 0.000749945
89 90001 25.9995 -0.00342476
90 90001 25.9995 -0.00546663
91 90001 27.8065 0.00393558
92 90001 27.8065 0.00353632
93 90001 29.6145 0.00337434
94 90001 29.6145 0.00305411
95 90001 31.4215 -0.0202301
96 90001 31.4215 0.0134683
97 90001 25.9995 -0.000701705
98 90001 25.9995 -0.0011831
99 90001 27.8065 0.0023343
100 90001 27.8065 0.00371824
101 90001 29.6145 -0.00146329
102 90001 29.6145 0.00146962
103 90001 31.4215 0.0227505
104 90001 31.4215 -0.0277974
105 90001 25.9995 0.000519758
106 90001 25.9995 -0.00270515
107 90001 27.8065 -0.0020204
108 90001 27.8065 -0.00204787
109 90001 29.6145 0.0018231
110 90001 29.6145 0.00430486
111 90001 31.4215 -0.00849753
112 90001 31.4215 0.0107156
113 90001 25.9995 -1.54795e-05
114 90001 25.9995 0.00243726
115 90001 27.8065 -0.000327663
116 90001 27.8065 -0.00190611
117 90001 29.6145 0.000727148
118 90001 29.6145 0.000699079
119 90001 31.4215 0.000441373
120 90001 31.4215 0.0134718
121 90001 25.9995 0.000703568
122 90001 25.9995 -0.00114248
123 90001 27.8065 0.00184049
124 90001 27.8065 0.00158118
125 90001 29.6145 0.00186913
126 90001 29.6145 0.000798277
127 90001 31.4215 -0.00211052
128 90001 31.4215 -0.00409511
129 90001 25.9995 -0.00211126
130 90001 25.9995 0.000696845
131 90001 27.8065 -0.00263082
132 90001 27.8065 0.00047061
133 90001 29.6145 -0.00150245
134 90001 29.6145 -0.00226759
135 90001 31.4215 0.0277399
136 90001 31.4215 0.0111321
137 90001 25.9995 0.00245375
138 90001 25.9995 0.00619198
139 90001 27.8065 -0.00156517
140 90001 27.8065 -0.0026679
141 90001 29.6145 -0.00257243
142 90001 29.6145 -0.00322283
143 90001 31.4215 -0.00397461
144 90001 31.4215 0.00474993
145 90001 25.9995 0.00335051
146 90001 25.9995 -0.00174635
147 90001 27.8065 -0.00339704
148 90001 27.8065 -0.0032444
149 90001 29.6145 -0.0033673
150 90001 29.6145 0.00130266
151 90001 31.4215 0.0535035
152 90001 31.4215 0.0164257
153 90001 25.9995 -2.83137e-05
154 90001 25.9995 0.000766121
155 90001 27.8065 -0.000898566
156 90001 27.8065 -0.00150784
157 90001 29.6145 -0.00282917
158 90001 29.6145 0.00143323
159 90001 31.4215 0.0397562
160 90001 31.4215 0.00353676
161 90001 25.9995 -0.0038283
162 90001 25.9995 -0.00740915
163 90001 27.8065 0.00573972
164 90001 27.8065 0.00566469
165 90001 29.6145 0.00447993
166 90001 29.6145 0.00680061
167 90001 31.4215 0.00964297
168 90001 31.4215 0.00802916
169 90001 25.9995 -0.0101271
170 90001 25.9995 -0.00557724
171 90001 27.8065 0.000130972
172 90001 27.8065 0.00408007
173 90001 29.6145 0.00508947
174 90001 29.6145 0.00331937
175 90001 31.4215 -0.0144701
176 90001 31.4215 -0.0127854
177 90001 25.9995 -0.00428777
178 90001 25.9995 -0.00275575
179 90001 27.8065 0.00200083
180 90001 27.8065 0.00270593
181 90001 29.6145 0.00434304
182 90001 29.6145 0.00430618
183 90001 31.4215 -0.0101976
184 90001 31.4215 -0.0200641
185 90001 25.9995 -0.00374436
186 90001 25.9995 -0.00394214
187 90001 27.8065 -0.000319544
188 90001 27.8065 0.00231764
189 90001 29.6145 0.000994968
190 90001 29.6145 0.000651528
191 90001 31.4215 0.00783599
192 90001 31.4215 0.00315947
193 90001 25.9995 -0.00259853
194 90001 25.9995 -0.00184048
195 90001 27.8065 0.000401858
196 90001 27.8065 0.00202949
197 90001 29.6145 0.00333421
198 90001 29.6145 0.000898234
199 90001 31.4215 0.00135638
200 90001 31.4215 0.00358493
201 90001 25.9995 -0.000186344
202 90001 25.9995 -0.00106565
203 90001 27.8065 0.000936176
204 90001 27.8065 0.00137608
205 90001 29.6145 -0.000488216
206 90001 29.6145 -0.000911274
207 90001 31.4215 -0.00772645
208 90001 31.4215 0.00632053
209 90001 25.9995 -0.00107857
210 90001 25.9995 0.00269818
211 90001 27.8065 -0.00287792
212 90001 27.8065 -0.00136648
213 90001 29.6145 -0.00191443
214 90001 29.6145 -0.00293655
215 90001 31.4215 0.000933978
216 90001 31.4215 0.0020854
217 90001 25.9995 0.00257805
218 90001 25.9995 0.0034456
219 90001 27.8065 -0.00395314
220 90001 27.8065 -0.00435557
221 90001 29.6145 -0.00334927
222 90001 29.6145 -0.00570145
223 90001 31.4215 -0.000553832
224 90001 31.4215 -0.00194534
225 90001 25.9995 0.00220941
226 90001 25.9995 -0.000205612
227 90001 27.8065 -0.00353697
228 90001 27.8065 -0.00323585
229 90001 29.6145 -0.0002929
230 90001 29.6145 -0.000237223
231 90001 31.4215 -8.7031e-05
232 90001 31.4215 -0.00681221
233 90001 25.9995 -0.00186438
234 90001 25.9995 -0.00295922
235 90001 27.8065 0.00357349
236 90001 27.8065 0.00032613
237 90001 29.6145 0.00275676
238 90001 29.6145 0.00298792
239 90001 31.4215 -0.0149023
240 90001 31.4215 -0.019773
241 90001 25.9995 -0.00559157
242 90001 25.9995 -0.00256375
243 90001 27.8065 0.00446579
244 90001 27.8065 0.0017381
245 90001 29.6145 0.00464356
246 90001 29.6145 0.00312667
247 90001 31.4215 -0.00572493
248 90001 31.4215 -0.0122491
249 90001 25.9995 -0.00364046
250 90001 25.9995 -0.00155279
251 90001 27.8065 0.00416413
252 90001 27.8065 0.00394361
253 90001 29.6145 0.00286137
254 90001 29.6145 0.000483169
255 90001 31.4215 -0.0349181
256 90001 31.4215 -0.0217226
257 90001 25.9995 -0.00211708
258 90001 25.9995 -0.00475098
259 90001 27.8065 0.00459038
260 90001 27.8065 0.00326287
261 90001 29.6145 0.00165785
262 90001 29.6145 -0.000286025
263 90001 31.4215 -0.025875
264 90001 31.4215 -0.0448206
265 90001 25.9995 -0.00312351
266 90001 25.9995 -0.00192216
267 90001 27.8065 0.00468293
268 90001 27.8065 0.00535848
269 90001 29.6145 0.00342744
270 90001 29.6145 0.00091743
271 90001 31.4215 -0.0051894
272 90001 31.4215 -0.0415259
273 90001 25.9995 -0.00177682
274 90001 25.9995 -0.000370823
275 90001 27.8065 0.00170339
276 90001 27.8065 0.00174573
277 90001 29.6145 -0.00270316
278 90001 29.6145 0.00128143
279 90001 31.4215 0.00570053
280 90001 31.4215 -0.00407136
281 90001 25.9995 -9.54268e-05
282 90001 25.9995 0.00322142
283 90001 27.8065 -0.00152076
284 90001 27.8065 -0.00264741
285 90001 29.6145 -0.00144398
286 90001 29.6145 -0.00498165
287 90001 31.4215 0.00806408
288 90001 31.4215 0.0137212
289 90001 25.9995 0.00485771
290 90001 25.9995 0.00550243
291 90001 27.8065 -0.00200931
292 90001 27.8065 -0.00263562
293 90001 29.6145 -0.00372725
294 90001 29.6145 -0.00466315
295 90001 31.4215 -0.00619698
296 90001 31.4215 -0.0153046
297 90001 25.9995 0.00359485
298 90001 25.9995 0.00338723
299 90001 27.8065 -0.00323292
300 90001 27.8065 -0.00287458
301 90001 29.6145 -0.00442875
302 90001 29.6145 -0.00438173
303 90001 31.4215 -0.000952989
304 90001 31.4215 0.0144834
305 90001 25.9995 0.00430834
306 90001 25.9995 0.00407054
307 90001 27.8065 -0.000218485
308 90001 27.8065 2.45891e-05
309 90001 29.6145 -0.0101467
310 90001 29.6145 -0.00646508
311 90001 31.4215 -0.0373738
312 90001 31.4215 0.00707091
313 90001 25.9995 -0.00186881
314 90001 25.9995 -0.00324137
315 90001 27.8065 0.0033252
316 90001 27.8065 0.000506453
317 90001 29.6145 -0.00112005
318 90001 29.6145 -0.00166917
319 90001 31.4215 -0.00776591
320 90001 31.4215 -0.0111168
321 90001 25.9995 -0.00119378
322 90001 25.9995 9.21827e-05
323 90001 27.8065 0.000505362
324 90001 27.8065 -0.00205608
325 90001 29.6145 -0.00124739
326 90001 29.6145 -0.00184061
327 90001 31.4215 -0.0109375
328 90001 31.4215 -0.0127552
329 90001 25.9995 -0.000403714
330 90001 25.9995 0.00176353
331 90001 27.8065 0.00100651
332 90001 27.8065 -8.86206e-05
333 90001 29.6145 -0.0036597
334 90001 29.6145 -0.00319359
335 90001 31.4215 -0.0374399
336 90001 31.4215 -0.0224672
337 90001 25.9995 -0.00447866
338 90001 25.9995 -0.00322655
339 90001 27.8065 0.00106172
340 90001 27.8065 -0.00250277
341 90001 29.6145 0.00131347
342 90001 29.6145 -0.000381944
343 90001 31.4215 -0.0774235
344 90001 31.4215 -0.0158858
345 90001 25.9995 -0.00481135
346 90001 25.9995 -0.00165196
347 90001 27.8065 0.00182605
348 90001 27.8065 -0.000139555
349 90001 29.6145 -0.000166818
350 90001 29.6145 -0.00111844
351 90001 31.4215 -0.0358538
352 90001 31.4215 -0.0398841
353 90001 25.9995 8.16141e-05
354 90001 25.9995 -0.00360054
355 90001 27.8065 -0.00050721
356 90001 27.8065 0.00235557
357 90001 29.6145 0.00229068
358 90001 29.6145 0.00621783
359 90001 31.4215 0.0272794
360 90001 31.4215 -0.00825948
361 90001 25.9995 -0.000632897
362 90001 25.9995 -0.0012027
363 90001 27.8065 -0.00168478
364 90001 27.8065 0.000198887
365 90001 29.6145 -0.000836305
366 90001 29.6145 -0.00362163
367 90001 31.4215 -0.0361653
368 90001 31.4215 -0.0150737
369 90001 25.9995 0.00492812
370 90001 25.9995 0.00408302
371 90001 27.8065 -0.00238405
372 90001 27.8065 -0.00109212
373 90001 29.6145 -0.00399196
374 90001 29.6145 -0.00314044
375 90001 31.4215 0.0258217
376 90001 31.4215 -0.00198033
377 90001 25.9995 0.00414751
378 90001 25.9995 0.00304893
379 90001 27.8065 -0.00303693
380 90001 27.8065 -0.00281927
381 90001 29.6145 -0.00329173
382 90001 29.6145 -0.00433263
383 90001 31.4215 0.0255513
384 90001 31.4215 0.0245735
385 90001 25.9995 0.00286909
386 90001 25.9995 0.00330576
387 90001 27.8065 -0.00190906
388 90001 27.8065 -0.00425245
389 90001 29.6145 -0.00484036
390 90001 29.6145 -0.00230861
391 90001 31.4215 -0.00452353
392 90001 31.4215 0.0161742
393 90001 25.9995 0.00254036
394 90001 25.9995 0.00180189
395 90001 27.8065 -0.001207
396 90001 27.8065 -0.00061832
397 90001 29.6145 -0.00377797
398 90001 29.6145 -0.00197665
399 90001 31.4215 -0.0174615
400 90001 31.4215 -0.00414553
401 90001 25.9995 -0.000444788
402 90001 25.9995 -0.0006803
403 90001 27.8065 -0.0032537
404 90001 27.8065 -0.00248407
405 90001 29.6145 -0.000641061
406 90001 29.6145 -0.00305724
407 90001 31.4215 -0.000193515
408 90001 31.4215 0.00346335
409 90001 25.9995 0.00409098
410 90001 25.9995 0.00956661
411 90001 27.8065 -0.00157291
412 90001 27.8065 -0.00257161
413 90001 29.6145 -0.00458609
414 90001 29.6145 -0.00632237
415 90001 31.4215 0.0127764
416 90001 31.4215 0.00372064
417 90001 25.9995 0.00490806
418 90001 25.9995 0.0076822
419 90001 27.8065 -0.00482261
420 90001 27.8065 -0.00488601
421 90001 29.6145 -0.00515077
422 90001 29.6145 -0.00765935
423 90001 31.4215 0.000605753
424 90001 31.4215 -0.00538382
425 90001 25.9995 0.00224882
426 90001 25.9995 0.00187295
427 90001 27.8065 0.00139321
428 90001 27.8065 -0.00411092
429 90001 29.6145 -0.000396791
430 90001 29.6145 0.00130237
431 90001 31.4215 -0.0202843
432 90001 31.4215 0.0360576
433 90001 25.9995 -0.00323623
434 90001 25.9995 -0.00787779
435 90001 27.8065 0.00307532
436 90001 27.8065 0.00238865
437 90001 29.6145 0.00267032
438 90001 29.6145 0.00433184
439 90001 31.4215 -0.00654066
440 90001 31.4215 -0.0152647
441 90001 25.9995 -0.00916586
442 90001 25.9995 -0.00710144
443 90001 27.8065 0.00145068
444 90001 27.8065 0.00414316
445 90001 29.6145 0.00444911
446 90001 29.6145 0.00526663
447 90001 31.4215 -0.00607414
448 90001 31.4215 -0.0141841
449 90001 25.9995 -0.00049114
450 90001 25.9995 0.00110438
451 90001 27.8065 -0.000137712
452 90001 27.8065 0.00264037
453 90001 29.6145 -0.00127955
454 90001 29.6145 -0.000134004
455 90001 31.4215 0.00401001
456 90001 31.4215 -0.00245941
457 90001 25.9995 0.00542314
458 90001 25.9995 0.0023165
459 90001 27.8065 -0.00314401
460 90001 27.8065 -6.47225e-05
461 90001 29.6145 -0.0041465
462 90001 29.6145 -0.00481345
463 90001 31.4215 0.0088417
464 90001 31.4215 -0.0118293
465 90001 25.9995 0.00284462
466 90001 25.9995 -0.00156591
467 90001 27.8065 -0.000658131
468 90001 27.8065 -0.00120408
469 90001 29.6145 -0.00197305
470 90001 29.6145 -0.00211939
471 90001 31.4215 0.0103096
472 90001 31.4215 0.00535654
473 90001 25.9995 0.00275839
474 90001 25.9995 -0.000644223
475 90001 27.8065 -0.000144984
476 90001 27.8065 -0.000378962
477 90001 29.6145 -0.00154986
478 90001 29.6145 -0.00157427
479 90001 31.4215 -0.00299692
480 90001 31.4215 -0.0165568
481 90001 25.9995 -0.000506013
482 90001 25.9995 0.00261724
483 90001 27.8065 -0.00338235
484 90001 27.8065 0.0018426
485 90001 29.6145 -0.00195712
486 90001 29.6145 -0.00438141
487 90001 31.4215 0.00145372
488 90001 31.4215 -0.00855119
489 90001 25.9995 0.00420096
490 90001 25.9995 0.00520072
491 90001 27.8065 -0.0056499
492 90001 27.8065 -0.00533722
493 90001 29.6145 -0.00640789
494 90001 29.6145 -0.00572006
495 90001 31.4215 0.0107793
496 90001 31.4215 -0.010647
497 90001 25.9995 0.00933892
498 90001 25.9995 0.00566063
499 90001 27.8065 -0.00689925
500 90001 27.8065 -0.00671456
501 90001 29.6145 -0.00615926
502 90001 29.6145 -0.00430201
503 90001 31.4215 -0.0142649
504 90001 31.4215 0.00328121
505 90001 25.9995 0.00551754
506 90001 25.9995 0.00065814
507 90001 27.8065 -0.000907049
508 90001 27.8065 -0.00550523
509 90001 29.6145 -0.00174597
510 90001 29.6145 -0.00102099
511 90001 31.4215 0.00445735
512 90001 31.4215 -0.000854402
513 90001 25.9995 -0.00127364
514 90001 25.9995 -0.00217817
515 90001 27.8065 0.00335078
516 90001 27.8065 0.00106292
517 90001 29.6145 0.00140733
518 90001 29.6145 0.00262745
519 90001 31.4215 -0.0200264
520 90001 31.4215 -0.0119764
521 90001 25.9995 -0.00531539
522 90001 25.9995 -0.00224898
523 90001 27.8065 0.00472809
524 90001 27.8065 0.00436836
525 90001 29.6145 0.00589684
526 90001 29.6145 0.000701741
527 90001 31.4215 -0.0135463
528 90001 31.4215 -0.0380189
529 90001 25.9995 -0.00426882
530 90001 25.9995 -0.00742782
531 90001 27.8065 0.00133817
532 90001 27.8065 0.00264845
533 90001 29.6145 0.003185
534 90001 29.6145 0.00430904
535 90001 31.4215 0.00380775
536 90001 31.4215 0.0165255
537 90001 25.9995 -0.00219087
538 90001 25.9995 -0.00598183
539 90001 27.8065 0.00143924
540 90001 27.8065 0.00210813
541 90001 29.6145 0.000281248
542 90001 29.6145 0.00206469
543 90001 31.4215 0.010568
544 90001 31.4215 0.0148969
545 90001 25.9995 -0.0046068
546 90001 25.9995 -0.0071423
547 90001 27.8065 0.000618448
548 90001 27.8065 0.00365008
549 90001 29.6145 0.000448061
550 90001 29.6145 0.00727923
551 90001 31.4215 0.0140569
552 90001 31.4215 -0.00741215
553 90001 25.9995 -0.00482656
554 90001 25.9995 -0.00236816
555 90001 27.8065 0.0021985
556 90001 27.8065 0.00414241
557 90001 29.6145 -0.00247033
558 90001 29.6145 0.000406565
559 90001 31.4215 -0.0152187
560 90001 31.4215 0.00561814
561 90001 25.9995 0.000540373
562 90001 25.9995 -0.000506916
563 90001 27.8065 0.000898069
564 90001 27.8065 0.0037956
565 90001 29.6145 -0.00111684
566 90001 29.6145 0.00257637
567 90001 31.4215 0.00014092
568 90001 31.4215 -0.00100213
569 90001 25.9995 0.00165055
570 90001 25.9995 0.000773199
571 90001 27.8065 -0.00616583
572 90001 27.8065 -0.0021014
573 90001 29.6145 -0.00153342
574 90001 29.6145 -0.00279148
575 90001 31.4215 0.00241261
576 90001 31.4215 -0.00936727
577 90001 25.9995 0.00463391
578 90001 25.9995 0.00467241
579 90001 27.8065 -0.00461101
580 90001 27.8065 -0.00228386
581 90001 29.6145 -0.00449434
582 90001 29.6145 -0.00550146
583 90001 31.4215 0.000293513
584 90001 31.4215 0.00561085
585 90001 25.9995 0.00224801
586 90001 25.9995 0.00226481
587 90001 27.8065 -0.00366245
588 90001 27.8065 -0.00363145
589 90001 29.6145 -0.00540658
590 90001 29.6145 -0.00375628
591 90001 31.4215 0.000879405
592 90001 31.4215 0.015476
593 90001 25.9995 -0.00354964
594 90001 25.9995 -0.00371799
595 90001 27.8065 0.0011673
596 90001 27.8065 -0.00247934
597 90001 29.6145 0.000691953
598 90001 29.6145 -0.000444314
599 90001 31.4215 -0.038312
600 90001 31.4215 0.0333879
601 90001 25.9995 -0.00131766
602 90001 25.9995 -0.00311826
603 90001 27.8065 0.00313462
604 90001 27.8065 0.00131468
605 90001 29.6145 -0.00215539
606 90001 29.6145 0.010687
607 90001 31.4215 0.0122023
608 90001 31.4215 0.0218442
609 90001 25.9995 -0.00609004
610 90001 25.9995 -0.00671798
611 90001 27.8065 0.000486862
612 90001 27.8065 0.00398408
613 90001 29.6145 0.00509587
614 90001 29.6145 0.00667557
615 90001 31.4215 0.0553414
616 90001 31.4215 0.0489696
617 90001 25.9995 -0.00909668
618 90001 25.9995 -0.00350195
619 90001 27.8065 0.00567222
620 90001 27.8065 0.00346146
621 90001 29.6145 0.00510203
622 90001 29.6145 0.00420929
623 90001 31.4215 -0.00784172
624 90001 31.4215 0.0119398
625 90001 25.9995 -0.00561179
626 90001 25.9995 -0.00824468
627 90001 27.8065 0.00484692
628 90001 27.8065 0.00495149
629 90001 29.6145 0.00439142
630 90001 29.6145 0.00437051
631 90001 31.4215 -0.0217076
632 90001 31.4215 -0.00270169
633 90001 25.9995 -0.00799951
634 90001 25.9995 -0.00565008
635 90001 27.8065 0.00451291
636 90001 27.8065 0.00223901
637 90001 29.6145 0.00657823
638 90001 29.6145 0.00519541
639 90001 31.4215 0.0158575
640 90001 31.4215 -0.0124393
641 90001 25.9995 -0.00776395
642 90001 25.9995 -0.0061142
643 90001 27.8065 0.000539678
644 90001 27.8065 0.00224106
645 90001 29.6145 0.00441677
646 90001 29.6145 -0.00106909
647 90001 31.4215 -0.0347003
648 90001 31.4215 0.00605828
649 90001 25.9995 -0.00326413
650 90001 25.9995 0.00202872
651 90001 27.8065 0.000291045
652 90001 27.8065 -0.000139383
653 90001 29.6145 -0.000670927
654 90001 29.6145 -0.000636307
655 90001 31.4215 -0.0231798
656 90001 31.4215 -0.0360691
657 90001 25.9995 0.00354978
658 90001 25.9995 0.00425068
659 90001 27.8065 -0.00244251
660 90001 27.8065 -0.00208002
661 90001 29.6145 -0.00521095
662 90001 29.6145 -0.00500723
663 90001 31.4215 0.0320871
664 90001 31.4215 -0.00274241
665 90001 25.9995 0.00546618
666 90001 25.9995 0.00616015
667 90001 27.8065 -0.00332779
668 90001 27.8065 -0.00327124
669 90001 29.6145 -0.00439033
670 90001 29.6145 -0.00186172
671 90001 31.4215 0.0529051
672 90001 31.4215 0.0508524
673 90001 25.9995 0.0032823
674 90001 25.9995 -0.000861022
675 90001 27.8065 -0.00129771
676 90001 27.8065 -0.00228562
677 90001 29.6145 0.00525513
678 90001 29.6145 0.00370527
679 90001 31.4215 0.0679308
680 90001 31.4215 0.0610856
681 90001 25.9995 -0.00445084
682 90001 25.9995 -0.00540879
683 90001 27.8065 0.00247191
684 90001 27.8065 -0.000513093
685 90001 29.6145 0.00329494
686 90001 29.6145 0.00143789
687 90001 31.4215 0.0730193
688 90001 31.4215 0.0202065
689 90001 25.9995 -0.00595692
690 90001 25.9995 -0.00306615
691 90001 27.8065 0.00156225
692 90001 27.8065 0.000528054
693 90001 29.6145 0.00818958
694 90001 29.6145 0.000572165
695 90001 31.4215 0.0117909
696 90001 31.4215 0.0115966
697 90001 25.9995 -0.00178393
698 90001 25.9995 0.000265878
699 90001 27.8065 0.00159298
700 90001 27.8065 -0.00103796
701 90001 29.6145 0.0029344
702 90001 29.6145 -0.00548286
703 90001 31.4215 -0.0444157
704 90001 31.4215 -0.0112906
705 90001 25.9995 -0.00283025
706 90001 25.9995 -0.00239546
707 90001 27.8065 0.00158843
708 90001 27.8065 -0.000887096
709 90001 29.6145 4.35106e-05
710 90001 29.6145 0.00154511
711 90001 31.4215 -0.0231833
712 90001 31.4215 -0.0176059
713 90001 25.9995 -0.00665285
714 90001 25.9995 -0.0066766
715 90001 27.8065 0.00310674
716 90001 27.8065 0.00184846
717 90001 29.6145 0.00520308
718 90001 29.6145 0.00678247
719 90001 31.4215 -0.00699467
720 90001 31.4215 -0.00267596
721 90001 25.9995 -0.00294201
722 90001 25.9995 -0.00120282
723 90001 27.8065 0.0025058
724 90001 27.8065 -0.000268444
725 90001 29.6145 0.00489518
726 90001 29.6145 -0.00174564
727 90001 31.4215 -0.0251521
728 90001 31.4215 -0.0194209
729 90001 25.9995 -0.000494853
730 90001 25.9995 0.000121795
731 90001 27.8065 -4.03576e-05
732 90001 27.8065 0.00170827
733 90001 29.6145 -0.000354439
734 90001 29.6145 -0.00102993
735 90001 31.4215 -0.00252112
736 90001 31.4215 -0.00863755
737 90001 25.9995 0.00266232
738 90001 25.9995 0.000685605
739 90001 27.8065 -0.00478776
740 90001 27.8065 -0.00171633
741 90001 29.6145 -0.00373835
742 90001 29.6145 -0.000985775
743 90001 31.4215 0.0203591
744 90001 31.4215 0.00101401
745 90001 25.9995 0.00405
746 90001 25.9995 0.00284477
747 90001 27.8065 -0.00319636
748 90001 27.8065 -0.00292955
749 90001 29.6145 -0.00334351
750 90001 29.6145 -0.00405865
751 90001 31.4215 0.00413307
752 90001 31.4215 0.017181
753 90001 25.9995 0.00181063
754 90001 25.9995 -0.00206021
755 90001 27.8065 -0.00159785
756 90001 27.8065 -0.00271023
757 90001 29.6145 -0.000512807
758 90001 29.6145 0.0013078
759 90001 31.4215 0.046692
760 90001 31.4215 -0.00275581
761 90001 25.9995 -0.00115229
762 90001 25.9995 0.000866582
763 90001 27.8065 0.00163915
764 90001 27.8065 0.000201692
765 90001 29.6145 0.00189933
766 90001 29.6145 0.00197064
767 90001 31.4215 -0.00459407
768 90001 31.4215 -0.00166155
769 90001 25.9995 -0.000236262
770 90001 25.9995 0.00035243
771 90001 27.8065 0.00170849
772 90001 27.8065 0.000430533
773 90001 29.6145 0.000277781
774 90001 29.6145 0.00148567
775 90001 31.4215 0.0291929
776 90001 31.4215 0.0155924
777 90001 25.9995 -0.000694827
778 90001 25.9995 0.00227237
779 90001 27.8065 -0.00326692
780 90001 27.8065 0.000216658
781 90001 29.6145 -0.00296743
782 90001 29.6145 -0.00214731
783 90001 31.4215 -0.00177918
784 90001 31.4215 0.00171147
785 90001 25.9995 0.0013576
786 90001 25.9995 0.00458631
787 90001 27.8065 -0.00229118
788 90001 27.8065 -0.00551264
789 90001 29.6145 -0.00382954
790 90001 29.6145 -0.00216555
791 90001 31.4215 0.0019381
792 90001 31.4215 0.0375759
793 90001 25.9995 0.000472123
794 90001 25.9995 0.00188294
795 90001 27.8065 0.00218627
796 90001 27.8065 -0.00175112
797 90001 29.6145 0.0005167
798 90001 29.6145 -0.00271336
799 90001 31.4215 0.0367692
800 90001 31.4215 -0.00106129
801 90002 132.343 0.00310964
802 90002 132.343 -0.000277457
803 90002 130.536 -0.00153934
804 90002 130.536 -0.000586194
805 90002 128.728 -0.00145835
806 90002 128.728 2.64451e-05
807 90002 126.921 0.00304603
808 90002 126.921 -0.000548446
809 90002 132.343 0.00169758
810 90002 132.343 0.000803331
811 90002 130.536 -0.000420504
812 90002 130.536 -0.00155983
813 90002 128.728 -0.00233992
814 90002 128.728 -0.00117634
815 90002 126.921 -0.0203783
816 90002 126.921 0.00819321
817 90002 132.343 0.00133345
818 90002 132.343 -0.000284685
819 90002 130.536 0.00224425
820 90002 130.536 0.00127064
821 90002 128.728 -0.0031353
822 90002 128.728 0.00187878
823 90002 126.921 -0.0191473
824 90002 126.921 -0.0142878
825 90002 132.343 -0.00314702
826 90002 132.343 0.000214082
827 90002 130.536 -0.000491023
828 90002 130.536 0.000981599
829 90002 128.728 0.000184929
830 90002 128.728 0.000500098
831 90002 126.921 -0.00146658
832 90002 126.921 0.0035501
833 90002 132.343 0.000707212
834 90002 132.343 0.00220921
835 90002 130.536 0.0012113
836 90002 130.536 0.00191554
837 90002 128.728 0.00167256
838 90002 128.728 -0.000726316
839 90002 126.921 -0.00636308
840 90002 126.921 -0.00642902
841 90002 132.343 0.00414258
842 90002 132.343 -0.00132728
843 90002 130.536 -0.000225091
844 90002 130.536 0.000482335
845 90002 128.728 -0.00117966
846 90002 128.728 0.00212812
847 90002 126.921 -0.00739345
848 90002 126.921 -0.0284603
849 90002 132.343 -0.00361929
850 90002 132.343 -0.000791585
851 90002 130.536 0.00186811
852 90002 130.536 -0.00238403
853 90002 128.728 0.000850808
854 90002 128.728 -0.002644
855 90002 126.921 -0.0137267
856 90002 126.921 -0.0113015
857 90002 132.343 -0.000824267
858 90002 132.343 0.00124901
859 90002 130.536 -0.000288924
860 90002 130.536 0.000393133
861 90002 128.728 -0.00108919
862 90002 128.728 -0.00355908
863 90002 126.921 -0.031129
864 90002 126.921 -0.0323088
865 90002 132.343 -0.000636885
866 90002 132.343 -0.00479905
867 90002 130.536 -0.00325617
868 90002 130.536 -0.000442094
869 90002 128.728 0.0012995
870 90002 128.728 0.00328643
871 90002 126.921 -0.0111622
872 90002 126.921 -0.0294826
873 90002 132.343 -0.00214236
874 90002 132.343 -0.00215324
875 90002 130.536 0.000131116
876 90002 130.536 0.00193012
877 90002 128.728 0.000827791
878 90002 128.728 -0.000804236
879 90002 126.921 -0.0111403
880 90002 126.921 0.013254
881 90002 132.343 0.000918891
882 90002 132.343 0.00167042
883 90002 130.536 -0.00292334
884 90002 130.536 -0.00024303
885 90002 128.728 -0.00105816
886 90002 128.728 -0.000358013
887 90002 126.921 0.00108827
888 90002 126.921 0.00322314
889 90002 132.343 -0.00195705
890 90002 132.343 -0.000951856
891 90002 130.536 0.000164018
892 90002 130.536 -0.000218227
893 90002 128.728 0.00021468
894 90002 128.728 0.00071893
895 90002 126.921 0.00511522
896 90002 126.921 0.00668081
897 90002 132.343 8.09855e-05
898 90002 132.343 -0.00150724
899 90002 130.536 -0.00058488
900 90002 130.536 -0.000939749
901 90002 128.728 -0.00026298
902 90002 128.728 0.000603312
903 90002 126.921 0.00172291
904 90002 126.921 0.0113546
905 90002 132.343 0.000175895
906 90002 132.343 -0.00171536
907 90002 130.536 0.0024125
908 90002 130.536 -0.00204471
909 90002 128.728 0.0009178
910 90002 128.728 -0.000218575
911 90002 126.921 -0.014737
912 90002 126.921 -0.0111679
913 90002 132.343 -0.000753469
914 90002 132.343 -0.00402786
915 90002 130.536 0.00178412
916 90002 130.536 0.000730778
917 90002 128.728 0.000357098
918 90002 128.728 0.00151097
919 90002 126.921 -0.0261763
920 90002 126.921 -0.00855167
921 90002 132.343 -0.00392557
922 90002 132.343 -0.00207257
923 90002 130.536 6.35602e-05
924 90002 130.536 0.00274209
925 90002 128.728 -0.00125979
926 90002 128.728 0.000197009
927 90002 126.921 -0.0291258
928 90002 126.921 -0.0149006
929 90002 132.343 0.00184102
930 90002 132.343 0.00369807
931 90002 130.536 -0.000765958
932 90002 130.536 0.00274795
933 90002 128.728 0.000461331
934 90002 128.728 -0.00129633
935 90002 126.921 -0.0376015
936 90002 126.921 -0.0242552
937 90002 132.343 0.00214928
938 90002 132.343 -0.0035228
939 90002 130.536 0.000403708
940 90002 130.536 0.00150555
941 90002 128.728 -0.00309748
942 90002 128.728 0.00121851
943 90002 126.921 -0.0158719
944 90002 126.921 -0.0152209
945 90002 132.343 -0.00190496
946 90002 132.343 -0.00194246
947 90002 130.536 0.00117854
948 90002 130.536 0.00125248
949 90002 128.728 0.00157989
950 90002 128.728 0.00364055
951 90002 126.921 0.031317
952 90002 126.921 0.0059663
953 90002 132.343 -0.00240564
954 90002 132.343 0.0025349
955 90002 130.536 0.00123893
956 90002 130.536 0.0011878
957 90002 128.728 0.00123708
958 90002 128.728 0.000732729
959 90002 126.921 0.0050292
960 90002 126.921 0.0167662
961 90002 132.343 0.00218848
962 90002 132.343 0.00186722
963 90002 130.536 -0.00128634
964 90002 130.536 -0.00220829
965 90002 128.728 -0.00165044
966 90002 128.728 -0.00121356
967 90002 126.921 -0.00584396
968 90002 126.921 -0.0097308
969 90002 132.343 0.00254567
970 90002 132.343 0.00124562
971 90002 130.536 0.00112135
972 90002 130.536 0.00106727
973 90002 128.728 0.00162804
974 90002 128.728 -0.000473459
975 90002 126.921 0.0171758
976 90002 126.921 0.0395528
977 90002 132.343 -0.000533674
978 90002 132.343 0.00385338
979 90002 130.536 -0.00332153
980 90002 130.536 -0.00323856
981 90002 128.728 -0.000956834
982 90002 128.728 -0.00589533
983 90002 126.921 0.0256535
984 90002 126.921 -0.000222299
985 90002 132.343 0.00155464
986 90002 132.343 0.00553564
987 90002 130.536 -0.000837118
988 90002 130.536 0.00172005
989 90002 128.728 -0.00166334
990 90002 128.728 -0.00252367
991 90002 126.921 0.0224599
992 90002 126.921 0.0128022
993 90002 132.343 -0.000187506
994 90002 132.343 0.00222197
995 90002 130.536 0.00130297
996 90002 130.536 -0.00138228
997 90002 128.728 -0.00188161
998 90002 128.728 -0.00189053
999 90002 126.921 0.021176
1000 90002 126.921 -0.00105908
1001 90002 132.343 -0.00025222
1002 90002 132.343 0.000107428
1003 90002 130.536 0.00303244
1004 90002 130.536 0.00219072
1005 90002 128.728 0.00105131
1006 90002 128.728 -0.0044829
1007 90002 126.921 -0.0198461
1008 90002 126.921 0.00794374
1009 90002 132.343 0.000773363
1010 90002 132.343 -0.00482053
1011 90002 130.536 0.00201149
1012 90002 130.536 0.00155418
1013 90002 128.728 -0.00711819
1014 90002 128.728 -0.0011367
1015 90002 126.921 -0.049806
1016 90002 126.921 -0.061308
1017 90002 132.343 -0.00537659
1018 90002 132.343 -0.00278409
1019 90002 130.536 0.00195379
1020 90002 130.536 0.000496962
1021 90002 128.728 0.00102941
1022 90002 128.728 0.00306555
1023 90002 126.921 -0.0113455
1024 90002 126.921 -0.0236748
1025 90002 132.343 -0.00317674
1026 90002 132.343 0.00207871
1027 90002 130.536 0.00282892
1028 90002 130.536 0.00104399
1029 90002 128.728 0.00294061
1030 90002 128.728 -0.001213
1031 90002 126.921 -0.00821005
1032 90002 126.921 -0.0158974
1033 90002 132.343 0.00311357
1034 90002 132.343 0.000298541
1035 90002 130.536 -0.000572585
1036 90002 130.536 0.000212203
1037 90002 128.728 -0.00202108
1038 90002 128.728 -0.00259472
1039 90002 126.921 -0.00391895
1040 90002 126.921 -0.019516
1041 90002 132.343 -0.00353967
1042 90002 132.343 0.000829361
1043 90002 130.536 0.00014162
1044 90002 130.536 -0.000526804
1045 90002 128.728 0.0030616
1046 90002 128.728 0.000275336
1047 90002 126.921 -0.00164519
1048 90002 126.921 -0.00519459
1049 90002 132.343 0.00272237
1050 90002 132.343 0.00435128
1051 90002 130.536 -0.00314345
1052 90002 130.536 -0.00168403
1053 90002 128.728 -0.000814551
1054 90002 128.728 -0.00237384
1055 90002 126.921 0.00390452
1056 90002 126.921 -0.00234539
1057 90002 132.343 0.00332141
1058 90002 132.343 0.00190782
1059 90002 130.536 -0.00237641
1060 90002 130.536 -0.00439681
1061 90002 128.728 -0.00187588
1062 90002 128.728 -0.000302901
1063 90002 126.921 0.0192155
1064 90002 126.921 0.0209279
1065 90002 132.343 0.00532412
1066 90002 132.343 0.00141193
1067 90002 130.536 0.000227851
1068 90002 130.536 -0.000771297
1069 90002 128.728 -0.00240262
1070 90002 128.728 -0.00141154
1071 90002 126.921 0.0143478
1072 90002 126.921 0.0200849
1073 90002 132.343 0.00323237
1074 90002 132.343 -0.00138329
1075 90002 130.536 -0.000212524
1076 90002 130.536 0.000536898
1077 90002 128.728 -0.00331621
1078 90002 128.728 -5.94668e-06
1079 90002 126.921 0.0106259
1080 90002 126.921 0.0147443
1081 90002 132.343 -0.00066711
1082 90002 132.343 -0.00102863
1083 90002 130.536 0.000690762
1084 90002 130.536 -0.00350534
1085 90002 128.728 0.00136619
1086 90002 128.728 0.000146347
1087 90002 126.921 -0.010113
1088 90002 126.921 0.0156396
1089 90002 132.343 -0.00150377
1090 90002 132.343 0.000670092
1091 90002 130.536 0.00258338
1092 90002 130.536 0.000287609
1093 90002 128.728 -0.00072851
1094 90002 128.728 -0.00283246
1095 90002 126.921 -0.055638
1096 90002 126.921 -0.0284187
1097 90002 132.343 -0.00191992
1098 90002 132.343 0.00414141
1099 90002 130.536 -0.000268915
1100 90002 130.536 0.000813927
1101 90002 128.728 0.0024381
1102 90002 128.728 -0.00371531
1103 90002 126.921 -0.0126083
1104 90002 126.921 -0.0459854
1105 90002 132.343 0.00380028
1106 90002 132.343 0.00268904
1107 90002 130.536 0.000393644
1108 90002 130.536 0.000199239
1109 90002 128.728 -0.00645409
1110 90002 128.728 -0.00347863
1111 90002 126.921 -0.0252434
1112 90002 126.921 -0.0192458
1113 90002 132.343 0.00152786
1114 90002 132.343 -0.00216028
1115 90002 130.536 -0.00346533
1116 90002 130.536 -0.0009721
1117 90002 128.728 -0.000435466
1118 90002 128.728 0.00115946
1119 90002 126.921 -0.00266847
1120 90002 126.921 0.0014803
1121 90002 132.343 -0.000476757
1122 90002 132.343 0.000607302
1123 90002 130.536 0.000364606
1124 90002 130.536 0.00279021
1125 90002 128.728 0.000365405
1126 90002 128.728 0.00168854
1127 90002 126.921 0.00408306
1128 90002 126.921 -0.0165961
1129 90002 132.343 0.00378571
1130 90002 132.343 0.00364242
1131 90002 130.536 -0.00372164
1132 90002 130.536 -0.00194988
1133 90002 128.728 -0.00474518
1134 90002 128.728 -0.00246769
1135 90002 126.921 0.0324441
1136 90002 126.921 0.00527893
1137 90002 132.343 0.00253052
1138 90002 132.343 0.000155668
1139 90002 130.536 -0.000310822
1140 90002 130.536 -0.000931014
1141 90002 128.728 0.000230988
1142 90002 128.728 0.00169171
1143 90002 126.921 0.0283471
1144 90002 126.921 0.0419371
1145 90002 132.343 -0.00183978
1146 90002 132.343 -0.00248649
1147 90002 130.536 0.00293395
1148 90002 130.536 0.00270728
1149 90002 128.728 0.000257588
1150 90002 128.728 0.00130666
1151 90002 126.921 0.0128865
1152 90002 126.921 0.021558
1153 90002 132.343 -0.00229894
1154 90002 132.343 -0.00235845
1155 90002 130.536 -0.00155852
1156 90002 130.536 0.00216465
1157 90002 128.728 0.00139288
1158 90002 128.728 -0.000637668
1159 90002 126.921 0.00876971
1160 90002 126.921 0.0244778
1161 90002 132.343 -0.00157484
1162 90002 132.343 0.00472935
1163 90002 130.536 -0.00280959
1164 90002 130.536 -0.000770824
1165 90002 128.728 -0.00444874
1166 90002 128.728 0.00311396
1167 90002 126.921 0.00486333
1168 90002 126.921 -0.00051001
1169 90002 132.343 0.00326334
1170 90002 132.343 0.00512645
1171 90002 130.536 -0.00178654
1172 90002 130.536 -0.00136149
1173 90002 128.728 -0.00206301
1174 90002 128.728 -0.00461178
1175 90002 126.921 -0.00497609
1176 90002 126.921 0.0364787
1177 90002 132.343 0.00177694
1178 90002 132.343 0.00230503
1179 90002 130.536 -0.00276199
1180 90002 130.536 -0.00509637
1181 90002 128.728 -0.0036559
1182 90002 128.728 -0.00246925
1183 90002 126.921 -0.00759682
1184 90002 126.921 0.00141759
1185 90002 132.343 0.00359097
1186 90002 132.343 0.000356999
1187 90002 130.536 0.00115127
1188 90002 130.536 -0.00314233
1189 90002 128.728 -0.00189115
1190 90002 128.728 0.000381896
1191 90002 126.921 0.00195099
1192 90002 126.921 0.022106
1193 90002 132.343 0.000960424
1194 90002 132.343 -0.00157619
1195 90002 130.536 0.000899368
1196 90002 130.536 0.00373103
1197 90002 128.728 -0.0011025
1198 90002 128.728 0.000936089
1199 90002 126.921 0.00070533
1200 90002 126.921 -0.00280563
1201 90002 132.343 -0.00264023
1202 90002 132.343 -0.00297125
1203 90002 130.536 4.44945e-06
1204 90002 130.536 0.00158336
1205 90002 128.728 0.0010942
1206 90002 128.728 -0.000491924
1207 90002 126.921 -0.0121317
1208 90002 126.921 -0.0268535
1209 90002 132.343 0.00107132
1210 90002 132.343 0.00250099
1211 90002 130.536 0.000351622
1212 90002 130.536 -0.00141043
1213 90002 128.728 0.000616988
1214 90002 128.728 0.00106467
1215 90002 126.921 0.0220637
1216 90002 126.921 0.0479414
1217 90002 132.343 0.0033001
1218 90002 132.343 -0.0016746
1219 90002 130.536 0.00273436
1220 90002 130.536 0.0017825
1221 90002 128.728 0.000272252
1222 90002 128.728 0.000860429
1223 90002 126.921 0.0312108
1224 90002 126.921 0.0152572
1225 90002 132.343 -0.0021744
1226 90002 132.343 -0.00247106
1227 90002 130.536 0.00217093
1228 90002 130.536 0.00122618
1229 90002 128.728 0.000236719
1230 90002 128.728 -0.000326121
1231 90002 126.921 0.0262241
1232 90002 126.921 0.019639
1233 90002 132.343 -0.00318188
1234 90002 132.343 -0.0026985
1235 90002 130.536 0.000640015
1236 90002 130.536 0.00224617
1237 90002 128.728 0.00149987
1238 90002 128.728 0.00170481
1239 90002 126.921 0.0236341
1240 90002 126.921 0.01012
1241 90002 132.343 0.00192323
1242 90002 132.343 -0.00045063
1243 90002 130.536 0.00100856
1244 90002 130.536 0.000609434
1245 90002 128.728 0.00179508
1246 90002 128.728 0.000271267
1247 90002 126.921 0.0407396
1248 90002 126.921 0.0172406
1249 90002 132.343 0.00439493
1250 90002 132.343 0.00314289
1251 90002 130.536 -0.00421153
1252 90002 130.536 -0.00198683
1253 90002 128.728 -0.00231755
1254 90002 128.728 -0.00557709
1255 90002 126.921 -0.00283432
1256 90002 126.921 0.0113922
1257 90002 132.343 0.00527932
1258 90002 132.343 0.00596261
1259 90002 130.536 -0.00405608
1260 90002 130.536 -0.00280653
1261 90002 128.728 -0.00724799
1262 90002 128.728 2.50863e-05
1263 90002 126.921 0.000268339
1264 90002 126.921 -0.0231441
1265 90002 132.343 -0.000592641
1266 90002 132.343 -0.00320402
1267 90002 130.536 0.000284716
1268 90002 130.536 -0.000914327
1269 90002 128.728 0.00185744
1270 90002 128.728 0.00257484
1271 90002 126.921 0.00966137
1272 90002 126.921 0.0084853
1273 90002 132.343 -0.0035914
1274 90002 132.343 -0.00366826
1275 90002 130.536 0.00473177
1276 90002 130.536 0.00231074
1277 90002 128.728 0.00216836
1278 90002 128.728 0.00347608
1279 90002 126.921 -0.0272546
1280 90002 126.921 -0.0135503
1281 90002 132.343 -0.000539443
1282 90002 132.343 0.00266657
1283 90002 130.536 -0.000644726
1284 90002 130.536 0.00309095
1285 90002 128.728 -0.00240382
1286 90002 128.728 -0.000461511
1287 90002 126.921 -0.00239598
1288 90002 126.921 -0.033405
1289 90002 132.343 -4.44509e-05
1290 90002 132.343 0.00291027
1291 90002 130.536 0.000440771
1292 90002 130.536 -8.49332e-06
1293 90002 128.728 0.0031234
1294 90002 128.728 -0.00185153
1295 90002 126.921 0.000145128
1296 90002 126.921 0.00521384
1297 90002 132.343 -0.000218229
1298 90002 132.343 -0.000987706
1299 90002 130.536 -0.00110238
1300 90002 130.536 -0.00107827
1301 90002 128.728 -0.000292368
1302 90002 128.728 -0.000691889
1303 90002 126.921 0.00905331
1304 90002 126.921 -0.00596008
1305 90002 132.343 -0.00240902
1306 90002 132.343 -0.00136127
1307 90002 130.536 0.00159132
1308 90002 130.536 -0.000897209
1309 90002 128.728 0.0016056
1310 90002 128.728 0.00449497
1311 90002 126.921 0.0194848
1312 90002 126.921 0.0305137
1313 90002 132.343 -0.000743544
1314 90002 132.343 -0.00270823
1315 90002 130.536 0.00181421
1316 90002 130.536 0.00230586
1317 90002 128.728 0.00164125
1318 90002 128.728 0.00328391
1319 90002 126.921 0.019568
1320 90002 126.921 0.020864
1321 90002 132.343 -0.00205773
1322 90002 132.343 0.00534045
1323 90002 130.536 0.00125794
1324 90002 130.536 0.00328345
1325 90002 128.728 0.00283729
1326 90002 128.728 -0.00412264
1327 90002 126.921 0.0162544
1328 90002 126.921 -0.00641336
1329 90002 132.343 0.00376344
1330 90002 132.343 0.00563013
1331 90002 130.536 -0.0018089
1332 90002 130.536 -0.00101783
1333 90002 128.728 -0.00164254
1334 90002 128.728 -0.00352382
1335 90002 126.921 0.0110298
1336 90002 126.921 -0.00349203
1337 90002 132.343 0.00650664
1338 90002 132.343 0.00369532
1339 90002 130.536 0.00152341
1340 90002 130.536 -0.00163993
1341 90002 128.728 -0.00325913
1342 90002 128.728 -0.00313509
1343 90002 126.921 0.000582708
1344 90002 126.921 0.0156866
1345 90002 132.343 0.00241168
1346 90002 132.343 -0.00328611
1347 90002 130.536 0.00252243
1348 90002 130.536 0.00279701
1349 90002 128.728 0.00168442
1350 90002 128.728 0.00196476
1351 90002 126.921 -0.0129352
1352 90002 126.921 -0.0112866
1353 90002 132.343 -0.00180239
1354 90002 132.343 0.00048541
1355 90002 130.536 0.00259194
1356 90002 130.536 0.00423385
1357 90002 128.728 0.00134098
1358 90002 128.728 -0.00174668
1359 90002 126.921 -0.0431793
1360 90002 126.921 -0.0146678
1361 90002 132.343 0.00201577
1362 90002 132.343 0.00268537
1363 90002 130.536 0.000394588
1364 90002 130.536 -0.000638962
1365 90002 128.728 -1.62452e-05
1366 90002 128.728 -0.00164505
1367 90002 126.921 0.00405857
1368 90002 126.921 0.0198031
1369 90002 132.343 0.00517657
1370 90002 132.343 0.00676024
1371 90002 130.536 -0.000140836
1372 90002 130.536 -0.00175261
1373 90002 128.728 -0.00177033
1374 90002 128.728 0.000479942
1375 90002 126.921 0.00766811
1376 90002 126.921 0.0151995
1377 90002 132.343 0.00334864
1378 90002 132.343 0.00407554
1379 90002 130.536 -0.00199503
1380 90002 130.536 -0.0042221
1381 90002 128.728 -0.000928409
1382 90002 128.728 -5.08879e-05
1383 90002 126.921 0.0107255
1384 90002 126.921 0.0267391
1385 90002 132.343 -0.000966721
1386 90002 132.343 -0.000493061
1387 90002 130.536 0.00330275
1388 90002 130.536 0.00151764
1389 90002 128.728 0.0015099
1390 90002 128.728 0.001317
1391 90002 126.921 0.0153196
1392 90002 126.921 0.0102729
1393 90002 132.343 -0.00398229
1394 90002 132.343 -0.00359944
1395 90002 130.536 0.00374106
1396 90002 130.536 0.00356501
1397 90002 128.728 0.00196626
1398 90002 128.728 0.00708337
1399 90002 126.921 -0.015331
1400 90002 126.921 0.0229477
1401 90002 132.343 9.32387e-05
1402 90002 132.343 0.00353421
1403 90002 130.536 -0.000701711
1404 90002 130.536 0.000769371
1405 90002 128.728 0.000254056
1406 90002 128.728 -0.0049901
1407 90002 126.921 -0.0371939
1408 90002 126.921 -0.0279403
1409 90002 132.343 0.00569163
1410 90002 132.343 0.00343739
1411 90002 130.536 -0.00498552
1412 90002 130.536 -0.00365958
1413 90002 128.728 -0.00581836
1414 90002 128.728 -0.00210253
1415 90002 126.921 -0.00332502
1416 90002 126.921 -0.0361025
1417 90002 132.343 0.00122451
1418 90002 132.343 -0.00195898
1419 90002 130.536 -0.000644006
1420 90002 130.536 -0.00225157
1421 90002 128.728 -0.000123836
1422 90002 128.728 0.000130345
1423 90002 126.921 0.021234
1424 90002 126.921 0.0312581
1425 90002 132.343 -0.00466579
1426 90002 132.343 -0.00586033
1427 90002 130.536 0.00294865
1428 90002 130.536 0.00304563
1429 90002 128.728 0.00162526
1430 90002 128.728 0.00518427
1431 90002 126.921 -0.0159747
1432 90002 126.921 -0.000697974
1433 90002 132.343 -0.00411134
1434 90002 132.343 -0.00251955
1435 90002 130.536 0.00386393
1436 90002 130.536 0.00165999
1437 90002 128.728 0.0027233
1438 90002 128.728 0.00209535
1439 90002 126.921 0.000537149
1440 90002 126.921 -0.00232863
1441 90002 132.343 0.00072236
1442 90002 132.343 0.00386681
1443 90002 130.536 -0.00322415
1444 90002 130.536 -0.000175703
1445 90002 128.728 0.00146725
1446 90002 128.728 -0.00283183
1447 90002 126.921 0.00868546
1448 90002 126.921 0.0135013
1449 90002 132.343 0.00476099
1450 90002 132.343 0.00660301
1451 90002 130.536 -0.00511664
1452 90002 130.536 -0.00530327
1453 90002 128.728 -0.00540047
1454 90002 128.728 -0.00449299
1455 90002 126.921 0.0267861
1456 90002 126.921 0.0116719
1457 90002 132.343 0.00614384
1458 90002 132.343 0.00266613
1459 90002 130.536 -0.00156968
1460 90002 130.536 -0.0029423
1461 90002 128.728 -0.00431694
1462 90002 128.728 -0.00325296
1463 90002 126.921 0.0152162
1464 90002 126.921 0.0113513
1465 90002 132.343 0.00164621
1466 90002 132.343 -0.00440281
1467 90002 130.536 0.00409402
1468 90002 130.536 0.00286197
1469 90002 128.728 -0.00148089
1470 90002 128.728 0.004045
1471 90002 126.921 0.00134882
1472 90002 126.921 0.0101665
1473 90002 132.343 -0.00323953
1474 90002 132.343 -0.00272711
1475 90002 130.536 0.00119804
1476 90002 130.536 0.00291479
1477 90002 128.728 0.00671623
1478 90002 128.728 0.00223696
1479 90002 126.921 0.0300741
1480 90002 126.921 -0.00351329
1481 90002 132.343 -0.00121869
1482 90002 132.343 0.00293814
1483 90002 130.536 -0.00405423
1484 90002 130.536 -0.00302119
1485 90002 128.728 -0.00069937
1486 90002 128.728 -0.000757762
1487 90002 126.921 0.00502208
1488 90002 126.921 0.00384832
1489 90002 132.343 0.00595185
1490 90002 132.343 0.00277388
1491 90002 130.536 -0.00265363
1492 90002 130.536 -0.00455219
1493 90002 128.728 -0.00291452
1494 90002 128.728 -0.00569576
1495 90002 126.921 -0.0210067
1496 90002 126.921 -0.0114801
1497 90002 132.343 -6.01701e-05
1498 90002 132.343 0.0016208
1499 90002 130.536 0.000909271
1500 90002 130.536 -0.000793872
1501 90002 128.728 -0.00219411
1502 90002 128.728 -0.00158263
1503 90002 126.921 -0.0143969
1504 90002 126.921 -0.0365918
1505 90002 132.343 -0.00123814
1506 90002 132.343 -0.000333464
1507 90002 130.536 0.00349821
1508 90002 130.536 0.00252867
1509 90002 128.728 0.00179828
1510 90002 128.728 3.33912e-06
1511 90002 126.921 0.0138911
1512 90002 126.921 -0.00237313
1513 90002 132.343 -0.00340507
1514 90002 132.343 -0.00169902
1515 90002 130.536 -0.000290597
1516 90002 130.536 0.00224774
1517 90002 128.728 0.00446269
1518 90002 128.728 0.00183804
1519 90002 126.921 0.0132968
1520 90002 126.921 0.00308263
1521 90002 132.343 0.00420905
1522 90002 132.343 0.0046224
1523 90002 130.536 -0.00242188
1524 90002 130.536 -0.000683152
1525 90002 128.728 -0.00216566
1526 90002 128.728 -0.00354672
1527 90002 126.921 0.0091876
1528 90002 126.921 0.00847541
1529 90002 132.343 0.00493163
1530 90002 132.343 0.00472461
1531 90002 130.536 -0.00357882
1532 90002 130.536 -0.00330574
1533 90002 128.728 -0.00357364
1534 90002 128.728 -0.00369507
1535 90002 126.921 0.0213226
1536 90002 126.921 -0.00729226
1537 90002 132.343 0.00659758
1538 90002 132.343 0.0011667
1539 90002 130.536 0.00178552
1540 90002 130.536 0.00241254
1541 90002 128.728 -0.000889168
1542 90002 128.728 -0.00263619
1543 90002 126.921 -0.00686079
1544 90002 126.921 -0.0169517
1545 90002 132.343 -0.00287797
1546 90002 132.343 -0.00376996
1547 90002 130.536 0.000966865
1548 90002 130.536 -0.00125453
1549 90002 128.728 0.000667507
1550 90002 128.728 0.00149623
1551 90002 126.921 0.020253
1552 90002 126.921 -0.0132839
1553 90002 132.343 -0.000862617
1554 90002 132.343 0.00503579
1555 90002 130.536 -0.00059865
1556 90002 130.536 0.00073841
1557 90002 128.728 0.0019732
1558 90002 128.728 -0.00106943
1559 90002 126.921 -0.00416257
1560 90002 126.921 0.00245717
1561 90002 132.343 0.00273686
1562 90002 132.343 0.00117827
1563 90002 130.536 -0.000802615
1564 90002 130.536 -0.000777067
1565 90002 128.728 -0.000346744
1566 90002 128.728 -0.00123898
1567 90002 126.921 0.00815024
1568 90002 126.921 -0.0101297
1569 90002 132.343 0.00199271
1570 90002 132.343 -0.000720027
1571 90002 130.536 0.00149023
1572 90002 130.536 0.001867
1573 90002 128.728 -0.00143067
1574 90002 128.728 -0.00140674
1575 90002 126.921 -0.0270829
1576 90002 126.921 0.0370569
1577 90002 132.343 0.00267583
1578 90002 132.343 0.00404845
1579 90002 130.536 0.0026488
1580 90002 130.536 0.00278407
1581 90002 128.728 -0.00556231
1582 90002 128.728 -0.00227998
1583 90002 126.921 -0.0499796
1584 90002 126.921 -0.0487676
1585 90002 132.343 0.00196561
1586 90002 132.343 -0.00154166
1587 90002 130.536 -0.00139081
1588 90002 130.536 -0.00187783
1589 90002 128.728 -0.00183009
1590 90002 128.728 0.00175682
1591 90002 126.921 0.00243721
1592 90002 126.921 -0.00869684
1593 90002 132.343 0.000400869
1594 90002 132.343 0.00420749
1595 90002 130.536 0.000824529
1596 90002 130.536 -0.00307449
1597 90002 128.728 0.000949536
1598 90002 128.728 -0.000844959
1599 90002 126.921 0.00560764
1600 90002 126.921 0.00852517
