LAMMPS (4 Jul 2026 - Development - patch_4Jul2026-542-g4e5eb25ab6-modified)
  using 1 OpenMP thread(s) per MPI task
# TIP4P-FQ liquid, FAITHFUL-RICK structure: lr_ewald=1 (INTRA-Slater + BARE-inter, his exact
# electrostatics per mdtpn.f) — the mu-gap root cause was lr_ewald=2's all-pair shielding.
# PREDICTION: mu -> ~2.63 (Rick 2.637). Stability rides XL (Rick's own stability = EL adiabaticity).
# Base: TRUE SLATER-OVERLAP kernel deck (`shield slater`): Rick's raw zetas,
# NO refit. Target: close the gauss-kernel port's -4% mu (2.53 vs Rick 2.637) — the deviation was
# the intermolecular J at intermediate r, exactly what the exact kernel fixes.
# Derived from in.tip4pfq_xl (KERNEL-REFIT gauss port); 256-molecule box built from Rick's own equilibrated
# mdtpn.dat config (build_box.py), vol=7660.31 A^3, rho=1.0 g/cc, fixed (NVT).
# Kernel: gaussian/pqeq erf(a_ij r)/r, fit EXACTLY to Rick's jrab() J_HH(1.5139)
# and J_OH(r_MH=0.8735) (see fit_j.py) -- the physically-operative rigid-body
# distances. Single `run` command (multi-run is a known samQEq calibration
# artifact); tail-window ave/time blocks report thermalized averages.
units           metal
atom_style      full
boundary        p p p
read_data       tip4pfq_liquid.data
Reading data file ...
  orthogonal box = (0 0 0) to (19.712825 19.712825 19.712825)
  2 by 2 by 4 MPI processor grid
  reading atoms ...
  1024 atoms
  scanning bonds ...
  2 = max bonds/atom
  scanning angles ...
  1 = max angles/atom
  orthogonal box = (0 0 0) to (19.712825 19.712825 19.712825)
  2 by 2 by 4 MPI processor grid
  reading bonds ...
  512 bonds
  reading angles ...
  256 angles
Finding 1-2 1-3 1-4 neighbors ...
  special bond factors lj:    0        0        0       
  special bond factors coul:  0        0        0       
     2 = max # of 1-2 neighbors
     1 = max # of 1-3 neighbors
     1 = max # of 1-4 neighbors
     2 = max # of special neighbors
  special bonds CPU = 0.002 seconds
  read_data CPU = 0.013 seconds

group           watO  type 1
256 atoms in group watO
group           watH  type 2
512 atoms in group watH
group           watM  type 3
256 atoms in group watM
group           fq    type 2 3
768 atoms in group fq

# LJ on O-O only (Table I): eps=0.2862 kcal/mol=0.012412 eV, sigma=3.159 A
pair_style      hybrid/overlay lj/cut 10.0 coul/long 10.0 coul/shield/intra 5.0 slater 2s 1 3
pair_coeff      1 1 lj/cut 0.012412 3.159
pair_coeff      1 2 lj/cut 0.0 1.0
pair_coeff      1 3 lj/cut 0.0 1.0
pair_coeff      2 2 lj/cut 0.0 1.0
pair_coeff      2 3 lj/cut 0.0 1.0
pair_coeff      3 3 lj/cut 0.0 1.0
pair_coeff      * * coul/long
pair_coeff      1 1 coul/shield/intra 3.0803    # zeta_O (2s), 1/Angstrom
pair_coeff      2 2 coul/shield/intra 1.7007    # zeta_H (1s)
pair_coeff      3 3 coul/shield/intra 3.0803    # zeta_M (borrows O's 2s form factor)
pair_coeff      1 2 coul/shield/intra 2.288813
pair_coeff      1 3 coul/shield/intra 3.080300
pair_coeff      2 3 coul/shield/intra 2.288813
# ^ FIX: hybrid/overlay contributes ZERO for unset sub-style cross pairs (no auto init_one
#   mixing, no warning) — the unset M-H pair hid a +3.2 eV/mol pe error (U_bind -82 naive / -13.6
#   'corrected' -> -9.90 = Rick EXACT once fixed). Cross values: sqrt-mixed (used by cbrt mode;
#   pqeq/slater kernels read type diagonals only). See ubind/DIAGNOSIS_UBIND.md.

special_bonds   lj/coul 1.0e-8 1.0e-8 1.0
Finding 1-2 1-3 1-4 neighbors ...
  special bond factors lj:    1e-08    1e-08    1       
  special bond factors coul:  1e-08    1e-08    1       
     2 = max # of 1-2 neighbors
     1 = max # of 1-3 neighbors
     2 = max # of special neighbors
  special bonds CPU = 0.001 seconds
kspace_style    pppm/samqeq 1.0e-5

neighbor        2.0 bin
neigh_modify    every 1 delay 0 check yes

fix             chg fq qeq/sam 1 0.0 10.0 1.0e-5 water4_liquid_slater_lr1.param
fix_modify      chg shield slater 2s 1 3
samqeq: lr-solve shielding = Slater J(r) (Rick JCP101,6141) (param 4th col = zeta (Slater exponent, 1/Angstrom)); routed through compute_H + add_fixed_charge_field + the legacy gas path (calc_Hval)
fix_modify      chg energy yes
fix_modify      chg xl 2.6e-6 1.0
samqeq: extended-Lagrangian charge dynamics ON (q_mass=2.6e-06 eV ps^2/e^2, q_tdamp=1 ps); pure friction (T_q=0); charges propagate by velocity-Verlet (no per-step solve)
# ROOT CAUSE (found via a dt-scan diagnostic, in.diag_dt.tmp/in.diag_dt2.tmp, logs
# log.diag_dt/log.diag_dt2): dt=0.5 fs (the task's suggested value) is NOT a stable
# integration step for this system -- the intramolecular M-H charge oscillator is very
# stiff (r_MH=0.87 A, eta_M/H~16/15 eV) and the rigid-body torque response amplifies any
# discretization error into a genuine near-critical SCF catastrophe within a few hundred
# steps (confirmed: NEITHER an offset-quartic wall NOR the rnd charge-freeze safeguard
# cured it at dt=0.5fs -- both only delayed/relocated the same blow-up, proof this is an
# INTEGRATION-timestep problem, not a kernel-fit or Hessian-singularity problem). At
# dt=0.1 and dt=0.2 fs the SAME deck (no stabilizers needed at all) is fully stable over
# the tested window with mu/qM/qH/T all physically sane and drifting toward the targets.
# Using dt=0.2 fs (4x smaller than the task's suggested 0.5 fs) here.

compute         qMpa watM property/atom q
compute         qMc  watM reduce ave c_qMpa
compute         qHpa watH property/atom q
compute         qHc  watH reduce ave c_qHpa
compute         dip all dipole/samqeq
variable        mu   equal c_dip
variable        qM   equal c_qMc
variable        qH   equal c_qHc
variable        pemol equal pe/256.0
variable        T equal temp
variable        P equal press

timestep        0.00025
velocity        all create 298.0 777 mom yes rot yes dist gaussian
fix             rig all rigid/nvt/small molecule temp 298.0 298.0 0.02
Fix rigid/nvt/small setup ...
  create bodies CPU = 0.000 seconds
  256 rigid bodies with 1024 atoms
  0.87348128 = max distance from body owner to body atom
thermo_style    custom step temp v_mu
thermo          400
run             80000

CITE-CITE-CITE-CITE-CITE-CITE-CITE-CITE-CITE-CITE-CITE-CITE-CITE

Your simulation uses code contributions which should be cited:

- fix acks2/reaxff command: https://doi.org/10.1137/18M1224684

@Article{O'Hearn2020,
 author = {K. A. {O'Hearn} and A. Alperen and H. M. Aktulga},
 title = {Fast Solvers for Charge Distribution Models on Shared Memory Platforms},
 journal = {SIAM J.\ Sci.\ Comput.},
 year =    2020,
 volume =  42,
 number =  1,
 pages =   {1--22}
}

CITE-CITE-CITE-CITE-CITE-CITE-CITE-CITE-CITE-CITE-CITE-CITE-CITE

PPPM initialization ...
  using 12-bit tables for long-range coulomb
  G vector (1/distance) = 0.31499941
  grid = 20 20 20
  stencil order = 5
  estimated absolute RMS force accuracy = 0.0001309434
  estimated relative force accuracy = 9.0935157e-06
  using double precision FFTW3
  3d grid and FFT values/proc = 3468 500
samqeq: pair coul/shield/intra Slater-overlap J(r) tables built (6 unique type pairs, 2000 pts each, r in [0.02,5])
Generated 0 of 3 mixed pair_coeff terms from geometric mixing rule
WARNING: Bonds are defined but no bond style is set (src/force.cpp:198)
WARNING: Likewise 1-2 special neighbor interactions != 1.0 (src/force.cpp:200)
WARNING: Angles are defined but no angle style is set (src/force.cpp:203)
WARNING: Likewise 1-3 special neighbor interactions != 1.0 (src/force.cpp:205)
samqeq: E_self = sum(chi q + 1/2 eta qs^2) INCLUDED in pe/etotal (fix_modify chg energy yes; eselfref qs = q - q0 - redox_dp) -- pe + E_self is the energy the forces integrate
samqeq: Slater-overlap J(r) tables built (6 unique type pairs, 2000 pts each, r in [0.02,10])
Neighbor list info ...
  update: every = 1 steps, delay = 0 steps, check = yes
  max neighbors/atom: 2000, page size: 100000
  master list distance cutoff = 12
  ghost atom cutoff = 12
  binsize = 6, bins = 4 4 4
  5 neighbor lists, perpetual/occasional/extra = 5 0 0
  (1) pair lj/cut, perpetual, copy from (2)
      attributes: half, newton on, cut 12
      pair build: copy
      stencil: none
      bin: none
  (2) pair coul/long, perpetual, half/full from (5)
      attributes: half, newton on, cut 12
      pair build: halffull/newton
      stencil: none
      bin: none
  (3) pair coul/shield/intra, perpetual, copy from (1)
      attributes: half, newton on
      pair build: copy
      stencil: none
      bin: none
  (4) fix qeq/sam, perpetual, half/full from (5)
      attributes: half, newton off
      pair build: halffull/newtoff
      stencil: none
      bin: none
  (5) fix qeq/sam, perpetual
      attributes: full, newton on
      pair build: full/bin
      stencil: full/bin/3d
      bin: standard
Per MPI rank memory allocation (min/avg/max) = 20.69 | 20.97 | 21.15 Mbytes
   Step          Temp           v_mu     
WARNING: compute dipole/samqeq: molecule 22 has net charge -0.000001; its dipole is origin-dependent (src/SAMQEQ/compute_dipole_samqeq.cpp:165)
         0   295.1413       2.652567     
samqeq: calibrated grid reciprocal self-term recip_self=0.35523 +/- 0.00000 (raw, K=16 deterministic probes) = 5.1152 eV/e (subtracted so the QEq diagonal stays = eta)
       400   302.10555      2.6275975    
       800   299.50799      2.6392298    
      1200   306.2276       2.6299252    
      1600   294.87134      2.6359835    
      2000   295.76837      2.6686196    
      2400   308.966        2.6812629    
      2800   287.49614      2.6505054    
      3200   314.96196      2.6409799    
      3600   297.51026      2.6224944    
      4000   287.48171      2.6369511    
      4400   306.27011      2.6305404    
      4800   297.7168       2.6251872    
      5200   310.44676      2.6190582    
      5600   301.45584      2.6169385    
      6000   298.88613      2.6307801    
      6400   304.12361      2.6477773    
      6800   297.86756      2.6480941    
      7200   298.03133      2.6432761    
      7600   313.70913      2.6202012    
      8000   292.6013       2.6055668    
      8400   315.65014      2.6212309    
      8800   306.05082      2.6057738    
      9200   309.86199      2.6203246    
      9600   299.94501      2.6208165    
     10000   300.18485      2.6023577    
     10400   289.05242      2.6374488    
     10800   276.30763      2.632836     
     11200   296.51805      2.647756     
     11600   291.86535      2.642788     
     12000   304.65084      2.6269566    
     12400   303.73112      2.6045024    
     12800   295.08654      2.6129322    
     13200   291.33574      2.6255901    
     13600   292.09163      2.6127471    
     14000   298.84558      2.6217699    
     14400   307.27033      2.6452796    
     14800   318.98544      2.6237523    
     15200   315.15815      2.6317557    
     15600   285.19767      2.6204547    
     16000   298.77052      2.6358974    
     16400   287.73698      2.6345749    
     16800   291.34537      2.6114889    
     17200   300.95123      2.6133189    
     17600   291.53045      2.6112877    
     18000   300.71753      2.6101638    
     18400   303.08646      2.6224377    
     18800   293.68584      2.6413876    
     19200   283.99414      2.659204     
     19600   300.63767      2.6512352    
     20000   302.13828      2.6530633    
     20400   299.32638      2.629767     
     20800   302.56924      2.6459963    
     21200   283.21376      2.6388772    
     21600   290.30274      2.6517715    
     22000   307.77974      2.6429036    
     22400   297.99008      2.6346214    
     22800   293.03492      2.6405348    
     23200   288.26822      2.6333293    
     23600   294.42572      2.643429     
     24000   302.17839      2.6394264    
     24400   319.97634      2.6338117    
     24800   309.1439       2.6211261    
     25200   302.18906      2.629009     
     25600   294.9156       2.6184075    
     26000   304.0242       2.6156396    
     26400   292.15895      2.6362102    
     26800   304.94566      2.6341944    
     27200   306.14107      2.6354025    
     27600   290.55682      2.6414283    
     28000   310.22649      2.6428415    
     28400   281.03905      2.6196004    
     28800   293.44832      2.6588021    
     29200   295.75445      2.6389464    
     29600   277.6838       2.6376764    
     30000   286.06524      2.6477696    
     30400   298.12856      2.6390761    
     30800   310.46546      2.6225795    
     31200   297.62851      2.6208549    
     31600   288.59004      2.6143975    
     32000   290.11044      2.6324897    
     32400   307.84138      2.6159516    
     32800   310.34367      2.6235477    
     33200   292.40132      2.6139122    
     33600   298.06447      2.6234605    
     34000   301.6044       2.6273855    
     34400   290.76321      2.6148516    
     34800   298.69828      2.6265647    
     35200   313.3662       2.6388396    
     35600   297.54129      2.6393312    
     36000   312.8563       2.6662392    
     36400   297.08412      2.6468981    
     36800   292.4816       2.6335607    
     37200   294.89953      2.6250226    
     37600   293.54266      2.6338125    
     38000   307.93326      2.6392393    
     38400   311.4593       2.6519273    
     38800   287.4749       2.6563064    
     39200   302.69349      2.6500042    
     39600   302.28723      2.6301863    
     40000   306.96548      2.6258849    
     40400   296.16849      2.6338229    
     40800   287.35967      2.6655966    
     41200   279.65706      2.6536561    
     41600   304.93914      2.6254165    
     42000   296.30143      2.6297301    
     42400   298.98191      2.6373668    
     42800   303.66838      2.6289888    
     43200   291.95516      2.626653     
     43600   300.70304      2.6391531    
     44000   278.50055      2.626514     
     44400   307.37538      2.6353775    
     44800   287.5229       2.6385637    
     45200   319.09337      2.6454076    
     45600   302.06514      2.6358707    
     46000   307.12085      2.6470946    
     46400   310.76669      2.623566     
     46800   319.63838      2.6199723    
     47200   302.91074      2.6156451    
     47600   287.47052      2.6297015    
     48000   320.17199      2.6454567    
     48400   307.26183      2.6327397    
     48800   292.76578      2.6184057    
     49200   289.41289      2.6328996    
     49600   287.72857      2.6317114    
     50000   291.63054      2.6208943    
     50400   301.04495      2.6234145    
     50800   282.97185      2.6188352    
     51200   306.79101      2.6218561    
     51600   301.39563      2.6200349    
     52000   274.00392      2.6082551    
     52400   301.62147      2.6058899    
     52800   299.28475      2.6166732    
     53200   290.9027       2.6202335    
     53600   294.33003      2.5849275    
     54000   294.28137      2.5960262    
     54400   301.75409      2.608341     
     54800   292.78837      2.6098547    
     55200   319.94902      2.6225858    
     55600   294.49347      2.6005071    
     56000   306.23857      2.6045006    
     56400   303.85134      2.6161101    
     56800   294.10211      2.5986154    
     57200   302.35444      2.5880011    
     57600   301.48039      2.6020311    
     58000   299.34539      2.5939345    
     58400   315.761        2.6008388    
     58800   286.90847      2.6200628    
     59200   301.19511      2.6170001    
     59600   285.25154      2.6089159    
     60000   297.20782      2.6327797    
     60400   270.35437      2.6483681    
     60800   305.80698      2.6306138    
     61200   285.0074       2.6356017    
     61600   291.18893      2.6354227    
     62000   297.74141      2.6186781    
     62400   300.35694      2.6153059    
     62800   291.90498      2.6298026    
     63200   302.9447       2.6305523    
     63600   293.05466      2.6119124    
     64000   294.45199      2.6193046    
     64400   292.17151      2.6439666    
     64800   269.13807      2.6185846    
     65200   300.79379      2.6263603    
     65600   291.06397      2.6325173    
     66000   307.1066       2.6366427    
     66400   285.74566      2.6309317    
     66800   290.49996      2.6166979    
     67200   301.52611      2.6019585    
     67600   315.70748      2.6476508    
     68000   309.54132      2.6181002    
     68400   306.10531      2.6150214    
     68800   293.19237      2.5996897    
     69200   303.53487      2.6242167    
     69600   304.08778      2.6342512    
     70000   300.82006      2.6345383    
     70400   294.63921      2.6159372    
     70800   292.67026      2.6028119    
     71200   298.3034       2.6315217    
     71600   291.32744      2.6303631    
     72000   292.10825      2.6228867    
     72400   290.40474      2.6248494    
     72800   284.72579      2.6069057    
     73200   317.21807      2.6018409    
     73600   305.18277      2.5978853    
     74000   293.874        2.5896085    
     74400   310.80622      2.5841222    
     74800   286.59776      2.6158912    
     75200   303.28353      2.6165669    
     75600   278.49114      2.6062517    
     76000   299.3629       2.609511     
     76400   290.88316      2.6112016    
     76800   333.3417       2.6091556    
     77200   289.90547      2.612302     
     77600   287.53181      2.6056633    
     78000   290.77598      2.5872621    
     78400   293.94787      2.6031116    
     78800   280.99083      2.5934416    
     79200   286.46888      2.6082227    
     79600   307.63308      2.6081156    
     80000   311.78267      2.6292088    
Loop time of 307.737 on 16 procs for 80000 steps with 1024 atoms

Performance: 5.615 ns/day, 4.274 hours/ns, 259.962 timesteps/s, 266.201 katom-step/s
84.9% CPU use with 16 MPI tasks x 1 OpenMP threads

MPI task timing breakdown:
Section |  min time  |  avg time  |  max time  |%varavg| %total
---------------------------------------------------------------
Pair    | 57.168     | 59.784     | 63.249     |  22.0 | 19.43
Bond    | 0.0039644  | 0.0043886  | 0.0048303  |   0.5 |  0.00
Kspace  | 53.701     | 57.27      | 59.862     |  22.0 | 18.61
Neigh   | 1.199      | 1.2656     | 1.3119     |   2.8 |  0.41
Comm    | 19.729     | 19.947     | 20.255     |   3.2 |  6.48
Output  | 0.031085   | 0.031391   | 0.032667   |   0.2 |  0.01
Modify  | 167.02     | 167.18     | 167.32     |   0.7 | 54.33
Other   |            | 2.25       |            |       |  0.73

Nlocal:             64 ave          72 max          53 min
Histogram: 3 0 0 0 2 4 0 3 1 3
Nghost:        4384.56 ave        4448 max        4323 min
Histogram: 2 2 2 0 3 2 0 0 1 4
Neighs:        30923.3 ave       34268 max       25754 min
Histogram: 2 1 0 1 1 3 1 0 3 4
FullNghs:      61846.6 ave       69478 max       51295 min
Histogram: 3 0 0 1 1 4 0 1 3 3

Total # of neighbors = 989546
Ave neighs/atom = 966.35352
Ave special neighs/atom = 1.5
Neighbor list builds = 759
Dangerous builds = 0
unfix           rig
fix             rig all rigid/nvt/small molecule temp 298.0 298.0 0.02
Fix rigid/nvt/small setup ...
  create bodies CPU = 0.000 seconds
  256 rigid bodies with 1024 atoms
  0.87348128 = max distance from body owner to body atom
reset_timestep  0
run             400000
PPPM initialization ...
  using 12-bit tables for long-range coulomb
  G vector (1/distance) = 0.31492018
  grid = 20 20 20
  stencil order = 5
  estimated absolute RMS force accuracy = 0.00012910383
  estimated relative force accuracy = 8.9657651e-06
  using double precision FFTW3
  3d grid and FFT values/proc = 3468 500
samqeq: pair coul/shield/intra Slater-overlap J(r) tables built (6 unique type pairs, 2000 pts each, r in [0.02,5])
Generated 0 of 3 mixed pair_coeff terms from geometric mixing rule
WARNING: Bonds are defined but no bond style is set (src/force.cpp:198)
WARNING: Likewise 1-2 special neighbor interactions != 1.0 (src/force.cpp:200)
WARNING: Angles are defined but no angle style is set (src/force.cpp:203)
WARNING: Likewise 1-3 special neighbor interactions != 1.0 (src/force.cpp:205)
samqeq: E_self = sum(chi q + 1/2 eta qs^2) INCLUDED in pe/etotal (fix_modify chg energy yes; eselfref qs = q - q0 - redox_dp) -- pe + E_self is the energy the forces integrate
samqeq: Slater-overlap J(r) tables built (6 unique type pairs, 2000 pts each, r in [0.02,10])
Per MPI rank memory allocation (min/avg/max) = 20.7 | 20.97 | 21.16 Mbytes
   Step          Temp           v_mu     
         0   311.78267      2.6292088    
       400   295.33203      2.6195961    
       800   316.91531      2.6125169    
      1200   298.52039      2.6084407    
      1600   303.04558      2.6168219    
      2000   299.10701      2.6206587    
      2400   302.69168      2.61847      
      2800   309.88335      2.6082943    
      3200   311.06521      2.6174776    
      3600   290.27527      2.6296186    
      4000   285.63455      2.6250864    
      4400   299.3832       2.6272918    
      4800   290.42301      2.6249877    
      5200   307.32775      2.6323617    
      5600   301.19734      2.6108096    
      6000   313.94851      2.6079874    
      6400   302.29012      2.6061819    
      6800   311.82137      2.619562     
      7200   287.31582      2.6061932    
      7600   295.18796      2.6326521    
      8000   304.09783      2.6284491    
      8400   305.21006      2.6419446    
      8800   287.5266       2.6021583    
      9200   306.29464      2.5974892    
      9600   305.73053      2.5800655    
     10000   300.88213      2.5973601    
     10400   285.02077      2.6038817    
     10800   298.49069      2.6149518    
     11200   282.19562      2.6007154    
     11600   309.46741      2.6072683    
     12000   294.81506      2.59496      
     12400   282.96139      2.6032389    
     12800   301.37865      2.604593     
     13200   297.12378      2.6174428    
     13600   292.10167      2.6090904    
     14000   304.1604       2.6138217    
     14400   294.78045      2.6203674    
     14800   297.51197      2.6102146    
     15200   285.64887      2.608877     
     15600   298.89068      2.6220479    
     16000   321.33733      2.6352247    
     16400   300.88672      2.6465646    
     16800   293.96883      2.6411326    
     17200   315.24077      2.6493258    
     17600   278.39524      2.6225664    
     18000   297.21144      2.6316091    
     18400   304.67308      2.6538809    
     18800   300.80556      2.6353937    
     19200   282.74089      2.6300396    
     19600   289.10158      2.6249947    
     20000   293.9047       2.6294233    
     20400   315.78221      2.6449803    
     20800   307.25228      2.6349626    
     21200   319.22904      2.6204774    
     21600   297.91714      2.6375238    
     22000   287.00448      2.6275069    
     22400   299.34592      2.6211781    
     22800   303.17061      2.6339364    
     23200   280.36128      2.6395036    
     23600   312.06757      2.642663     
     24000   282.1426       2.6449376    
     24400   314.48347      2.6363739    
     24800   303.99539      2.6209305    
     25200   283.40712      2.634392     
     25600   309.48345      2.6385063    
     26000   296.55615      2.6496304    
     26400   298.45284      2.6511893    
     26800   306.89495      2.6575488    
     27200   306.42978      2.6561181    
     27600   309.54938      2.6447807    
     28000   308.58266      2.6306649    
     28400   298.54776      2.6089912    
     28800   308.17133      2.6203056    
     29200   308.41733      2.6338378    
     29600   293.25222      2.6426861    
     30000   273.27076      2.6201666    
     30400   290.24373      2.6148447    
     30800   311.52762      2.611819     
     31200   285.38083      2.6292325    
     31600   300.61557      2.6411306    
     32000   309.89643      2.6213938    
     32400   283.20954      2.6167789    
     32800   282.27773      2.5993248    
     33200   292.91763      2.6377294    
     33600   293.62868      2.6462643    
     34000   281.40224      2.6186066    
     34400   314.3453       2.6411229    
     34800   299.67295      2.626633     
     35200   300.26875      2.6231389    
     35600   306.80393      2.6216317    
     36000   298.13308      2.6482432    
     36400   301.2732       2.6540077    
     36800   292.26896      2.6261408    
     37200   301.66388      2.6181539    
     37600   296.8061       2.6472881    
     38000   295.74108      2.6544548    
     38400   300.05269      2.6311995    
     38800   303.71772      2.6355243    
     39200   285.50463      2.6302547    
     39600   296.13923      2.6474398    
     40000   294.67752      2.6470952    
     40400   284.97682      2.6561927    
     40800   300.32704      2.6508176    
     41200   283.26594      2.640736     
     41600   302.32868      2.6620898    
     42000   307.18214      2.6581204    
     42400   303.83718      2.6587228    
     42800   288.9618       2.6532895    
     43200   325.35819      2.6493111    
     43600   297.23986      2.6472524    
     44000   285.98768      2.6383656    
     44400   288.24947      2.6378094    
     44800   296.80345      2.6438965    
     45200   308.65566      2.6721518    
     45600   306.71254      2.662282     
     46000   302.97108      2.6603836    
     46400   296.68968      2.6531225    
     46800   303.22931      2.6595291    
     47200   318.42753      2.6618885    
     47600   300.25999      2.6730075    
     48000   286.68299      2.6808099    
     48400   287.20154      2.6694991    
     48800   312.62306      2.6886984    
     49200   277.99695      2.6698272    
     49600   295.15842      2.6470159    
     50000   282.33282      2.632963     
     50400   297.79709      2.6322526    
     50800   296.13136      2.6561992    
     51200   314.05243      2.6609184    
     51600   291.73106      2.6409971    
     52000   309.23507      2.6246426    
     52400   292.44404      2.6253743    
     52800   299.76354      2.6145909    
     53200   306.50562      2.6132633    
     53600   305.15974      2.6215289    
     54000   306.48446      2.5986432    
     54400   288.24387      2.6204672    
     54800   310.68328      2.6240351    
     55200   297.67396      2.6500899    
     55600   292.60783      2.6256428    
     56000   299.20324      2.6318411    
     56400   280.90708      2.6423691    
     56800   315.04773      2.6570206    
     57200   290.99154      2.6352496    
     57600   303.92748      2.6570911    
     58000   289.00767      2.6494816    
     58400   292.62646      2.6524302    
     58800   290.71667      2.6290749    
     59200   292.92928      2.6333597    
     59600   294.90423      2.6288593    
     60000   301.35605      2.6188823    
     60400   318.18931      2.6258589    
     60800   311.08013      2.6203005    
     61200   277.91409      2.6219406    
     61600   322.1716       2.6090548    
     62000   296.53655      2.6263891    
     62400   309.80013      2.6508103    
     62800   300.50383      2.6381975    
     63200   306.67217      2.6470987    
     63600   286.96358      2.6338175    
     64000   305.93689      2.6409631    
     64400   305.54753      2.6243004    
     64800   296.36496      2.6174625    
     65200   295.85022      2.6394977    
     65600   314.52314      2.6276033    
     66000   279.78914      2.6178893    
     66400   318.15725      2.6407154    
     66800   280.94592      2.6273001    
     67200   295.77513      2.622147     
     67600   289.51827      2.6137999    
     68000   281.3149       2.6154499    
     68400   291.10118      2.6400868    
     68800   307.27347      2.6416888    
     69200   307.22149      2.6449795    
     69600   287.37367      2.6278871    
     70000   307.21536      2.6467401    
     70400   309.36095      2.6512643    
     70800   301.71587      2.6386008    
     71200   299.62244      2.6345938    
     71600   286.30809      2.6202336    
     72000   305.77623      2.6216351    
     72400   299.05881      2.6246224    
     72800   301.98859      2.6298585    
     73200   288.59084      2.6123063    
     73600   307.55753      2.6148395    
     74000   321.27377      2.6179242    
     74400   296.81195      2.6257195    
     74800   293.60216      2.6107155    
     75200   309.55068      2.6096261    
     75600   295.0805       2.607103     
     76000   297.28907      2.6233701    
     76400   281.43954      2.6220858    
     76800   285.62619      2.6003133    
     77200   299.1867       2.6192014    
     77600   293.41078      2.647575     
     78000   293.25491      2.6519366    
     78400   285.10342      2.6498262    
     78800   301.83885      2.6351047    
     79200   296.08859      2.6459245    
     79600   293.99571      2.6439053    
     80000   297.47608      2.6493462    
     80400   306.23521      2.628814     
     80800   294.33408      2.6499758    
     81200   305.3411       2.6726438    
     81600   285.71303      2.6825091    
     82000   298.51292      2.6669791    
     82400   296.42519      2.6628003    
     82800   294.3731       2.6535537    
     83200   300.60129      2.6455322    
     83600   303.03569      2.6291902    
     84000   278.46455      2.6329891    
     84400   306.20176      2.6346511    
     84800   296.43729      2.640884     
     85200   300.36605      2.6313778    
     85600   282.2551       2.6344742    
     86000   304.5362       2.628513     
     86400   309.08647      2.6227198    
     86800   280.9063       2.6213426    
     87200   292.58313      2.6499554    
     87600   304.74539      2.6510067    
     88000   294.45337      2.6377295    
     88400   302.54274      2.628861     
     88800   317.22605      2.6114163    
     89200   302.76781      2.6122914    
     89600   300.09453      2.6188354    
     90000   297.62949      2.6479793    
     90400   281.05972      2.639306     
     90800   285.46458      2.6409375    
     91200   303.65719      2.6067876    
     91600   300.80434      2.6203575    
     92000   308.6422       2.6147041    
     92400   296.23043      2.6055556    
     92800   299.79273      2.6058299    
     93200   313.66878      2.6197908    
     93600   291.03185      2.6149189    
     94000   298.60422      2.5993955    
     94400   312.5757       2.6085223    
     94800   291.40392      2.6395048    
     95200   314.58627      2.6463743    
     95600   294.75585      2.6252357    
     96000   294.00014      2.6249551    
     96400   325.57796      2.6237367    
     96800   300.55799      2.6389546    
     97200   292.86524      2.6342168    
     97600   288.73806      2.6311767    
     98000   317.58397      2.6148782    
     98400   316.9578       2.6194734    
     98800   296.37727      2.6095819    
     99200   289.46531      2.605016     
     99600   281.67511      2.6172036    
    100000   303.36156      2.624674     
    100400   305.1908       2.6089764    
    100800   295.2674       2.6110011    
    101200   293.77365      2.6363894    
    101600   301.1498       2.6390891    
    102000   290.65165      2.6092426    
    102400   300.20509      2.5993854    
    102800   296.20106      2.6210944    
    103200   292.17007      2.6240618    
    103600   297.25037      2.6198179    
    104000   305.3313       2.6081827    
    104400   307.56169      2.6063943    
    104800   310.9697       2.599026     
    105200   292.10988      2.634128     
    105600   296.14662      2.6307495    
    106000   312.97525      2.6186586    
    106400   297.89743      2.604196     
    106800   287.80493      2.6165094    
    107200   313.85598      2.6173061    
    107600   308.19465      2.6157842    
    108000   282.97452      2.6197332    
    108400   315.14122      2.6367727    
    108800   298.79276      2.6295509    
    109200   300.91528      2.6036855    
    109600   301.39908      2.624765     
    110000   306.24814      2.626945     
    110400   303.06648      2.6003755    
    110800   286.21689      2.6183065    
    111200   285.46535      2.6057776    
    111600   306.5398       2.6211714    
    112000   303.76772      2.634325     
    112400   298.33117      2.6140013    
    112800   285.85091      2.6332725    
    113200   299.13486      2.6280509    
    113600   313.62119      2.6279089    
    114000   310.91988      2.6361226    
    114400   302.99434      2.6407595    
    114800   315.36307      2.6284549    
    115200   282.9543       2.6436551    
    115600   307.24064      2.648504     
    116000   301.787        2.6405908    
    116400   300.09903      2.6710082    
    116800   291.56221      2.6590008    
    117200   307.99164      2.6335646    
    117600   300.94829      2.6092223    
    118000   300.64425      2.6279758    
    118400   309.08355      2.6151701    
    118800   296.43449      2.6120798    
    119200   310.77723      2.6135792    
    119600   293.55129      2.6259332    
    120000   294.8592       2.6302139    
    120400   301.30942      2.6333491    
    120800   295.60651      2.6121621    
    121200   295.73346      2.634312     
    121600   305.51117      2.6434123    
    122000   305.34602      2.6400749    
    122400   299.8712       2.6132603    
    122800   295.55718      2.6611123    
    123200   304.65664      2.6489533    
    123600   306.54822      2.657968     
    124000   294.8582       2.6435551    
    124400   304.34421      2.6327377    
    124800   303.9001       2.6347822    
    125200   301.53958      2.6448559    
    125600   295.57589      2.6191004    
    126000   291.97797      2.6181037    
    126400   302.30134      2.6210082    
    126800   297.71772      2.630207     
    127200   310.92312      2.6302483    
    127600   287.26127      2.6430272    
    128000   282.43089      2.6539421    
    128400   297.91057      2.6553995    
    128800   288.3371       2.6365573    
    129200   316.66852      2.6279091    
    129600   292.57286      2.6213912    
    130000   295.18186      2.6216529    
    130400   301.68311      2.6164844    
    130800   310.8149       2.642636     
    131200   306.43142      2.6388995    
    131600   299.58039      2.6243743    
    132000   285.46522      2.6281064    
    132400   302.85293      2.6400762    
    132800   295.53408      2.6114248    
    133200   281.09605      2.6175025    
    133600   294.15485      2.6117233    
    134000   289.95218      2.6274308    
    134400   302.57448      2.6283065    
    134800   313.23094      2.6177805    
    135200   311.08552      2.5948171    
    135600   313.16431      2.6117464    
    136000   302.93972      2.6101463    
    136400   302.11989      2.6136364    
    136800   275.07874      2.6276419    
    137200   301.15933      2.6040166    
    137600   287.47398      2.6119357    
    138000   292.32826      2.6179687    
    138400   285.24406      2.621826     
    138800   306.87903      2.6166746    
    139200   304.3739       2.6360093    
    139600   297.34783      2.6376659    
    140000   293.9865       2.6291687    
    140400   301.24752      2.6557447    
    140800   326.5949       2.6387676    
    141200   296.21202      2.6432053    
    141600   317.92972      2.6412619    
    142000   316.73605      2.6240895    
    142400   303.62658      2.6130585    
    142800   317.39962      2.6459652    
    143200   308.64894      2.6171175    
    143600   291.80725      2.6218042    
    144000   288.7686       2.6082033    
    144400   315.28864      2.6148401    
    144800   297.6077       2.6111853    
    145200   308.42161      2.6197507    
    145600   287.34574      2.6318803    
    146000   305.12075      2.6234431    
    146400   314.2365       2.6284717    
    146800   306.99866      2.6250346    
    147200   311.15412      2.6303242    
    147600   292.23642      2.6258987    
    148000   284.15956      2.6463303    
    148400   289.84491      2.6386485    
    148800   296.40718      2.6276527    
    149200   307.28253      2.6115228    
    149600   305.73973      2.6193315    
    150000   289.48677      2.6278778    
    150400   301.05063      2.6450108    
    150800   295.48367      2.6495648    
    151200   304.68751      2.6419236    
    151600   301.35213      2.6610823    
    152000   301.81901      2.6406898    
    152400   301.83376      2.6486664    
    152800   303.99868      2.6698697    
    153200   298.6256       2.6610552    
    153600   289.13509      2.6603756    
    154000   287.19213      2.6621323    
    154400   295.56463      2.6744994    
    154800   300.94671      2.6649814    
    155200   288.72077      2.6623138    
    155600   288.7449       2.6715747    
    156000   300.34115      2.652747     
    156400   309.79276      2.6252175    
    156800   307.64806      2.6318153    
    157200   278.91455      2.6295242    
    157600   307.17919      2.6567772    
    158000   308.96264      2.6390919    
    158400   311.11284      2.6539433    
    158800   303.71952      2.6454358    
    159200   299.25986      2.6453709    
    159600   310.37906      2.6444014    
    160000   300.02791      2.6595272    
    160400   319.8235       2.6521572    
    160800   300.63442      2.6606303    
    161200   297.41844      2.660466     
    161600   301.7178       2.6611506    
    162000   290.09177      2.6616499    
    162400   281.38733      2.6685906    
    162800   290.22768      2.6513086    
    163200   312.2969       2.6374788    
    163600   290.27205      2.6248902    
    164000   291.82364      2.6302651    
    164400   293.6853       2.6301895    
    164800   292.61629      2.6258427    
    165200   298.64001      2.6258993    
    165600   296.35886      2.6137465    
    166000   306.52567      2.6263794    
    166400   325.18598      2.6141117    
    166800   300.60043      2.6016336    
    167200   296.59352      2.6301139    
    167600   284.26115      2.6217754    
    168000   286.22663      2.6015635    
    168400   295.27527      2.6081941    
    168800   293.56447      2.6015772    
    169200   295.32334      2.6077528    
    169600   303.57364      2.6270809    
    170000   305.31518      2.6323902    
    170400   307.80383      2.6297293    
    170800   295.26761      2.6105952    
    171200   304.59973      2.6364959    
    171600   285.19609      2.6296063    
    172000   304.16141      2.6180556    
    172400   273.49         2.5997287    
    172800   311.18994      2.6090211    
    173200   312.26367      2.6444443    
    173600   301.21811      2.6350501    
    174000   299.42063      2.6274846    
    174400   284.60255      2.6436769    
    174800   283.925        2.6266818    
    175200   299.54335      2.6144388    
    175600   298.4783       2.6196433    
    176000   305.00998      2.6324151    
    176400   312.29409      2.6161478    
    176800   299.39514      2.6404695    
    177200   301.87978      2.6333536    
    177600   307.86882      2.6460681    
    178000   291.66694      2.6266623    
    178400   301.31432      2.619303     
    178800   298.98772      2.6453769    
    179200   296.79588      2.632251     
    179600   284.12777      2.6263163    
    180000   297.00972      2.656803     
    180400   292.47334      2.6551716    
    180800   304.24411      2.6411275    
    181200   289.26036      2.6069642    
    181600   299.66369      2.6323088    
    182000   300.91159      2.6397614    
    182400   297.60495      2.6650099    
    182800   305.55707      2.6320531    
    183200   312.94741      2.6219512    
    183600   317.87427      2.6173049    
    184000   288.03646      2.6076793    
    184400   299.86842      2.6133214    
    184800   294.85978      2.6195718    
    185200   281.92874      2.6033884    
    185600   300.50781      2.6163799    
    186000   300.2976       2.6430949    
    186400   305.89208      2.6296318    
    186800   276.35672      2.6307546    
    187200   296.02204      2.652536     
    187600   286.44795      2.6632776    
    188000   270.06886      2.6606986    
    188400   304.96766      2.6672446    
    188800   297.61882      2.6368769    
    189200   302.79888      2.6401637    
    189600   307.04186      2.6720589    
    190000   316.22047      2.66887      
    190400   278.92268      2.6509821    
    190800   297.98074      2.6408858    
    191200   312.5289       2.6597491    
    191600   317.7541       2.666823     
    192000   309.73802      2.6540945    
    192400   304.22004      2.6613773    
    192800   296.19437      2.6610389    
    193200   289.01611      2.6474106    
    193600   309.96151      2.6495972    
    194000   310.99157      2.6500714    
    194400   309.88506      2.6598008    
    194800   290.42648      2.6412866    
    195200   300.43225      2.673708     
    195600   292.29526      2.6420373    
    196000   304.314        2.6244868    
    196400   311.31981      2.6215612    
    196800   295.60907      2.6397214    
    197200   268.77         2.6272362    
    197600   290.08357      2.6284387    
    198000   295.20499      2.6479023    
    198400   290.5999       2.6326189    
    198800   283.38832      2.6522041    
    199200   306.31402      2.6454403    
    199600   292.21693      2.6415385    
    200000   281.39459      2.6553431    
    200400   293.1566       2.6613179    
    200800   297.15605      2.6648004    
    201200   299.82996      2.6329047    
    201600   314.1432       2.6257538    
    202000   299.61832      2.6432448    
    202400   305.42164      2.6392557    
    202800   298.60354      2.655836     
    203200   293.04129      2.6364327    
    203600   305.4708       2.653604     
    204000   298.16307      2.6467632    
    204400   281.56469      2.6527257    
    204800   310.60321      2.6260984    
    205200   292.12139      2.6372055    
    205600   284.15485      2.6459069    
    206000   288.76869      2.6391768    
    206400   289.97206      2.6235645    
    206800   282.01655      2.6304053    
    207200   304.24928      2.6446404    
    207600   294.21698      2.6345784    
    208000   307.54708      2.6308484    
    208400   311.81737      2.6393041    
    208800   303.15726      2.6226557    
    209200   308.21948      2.6290757    
    209600   280.60733      2.6269296    
    210000   283.62514      2.6059795    
    210400   303.53665      2.6014743    
    210800   308.83889      2.6186283    
    211200   290.56808      2.6349209    
    211600   286.74779      2.6204042    
    212000   298.38102      2.6040183    
    212400   291.17839      2.6358769    
    212800   299.9857       2.6302571    
    213200   279.93074      2.6259364    
    213600   323.57279      2.6384989    
    214000   295.95092      2.6300133    
    214400   297.67371      2.627578     
    214800   284.63908      2.6306705    
    215200   291.46054      2.625939     
    215600   288.39882      2.6201952    
    216000   287.42149      2.634521     
    216400   301.70927      2.6224784    
    216800   302.2287       2.618376     
    217200   307.0624       2.6388117    
    217600   292.41518      2.6595474    
    218000   321.00689      2.6533842    
    218400   311.0923       2.6441111    
    218800   304.29774      2.6412775    
    219200   296.44262      2.651489     
    219600   292.06994      2.6529396    
    220000   286.57021      2.6652828    
    220400   297.79061      2.6682188    
    220800   303.09084      2.6619232    
    221200   300.56466      2.653951     
    221600   291.84658      2.6306337    
    222000   302.78847      2.617955     
    222400   282.69043      2.6321431    
    222800   275.8892       2.6442987    
    223200   270.04774      2.6564913    
    223600   296.04888      2.642556     
    224000   293.8049       2.6388385    
    224400   300.9008       2.6484571    
    224800   311.45435      2.6484758    
    225200   299.83875      2.634664     
    225600   295.27228      2.6501207    
    226000   300.95306      2.6456334    
    226400   311.65542      2.636297     
    226800   277.83981      2.6350011    
    227200   286.74552      2.6350422    
    227600   303.08451      2.62623      
    228000   305.15987      2.6328289    
    228400   298.78081      2.659972     
    228800   283.15615      2.6324047    
    229200   285.70875      2.6172866    
    229600   301.55219      2.6389869    
    230000   294.03463      2.6279773    
    230400   293.98055      2.6357832    
    230800   294.38316      2.6345063    
    231200   302.93584      2.6203079    
    231600   288.79041      2.635454     
    232000   318.02102      2.6044855    
    232400   286.82369      2.5903616    
    232800   302.63813      2.6090854    
    233200   309.50928      2.6278699    
    233600   322.55509      2.6304539    
    234000   311.58616      2.6403801    
    234400   310.98712      2.6415972    
    234800   290.64972      2.6373803    
    235200   297.20847      2.6263236    
    235600   286.51483      2.6509214    
    236000   293.58206      2.6477341    
    236400   298.58621      2.6444392    
    236800   294.35407      2.6643958    
    237200   311.64113      2.6405498    
    237600   309.80734      2.6416107    
    238000   292.74419      2.6615428    
    238400   293.51447      2.6708877    
    238800   309.11859      2.6582201    
    239200   286.51593      2.6312081    
    239600   304.00779      2.6430669    
    240000   297.26309      2.6253617    
    240400   295.28538      2.6481156    
    240800   292.96422      2.6380488    
    241200   296.26393      2.6240193    
    241600   288.32406      2.6289656    
    242000   292.71438      2.6257006    
    242400   301.65754      2.5910208    
    242800   289.20885      2.6076081    
    243200   280.30728      2.6108495    
    243600   310.83634      2.6234972    
    244000   281.16506      2.6472049    
    244400   295.28688      2.6579424    
    244800   306.49286      2.6495495    
    245200   290.27182      2.6502785    
    245600   304.22221      2.6487405    
    246000   312.30982      2.6604365    
    246400   287.8423       2.6509813    
    246800   317.64458      2.6166333    
    247200   305.46765      2.6246683    
    247600   287.41802      2.6125053    
    248000   305.56691      2.6087936    
    248400   295.17058      2.621689     
    248800   296.52062      2.6081586    
    249200   302.50939      2.6280431    
    249600   291.59024      2.6204703    
    250000   297.52356      2.6217388    
    250400   286.98283      2.6294556    
    250800   292.62117      2.6266371    
    251200   298.82975      2.599831     
    251600   302.5521       2.6114732    
    252000   322.04877      2.6120798    
    252400   282.44707      2.609053     
    252800   305.32707      2.641055     
    253200   295.86869      2.6119222    
    253600   300.75759      2.6259653    
    254000   308.07064      2.6344052    
    254400   278.96423      2.6377686    
    254800   296.5969       2.6359036    
    255200   282.18873      2.6329683    
    255600   303.92014      2.6178086    
    256000   297.88025      2.6204606    
    256400   294.11117      2.6325434    
    256800   303.58961      2.625851     
    257200   299.61644      2.6280489    
    257600   306.11995      2.6320244    
    258000   290.29272      2.6340718    
    258400   312.42082      2.6081635    
    258800   301.95296      2.630058     
    259200   281.49374      2.6198271    
    259600   283.11181      2.6064466    
    260000   304.32236      2.6022727    
    260400   295.25427      2.5894281    
    260800   294.03029      2.6009889    
    261200   302.39959      2.6080861    
    261600   305.31004      2.6034352    
    262000   310.97239      2.6101543    
    262400   299.91621      2.620573     
    262800   290.44899      2.6303358    
    263200   286.96225      2.6286664    
    263600   289.69613      2.6247858    
    264000   285.19321      2.6370692    
    264400   301.2822       2.6293884    
    264800   318.69517      2.633104     
    265200   286.41751      2.6611687    
    265600   290.10347      2.6430777    
    266000   308.45383      2.6379595    
    266400   300.02379      2.6348189    
    266800   307.06716      2.6197555    
    267200   328.6923       2.6135743    
    267600   292.91312      2.6094881    
    268000   285.97213      2.6365457    
    268400   289.7836       2.6364441    
    268800   268.00707      2.6455108    
    269200   292.40155      2.6540627    
    269600   295.94671      2.6437932    
    270000   300.25982      2.6385032    
    270400   281.65964      2.6439586    
    270800   292.61919      2.6608865    
    271200   295.94496      2.6617427    
    271600   309.96055      2.661713     
    272000   308.00345      2.6527517    
    272400   298.3781       2.6615408    
    272800   301.49565      2.6454261    
    273200   295.54661      2.6575919    
    273600   301.01252      2.6553269    
    274000   288.70859      2.6508579    
    274400   298.31048      2.6614114    
    274800   308.85478      2.6530061    
    275200   307.77363      2.6344166    
    275600   314.70352      2.6274825    
    276000   287.8308       2.6249041    
    276400   299.98254      2.6638835    
    276800   289.06378      2.664604     
    277200   300.40791      2.658002     
    277600   325.56944      2.6485702    
    278000   303.64123      2.6536827    
    278400   293.15022      2.6246825    
    278800   302.22136      2.6363405    
    279200   309.34095      2.6445758    
    279600   299.72882      2.6532237    
    280000   310.30598      2.6604612    
    280400   302.87949      2.6189882    
    280800   285.74719      2.6357186    
    281200   297.42719      2.6453103    
    281600   308.16265      2.6384413    
    282000   307.3772       2.650716     
    282400   278.14958      2.6427155    
    282800   295.6092       2.6397629    
    283200   300.59259      2.6453607    
    283600   314.60123      2.6185926    
    284000   293.94548      2.6276069    
    284400   285.92463      2.6233237    
    284800   298.6926       2.6239255    
    285200   308.81846      2.6004712    
    285600   311.35252      2.5923746    
    286000   297.89985      2.602774     
    286400   313.45592      2.6309797    
    286800   300.14042      2.633716     
    287200   293.80531      2.6198716    
    287600   293.3754       2.6346528    
    288000   303.47475      2.6416315    
    288400   304.27178      2.6203175    
    288800   299.71098      2.6652655    
    289200   303.95998      2.6459626    
    289600   307.23747      2.6477337    
    290000   307.48968      2.6429759    
    290400   286.02283      2.6354085    
    290800   316.45442      2.6389072    
    291200   283.56978      2.6574099    
    291600   311.98229      2.6292235    
    292000   301.15178      2.6262495    
    292400   284.49682      2.6120339    
    292800   285.4608       2.6261851    
    293200   296.61457      2.6470327    
    293600   304.69984      2.6482478    
    294000   300.41797      2.6350462    
    294400   313.01465      2.6282093    
    294800   296.92046      2.6088823    
    295200   285.5285       2.6100692    
    295600   304.73532      2.6422852    
    296000   280.80043      2.6297097    
    296400   305.24648      2.6082198    
    296800   297.19415      2.6331858    
    297200   294.9539       2.6442916    
    297600   314.27738      2.6609952    
    298000   295.73481      2.6422324    
    298400   291.85807      2.6500658    
    298800   292.47268      2.6593425    
    299200   311.75733      2.6564449    
    299600   316.137        2.6374351    
    300000   315.47484      2.6223747    
    300400   304.78878      2.6248828    
    300800   294.79299      2.6207606    
    301200   288.592        2.6216639    
    301600   304.67285      2.6291935    
    302000   317.48239      2.6318393    
    302400   291.78707      2.6334981    
    302800   291.52825      2.6302456    
    303200   288.25969      2.6272878    
    303600   285.0181       2.6118067    
    304000   299.58685      2.6145497    
    304400   299.82216      2.6206179    
    304800   289.46817      2.6350361    
    305200   305.3147       2.6408077    
    305600   299.08461      2.6359768    
    306000   288.66609      2.6317089    
    306400   308.8033       2.6436972    
    306800   306.74713      2.6275144    
    307200   310.83501      2.6338779    
    307600   303.48732      2.6361192    
    308000   308.72174      2.6128061    
    308400   306.89567      2.6319308    
    308800   305.12205      2.6407769    
    309200   301.14346      2.6471724    
    309600   285.75841      2.6680644    
    310000   275.67065      2.6549884    
    310400   327.16972      2.6376803    
    310800   302.8274       2.64989      
    311200   302.25831      2.6616526    
    311600   274.97053      2.659136     
    312000   301.6158       2.6660355    
    312400   316.84838      2.673178     
    312800   293.63737      2.6356424    
    313200   297.11916      2.6462822    
    313600   315.72158      2.6440747    
    314000   305.46625      2.6631762    
    314400   319.43369      2.6641634    
    314800   302.86473      2.6393246    
    315200   302.94762      2.649437     
    315600   304.47699      2.6184403    
    316000   285.2272       2.6302906    
    316400   289.04647      2.6175529    
    316800   318.5089       2.6386256    
    317200   300.36694      2.6284794    
    317600   290.3878       2.6376644    
    318000   307.59294      2.6353163    
    318400   295.04467      2.6574543    
    318800   296.16379      2.6182213    
    319200   284.80244      2.6126677    
    319600   291.20056      2.6385154    
    320000   305.01483      2.6474237    
    320400   299.97769      2.6394614    
    320800   312.41706      2.6630983    
    321200   310.37108      2.6691775    
    321600   296.89344      2.664005     
    322000   289.86246      2.6358721    
    322400   284.77657      2.6364599    
    322800   302.99553      2.6332896    
    323200   289.38916      2.6423381    
    323600   294.14024      2.6442387    
    324000   290.67935      2.6279226    
    324400   309.3486       2.6064469    
    324800   306.88761      2.6012669    
    325200   298.21185      2.620758     
    325600   281.51919      2.6366369    
    326000   294.2964       2.6521497    
    326400   298.6105       2.6544234    
    326800   300.03278      2.6472126    
    327200   291.11731      2.6297446    
    327600   287.22476      2.6174188    
    328000   308.69088      2.6366659    
    328400   290.00002      2.640449     
    328800   285.96542      2.6582616    
    329200   300.8435       2.6494547    
    329600   314.38098      2.6601328    
    330000   282.53271      2.6458665    
    330400   296.00669      2.651382     
    330800   296.01042      2.625293     
    331200   298.5713       2.6478176    
    331600   304.42811      2.6386505    
    332000   297.82786      2.6604665    
    332400   290.92118      2.6578658    
    332800   290.71277      2.6436101    
    333200   301.75293      2.6382758    
    333600   305.67297      2.6432486    
    334000   293.04855      2.6312123    
    334400   302.62133      2.6571329    
    334800   302.01413      2.6367318    
    335200   297.55993      2.6344702    
    335600   299.73154      2.6473522    
    336000   300.11175      2.628985     
    336400   283.49155      2.6475115    
    336800   304.29531      2.6436962    
    337200   305.53977      2.6556644    
    337600   309.55305      2.6349718    
    338000   298.18523      2.6391138    
    338400   292.52648      2.6438019    
    338800   291.38533      2.6408296    
    339200   288.51365      2.6350504    
    339600   288.15997      2.6387046    
    340000   288.49033      2.6176957    
    340400   316.85462      2.6277044    
    340800   304.76123      2.6460832    
    341200   295.87948      2.6281306    
    341600   303.25942      2.6424198    
    342000   300.55956      2.6655467    
    342400   307.52035      2.6561693    
    342800   286.01009      2.6706763    
    343200   307.88648      2.6345688    
    343600   295.68778      2.6132361    
    344000   285.21018      2.6339791    
    344400   311.34801      2.6455491    
    344800   300.73862      2.6396035    
    345200   303.4436       2.6472714    
    345600   305.54441      2.6409281    
    346000   294.40055      2.6389014    
    346400   294.10002      2.6237715    
    346800   300.28306      2.6073092    
    347200   301.92468      2.6198808    
    347600   285.01946      2.6212535    
    348000   285.4255       2.6188932    
    348400   286.57243      2.6194648    
    348800   299.62331      2.6314571    
    349200   294.72023      2.6299342    
    349600   287.93383      2.6330638    
    350000   293.39386      2.6457395    
    350400   306.82891      2.6316325    
    350800   293.85795      2.6396319    
    351200   288.24298      2.6480966    
    351600   311.49219      2.6252267    
    352000   283.27817      2.6353184    
    352400   311.04885      2.6337483    
    352800   294.36207      2.6214361    
    353200   294.90414      2.6162935    
    353600   304.14081      2.6119725    
    354000   294.07421      2.6061551    
    354400   272.72971      2.6088091    
    354800   301.56013      2.6312735    
    355200   288.23517      2.6419877    
    355600   321.14643      2.6225597    
    356000   299.30586      2.6159059    
    356400   290.23862      2.6262665    
    356800   304.59637      2.6262041    
    357200   285.1012       2.6268933    
    357600   286.11729      2.605686     
    358000   296.94466      2.6158767    
    358400   292.15624      2.6194234    
    358800   310.57837      2.6253838    
    359200   275.65216      2.6372707    
    359600   308.42766      2.6528735    
    360000   308.01521      2.6436402    
    360400   263.75452      2.6341474    
    360800   294.6904       2.654484     
    361200   322.03826      2.6436113    
    361600   282.82825      2.6431817    
    362000   290.83708      2.6468563    
    362400   288.71471      2.6168934    
    362800   293.07445      2.6164598    
    363200   313.41528      2.6295988    
    363600   299.22478      2.6504394    
    364000   276.78359      2.6319661    
    364400   296.45766      2.6278571    
    364800   291.43142      2.6210279    
    365200   307.62816      2.6075324    
    365600   313.48493      2.6421524    
    366000   298.16797      2.6159635    
    366400   314.41034      2.6135761    
    366800   316.18474      2.6119077    
    367200   295.71498      2.6142145    
    367600   294.09338      2.6310224    
    368000   287.78219      2.6194372    
WARNING: System is not charge neutral, net charge = -1.0000019e-05
For more information see https://docs.lammps.org/err0029 (src/kspace.cpp:329)
    368400   294.10656      2.6246823    
    368800   295.2911       2.6416432    
    369200   305.39498      2.6439857    
    369600   295.64549      2.6384377    
    370000   292.71866      2.6267238    
    370400   297.03035      2.6422202    
    370800   285.73539      2.6545914    
    371200   304.75324      2.6392039    
    371600   286.4054       2.6445693    
    372000   305.16801      2.6288135    
    372400   285.43367      2.5999436    
    372800   316.37285      2.6286079    
    373200   311.00865      2.6437804    
    373600   294.86259      2.6326734    
    374000   288.73537      2.6240047    
    374400   292.77341      2.6205206    
    374800   316.4607       2.6242819    
    375200   291.0629       2.6426998    
    375600   293.32478      2.6399801    
    376000   299.64497      2.6682732    
    376400   291.29502      2.6774152    
    376800   312.92708      2.6716906    
    377200   290.7445       2.6584963    
    377600   314.55798      2.6469973    
    378000   300.44944      2.6311179    
    378400   301.80062      2.6381658    
    378800   304.99121      2.6504028    
    379200   294.39623      2.6388372    
    379600   311.20662      2.6543559    
    380000   281.7114       2.654771     
    380400   296.55773      2.6532405    
    380800   291.68107      2.6589274    
    381200   312.44383      2.6443897    
    381600   295.38614      2.6418063    
    382000   296.58722      2.6413452    
    382400   289.76235      2.6690931    
    382800   282.48709      2.6676024    
    383200   303.03172      2.6703844    
    383600   291.98183      2.6742986    
    384000   313.19274      2.6632725    
    384400   313.96589      2.6622367    
    384800   308.3556       2.6664129    
    385200   311.33952      2.6634911    
    385600   318.04403      2.6547726    
    386000   294.90227      2.6455872    
    386400   312.85464      2.6660648    
    386800   291.35714      2.6538581    
    387200   301.12094      2.6285055    
    387600   297.28079      2.6299398    
    388000   292.30907      2.6336387    
    388400   302.54935      2.635268     
    388800   284.72547      2.631425     
    389200   292.5793       2.6555496    
    389600   301.15465      2.6419121    
    390000   300.8025       2.6596464    
    390400   303.32619      2.6741928    
    390800   289.95518      2.6600067    
    391200   283.96473      2.6604256    
    391600   301.9311       2.6358434    
    392000   307.4385       2.6603746    
    392400   295.36446      2.6393885    
    392800   295.35131      2.6667001    
    393200   281.95546      2.6334814    
    393600   294.31745      2.6210355    
    394000   309.56276      2.6324738    
    394400   294.1937       2.6425568    
    394800   296.82568      2.6560143    
    395200   300.89152      2.6419305    
    395600   311.18046      2.6489911    
    396000   309.10099      2.6196275    
    396400   296.89136      2.6205934    
    396800   290.87421      2.6323715    
    397200   293.30507      2.6235706    
    397600   303.68842      2.6140191    
    398000   318.18196      2.6423843    
    398400   293.7479       2.6408283    
    398800   286.57286      2.6596451    
    399200   292.54485      2.6540933    
    399600   295.97553      2.6501998    
    400000   281.56472      2.6666877    
Loop time of 1557.67 on 16 procs for 400000 steps with 1024 atoms

Performance: 5.547 ns/day, 4.327 hours/ns, 256.794 timesteps/s, 262.957 katom-step/s
84.8% CPU use with 16 MPI tasks x 1 OpenMP threads

MPI task timing breakdown:
Section |  min time  |  avg time  |  max time  |%varavg| %total
---------------------------------------------------------------
Pair    | 295.92     | 303.41     | 314.94     |  35.5 | 19.48
Bond    | 0.019771   | 0.022651   | 0.025702   |   1.2 |  0.00
Kspace  | 281.77     | 293.99     | 302.6      |  37.4 | 18.87
Neigh   | 6.0621     | 6.3545     | 6.4896     |   4.5 |  0.41
Comm    | 98.454     | 99.268     | 100.13     |   4.2 |  6.37
Output  | 0.14933    | 0.15145    | 0.15989    |   0.6 |  0.01
Modify  | 842.68     | 843.77     | 844.28     |   1.5 | 54.17
Other   |            | 10.71      |            |       |  0.69

Nlocal:             64 ave          73 max          54 min
Histogram: 2 0 0 2 3 4 2 1 1 1
Nghost:           4331 ave        4429 max        4281 min
Histogram: 3 3 2 1 2 4 0 0 0 1
Neighs:        30931.9 ave       35689 max       26456 min
Histogram: 2 0 1 2 3 3 2 1 1 1
FullNghs:      61863.9 ave       70413 max       52302 min
Histogram: 2 0 0 2 3 4 1 2 0 2

Total # of neighbors = 989822
Ave neighs/atom = 966.62305
Ave special neighs/atom = 1.5
Neighbor list builds = 3789
Dangerous builds = 0
print           "PORT_DONE" file done.txt screen no
Total wall time: 0:31:08
