ITEM: TIMESTEP
0
ITEM: NUMBER OF ATOMS
240
ITEM: BOX BOUNDS pp pp ff
0.0000000000000000e+00 1.7650658050000001e+01
0.0000000000000000e+00 2.0381224350000000e+01
0.0000000000000000e+00 6.0000000000000000e+01
ITEM: ATOMS id type q
1 1 0.0214241553252
2 1 0.0214252804404
3 1 0.0214254941013
4 1 0.0214243839162
5 1 0.0214241561453
6 1 0.0214252809257
7 1 0.0214254939791
8 1 0.0214243832471
9 1 0.0214241562558
10 1 0.0214252817218
11 1 0.0214254950319
12 1 0.0214243851976
13 1 0.0214241570759
14 1 0.0214252822071
15 1 0.0214254949097
16 1 0.0214243845284
17 1 0.0214241575468
18 1 0.021425282673
19 1 0.021425496323
20 1 0.0214243861489
21 1 0.021424158367
22 1 0.0214252831583
23 1 0.0214254962008
24 1 0.0214243854797
25 1 0.0214241578964
26 1 0.0214252823235
27 1 0.0214254966725
28 1 0.0214243857994
29 1 0.0214241587166
30 1 0.0214252828088
31 1 0.0214254965503
32 1 0.0214243851302
33 1 0.0214241569452
34 1 0.0214252810324
35 1 0.0214254957213
36 1 0.0214243845083
37 1 0.0214241577654
38 1 0.0214252815178
39 1 0.0214254955991
40 1 0.0214243838391
41 1 0.0214241556638
42 1 0.0214252801018
43 1 0.0214254944399
44 1 0.0214243835777
45 1 0.021424156484
46 1 0.0214252805871
47 1 0.0214254943177
48 1 0.0214243829085
49 1 -0.087201245095
50 1 -0.087199825159
51 1 -0.0872002988134
52 1 -0.0872016889337
53 1 -0.0872012445671
54 1 -0.0871998249466
55 1 -0.0872002990401
56 1 -0.0872016894689
57 1 -0.0872012442229
58 1 -0.0871998242799
59 1 -0.0872002979413
60 1 -0.0872016880546
61 1 -0.0872012436951
62 1 -0.0871998240676
63 1 -0.087200298168
64 1 -0.0872016885898
65 1 -0.0872012435755
66 1 -0.0871998240422
67 1 -0.0872002972939
68 1 -0.0872016878169
69 1 -0.0872012430477
70 1 -0.0871998238299
71 1 -0.0872002975207
72 1 -0.0872016883521
73 1 -0.0872012438132
74 1 -0.0871998246895
75 1 -0.0872002975316
76 1 -0.0872016884642
77 1 -0.0872012432853
78 1 -0.0871998244772
79 1 -0.0872002977583
80 1 -0.0872016889994
81 1 -0.0872012446922
82 1 -0.0871998255616
83 1 -0.0872002984106
84 1 -0.0872016893363
85 1 -0.0872012441644
86 1 -0.0871998253493
87 1 -0.0872002986373
88 1 -0.0872016898715
89 1 -0.0872012453263
90 1 -0.087199825793
91 1 -0.0872002990447
92 1 -0.0872016895677
93 1 -0.0872012447984
94 1 -0.0871998255807
95 1 -0.0872002992714
96 1 -0.0872016901029
97 1 -0.000645322242652
98 1 -0.000644131565113
99 1 -0.000645308797307
100 1 -0.000646499480502
101 1 -0.000645322243414
102 1 -0.000644131573795
103 1 -0.000645308813415
104 1 -0.000646499497684
105 1 -0.000645322305393
106 1 -0.000644131610872
107 1 -0.000645308860047
108 1 -0.000646499526258
109 1 -0.000645322306153
110 1 -0.000644131619554
111 1 -0.000645308876154
112 1 -0.000646499543441
113 1 -0.000645322322068
114 1 -0.000644131594121
115 1 -0.000645308876722
116 1 -0.000646499509506
117 1 -0.000645322322828
118 1 -0.000644131602802
119 1 -0.000645308892829
120 1 -0.000646499526688
121 1 -0.000645322276254
122 1 -0.00064413153136
123 1 -0.000645308830909
124 1 -0.000646499446748
125 1 -0.000645322277014
126 1 -0.000644131540041
127 1 -0.000645308847015
128 1 -0.000646499463928
129 1 -0.000645322213354
130 1 -0.000644131485258
131 1 -0.00064530876801
132 1 -0.000646499400649
133 1 -0.000645322214116
134 1 -0.00064413149394
135 1 -0.000645308784116
136 1 -0.000646499417829
137 1 -0.000645322196496
138 1 -0.000644131502193
139 1 -0.000645308751152
140 1 -0.000646499417584
141 1 -0.000645322197258
142 1 -0.000644131510875
143 1 -0.000645308767258
144 1 -0.000646499434765
145 1 0.0878615619481
146 1 0.0878620242532
147 1 0.0878606351267
148 1 0.0878601429629
149 1 0.0878615615982
150 1 0.0878620242855
151 1 0.0878606355139
152 1 0.0878601434819
153 1 0.0878615612143
154 1 0.0878620239838
155 1 0.0878606343929
156 1 0.0878601426935
157 1 0.0878615608645
158 1 0.0878620240161
159 1 0.0878606347801
160 1 0.0878601432126
161 1 0.0878615614837
162 1 0.0878620247176
163 1 0.0878606346624
164 1 0.0878601434273
165 1 0.0878615611339
166 1 0.0878620247499
167 1 0.0878606350496
168 1 0.0878601439464
169 1 0.0878615624803
170 1 0.0878620257068
171 1 0.0878606356589
172 1 0.0878601444165
173 1 0.0878615621305
174 1 0.0878620257391
175 1 0.0878606360462
176 1 0.0878601449356
177 1 0.0878615632
178 1 0.0878620259694
179 1 0.0878606363786
180 1 0.0878601446791
181 1 0.0878615628502
182 1 0.0878620260017
183 1 0.0878606367658
184 1 0.0878601451982
185 1 0.0878615629373
186 1 0.0878620252498
187 1 0.0878606361159
188 1 0.0878601439594
189 1 0.0878615625874
190 1 0.0878620252821
191 1 0.0878606365031
192 1 0.0878601444785
193 1 -0.0214391699074
194 1 -0.0214393878381
195 1 -0.0214405087458
196 1 -0.0214403055877
197 1 -0.0214391702417
198 1 -0.0214393876201
199 1 -0.0214405081038
200 1 -0.0214403048974
201 1 -0.0214391702812
202 1 -0.0214393874642
203 1 -0.0214405091196
204 1 -0.0214403052139
205 1 -0.0214391706156
206 1 -0.0214393872462
207 1 -0.0214405084777
208 1 -0.0214403045235
209 1 -0.0214391692632
210 1 -0.0214393860812
211 1 -0.0214405081015
212 1 -0.0214403038308
213 1 -0.0214391695975
214 1 -0.0214393858631
215 1 -0.0214405074596
216 1 -0.0214403031404
217 1 -0.0214391678893
218 1 -0.0214393850827
219 1 -0.0214405067277
220 1 -0.0214403028323
221 1 -0.0214391682236
222 1 -0.0214393848647
223 1 -0.0214405060857
224 1 -0.021440302142
225 1 -0.0214391675259
226 1 -0.0214393854462
227 1 -0.0214405063643
228 1 -0.0214403031958
229 1 -0.0214391678602
230 1 -0.0214393852282
231 1 -0.0214405057223
232 1 -0.0214403025055
233 1 -0.0214391685244
234 1 -0.0214393868201
235 1 -0.0214405073627
236 1 -0.0214403045697
237 1 -0.0214391688587
238 1 -0.0214393866021
239 1 -0.0214405067208
240 1 -0.0214403038794
