ITEM: TIMESTEP
5000
ITEM: NUMBER OF ATOMS
768
ITEM: BOX BOUNDS pp pp pp
0.0000000000000000e+00 1.7650658050000001e+01
0.0000000000000000e+00 2.0381224350000000e+01
0.0000000000000000e+00 3.0577801300000001e+01
ITEM: ATOMS id mol type q x y z
1 1 2 -0.913689 5.57854 11.0357 4.59027
2 1 3 0.526837 5.0947 10.4739 3.91924
3 1 3 0.386852 6.38797 10.5456 4.91372
4 2 2 -0.95377 9.54205 10.2237 2.60873
5 2 3 0.4597 10.1467 10.2917 3.4023
6 2 3 0.49407 8.74806 9.66218 2.84183
7 3 2 -1.2087 16.4902 9.62279 1.18012
8 3 3 0.376961 16.9851 9.10003 0.485995
9 3 3 0.831738 15.5111 9.60257 0.977529
10 4 2 -0.761936 14.6644 5.31152 25.1247
11 4 3 0.445453 14.0334 5.01998 24.4057
12 4 3 0.316483 15.5698 5.46827 24.7302
13 5 2 -1.08282 17.1119 5.06257 6.96463
14 5 3 0.539509 16.4315 5.69249 6.59001
15 5 3 0.543312 16.6494 4.33607 7.47283
16 6 2 -0.792516 4.5563 0.889053 6.06037
17 6 3 0.377007 3.89492 1.14458 5.35518
18 6 3 0.41551 4.2471 0.0574541 6.52172
19 7 2 -0.999067 11.9301 12.4913 22.5386
20 7 3 0.403457 12.2397 12.8928 21.6767
21 7 3 0.59561 11.7544 11.5156 22.4078
22 8 2 -1.01902 0.302371 5.91864 29.7369
23 8 3 0.512381 0.280023 5.78571 0.15001
24 8 3 0.506637 17.0279 5.82974 29.3677
25 9 2 -1.09469 11.1199 1.90216 3.19948
26 9 3 0.634709 11.4815 2.49036 2.47611
27 9 3 0.459983 10.1204 1.92734 3.18114
28 10 2 -0.694572 10.4243 1.70358 28.6102
29 10 3 0.314169 10.0513 1.58989 29.5311
30 10 3 0.380403 11.2587 2.25296 28.6541
31 11 2 -0.887892 10.9044 15.8291 28.2176
32 11 3 0.514091 11.3969 16.6959 28.1391
33 11 3 0.373801 10.5865 15.7103 29.1583
34 12 2 -1.95502 2.24664 7.29902 27.9559
35 12 3 0.940532 1.59732 6.85826 28.5757
36 12 3 1.01449 1.98898 7.10414 27.0096
37 13 2 -1.39575 9.24087 12.7327 1.57709
38 13 3 0.438471 9.79313 12.4 0.812694
39 13 3 0.957277 8.38861 12.2117 1.62422
40 14 2 -1.13944 0.731064 9.89559 3.08064
41 14 3 0.495859 1.56244 10.215 2.62587
42 14 3 0.64358 17.6206 9.90989 2.43221
43 15 2 -0.822208 15.3464 5.95373 28.8415
44 15 3 0.426816 15.7309 6.60946 28.1918
45 15 3 0.395392 14.6085 6.3891 29.3573
46 16 2 -1.05105 7.67931 8.76943 3.86498
47 16 3 0.521117 6.76986 9.11779 3.63795
48 16 3 0.529933 7.66287 8.36582 4.77977
49 17 2 -1.27045 11.9945 15.7817 0.457318
50 17 3 0.701612 11.2983 15.4576 1.09771
51 17 3 0.568842 12.7744 15.1558 0.467838
52 18 2 -0.713847 17.6259 2.53802 2.45326
53 18 3 0.363216 17.0714 2.108 3.16573
54 18 3 0.350631 0.692227 3.09123 2.87733
55 19 2 -0.892321 12.75 6.75065 22.8351
56 19 3 0.481244 11.8361 6.34491 22.8381
57 19 3 0.411078 12.7577 7.55939 23.4232
58 20 2 -0.80783 6.81708 12.2545 6.97021
59 20 3 0.417522 5.83845 12.0923 7.09658
60 20 3 0.390307 6.95296 13.1336 6.51332
61 21 2 -3.32361 6.67942 9.50839 0.655258
62 21 3 2.43925 5.97868 8.9073 0.270987
63 21 3 0.88436 7.41225 8.9553 1.05155
64 22 2 -0.883229 17.4706 9.3602 22.177
65 22 3 0.487264 0.795575 9.53982 22.0513
66 22 3 0.395966 17.166 9.76272 23.0402
67 23 2 -0.836069 11.9257 15.5703 22.6637
68 23 3 0.398594 11.0969 15.7954 22.1514
69 23 3 0.437475 11.8661 14.6296 22.9976
70 24 2 -1.05916 5.98344 11.3055 29.3972
71 24 3 0.384587 6.80799 11.2443 28.8348
72 24 3 0.674577 6.16754 10.9206 30.3016
73 25 2 -0.923959 6.93632 19.5881 3.24196
74 25 3 0.471849 6.12144 19.2355 3.70203
75 25 3 0.45211 7.5855 19.9238 3.92451
76 26 2 -0.905566 8.38281 3.19435 2.47487
77 26 3 0.463842 7.81073 2.75501 1.78225
78 26 3 0.441724 8.20062 2.78262 3.36778
79 27 2 -0.870342 3.76407 4.82974 29.5633
80 27 3 0.389824 2.94835 4.90969 30.1362
81 27 3 0.480518 4.57172 5.08223 30.0962
82 28 2 -1.24885 3.74159 6.38955 6.84629
83 28 3 0.480499 3.5874 6.83344 7.729
84 28 3 0.768348 3.1387 5.59615 6.76232
85 29 2 -0.937606 0.316855 10.7143 28.5944
86 29 3 0.395134 0.741799 10.1598 29.3099
87 29 3 0.542472 17.6164 11.5613 28.9935
88 30 2 -0.723496 1.2408 8.41273 30.0873
89 30 3 0.420607 0.959899 9.07183 0.207136
90 30 3 0.302889 2.22299 8.24219 30.1661
91 31 2 -0.955104 2.5985 19.1117 7.13987
92 31 3 0.471196 2.67942 18.1341 7.33388
93 31 3 0.483908 1.63323 19.3528 7.03933
94 32 2 -2.64468 4.02911 8.26785 28.8983
95 32 3 0.946933 4.00668 9.2533 28.7298
96 32 3 1.69775 3.21378 7.84365 28.5043
97 33 2 -0.817274 1.49419 8.90608 6.80135
98 33 3 0.404134 0.865782 9.06023 6.03889
99 33 3 0.413139 1.29939 8.01894 7.21973
100 34 2 -0.768572 10.5861 5.08584 4.61086
101 34 3 0.38021 10.1913 4.53851 3.87294
102 34 3 0.388362 10.4651 4.60862 5.48128
103 35 2 -1.24113 7.8851 6.96465 1.55766
104 35 3 0.717487 8.47744 7.31603 0.832631
105 35 3 0.523645 8.38062 6.97284 2.42622
106 36 2 -1.8562 7.1517 11.2785 1.68895
107 36 3 1.40223 6.79055 10.4616 1.23925
108 36 3 0.45397 7.30421 11.0856 2.65823
109 37 2 -0.97433 7.61216 16.571 3.19991
110 37 3 0.495722 8.33401 17.1486 2.81865
111 37 3 0.478608 6.76612 16.7118 2.68571
112 38 2 -0.82825 12.1853 10.1111 25.0967
113 38 3 0.383474 12.2026 9.43529 25.8336
114 38 3 0.444776 12.9229 10.7723 25.2334
115 39 2 -0.755636 2.02166 7.43412 4.22758
116 39 3 0.331268 2.99892 7.64538 4.209
117 39 3 0.424368 1.52562 8.10207 3.67278
118 40 2 -0.80783 4.86432 3.61211 3.87494
119 40 3 0.462178 4.92013 3.1807 4.77537
120 40 3 0.345652 5.0941 4.58204 3.95521
121 41 2 -1.08257 0.476858 16.6069 30.254
122 41 3 0.503848 1.11275 16.5402 29.4851
123 41 3 0.578717 0.822956 16.0661 0.442907
124 42 2 -0.868479 5.28346 9.02111 22.6179
125 42 3 0.379206 6.00588 8.35797 22.4221
126 42 3 0.489273 5.6421 9.94776 22.5052
127 43 2 -0.86172 0.981085 6.89637 22.4789
128 43 3 0.514071 0.709151 7.4806 21.7142
129 43 3 0.347649 0.218146 6.80911 23.1194
130 44 2 -0.896618 15.2848 9.05905 28.121
131 44 3 0.478189 15.3608 9.99138 28.4746
132 44 3 0.418429 15.8516 8.96572 27.3025
133 45 2 -1.07365 9.89009 17.8682 0.0240386
134 45 3 0.481113 9.90757 17.9677 1.01893
135 45 3 0.592533 9.47013 16.993 30.3617
136 46 2 -0.872409 0.499088 12.2317 7.12409
137 46 3 0.400933 0.110376 11.3223 7.2721
138 46 3 0.471476 1.38441 12.1454 6.66718
139 47 2 -0.90665 4.86873 8.10156 5.25637
140 47 3 0.702955 4.57723 7.31981 5.80764
141 47 3 0.203694 4.36549 8.10624 4.39223
142 48 2 -0.803344 9.90447 6.85169 22.8663
143 48 3 0.407431 9.52636 7.30228 23.675
144 48 3 0.395913 9.39584 7.14073 22.0553
145 49 2 -1.34969 14.9658 14.4807 4.88024
146 49 3 0.546612 14.932 13.8522 5.6573
147 49 3 0.803075 14.1573 15.0691 4.89202
148 50 2 -0.880477 4.46363 18.4489 3.97219
149 50 3 0.442541 3.49984 18.221 4.11059
150 50 3 0.437937 4.95042 17.6452 3.63002
151 51 2 -1.06937 8.40084 9.5816 23.0007
152 51 3 0.52728 8.13873 9.1389 23.8582
153 51 3 0.542087 7.71334 10.2648 22.7545
154 52 2 -0.893664 1.95214 14.1362 26.7957
155 52 3 0.401007 2.93517 13.9921 26.6821
156 52 3 0.492657 1.64727 14.8589 26.1755
157 53 2 -0.818366 4.01512 10.8188 7.08047
158 53 3 0.423175 3.21933 10.2156 7.02668
159 53 3 0.395191 4.44653 10.8825 6.18057
160 54 2 -1.27931 2.97613 18.1427 1.08913
161 54 3 0.508305 3.26192 19.0651 1.34905
162 54 3 0.771002 2.28215 17.8156 1.73054
163 55 2 -0.762193 12.6051 0.863685 25.732
164 55 3 0.367203 13.3688 0.303977 25.4102
165 55 3 0.39499 12.473 1.63612 25.1108
166 56 2 -1.09505 17.6179 13.4465 28.6536
167 56 3 0.497601 17.405 14.3669 28.9815
168 56 3 0.597446 0.897336 13.4302 28.2867
169 57 2 -0.738546 3.21275 8.92993 1.47178
170 57 3 0.382461 3.66618 8.84691 0.584354
171 57 3 0.356084 3.9019 9.00599 2.1924
172 58 2 -1.04505 1.31288 14.8205 1.2899
173 58 3 0.524889 1.09998 13.8997 0.963123
174 58 3 0.520165 1.40689 14.8075 2.28538
175 59 2 -0.774623 2.73751 17.8289 26.1931
176 59 3 0.314318 1.91652 17.8763 25.6242
177 59 3 0.460306 2.4791 17.6075 27.1334
178 60 2 -0.780596 5.94838 10.4005 26.9173
179 60 3 0.377932 6.68701 10.7268 26.3274
180 60 3 0.402664 5.72816 11.1022 27.5949
181 61 2 -0.84285 0.204456 19.748 6.13185
182 61 3 0.43087 17.2424 19.2427 5.5242
183 61 3 0.41198 0.903169 20.2136 5.5887
184 62 2 -0.965972 2.93639 17.129 29.1306
185 62 3 0.40806 3.41758 16.2766 29.3354
186 62 3 0.557912 2.66328 17.5712 29.9849
187 63 2 -1.09128 11.0958 9.90593 22.5394
188 63 3 0.475614 11.516 9.75135 23.4336
189 63 3 0.615665 10.1008 9.92527 22.6375
190 64 2 -0.851447 8.50444 19.3712 5.51042
191 64 3 0.434147 9.10291 18.637 5.1897
192 64 3 0.4173 8.73929 19.6045 6.45405
193 65 2 -0.9613 3.0516 10.1032 4.66676
194 65 3 0.457325 2.19558 9.59951 4.78302
195 65 3 0.503975 3.80452 9.5765 5.06132
196 66 2 -0.70879 14.8588 7.06914 0.915623
197 66 3 0.332998 14.9618 6.93728 30.5075
198 66 3 0.375793 15.3709 6.36114 1.40193
199 67 2 -0.952989 8.17842 12.7506 28.1419
200 67 3 0.436561 7.72927 12.0314 28.6721
201 67 3 0.516428 8.83772 13.2296 28.7215
202 68 2 -0.782701 2.3725 1.27855 3.81421
203 68 3 0.43166 2.76998 0.581117 3.21789
204 68 3 0.351041 1.52131 1.61548 3.41177
205 69 2 -0.849596 16.9168 17.5439 27.2764
206 69 3 0.40621 16.0077 17.7157 26.8967
207 69 3 0.443387 17.176 18.3009 27.8762
208 70 2 -0.842755 6.41344 13.8028 1.09734
209 70 3 0.483634 6.97298 13.2409 0.488052
210 70 3 0.359121 6.91319 14.6356 1.33536
211 71 2 -1.01471 5.14704 16.7841 1.78378
212 71 3 0.338755 5.01636 15.8082 1.60902
213 71 3 0.675959 4.37923 17.2972 1.4001
214 72 2 -1.09703 1.78663 15.1237 3.92173
215 72 3 0.581529 1.63505 14.1697 4.18036
216 72 3 0.515501 2.75293 15.2605 3.70358
217 73 2 -0.77102 5.82199 18.5149 6.96943
218 73 3 0.398077 6.21273 18.9204 6.14305
219 73 3 0.372943 4.97066 18.9856 7.20122
220 74 2 -0.901215 14.318 9.56933 22.1945
221 74 3 0.454876 14.8055 9.03243 22.8831
222 74 3 0.446339 13.3521 9.31035 22.1923
223 75 2 -1.00434 8.47086 16.2821 22.7283
224 75 3 0.580562 8.45129 17.2564 22.5036
225 75 3 0.42378 7.62924 16.0337 23.2079
226 76 2 -0.962964 15.7617 11.8055 29.7273
227 76 3 0.508386 16.3071 12.6063 29.4797
228 76 3 0.454578 14.9062 11.8117 29.2095
229 77 2 -0.955067 6.92281 14.9947 5.31872
230 77 3 0.518588 6.94255 15.4713 4.43979
231 77 3 0.436479 6.88788 15.6646 6.06039
232 78 2 -1.13074 6.43836 11.549 22.8495
233 78 3 0.435961 6.03938 11.5804 23.7659
234 78 3 0.694783 7.08849 12.3014 22.7431
235 79 2 -0.952213 16.9476 12.6197 4.07486
236 79 3 0.44584 0.256179 12.7285 4.33563
237 79 3 0.506373 16.3864 13.267 4.59073
238 80 2 -0.993916 15.1175 12.4254 22.4351
239 80 3 0.460728 14.344 12.8982 22.8571
240 80 3 0.533188 14.8644 11.477 22.2438
241 81 2 -0.775166 3.85671 1.12807 1.25164
242 81 3 0.397727 3.73807 1.77451 2.00533
243 81 3 0.377439 4.83058 1.02994 1.04683
244 82 2 -0.955663 14.2261 9.68014 4.28961
245 82 3 0.683952 14.2201 10.4625 3.66682
246 82 3 0.271711 13.3028 9.30255 4.35955
247 83 2 -1.22957 15.5093 17.4835 0.697236
248 83 3 0.614942 16.2764 16.9883 0.289444
249 83 3 0.614626 14.8135 17.6535 30.5772
250 84 2 -3.50953 5.38386 8.06684 30.4583
251 84 3 2.08987 4.59494 8.16232 29.8512
252 84 3 1.41967 5.67887 7.11148 30.4737
253 85 2 -1.30384 8.66854 15.6322 30.068
254 85 3 0.803546 8.58175 15.5061 29.0798
255 85 3 0.50029 7.83907 16.0632 30.4232
256 86 2 -0.881077 7.94352 19.0868 22.5999
257 86 3 0.443014 8.0487 19.6506 23.4191
258 86 3 0.438063 7.58174 19.6464 21.8543
259 87 2 -1.13206 15.5265 3.19146 5.13967
260 87 3 0.442536 16.1545 3.95996 5.26228
261 87 3 0.689525 14.8151 3.44371 4.48373
262 88 2 -0.783415 17.0888 7.29301 26.8795
263 88 3 0.387025 0.00938054 7.67438 27.6064
264 88 3 0.39639 16.9379 6.31934 27.0504
265 89 2 -1.22194 11.4416 11.0304 28.2231
266 89 3 0.665332 10.9701 11.8065 28.6418
267 89 3 0.556609 12.4264 11.1184 28.3729
268 90 2 -0.793483 8.3189 6.05732 27.3085
269 90 3 0.407995 8.37359 5.09734 27.5831
270 90 3 0.385488 9.23631 6.45522 27.3029
271 91 2 -0.758166 5.7733 4.70475 6.85573
272 91 3 0.437514 5.25708 5.39988 7.35605
273 91 3 0.320652 6.55067 5.13369 6.39561
274 92 2 -0.961835 12.7863 17.2658 24.8976
275 92 3 0.478876 12.868 16.8374 23.9977
276 92 3 0.482958 13.6555 17.6953 25.1425
277 93 2 -0.780658 14.7854 8.85179 25.0159
278 93 3 0.376748 14.6514 9.49872 25.7666
279 93 3 0.40391 15.3829 8.10918 25.3184
280 94 2 -0.795592 11.4807 9.16124 5.22658
281 94 3 0.421071 11.1807 9.55793 6.09413
282 94 3 0.374521 12.4767 9.07189 5.22763
283 95 2 -0.793327 7.46244 1.38222 0.489508
284 95 3 0.458869 6.98528 0.503494 0.476629
285 95 3 0.334458 8.23457 1.333 1.12307
286 96 2 -0.738486 7.18018 1.39783 25.113
287 96 3 0.387823 6.62862 2.02968 25.6575
288 96 3 0.350664 7.30431 0.543557 25.6178
289 97 2 -1.35974 13.363 17.6528 29.7528
290 97 3 0.708269 12.8723 16.9743 30.2995
291 97 3 0.651467 12.9509 18.5534 29.891
292 98 2 -0.724024 14.6807 1.00042 30.1004
293 98 3 0.384223 14.7127 0.285858 29.4015
294 98 3 0.339801 13.8518 0.892884 0.071575
295 99 2 -0.810657 10.5283 1.34751 5.86558
296 99 3 0.419901 10.5103 0.381929 5.60607
297 99 3 0.390756 10.9906 1.87554 5.15322
298 100 2 -0.919416 15.0987 12.5961 6.84966
299 100 3 0.464992 15.267 13.1442 7.66897
300 100 3 0.454425 15.9719 12.3335 6.4391
301 101 2 -0.782622 12.8651 6.43822 6.83067
302 101 3 0.440563 13.7124 6.86051 7.15288
303 101 3 0.342059 12.6618 6.76192 5.90662
304 102 2 -0.9781 14.7493 16.0837 28.2763
305 102 3 0.42979 15.6349 16.4247 27.9608
306 102 3 0.548311 14.2898 16.7935 28.8102
307 103 2 -0.989772 11.6047 9.00811 1.27453
308 103 3 0.52229 10.6769 9.30967 1.05492
309 103 3 0.467482 11.5753 8.37634 2.04913
310 104 2 -0.748117 12.5001 7.93212 28.9043
311 104 3 0.443096 12.5558 8.89155 28.6279
312 104 3 0.305021 13.0902 7.38058 28.3148
313 105 2 -0.880817 4.37431 14.5001 3.24855
314 105 3 0.546175 5.3227 14.2329 3.07769
315 105 3 0.334641 3.90215 14.6293 2.37656
316 106 2 -0.902184 8.80329 4.75994 0.12883
317 106 3 0.459666 8.91585 5.69044 0.477403
318 106 3 0.442518 8.9836 4.10498 0.862677
319 107 2 -1.14909 1.94814 4.46254 6.74873
320 107 3 0.651818 1.05381 4.90675 6.80228
321 107 3 0.497273 1.82787 3.4698 6.75042
322 108 2 -0.917106 2.49888 9.94145 22.4475
323 108 3 0.492077 2.99323 9.2958 23.0295
324 108 3 0.425029 2.87955 10.8582 22.5684
325 109 2 -1.00515 13.3389 19.4146 7.0424
326 109 3 0.421056 13.3637 19.283 8.03339
327 109 3 0.584095 13.4644 0.00285799 6.83168
328 110 2 -0.949355 11.3621 5.88844 30.4764
329 110 3 0.514037 11.9289 6.36858 29.807
330 110 3 0.435318 10.4487 5.74264 30.0964
331 111 2 -1.1346 13.4937 4.03821 3.92658
332 111 3 0.604369 12.7603 3.89199 3.2627
333 111 3 0.530234 13.1747 4.65652 4.64489
334 112 2 -1.04949 11.5907 19.453 4.71227
335 112 3 0.571206 11.9761 19.44 5.63497
336 112 3 0.478281 11.8875 20.2822 4.23871
337 113 2 -0.682851 9.75253 3.90343 25.1473
338 113 3 0.332374 8.86338 3.82089 25.5975
339 113 3 0.350478 10.1631 2.99664 25.0515
340 114 2 -1.30899 8.78091 7.78369 30.0031
341 114 3 0.583107 8.56647 7.5818 29.0474
342 114 3 0.725878 9.09935 8.72844 30.0809
343 115 2 -0.989585 10.0579 9.09582 27.3957
344 115 3 0.333318 9.93166 9.11796 26.404
345 115 3 0.656267 10.6755 9.83301 27.6697
346 116 2 -1.18635 8.03455 15.6043 27.6738
347 116 3 0.669949 8.82887 15.8299 27.1097
348 116 3 0.516405 7.7228 14.6795 27.4559
349 117 2 -1.03847 1.89232 6.27029 25.0406
350 117 3 0.459828 2.55026 5.52084 24.9669
351 117 3 0.578647 1.63173 6.57635 24.125
352 118 2 -0.959455 11.8895 11.6447 1.37758
353 118 3 0.524066 12.5588 12.262 1.79102
354 118 3 0.435389 10.998 11.7823 1.80913
355 119 2 -0.715009 9.06038 7.45973 7.16104
356 119 3 0.371894 9.45462 6.55773 6.98501
357 119 3 0.343115 9.74778 8.1642 6.9844
358 120 2 -0.836116 13.2507 7.17995 3.19063
359 120 3 0.320126 12.9612 8.04467 3.60103
360 120 3 0.51599 14.0491 7.33764 2.60942
361 121 2 -1.03867 16.5522 18.6366 3.10434
362 121 3 0.584116 16.3931 18.3618 2.15608
363 121 3 0.454557 15.936 19.3876 3.34164
364 122 2 -0.91321 10.0568 18.4257 2.66678
365 122 3 0.29163 10.5385 17.7615 2.09509
366 122 3 0.62158 10.584 18.5927 3.49999
367 123 2 -0.830344 11.2024 18.5885 27.455
368 123 3 0.453184 11.7029 19.0602 26.7291
369 123 3 0.37716 11.5491 18.884 28.3452
370 124 2 -0.817628 2.24713 6.08214 1.61415
371 124 3 0.473689 2.90264 5.54552 2.14551
372 124 3 0.343939 2.45613 7.05519 1.71167
373 125 2 -0.712317 11.6303 7.16531 25.8364
374 125 3 0.357658 12.1685 6.5613 26.4243
375 125 3 0.354659 11.2761 7.9281 26.3775
376 126 2 -0.772691 17.0611 19.8429 29.7884
377 126 3 0.397352 17.0876 0.341996 30.262
378 126 3 0.375339 16.7103 19.1412 30.4085
379 127 2 -0.95892 7.58296 8.01925 25.3723
380 127 3 0.468904 6.91695 8.42705 25.9969
381 127 3 0.490015 8.06158 7.27354 25.8358
382 128 2 -1.26703 12.0071 3.74129 1.61887
383 128 3 0.64452 12.9458 3.91664 1.32229
384 128 3 0.622506 11.4112 4.47395 1.28997
385 129 2 -0.839079 10.3868 6.88672 2.54955
386 129 3 0.486287 11.0753 7.01319 3.26371
387 129 3 0.352793 10.3815 5.93041 2.25727
388 130 2 -0.738377 3.24774 14.2138 29.7323
389 130 3 0.336746 4.11302 14.305 30.2252
390 130 3 0.401631 2.89022 13.2879 29.8549
391 131 2 -0.879217 7.00072 13.0105 26.0269
392 131 3 0.471608 7.48151 12.5727 26.7866
393 131 3 0.40761 7.63852 13.5881 25.5174
394 132 2 -1.05658 2.49518 12.8148 5.0362
395 132 3 0.455323 3.02047 13.6418 5.23669
396 132 3 0.601257 3.12231 12.0557 4.86192
397 133 2 -1.27828 8.84786 10.2902 0.188664
398 133 3 0.823842 7.96027 10.2083 0.641972
399 133 3 0.454442 9.54795 10.5183 0.865305
400 134 2 -1.13117 8.22162 13.4536 22.7639
401 134 3 0.568753 8.57433 14.3817 22.6444
402 134 3 0.562415 8.89037 12.9048 23.2655
403 135 2 -0.976583 12.6092 14.2363 26.368
404 135 3 0.510557 12.7015 15.2024 26.1268
405 135 3 0.466026 11.7027 14.0752 26.7581
406 136 2 -0.92921 9.81012 12.2067 24.6367
407 136 3 0.421797 9.7419 11.816 25.5546
408 136 3 0.507413 10.7734 12.3245 24.3953
409 137 2 -0.961306 15.6887 7.7853 6.6579
410 137 3 0.509563 15.696 8.45118 5.91188
411 137 3 0.451743 15.7558 8.26446 7.53307
412 138 2 -0.964049 16.1737 14.7173 0.791314
413 138 3 0.564341 16.2067 15.4306 1.49139
414 138 3 0.399708 17.088 14.3332 0.663321
415 139 2 -1.42921 10.1115 15.1415 1.92448
416 139 3 0.569269 9.61248 15.6043 1.19181
417 139 3 0.859941 9.77384 14.2049 2.01793
418 140 2 -0.804703 13.0096 3.68059 23.2643
419 140 3 0.387916 12.7859 3.18705 22.4239
420 140 3 0.416787 12.9124 4.66374 23.1095
421 141 2 -0.830185 16.5712 1.94209 7.27856
422 141 3 0.405011 16.4813 2.39917 6.39369
423 141 3 0.425174 16.5102 0.952245 7.15017
424 142 2 -0.750536 4.61325 6.27095 2.42186
425 142 3 0.428339 5.28461 6.98544 2.61879
426 142 3 0.322197 3.83322 6.67017 1.94
427 143 2 -1.34268 1.43395 17.4499 2.96348
428 143 3 0.697166 1.49186 16.5142 3.31159
429 143 3 0.645516 0.522055 17.8175 3.14589
430 144 2 -1.00089 5.25308 9.40006 2.91866
431 144 3 0.319873 4.40393 8.88941 2.78382
432 144 3 0.681013 5.67154 9.59142 2.03082
433 145 2 -0.916265 12.5676 0.0308303 1.97394
434 145 3 0.483735 12.1358 0.784747 2.4691
435 145 3 0.432531 12.2239 0.00847986 1.03511
436 146 2 -0.974124 0.443528 14.5513 24.2547
437 146 3 0.418792 0.901189 15.0192 23.4986
438 146 3 0.555332 0.248507 13.6062 23.9926
439 147 2 -0.762894 16.9449 6.12478 3.33979
440 147 3 0.436496 17.5062 6.7445 3.88827
441 147 3 0.326398 17.312 5.19687 3.40477
442 148 2 -1.06845 14.5479 11.8962 2.88893
443 148 3 0.548318 15.2351 12.4735 3.32997
444 148 3 0.520137 14.6271 11.9832 1.89587
445 149 2 -0.902891 15.6028 15.6903 25.0278
446 149 3 0.405665 15.1029 15.0426 25.6028
447 149 3 0.497226 16.4976 15.3087 24.7961
448 150 2 -0.960429 0.344043 12.1136 1.27286
449 150 3 0.428073 0.300994 12.4488 2.21404
450 150 3 0.532356 17.4069 11.3102 1.17789
451 151 2 -0.876892 15.3085 18.6023 24.8922
452 151 3 0.377573 15.2912 19.2222 24.1076
453 151 3 0.499319 15.8544 17.7952 24.6675
454 152 2 -1.00506 10.5764 13.1612 29.6597
455 152 3 0.437948 9.98905 13.944 29.8656
456 152 3 0.567107 11.2282 13.0281 30.4063
457 153 2 -1.25521 12.9655 16.036 4.81705
458 153 3 0.656558 11.9973 15.8088 4.7116
459 153 3 0.598648 13.1308 16.9593 4.47044
460 154 2 -1.21912 11.7661 19.7136 29.8524
461 154 3 0.672165 11.1029 18.9852 30.0245
462 154 3 0.546954 11.3002 0.118152 29.4457
463 155 2 -0.969342 13.8098 14.0794 30.208
464 155 3 0.556319 14.8055 14.0341 30.2889
465 155 3 0.413023 13.551 14.9294 29.7492
466 156 2 -1.19697 13.9112 9.83462 0.559628
467 156 3 0.764859 13.0398 9.46752 0.885039
468 156 3 0.432106 13.7542 10.3936 30.3232
469 157 2 -1.08018 13.904 12.2899 27.7769
470 157 3 0.433946 14.8677 12.0775 27.6151
471 157 3 0.646229 13.6896 13.1847 27.3853
472 158 2 -0.706581 7.83464 5.80356 3.78945
473 158 3 0.35372 7.84652 6.76585 3.51769
474 158 3 0.352861 6.91277 5.43487 3.6702
475 159 2 -0.957432 3.28927 11.1636 29.7899
476 159 3 0.480377 3.57497 11.3398 0.154038
477 159 3 0.477055 3.99245 11.4949 29.1607
478 160 2 -0.852063 3.80626 12.0302 1.73238
479 160 3 0.373116 4.67504 11.7776 1.30643
480 160 3 0.478946 3.94951 12.8057 2.3473
481 161 2 -0.800357 12.2119 13.5968 2.99741
482 161 3 0.385763 11.3751 13.9769 2.60331
483 161 3 0.414594 12.233 13.7845 3.97943
484 162 2 -0.802401 1.57581 16.3578 6.92751
485 162 3 0.392108 1.48663 15.5247 7.47333
486 162 3 0.410293 0.713585 16.5408 6.45518
487 163 2 -1.00419 0.145253 12.1191 22.7896
488 163 3 0.575058 16.8123 12.1851 22.622
489 163 3 0.429131 0.556047 11.4975 22.1226
490 164 2 -1.0619 16.5736 15.8136 3.25256
491 164 3 0.614643 16.0274 15.1979 3.82054
492 164 3 0.447258 16.1574 16.7229 3.2513
493 165 2 -1.01974 13.6826 1.52704 6.39885
494 165 3 0.567472 14.3881 1.98461 5.85757
495 165 3 0.452267 12.9297 2.16238 6.57046
496 166 2 -0.944189 13.5957 17.9307 2.56586
497 166 3 0.486731 14.1264 17.4649 1.85778
498 166 3 0.457458 12.9539 18.5666 2.13726
499 167 2 -0.949707 16.3966 11.5431 26.4953
500 167 3 0.531466 17.1712 11.2673 27.0645
501 167 3 0.418241 16.5984 12.4205 26.0601
502 168 2 -0.789627 8.99326 12.88 4.31883
503 168 3 0.435384 8.13075 13.1987 4.71194
504 168 3 0.354243 9.06699 11.8896 4.43557
505 169 2 -0.974327 9.72282 16.1638 25.3453
506 169 3 0.463979 9.31316 16.3333 24.449
507 169 3 0.510348 10.6294 16.5843 25.3824
508 170 2 -1.01795 16.8476 9.96035 5.40368
509 170 3 0.523021 17.5483 9.89278 4.6934
510 170 3 0.494931 16.0523 10.4469 5.04211
511 171 2 -0.767967 14.97 3.63775 1.30447
512 171 3 0.364183 15.7435 4.26684 1.38144
513 171 3 0.403784 15.1018 2.86921 1.93055
514 172 2 -1.07264 10.2831 15.7206 4.58009
515 172 3 0.498671 9.787 14.9378 4.95589
516 172 3 0.573966 10.1938 15.7249 3.58409
517 173 2 -0.803103 13.7834 9.67539 7.27352
518 173 3 0.372398 14.3573 9.44671 6.48719
519 173 3 0.430705 13.7504 10.6687 7.38452
520 174 2 -1.31637 6.08569 5.46396 30.4408
521 174 3 0.721485 6.78034 5.50155 0.581354
522 174 3 0.594888 6.24833 4.66539 29.8613
523 175 2 -0.780238 15.5727 16.7588 6.76526
524 175 3 0.404187 15.0848 17.6156 6.59814
525 175 3 0.376051 15.5518 16.1966 5.93852
526 176 2 -0.739075 5.13604 3.87119 27.1628
527 176 3 0.36403 4.36057 3.24077 27.1278
528 176 3 0.375045 5.21914 4.24651 28.086
529 177 1 0.0127064 0 0 10
530 177 1 0.00552932 1.47089 2.54765 10
531 177 1 -0.0184189 0 5.09531 10
532 177 1 -0.0318792 1.47089 7.64296 10
533 177 1 -0.0135397 0 10.1906 10
534 177 1 0.00956688 1.47089 12.7383 10
535 177 1 -0.00298268 0 15.2859 10
536 177 1 0.00991772 1.47089 17.8336 10
537 177 1 0.0213563 2.94178 0 10
538 177 1 0.0154215 4.41266 2.54765 10
539 177 1 -0.0186485 2.94178 5.09531 10
540 177 1 -0.0235122 4.41266 7.64296 10
541 177 1 0.0093455 2.94178 10.1906 10
542 177 1 0.018297 4.41266 12.7383 10
543 177 1 -0.000122169 2.94178 15.2859 10
544 177 1 0.0172316 4.41266 17.8336 10
545 177 1 0.0200751 5.88355 0 10
546 177 1 0.0117094 7.35444 2.54765 10
547 177 1 -0.00350654 5.88355 5.09531 10
548 177 1 0.00933214 7.35444 7.64296 10
549 177 1 0.0231505 5.88355 10.1906 10
550 177 1 0.0234704 7.35444 12.7383 10
551 177 1 0.00973737 5.88355 15.2859 10
552 177 1 0.0153028 7.35444 17.8336 10
553 177 1 0.000444913 8.82533 0 10
554 177 1 -0.00361031 10.2962 2.54765 10
555 177 1 0.0012846 8.82533 5.09531 10
556 177 1 0.00619389 10.2962 7.64296 10
557 177 1 0.0111829 8.82533 10.1906 10
558 177 1 -1.83476e-05 10.2962 12.7383 10
559 177 1 0.00394462 8.82533 15.2859 10
560 177 1 -0.00526429 10.2962 17.8336 10
561 177 1 -0.0159517 11.7671 0 10
562 177 1 -0.00766135 13.238 2.54765 10
563 177 1 -0.000406437 11.7671 5.09531 10
564 177 1 -4.69954e-05 13.238 7.64296 10
565 177 1 -0.00440464 11.7671 10.1906 10
566 177 1 -0.0182134 13.238 12.7383 10
567 177 1 -0.00190869 11.7671 15.2859 10
568 177 1 -0.00864897 13.238 17.8336 10
569 177 1 -0.00759206 14.7089 0 10
570 177 1 0.00866123 16.1798 2.54765 10
571 177 1 -0.0164973 14.7089 5.09531 10
572 177 1 -0.0265077 16.1798 7.64296 10
573 177 1 -0.0115369 14.7089 10.1906 10
574 177 1 -0.0186218 16.1798 12.7383 10
575 177 1 -0.00341285 14.7089 15.2859 10
576 177 1 0.00904939 16.1798 17.8336 10
577 177 1 0.00328279 1.47089 0.849218 12.402
578 177 1 -0.000386902 2.94178 3.39687 12.402
579 177 1 -0.00553409 1.47089 5.94452 12.402
580 177 1 -0.00430769 2.94178 8.49218 12.402
581 177 1 0.000504426 1.47089 11.0398 12.402
582 177 1 0.00119935 2.94178 13.5875 12.402
583 177 1 -0.000385644 1.47089 16.1351 12.402
584 177 1 0.00274128 2.94178 18.6828 12.402
585 177 1 0.00381292 4.41266 0.849218 12.402
586 177 1 0.00167305 5.88355 3.39687 12.402
587 177 1 -0.00539074 4.41266 5.94452 12.402
588 177 1 -0.000260748 5.88355 8.49218 12.402
589 177 1 0.00410512 4.41266 11.0398 12.402
590 177 1 0.00246762 5.88355 13.5875 12.402
591 177 1 0.000422519 4.41266 16.1351 12.402
592 177 1 0.00378341 5.88355 18.6828 12.402
593 177 1 0.002291 7.35444 0.849218 12.402
594 177 1 0.000310939 8.82533 3.39687 12.402
595 177 1 2.95189e-05 7.35444 5.94452 12.402
596 177 1 0.00183374 8.82533 8.49218 12.402
597 177 1 0.00409903 7.35444 11.0398 12.402
598 177 1 0.00129066 8.82533 13.5875 12.402
599 177 1 0.00115192 7.35444 16.1351 12.402
600 177 1 0.000417792 8.82533 18.6828 12.402
601 177 1 -0.00151822 10.2962 0.849218 12.402
602 177 1 -0.000749266 11.7671 3.39687 12.402
603 177 1 0.00138561 10.2962 5.94452 12.402
604 177 1 0.000692403 11.7671 8.49218 12.402
605 177 1 0.000380279 10.2962 11.0398 12.402
606 177 1 -0.00161779 11.7671 13.5875 12.402
607 177 1 -0.000400022 10.2962 16.1351 12.402
608 177 1 -0.00303149 11.7671 18.6828 12.402
609 177 1 -0.00275622 13.238 0.849218 12.402
610 177 1 -0.000648814 14.7089 3.39687 12.402
611 177 1 -0.000433953 13.238 5.94452 12.402
612 177 1 -0.00299682 14.7089 8.49218 12.402
613 177 1 -0.002933 13.238 11.0398 12.402
614 177 1 -0.00422252 14.7089 13.5875 12.402
615 177 1 -0.00102829 13.238 16.1351 12.402
616 177 1 -0.00156591 14.7089 18.6828 12.402
617 177 1 0.002152 16.1798 0.849218 12.402
618 177 1 0.00039561 0 3.39687 12.402
619 177 1 -0.00455806 16.1798 5.94452 12.402
620 177 1 -0.00586013 0 8.49218 12.402
621 177 1 -0.00385823 16.1798 11.0398 12.402
622 177 1 -0.00147002 0 13.5875 12.402
623 177 1 -0.000213527 16.1798 16.1351 12.402
624 177 1 0.00166339 0 18.6828 12.402
625 177 1 0.000434515 2.94178 1.69844 14.8039
626 177 1 -0.000578966 4.41266 4.24609 14.8039
627 177 1 -0.000559702 2.94178 6.79374 14.8039
628 177 1 -0.000502847 4.41266 9.34139 14.8039
629 177 1 -0.000637608 2.94178 11.889 14.8039
630 177 1 -0.000841722 4.41266 14.4367 14.8039
631 177 1 -0.000400473 2.94178 16.9844 14.8039
632 177 1 2.78592e-05 4.41266 19.532 14.8039
633 177 1 -0.00023493 5.88355 1.69844 14.8039
634 177 1 0.000406935 7.35444 4.24609 14.8039
635 177 1 -0.00128566 5.88355 6.79374 14.8039
636 177 1 -0.00104013 7.35444 9.34139 14.8039
637 177 1 -0.000531721 5.88355 11.889 14.8039
638 177 1 -0.00104343 7.35444 14.4367 14.8039
639 177 1 -0.00107232 5.88355 16.9844 14.8039
640 177 1 -0.000121422 7.35444 19.532 14.8039
641 177 1 0.000561795 8.82533 1.69844 14.8039
642 177 1 -6.57615e-07 10.2962 4.24609 14.8039
643 177 1 -0.000437461 8.82533 6.79374 14.8039
644 177 1 -0.000739594 10.2962 9.34139 14.8039
645 177 1 -0.000765902 8.82533 11.889 14.8039
646 177 1 -0.00105397 10.2962 14.4367 14.8039
647 177 1 0.000180743 8.82533 16.9844 14.8039
648 177 1 0.000357913 10.2962 19.532 14.8039
649 177 1 0.000763007 11.7671 1.69844 14.8039
650 177 1 0.000127028 13.238 4.24609 14.8039
651 177 1 -0.000112988 11.7671 6.79374 14.8039
652 177 1 0.000306683 13.238 9.34139 14.8039
653 177 1 -0.00101124 11.7671 11.889 14.8039
654 177 1 -0.00085103 13.238 14.4367 14.8039
655 177 1 0.000706974 11.7671 16.9844 14.8039
656 177 1 0.000681071 13.238 19.532 14.8039
657 177 1 0.000694927 14.7089 1.69844 14.8039
658 177 1 0.000399791 16.1798 4.24609 14.8039
659 177 1 0.000317583 14.7089 6.79374 14.8039
660 177 1 -0.000235072 16.1798 9.34139 14.8039
661 177 1 -0.000293601 14.7089 11.889 14.8039
662 177 1 -0.000122064 16.1798 14.4367 14.8039
663 177 1 0.000498885 14.7089 16.9844 14.8039
664 177 1 0.00113198 16.1798 19.532 14.8039
665 177 1 0.0013618 0 1.69844 14.8039
666 177 1 9.48909e-06 1.47089 4.24609 14.8039
667 177 1 -0.000515975 0 6.79374 14.8039
668 177 1 -0.000347942 1.47089 9.34139 14.8039
669 177 1 -0.000522299 0 11.889 14.8039
670 177 1 -0.00119286 1.47089 14.4367 14.8039
671 177 1 -0.000256222 0 16.9844 14.8039
672 177 1 0.00061801 1.47089 19.532 14.8039
673 177 1 -0.00131378 4.41266 2.54765 17.2059
674 177 1 -0.000452146 5.88355 5.09531 17.2059
675 177 1 0.00133928 4.41266 7.64296 17.2059
676 177 1 0.00185832 5.88355 10.1906 17.2059
677 177 1 0.00113428 4.41266 12.7383 17.2059
678 177 1 0.000203742 5.88355 15.2859 17.2059
679 177 1 -0.00142199 4.41266 17.8336 17.2059
680 177 1 -0.00311528 5.88355 0 17.2059
681 177 1 -0.00235637 7.35444 2.54765 17.2059
682 177 1 -0.000891702 8.82533 5.09531 17.2059
683 177 1 -0.00031402 7.35444 7.64296 17.2059
684 177 1 0.0013008 8.82533 10.1906 17.2059
685 177 1 0.00167152 7.35444 12.7383 17.2059
686 177 1 -0.000497089 8.82533 15.2859 17.2059
687 177 1 -0.00253519 7.35444 17.8336 17.2059
688 177 1 -0.00427064 8.82533 0 17.2059
689 177 1 -0.00264681 10.2962 2.54765 17.2059
690 177 1 -6.19036e-05 11.7671 5.09531 17.2059
691 177 1 0.00161548 10.2962 7.64296 17.2059
692 177 1 0.00249942 11.7671 10.1906 17.2059
693 177 1 -0.00200609 10.2962 12.7383 17.2059
694 177 1 -0.00266179 11.7671 15.2859 17.2059
695 177 1 -0.00167664 10.2962 17.8336 17.2059
696 177 1 -0.00234498 11.7671 0 17.2059
697 177 1 -0.00333022 13.238 2.54765 17.2059
698 177 1 -1.86581e-05 14.7089 5.09531 17.2059
699 177 1 0.00606162 13.238 7.64296 17.2059
700 177 1 0.00614663 14.7089 10.1906 17.2059
701 177 1 -0.00146224 13.238 12.7383 17.2059
702 177 1 0.00053257 14.7089 15.2859 17.2059
703 177 1 -0.000772016 13.238 17.8336 17.2059
704 177 1 -0.00219351 14.7089 0 17.2059
705 177 1 -0.00137563 16.1798 2.54765 17.2059
706 177 1 -0.00116951 0 5.09531 17.2059
707 177 1 0.00291954 16.1798 7.64296 17.2059
708 177 1 0.00236486 0 10.1906 17.2059
709 177 1 0.001775 16.1798 12.7383 17.2059
710 177 1 -0.000875282 0 15.2859 17.2059
711 177 1 -0.000540444 16.1798 17.8336 17.2059
712 177 1 -0.00110889 0 0 17.2059
713 177 1 -0.000856744 1.47089 2.54765 17.2059
714 177 1 0.000492855 2.94178 5.09531 17.2059
715 177 1 -0.000213531 1.47089 7.64296 17.2059
716 177 1 0.00133045 2.94178 10.1906 17.2059
717 177 1 -0.000941146 1.47089 12.7383 17.2059
718 177 1 -0.00144703 2.94178 15.2859 17.2059
719 177 1 -0.00109459 1.47089 17.8336 17.2059
720 177 1 -0.00131567 2.94178 0 17.2059
721 177 1 -0.00394745 5.88355 3.39687 19.6078
722 177 1 -0.00166238 7.35444 5.94452 19.6078
723 177 1 0.0107907 5.88355 8.49218 19.6078
724 177 1 0.0153783 7.35444 11.0398 19.6078
725 177 1 0.0129812 5.88355 13.5875 19.6078
726 177 1 0.00123757 7.35444 16.1351 19.6078
727 177 1 -0.0150222 5.88355 18.6828 19.6078
728 177 1 -0.0221471 7.35444 0.849218 19.6078
729 177 1 -0.00498874 8.82533 3.39687 19.6078
730 177 1 0.00585695 10.2962 5.94452 19.6078
731 177 1 0.00822747 8.82533 8.49218 19.6078
732 177 1 0.0120911 10.2962 11.0398 19.6078
733 177 1 0.00865408 8.82533 13.5875 19.6078
734 177 1 -0.00876002 10.2962 16.1351 19.6078
735 177 1 -0.0161533 8.82533 18.6828 19.6078
736 177 1 -0.0152043 10.2962 0.849218 19.6078
737 177 1 -0.0154738 11.7671 3.39687 19.6078
738 177 1 0.0151416 13.238 5.94452 19.6078
739 177 1 0.0312148 11.7671 8.49218 19.6078
740 177 1 0.0137717 13.238 11.0398 19.6078
741 177 1 -0.015457 11.7671 13.5875 19.6078
742 177 1 0.00150055 13.238 16.1351 19.6078
743 177 1 -0.00822217 11.7671 18.6828 19.6078
744 177 1 -0.0169281 13.238 0.849218 19.6078
745 177 1 -0.0123253 14.7089 3.39687 19.6078
746 177 1 0.000838586 16.1798 5.94452 19.6078
747 177 1 0.0395141 14.7089 8.49218 19.6078
748 177 1 0.0237009 16.1798 11.0398 19.6078
749 177 1 0.00911013 14.7089 13.5875 19.6078
750 177 1 -0.00175472 16.1798 16.1351 19.6078
751 177 1 -0.00923517 14.7089 18.6828 19.6078
752 177 1 -0.012249 16.1798 0.849218 19.6078
753 177 1 -0.00634419 0 3.39687 19.6078
754 177 1 0.000114659 1.47089 5.94452 19.6078
755 177 1 0.0101366 0 8.49218 19.6078
756 177 1 0.00253357 1.47089 11.0398 19.6078
757 177 1 0.00284133 0 13.5875 19.6078
758 177 1 -0.00902877 1.47089 16.1351 19.6078
759 177 1 -0.00985648 0 18.6828 19.6078
760 177 1 -0.0061748 1.47089 0.849218 19.6078
761 177 1 -0.00203272 2.94178 3.39687 19.6078
762 177 1 0.00539919 4.41266 5.94452 19.6078
763 177 1 0.0154467 2.94178 8.49218 19.6078
764 177 1 0.0151169 4.41266 11.0398 19.6078
765 177 1 -0.00285558 2.94178 13.5875 19.6078
766 177 1 -0.00385334 4.41266 16.1351 19.6078
767 177 1 -0.00714704 2.94178 18.6828 19.6078
768 177 1 -0.00897318 4.41266 0.849218 19.6078
