# Au(111) + 176 SPC-FQ (run_dyn_spc.py)

768 atoms

3 atom types

0.0 17.65065805 xlo xhi
0.0 20.38122435 ylo yhi
0.0 30.57780130 zlo zhi

Masses

1 196.966569
2 15.9994
3 1.008

Atoms # full

1 1 2 0.000000 2.79618893 10.68523599 29.46342749 0 0 0
2 1 3 0.000000 3.16173258 9.77949276 29.67793230 0 0 0
3 1 3 0.000000 2.63343367 10.75448488 28.47919145 0 0 0
4 2 2 0.000000 5.96847322 10.13904846 1.45569865 0 0 1
5 2 3 0.000000 6.19564317 9.61243049 2.27488886 0 0 1
6 2 3 0.000000 5.85376458 11.10203068 1.69965039 0 0 1
7 3 2 0.000000 1.50045528 10.28750559 26.64560122 0 0 0
8 3 3 0.000000 1.45729845 9.43307626 26.12782397 0 0 0
9 3 3 0.000000 1.47255925 11.06200796 26.01364144 0 0 0
10 4 2 0.000000 0.14844634 2.15308031 24.83062980 0 0 0
11 4 3 0.000000 1.01847778 2.55832092 24.54986192 0 0 0
12 4 3 0.000000 17.04901274 2.60900244 24.35156528 -1 0 0
13 5 2 0.000000 1.94633246 4.71877016 1.84407339 0 0 1
14 5 3 0.000000 2.57466244 3.99173126 2.12087862 0 0 1
15 5 3 0.000000 2.07787682 5.51551131 2.43390803 0 0 1
16 6 2 0.000000 2.93714906 1.76335545 28.23182098 0 0 0
17 6 3 0.000000 2.80905242 2.59358877 27.68931830 0 0 0
18 6 3 0.000000 3.08133059 0.98490229 27.62089738 0 0 0
19 7 2 0.000000 7.71282834 6.04751775 23.18168193 0 0 0
20 7 3 0.000000 8.19250511 6.70246799 23.76559601 0 0 0
21 7 3 0.000000 8.19379587 5.96444290 22.30888523 0 0 0
22 8 2 0.000000 17.17692974 6.36595828 1.86464025 0 0 1
23 8 3 0.000000 0.45765240 6.01575981 1.76516022 1 0 1
24 8 3 0.000000 17.20660481 7.35428393 2.01409619 0 0 1
25 9 2 0.000000 12.79881106 19.41778061 0.76666627 0 0 1
26 9 3 0.000000 13.12429364 20.13245501 1.38578408 0 0 1
27 9 3 0.000000 12.74287224 19.78212840 30.41488335 0 0 0
28 10 2 0.000000 0.04439777 6.64799170 27.71543390 0 0 0
29 10 3 0.000000 0.77627457 6.39259052 28.34720273 0 0 0
30 10 3 0.000000 17.02996590 5.90349045 27.65730845 -1 0 0
31 11 2 0.000000 10.65589971 3.13910823 29.10472582 0 0 0
32 11 3 0.000000 11.38952093 3.07822086 29.78155512 0 0 0
33 11 3 0.000000 10.12761572 3.97387317 29.25993151 0 0 0
34 12 2 0.000000 5.42782925 5.04704890 26.72454743 0 0 0
35 12 3 0.000000 5.96318242 5.82995131 26.40758361 0 0 0
36 12 3 0.000000 4.47073049 5.16939939 26.46187351 0 0 0
37 13 2 0.000000 2.59220980 10.11227679 5.89226461 0 0 1
38 13 3 0.000000 3.18925945 9.36499130 5.60054318 0 0 1
39 13 3 0.000000 2.82429134 10.37855479 6.82780695 0 0 1
40 14 2 0.000000 0.15754294 6.98073576 5.78189073 0 0 1
41 14 3 0.000000 0.84870274 6.86521776 6.49530436 0 0 1
42 14 3 0.000000 0.20123987 7.91321036 5.42330046 0 0 1
43 15 2 0.000000 2.48437546 4.45539120 26.44568930 0 0 0
44 15 3 0.000000 2.38346592 4.20375211 25.48314044 0 0 0
45 15 3 0.000000 2.34300878 5.43989962 26.54943850 0 0 0
46 16 2 0.000000 3.88323531 2.67629799 2.61060871 0 0 1
47 16 3 0.000000 3.20997382 1.94351654 2.70937905 0 0 1
48 16 3 0.000000 4.75588515 2.38194817 3.00028257 0 0 1
49 17 2 0.000000 11.95948055 12.34058890 0.70285495 0 0 1
50 17 3 0.000000 12.46349052 11.61971990 0.22711646 0 0 1
51 17 3 0.000000 11.85158425 13.12805352 0.09600807 0 0 1
52 18 2 0.000000 6.05663151 19.19685281 2.73261177 0 0 1
53 18 3 0.000000 5.97639829 18.97124858 3.70352404 0 0 1
54 18 3 0.000000 6.93149148 18.86102587 2.38354792 0 0 1
55 19 2 0.000000 7.72680886 10.01820339 22.99062054 0 0 0
56 19 3 0.000000 8.66271671 10.13574199 22.65855663 0 0 0
57 19 3 0.000000 7.63219827 9.11434815 23.40787324 0 0 0
58 20 2 0.000000 5.28570010 12.73645816 2.34986127 0 0 1
59 20 3 0.000000 5.63902776 13.64337456 2.57935524 0 0 1
60 20 3 0.000000 4.44961285 12.56294285 2.87029938 0 0 1
61 21 2 0.000000 4.74856430 8.54070826 30.18283401 0 0 0
62 21 3 0.000000 4.69891406 7.67686273 0.10634202 0 0 1
63 21 3 0.000000 5.12065271 9.25156806 0.20188598 0 0 1
64 22 2 0.000000 3.28063447 7.12811935 27.70403300 0 0 0
65 22 3 0.000000 3.31220728 7.60766894 26.82708339 0 0 0
66 22 3 0.000000 3.87904338 7.59034183 28.35845062 0 0 0
67 23 2 0.000000 12.58139529 9.87479225 29.96815467 0 0 0
68 23 3 0.000000 12.49543019 9.82602783 28.97304799 0 0 0
69 23 3 0.000000 12.98092277 9.02430865 30.31029602 0 0 0
70 24 2 0.000000 6.25757945 6.19160692 3.15452753 0 0 1
71 24 3 0.000000 6.04095904 6.04448795 2.18941776 0 0 1
72 24 3 0.000000 5.78842293 5.50496995 3.70988968 0 0 1
73 25 2 0.000000 6.08755632 1.38190504 4.18341939 0 0 1
74 25 3 0.000000 6.24175103 0.49358660 3.75084616 0 0 1
75 25 3 0.000000 5.66817408 1.24718473 5.08118008 0 0 1
76 26 2 0.000000 5.04800739 1.31419514 30.17420551 0 0 0
77 26 3 0.000000 4.39188658 1.56324833 29.46182692 0 0 0
78 26 3 0.000000 4.62502433 0.66261008 0.22610852 0 0 1
79 27 2 0.000000 5.45233628 1.45025434 26.41318362 0 0 0
80 27 3 0.000000 5.10563700 1.51233667 25.47726126 0 0 0
81 27 3 0.000000 5.43947867 2.35718797 26.83426716 0 0 0
82 28 2 0.000000 0.30027619 9.80055527 4.88410224 0 0 1
83 28 3 0.000000 1.21618973 9.96105987 5.25199616 0 0 1
84 28 3 0.000000 17.28969885 10.36535446 5.37783791 -1 0 1
85 29 2 0.000000 4.34060445 8.52057835 24.89404370 0 0 0
86 29 3 0.000000 4.83050196 8.72339245 25.74190698 0 0 0
87 29 3 0.000000 3.98401795 9.36946856 24.50386842 0 0 0
88 30 2 0.000000 0.07349345 9.26325021 2.30814996 0 0 1
89 30 3 0.000000 0.50142683 9.97362242 1.74935696 0 0 1
90 30 3 0.000000 0.15988733 9.50267392 3.27521648 0 0 1
91 31 2 0.000000 1.87740641 0.63791446 3.86193523 0 0 1
92 31 3 0.000000 0.91351902 0.80257213 4.07125373 0 0 1
93 31 3 0.000000 1.98358731 20.10071016 3.48085819 0 -1 1
94 32 2 0.000000 6.66122614 4.77277730 29.17687307 0 0 0
95 32 3 0.000000 6.17282280 4.75653965 28.30440313 0 0 0
96 32 3 0.000000 7.64647110 4.79385684 29.00701049 0 0 0
97 33 2 0.000000 8.45568721 11.99086229 2.87097050 0 0 1
98 33 3 0.000000 8.53086152 12.20201091 1.89640888 0 0 1
99 33 3 0.000000 7.49337158 12.00757214 3.14240133 0 0 1
100 34 2 0.000000 6.73425884 3.37996544 6.80707287 0 0 1
101 34 3 0.000000 6.37094500 3.56706776 5.89438396 0 0 1
102 34 3 0.000000 7.01425470 4.23840673 7.23682413 0 0 1
103 35 2 0.000000 4.71578027 4.74027563 4.93999569 0 0 1
104 35 3 0.000000 4.75035695 5.51433592 5.57216686 0 0 1
105 35 3 0.000000 3.76229127 4.49287759 4.76778009 0 0 1
106 36 2 0.000000 4.24086071 8.06308877 5.20396426 0 0 1
107 36 3 0.000000 4.56099572 7.58146017 6.01977841 0 0 1
108 36 3 0.000000 5.01918219 8.48515210 4.73911645 0 0 1
109 37 2 0.000000 9.05643810 16.62064274 2.69638650 0 0 1
110 37 3 0.000000 9.69574200 15.91696776 2.38632633 0 0 1
111 37 3 0.000000 9.45092613 17.52485910 2.53274900 0 0 1
112 38 2 0.000000 13.46359643 9.88385980 24.36644690 0 0 0
113 38 3 0.000000 13.53470193 10.21125512 23.42423589 0 0 0
114 38 3 0.000000 13.16032899 10.63158419 24.95716034 0 0 0
115 39 2 0.000000 1.51787106 11.66306375 1.09521934 0 0 1
116 39 3 0.000000 1.94961188 11.21516862 0.31227931 0 0 1
117 39 3 0.000000 1.44160379 12.64421179 0.91763244 0 0 1
118 40 2 0.000000 1.81757716 3.48661699 5.07627522 0 0 1
119 40 3 0.000000 1.86606573 2.65340601 4.52544529 0 0 1
120 40 3 0.000000 0.87773835 3.62570944 5.38830335 0 0 1
121 41 2 0.000000 2.85584403 12.19832601 3.74085144 0 0 1
122 41 3 0.000000 2.96140382 11.44963361 4.39531465 0 0 1
123 41 3 0.000000 2.50459247 11.83845617 2.87648964 0 0 1
124 42 2 0.000000 5.51716895 9.29420953 27.62588422 0 0 0
125 42 3 0.000000 5.29501047 9.02144541 28.56196681 0 0 0
126 42 3 0.000000 5.48309340 10.29090580 27.55212319 0 0 0
127 43 2 0.000000 2.43370290 3.59461732 23.69892999 0 0 0
128 43 3 0.000000 3.32712613 3.14926399 23.64010285 0 0 0
129 43 3 0.000000 2.09256787 3.78046581 22.77746784 0 0 0
130 44 2 0.000000 16.91056658 9.33180867 28.01372286 0 0 0
131 44 3 0.000000 0.11059206 9.81105197 27.79769354 1 0 0
132 44 3 0.000000 16.98460198 8.37623216 27.72842027 0 0 0
133 45 2 0.000000 11.00224702 14.91575204 1.77085083 0 0 1
134 45 3 0.000000 11.45002522 14.27746377 2.39702016 0 0 1
135 45 3 0.000000 11.39089280 14.81244170 0.85527084 0 0 1
136 46 2 0.000000 12.24206993 17.18321989 2.62521839 0 0 1
137 46 3 0.000000 11.63772214 16.40734949 2.44412687 0 0 1
138 46 3 0.000000 12.50362805 17.61105581 1.76003110 0 0 1
139 47 2 0.000000 2.10768774 6.35926933 3.95893357 0 0 1
140 47 3 0.000000 2.92663499 6.87630429 4.20794263 0 0 1
141 47 3 0.000000 1.43324084 6.42882914 4.69397649 0 0 1
142 48 2 0.000000 8.13343063 10.48244431 29.52655933 0 0 0
143 48 3 0.000000 7.46531980 10.44602050 30.26973259 0 0 0
144 48 3 0.000000 8.37043379 11.43544147 29.33779707 0 0 0
145 49 2 0.000000 12.28740567 13.70366751 3.91091432 0 0 1
146 49 3 0.000000 12.64547833 12.78929740 3.72192611 0 0 1
147 49 3 0.000000 13.00956801 14.26849129 4.31023990 0 0 1
148 50 2 0.000000 4.35338292 15.85481849 0.84693097 0 0 1
149 50 3 0.000000 4.16907992 16.63366401 0.24740005 0 0 1
150 50 3 0.000000 5.00784275 15.24141068 0.40486935 0 0 1
151 51 2 0.000000 3.67649078 10.97191846 23.88504000 0 0 0
152 51 3 0.000000 3.07898394 11.58659912 24.39997546 0 0 0
153 51 3 0.000000 4.45279600 11.48775477 23.52273022 0 0 0
154 52 2 0.000000 1.91237694 12.80814220 25.04849307 0 0 0
155 52 3 0.000000 1.18487087 13.35818645 24.63838148 0 0 0
156 52 3 0.000000 2.23086968 13.24903871 25.88764617 0 0 0
157 53 2 0.000000 7.16457535 16.64480155 6.69833996 0 0 1
158 53 3 0.000000 6.90263492 16.54683312 7.65844135 0 0 1
159 53 3 0.000000 7.19197301 15.74320499 6.26662444 0 0 1
160 54 2 0.000000 7.37788965 2.64529816 0.22003881 0 0 1
161 54 3 0.000000 7.17802473 3.51752164 30.35142608 0 0 0
162 54 3 0.000000 6.53610272 2.11155403 0.30076823 0 0 1
163 55 2 0.000000 10.21431924 17.05050163 26.43213649 0 0 0
164 55 3 0.000000 11.14237007 17.22231249 26.76260277 0 0 0
165 55 3 0.000000 10.24329129 16.82843843 25.45753205 0 0 0
166 56 2 0.000000 3.04194723 13.78146289 27.52067718 0 0 0
167 56 3 0.000000 3.68046817 14.54563847 27.61195684 0 0 0
168 56 3 0.000000 2.42913276 13.76293774 28.31069016 0 0 0
169 57 2 0.000000 0.09242581 14.46451318 23.92029100 0 0 0
170 57 3 0.000000 0.40748140 15.11733137 24.60918407 0 0 0
171 57 3 0.000000 16.84801813 14.10600372 24.18549576 -1 0 0
172 58 2 0.000000 17.32328351 16.99225422 3.04042764 0 0 1
173 58 3 0.000000 16.45592658 17.44191214 3.25374662 0 0 1
174 58 3 0.000000 17.15552226 16.21505625 2.43394206 0 0 1
175 59 2 0.000000 3.69568376 16.87388561 25.19253071 0 0 0
176 59 3 0.000000 2.76323531 16.51839756 25.12792880 0 0 0
177 59 3 0.000000 4.04003209 16.73949459 26.12170699 0 0 0
178 60 2 0.000000 5.19653661 11.93086566 27.47629141 0 0 0
179 60 3 0.000000 5.87189432 12.29480927 26.83485375 0 0 0
180 60 3 0.000000 4.42327273 12.56176801 27.53977752 0 0 0
181 61 2 0.000000 16.72431672 0.89838927 4.67625951 0 0 1
182 61 3 0.000000 16.06969792 0.85689801 5.43108265 0 0 1
183 61 3 0.000000 16.36168201 1.48537801 3.95241866 0 0 1
184 62 2 0.000000 3.66549615 18.39829965 22.96293240 0 0 0
185 62 3 0.000000 3.94658002 17.91929387 23.79452761 0 0 0
186 62 3 0.000000 2.67210869 18.33976047 22.86414077 0 0 0
187 63 2 0.000000 10.82596540 13.31445915 23.21487855 0 0 0
188 63 3 0.000000 11.81163215 13.43834306 23.10033987 0 0 0
189 63 3 0.000000 10.41651183 13.06906127 22.33616760 0 0 0
190 64 2 0.000000 9.39241780 17.40931272 5.38213932 0 0 1
191 64 3 0.000000 8.58829922 17.39350963 5.97640261 0 0 1
192 64 3 0.000000 9.11437618 17.22202634 4.44000242 0 0 1
193 65 2 0.000000 1.30587346 14.25931290 3.56647387 0 0 1
194 65 3 0.000000 1.85758922 13.45265829 3.77842514 0 0 1
195 65 3 0.000000 1.56804230 15.01090474 4.17176922 0 0 1
196 66 2 0.000000 15.92280644 0.51617613 30.18378047 0 0 0
197 66 3 0.000000 15.30410521 0.76484949 29.43854519 0 0 0
198 66 3 0.000000 15.86318827 1.20175521 0.33153569 0 0 1
199 67 2 0.000000 6.03411913 12.31331476 22.87155192 0 0 0
200 67 3 0.000000 6.33446863 12.95428145 22.16518293 0 0 0
201 67 3 0.000000 6.56715224 11.46985902 22.80474324 0 0 0
202 68 2 0.000000 3.70822294 19.64929669 1.26654603 0 0 1
203 68 3 0.000000 3.10671615 19.15013559 1.89027117 0 0 1
204 68 3 0.000000 4.65361955 19.57415247 1.58369563 0 0 1
205 69 2 0.000000 6.48128192 16.24557932 24.90534253 0 0 0
206 69 3 0.000000 6.83325905 16.05533559 25.82181659 0 0 0
207 69 3 0.000000 5.51035822 16.47799279 24.96275705 0 0 0
208 70 2 0.000000 6.53447917 15.54811962 3.11305908 0 0 1
209 70 3 0.000000 7.39202233 16.05177503 3.00838701 0 0 1
210 70 3 0.000000 5.87528624 15.86712712 2.43210081 0 0 1
211 71 2 0.000000 5.34257717 13.54290734 29.93777179 0 0 0
212 71 3 0.000000 5.83085809 13.05318983 29.21543961 0 0 0
213 71 3 0.000000 4.94419609 12.88448107 30.57634256 0 0 0
214 72 2 0.000000 2.17575172 18.30242003 3.39484763 0 0 1
215 72 3 0.000000 1.28288465 17.85217105 3.38651036 0 0 1
216 72 3 0.000000 2.85951169 17.67978644 3.77538015 0 0 1
217 73 2 0.000000 5.86887921 18.71912051 5.45282812 0 0 1
218 73 3 0.000000 4.93402187 18.88535317 5.76653775 0 0 1
219 73 3 0.000000 6.31465183 18.06585569 6.06482248 0 0 1
220 74 2 0.000000 8.77868733 7.91865796 24.74159714 0 0 0
221 74 3 0.000000 8.20519406 7.84745918 25.55771078 0 0 0
222 74 3 0.000000 9.73815523 7.99181856 25.01376279 0 0 0
223 75 2 0.000000 7.13259448 17.80302079 30.48287331 0 0 0
224 75 3 0.000000 7.07851009 17.23739576 29.65998299 0 0 0
225 75 3 0.000000 7.02114733 18.76511857 30.23397038 0 0 0
226 76 2 0.000000 15.91922309 13.69253921 27.61192678 0 0 0
227 76 3 0.000000 16.64610980 14.02938114 28.21040694 0 0 0
228 76 3 0.000000 15.63103889 12.78452913 27.91602024 0 0 0
229 77 2 0.000000 7.21461547 14.15612069 5.42653244 0 0 1
230 77 3 0.000000 8.19478947 14.03975323 5.26614910 0 0 1
231 77 3 0.000000 6.80594528 14.64265997 4.65434498 0 0 1
232 78 2 0.000000 4.21006389 18.11417410 29.42105041 0 0 0
233 78 3 0.000000 4.81510521 18.66249255 28.84374879 0 0 0
234 78 3 0.000000 4.08859990 18.56910994 30.30325512 0 0 0
235 79 2 0.000000 16.42360977 13.48549806 4.39856016 0 0 1
236 79 3 0.000000 16.52365934 12.70068327 5.01016551 0 0 1
237 79 3 0.000000 17.32507909 13.77297799 4.07496532 0 0 1
238 80 2 0.000000 15.49108565 13.21534366 24.91708384 0 0 0
239 80 3 0.000000 15.67264018 12.23430246 24.98491738 0 0 0
240 80 3 0.000000 15.67240292 13.64968686 25.79939631 0 0 0
241 81 2 0.000000 3.69453359 0.50057890 6.01836785 0 0 1
242 81 3 0.000000 3.16835100 0.44004859 5.17015016 0 0 1
243 81 3 0.000000 3.58162979 20.03716504 6.54166919 0 -1 1
244 82 2 0.000000 1.77442061 14.68143638 0.92728482 0 0 1
245 82 3 0.000000 2.70329890 15.05180013 0.93187625 0 0 1
246 82 3 0.000000 1.37496822 14.77192784 1.83956458 0 0 1
247 83 2 0.000000 1.71614930 17.25597474 27.95063095 0 0 0
248 83 3 0.000000 2.57072605 17.42205853 28.44268789 0 0 0
249 83 3 0.000000 1.04328989 17.94967225 28.20763144 0 0 0
250 84 2 0.000000 7.23825635 7.33104131 26.80219417 0 0 0
251 84 3 0.000000 6.63094265 8.05870827 27.12106111 0 0 0
252 84 3 0.000000 7.99133891 7.21749215 27.45025167 0 0 0
253 85 2 0.000000 8.91947300 19.17076328 27.66620799 0 0 0
254 85 3 0.000000 9.39113529 18.34273139 27.36305267 0 0 0
255 85 3 0.000000 9.57121243 19.92782944 27.71194435 0 0 0
256 86 2 0.000000 4.23391523 14.72149275 22.97733777 0 0 0
257 86 3 0.000000 4.06113111 15.20309744 23.83652799 0 0 0
258 86 3 0.000000 4.79002632 13.90984682 23.15615781 0 0 0
259 87 2 0.000000 5.00753689 1.85010727 23.71542251 0 0 0
260 87 3 0.000000 5.91693746 2.19261833 23.47945205 0 0 0
261 87 3 0.000000 4.63745178 1.32943876 22.94604186 0 0 0
262 88 2 0.000000 17.50241278 2.90615439 0.63615558 0 0 1
263 88 3 0.000000 0.48567620 3.59003572 0.99734136 1 0 1
264 88 3 0.000000 0.36883190 2.17064591 0.19836140 1 0 1
265 89 2 0.000000 10.39189202 9.38066671 1.43328123 0 0 1
266 89 3 0.000000 11.20147029 9.41628978 0.84734669 0 0 1
267 89 3 0.000000 10.16261719 10.30393359 1.74152884 0 0 1
268 90 2 0.000000 10.69424982 0.79780702 27.55393722 0 0 0
269 90 3 0.000000 10.65229696 1.71650511 27.94667003 0 0 0
270 90 3 0.000000 10.59263228 0.85490357 26.56075087 0 0 0
271 91 2 0.000000 9.98912749 19.26448742 1.99911086 0 0 1
272 91 3 0.000000 10.96115166 19.25623681 1.76436374 0 0 1
273 91 3 0.000000 9.46474584 19.63939978 1.23460456 0 0 1
274 92 2 0.000000 13.77766518 0.00633893 25.11174968 0 0 0
275 92 3 0.000000 14.34487769 0.60460668 25.67774522 0 0 0
276 92 3 0.000000 13.53854593 19.56658463 25.63022948 0 -1 0
277 93 2 0.000000 16.27045411 10.51325322 24.70511798 0 0 0
278 93 3 0.000000 15.34564081 10.18391082 24.89553654 0 0 0
279 93 3 0.000000 16.93205073 9.79826117 24.93113025 0 0 0
280 94 2 0.000000 8.90470445 6.27715167 1.73061088 0 0 1
281 94 3 0.000000 8.08881779 5.86605110 2.13721948 0 0 1
282 94 3 0.000000 8.85235499 7.27245573 1.81206418 0 0 1
283 95 2 0.000000 8.56315221 2.81464771 2.86980737 0 0 1
284 95 3 0.000000 8.03225114 2.77669369 2.02322081 0 0 1
285 95 3 0.000000 8.02626572 2.42431597 3.61773739 0 0 1
286 96 2 0.000000 11.34051524 7.31220995 22.95011142 0 0 0
287 96 3 0.000000 12.21143799 7.05655535 22.53042159 0 0 0
288 96 3 0.000000 11.34008298 7.03656689 23.91137412 0 0 0
289 97 2 0.000000 1.95982159 6.40679597 23.34896412 0 0 0
290 97 3 0.000000 1.84618128 5.41336088 23.36230103 0 0 0
291 97 3 0.000000 2.93091628 6.63012154 23.26466665 0 0 0
292 98 2 0.000000 14.27259532 2.36058412 27.25256755 0 0 0
293 98 3 0.000000 13.85123548 2.42594178 28.15710585 0 0 0
294 98 3 0.000000 13.65293445 2.74395348 26.56769267 0 0 0
295 99 2 0.000000 11.73039898 5.39442634 1.65539370 0 0 1
296 99 3 0.000000 11.84605784 4.41094883 1.79467860 0 0 1
297 99 3 0.000000 10.75576822 5.61822683 1.65171926 0 0 1
298 100 2 0.000000 9.29144349 2.18106240 6.23048041 0 0 1
299 100 3 0.000000 8.31718232 2.29098780 6.42729724 0 0 1
300 100 3 0.000000 9.45054770 1.27961648 5.82788089 0 0 1
301 101 2 0.000000 15.06256784 9.01991769 1.83187761 0 0 1
302 101 3 0.000000 15.08380251 8.43035969 1.02442748 0 0 1
303 101 3 0.000000 15.99124857 9.31971362 2.05023459 0 0 1
304 102 2 0.000000 16.64186952 0.47913493 26.66204807 0 0 0
305 102 3 0.000000 17.12773102 1.01175662 25.96904157 0 0 0
306 102 3 0.000000 16.01030187 1.07493783 27.15817959 0 0 0
307 103 2 0.000000 9.36129297 5.59750572 29.30439397 0 0 0
308 103 3 0.000000 9.45660017 5.71193353 30.29324587 0 0 0
309 103 3 0.000000 9.63612994 6.44116031 28.84318161 0 0 0
310 104 2 0.000000 13.41947132 7.18878371 0.19316192 0 0 1
311 104 3 0.000000 14.07047827 6.75585923 30.14744768 0 0 0
312 104 3 0.000000 12.79268974 6.49773795 0.55317009 0 0 1
313 105 2 0.000000 9.98533139 20.31316697 4.57975514 0 0 1
314 105 3 0.000000 9.99982029 19.97711286 3.63802111 0 0 1
315 105 3 0.000000 9.94306464 19.53773734 5.20977712 0 0 1
316 106 2 0.000000 13.08082969 5.08673432 27.73754628 0 0 0
317 106 3 0.000000 13.98869107 5.05028170 27.31985718 0 0 0
318 106 3 0.000000 13.09050961 4.58188279 28.60070125 0 0 0
319 107 2 0.000000 13.44802342 6.19067895 5.90035173 0 0 1
320 107 3 0.000000 13.40051098 5.35998054 5.34565542 0 0 1
321 107 3 0.000000 13.46501306 6.99109906 5.30114870 0 0 1
322 108 2 0.000000 5.04335292 6.64357196 22.91625812 0 0 0
323 108 3 0.000000 4.67903739 7.26526370 23.60964030 0 0 0
324 108 3 0.000000 5.95732873 6.34119202 23.18684982 0 0 0
325 109 2 0.000000 14.45278078 0.68976071 6.56215970 0 0 1
326 109 3 0.000000 14.16692482 0.72546129 7.51976980 0 0 1
327 109 3 0.000000 13.65998501 0.84113221 5.97176422 0 0 1
328 110 2 0.000000 15.72581845 5.25589045 26.31200226 0 0 0
329 110 3 0.000000 15.91109041 4.36636586 25.89435938 0 0 0
330 110 3 0.000000 15.38420644 5.88661935 25.61523288 0 0 0
331 111 2 0.000000 16.68504754 4.46501789 5.66543275 0 0 1
332 111 3 0.000000 16.84069385 5.45282823 5.66863091 0 0 1
333 111 3 0.000000 16.29122158 4.19246135 4.78758349 0 0 1
334 112 2 0.000000 15.08362386 17.59342523 30.51998624 0 0 0
335 112 3 0.000000 14.45204153 18.32989206 0.18451870 0 0 1
336 112 3 0.000000 15.94786146 17.98563595 30.20491576 0 0 0
337 113 2 0.000000 11.11153482 5.99674607 25.60773214 0 0 0
338 113 3 0.000000 11.51214597 5.75387703 26.49120858 0 0 0
339 113 3 0.000000 10.25585959 5.49510384 25.48053061 0 0 0
340 114 2 0.000000 13.27752695 2.74498969 30.14388721 0 0 0
341 114 3 0.000000 14.08934374 3.27957492 30.37878595 0 0 0
342 114 3 0.000000 12.82167631 2.44541615 0.40421547 0 0 1
343 115 2 0.000000 9.61534295 8.13218462 28.33983809 0 0 0
344 115 3 0.000000 10.42577423 8.48099107 27.86915724 0 0 0
345 115 3 0.000000 9.02823623 8.89732519 28.60416911 0 0 0
346 116 2 0.000000 14.79502281 7.43452486 24.48001026 0 0 0
347 116 3 0.000000 14.40939025 6.76629127 23.84380536 0 0 0
348 116 3 0.000000 14.28463886 8.29184750 24.41284339 0 0 0
349 117 2 0.000000 10.70320089 1.49672175 24.28640704 0 0 0
350 117 3 0.000000 10.04477468 2.11066970 23.85103580 0 0 0
351 117 3 0.000000 10.76283569 0.64665193 23.76311911 0 0 0
352 118 2 0.000000 9.27594428 8.56384654 3.88376744 0 0 1
353 118 3 0.000000 9.78318184 8.96763185 4.64512987 0 0 1
354 118 3 0.000000 9.80490538 8.66303946 3.04093520 0 0 1
355 119 2 0.000000 11.50319710 3.77238712 5.54942605 0 0 1
356 119 3 0.000000 11.34591428 4.74433813 5.72429351 0 0 1
357 119 3 0.000000 10.66156771 3.26165195 5.72496753 0 0 1
358 120 2 0.000000 11.08046965 2.46292309 1.63878452 0 0 1
359 120 3 0.000000 11.31826365 1.50203850 1.49679827 0 0 1
360 120 3 0.000000 10.25580801 2.52263534 2.20125488 0 0 1
361 121 2 0.000000 15.57128724 2.41359065 2.42862645 0 0 1
362 121 3 0.000000 15.17707453 3.25278898 2.80325663 0 0 1
363 121 3 0.000000 16.34198031 2.64367958 1.83440717 0 0 1
364 122 2 0.000000 12.31899984 17.34937275 5.59663780 0 0 1
365 122 3 0.000000 12.84031747 16.97482858 4.82985891 0 0 1
366 122 3 0.000000 11.35242668 17.11733342 5.48755365 0 0 1
367 123 2 0.000000 0.39475960 8.21688187 24.69382767 0 0 0
368 123 3 0.000000 1.17107185 7.76724293 24.25204788 0 0 0
369 123 3 0.000000 17.39031167 7.52621865 25.00013755 -1 0 0
370 124 2 0.000000 1.60762346 0.93420114 30.48013221 0 0 0
371 124 3 0.000000 2.10208918 1.32093739 29.70170816 0 0 0
372 124 3 0.000000 2.17387040 0.23874797 0.34472728 0 0 1
373 125 2 0.000000 8.96315691 3.97182041 26.16393585 0 0 0
374 125 3 0.000000 8.56595665 4.20626231 27.05122060 0 0 0
375 125 3 0.000000 9.14336942 2.98882291 26.12865634 0 0 0
376 126 2 0.000000 15.55178650 3.29417640 23.89472710 0 0 0
377 126 3 0.000000 14.59409881 3.23319255 24.17601081 0 0 0
378 126 3 0.000000 15.60010017 3.55784161 22.93132079 0 0 0
379 127 2 0.000000 11.99527472 9.07695963 27.23501129 0 0 0
380 127 3 0.000000 12.56507502 8.36710839 26.82095320 0 0 0
381 127 3 0.000000 12.44326742 9.96524257 27.13371357 0 0 0
382 128 2 0.000000 8.80606239 5.97151207 5.16028839 0 0 1
383 128 3 0.000000 8.65758055 6.81494936 4.64398231 0 0 1
384 128 3 0.000000 8.78486438 5.19049342 4.53613633 0 0 1
385 129 2 0.000000 12.42206253 1.37624288 4.88559823 0 0 1
386 129 3 0.000000 11.68426584 0.74038361 5.11219104 0 0 1
387 129 3 0.000000 12.15297849 2.30437137 5.14284630 0 0 1
388 130 2 0.000000 6.45606979 8.89555291 3.79478464 0 0 1
389 130 3 0.000000 6.30405607 7.95517615 3.49050081 0 0 1
390 130 3 0.000000 7.43396223 9.04442859 3.94164399 0 0 1
391 131 2 0.000000 6.11070150 19.41806732 27.81388514 0 0 0
392 131 3 0.000000 7.05360135 19.21608429 27.54903046 0 0 0
393 131 3 0.000000 5.76344754 20.17437819 27.25943602 0 0 0
394 132 2 0.000000 0.80302869 15.88227215 5.82825111 0 0 1
395 132 3 0.000000 1.00854417 15.30054365 6.61524578 0 0 1
396 132 3 0.000000 0.99337404 16.83621720 6.06011910 0 0 1
397 133 2 0.000000 10.43209042 9.75203942 6.09796935 0 0 1
398 133 3 0.000000 10.63133241 8.89489188 6.57294935 0 0 1
399 133 3 0.000000 11.23593189 10.34598041 6.13080622 0 0 1
400 134 2 0.000000 9.44685186 12.02209077 25.16891211 0 0 0
401 134 3 0.000000 10.03225570 12.40390908 24.45370417 0 0 0
402 134 3 0.000000 9.39793017 11.02874350 25.06463769 0 0 0
403 135 2 0.000000 13.60004492 13.66533774 23.09085824 0 0 0
404 135 3 0.000000 14.43091375 13.67408695 23.64726250 0 0 0
405 135 3 0.000000 13.56877741 14.48958883 22.52549310 0 0 0
406 136 2 0.000000 9.34756073 12.88268278 28.01402066 0 0 0
407 136 3 0.000000 9.45165416 12.57703981 27.06757879 0 0 0
408 136 3 0.000000 10.24970785 13.05273116 28.41052966 0 0 0
409 137 2 0.000000 15.36502694 9.02496232 6.09737600 0 0 1
410 137 3 0.000000 15.57810905 8.83983744 7.05671435 0 0 1
411 137 3 0.000000 16.19127609 8.91432783 5.54503767 0 0 1
412 138 2 0.000000 13.09409897 17.79754954 26.77703275 0 0 0
413 138 3 0.000000 13.28302878 17.58413061 25.81851141 0 0 0
414 138 3 0.000000 13.35303927 17.01929797 27.34911639 0 0 0
415 139 2 0.000000 9.85982374 13.30032336 4.94370636 0 0 1
416 139 3 0.000000 9.42983516 12.58018933 4.39916797 0 0 1
417 139 3 0.000000 10.76017614 13.51278549 4.56392923 0 0 1
418 140 2 0.000000 12.98575537 3.34244868 24.65957356 0 0 0
419 140 3 0.000000 12.48297744 4.20573945 24.70371739 0 0 0
420 140 3 0.000000 12.33994941 2.58519126 24.56209972 0 0 0
421 141 2 0.000000 13.20928745 7.69400100 3.39268410 0 0 1
422 141 3 0.000000 12.43369747 7.37677594 2.84694267 0 0 1
423 141 3 0.000000 13.70873426 8.39632875 2.88544265 0 0 1
424 142 2 0.000000 13.62709732 0.70919990 2.56757830 0 0 1
425 142 3 0.000000 13.08262724 0.90616302 3.38290838 0 0 1
426 142 3 0.000000 14.41660154 1.32222988 2.53786997 0 0 1
427 143 2 0.000000 17.62139199 19.24888523 28.73954423 0 0 0
428 143 3 0.000000 17.13723444 19.76170313 28.03059110 0 0 0
429 143 3 0.000000 17.40076382 19.63111940 29.63688782 0 0 0
430 144 2 0.000000 14.35848949 15.26789709 4.74170399 0 0 1
431 144 3 0.000000 14.59273331 15.86352722 5.51005277 0 0 1
432 144 3 0.000000 15.12706137 14.65891185 4.54564396 0 0 1
433 145 2 0.000000 11.50536062 14.89870136 29.47253450 0 0 0
434 145 3 0.000000 10.91435218 15.70025560 29.38184218 0 0 0
435 145 3 0.000000 12.41715248 15.11567580 29.12387567 0 0 0
436 146 2 0.000000 16.49050416 18.34956734 25.23101176 0 0 0
437 146 3 0.000000 16.47312116 19.11264847 25.87708473 0 0 0
438 146 3 0.000000 15.75401372 18.46087701 24.56378071 0 0 0
439 147 2 0.000000 15.76116506 12.54423750 0.66680930 0 0 1
440 147 3 0.000000 16.73340735 12.31909778 0.73054562 0 0 1
441 147 3 0.000000 15.60335060 13.45281341 1.05357756 0 0 1
442 148 2 0.000000 10.40103166 17.70885157 29.59868295 0 0 0
443 148 3 0.000000 9.62095670 18.15376480 29.15875052 0 0 0
444 148 3 0.000000 11.07669494 18.39943153 29.85672116 0 0 0
445 149 2 0.000000 10.26362403 15.88897416 23.77544590 0 0 0
446 149 3 0.000000 10.25092478 14.91716442 23.54001045 0 0 0
447 149 3 0.000000 9.65215774 16.38861987 23.16187568 0 0 0
448 150 2 0.000000 13.84518548 15.84003569 28.43839775 0 0 0
449 150 3 0.000000 14.51951512 15.18732904 28.09305903 0 0 0
450 150 3 0.000000 14.17916231 16.24559242 29.28927288 0 0 0
451 151 2 0.000000 0.94986442 18.35806485 22.75275933 0 0 0
452 151 3 0.000000 0.25975297 18.72156209 22.12696286 0 0 0
453 151 3 0.000000 0.52927233 18.17082181 23.64047978 0 0 0
454 152 2 0.000000 6.99201013 13.01348452 25.83860666 0 0 0
455 152 3 0.000000 6.89963936 13.52428652 24.98388202 0 0 0
456 152 3 0.000000 7.75626730 12.37298840 25.76323444 0 0 0
457 153 2 0.000000 13.15510174 19.97013859 28.47663570 0 0 0
458 153 3 0.000000 12.30108489 0.00835384 28.16885184 0 1 0
459 153 3 0.000000 13.29285974 19.10371947 27.99669203 0 0 0
460 154 2 0.000000 8.76122942 0.37033791 30.51545724 0 0 0
461 154 3 0.000000 8.38156946 1.28087459 0.10132188 0 0 1
462 154 3 0.000000 8.36236376 20.36895669 29.68207591 0 -1 0
463 155 2 0.000000 13.48034145 16.90317934 24.33329222 0 0 0
464 155 3 0.000000 14.31044037 16.73100927 23.80291639 0 0 0
465 155 3 0.000000 12.67903220 16.77802671 23.74827464 0 0 0
466 156 2 0.000000 15.15987365 11.20904180 28.65722436 0 0 0
467 156 3 0.000000 15.62084004 10.32593968 28.56978344 0 0 0
468 156 3 0.000000 15.32347551 11.58144894 29.57076287 0 0 0
469 157 2 0.000000 12.44349731 14.32235088 26.18517245 0 0 0
470 157 3 0.000000 12.79716198 15.00568497 25.54643847 0 0 0
471 157 3 0.000000 11.46186532 14.46304922 26.31404402 0 0 0
472 158 2 0.000000 5.02393919 5.77759169 0.54445409 0 0 1
473 158 3 0.000000 4.23572051 5.20441000 0.76846153 0 0 1
474 158 3 0.000000 5.49584205 5.39902514 30.32601402 0 0 0
475 159 2 0.000000 0.49646285 14.60396407 29.12445355 0 0 0
476 159 3 0.000000 0.93039117 15.26095115 28.50794770 0 0 0
477 159 3 0.000000 0.90812237 14.67712175 30.03285305 0 0 0
478 160 2 0.000000 15.44054758 15.36028911 1.63984957 0 0 1
479 160 3 0.000000 15.01236681 15.63672090 2.50022853 0 0 1
480 160 3 0.000000 15.33744473 16.09195768 0.96602750 0 0 1
481 161 2 0.000000 8.18628126 13.21557195 0.37804154 0 0 1
482 161 3 0.000000 7.41171643 13.74065174 0.02541451 0 0 1
483 161 3 0.000000 9.04079694 13.64620389 0.08758610 0 0 1
484 162 2 0.000000 3.77265542 16.19160468 4.59718763 0 0 1
485 162 3 0.000000 4.01193234 16.05428321 5.55838201 0 0 1
486 162 3 0.000000 4.54114381 15.91600872 4.01971233 0 0 1
487 163 2 0.000000 4.79732930 16.16590049 27.54444689 0 0 0
488 163 3 0.000000 5.74044492 15.87360837 27.70288781 0 0 0
489 163 3 0.000000 4.53509617 16.83640712 28.23846411 0 0 0
490 164 2 0.000000 16.04627024 18.96193002 6.08879764 0 0 1
491 164 3 0.000000 15.46626226 19.68256474 6.46864185 0 0 1
492 164 3 0.000000 15.82846344 18.83407350 5.12121396 0 0 1
493 165 2 0.000000 14.85610328 18.64725860 3.49741153 0 0 1
494 165 3 0.000000 14.79176340 19.58179826 3.14740971 0 0 1
495 165 3 0.000000 13.95111415 18.22213290 3.48103817 0 0 1
496 166 2 0.000000 11.71568834 19.56231189 22.86723196 0 0 0
497 166 3 0.000000 12.15979525 19.71400819 23.75027361 0 0 0
498 166 3 0.000000 12.18552392 18.82626865 22.37989208 0 0 0
499 167 2 0.000000 0.97396388 16.48673882 25.51437245 0 0 0
500 167 3 0.000000 1.30835209 16.75498817 26.41782809 0 0 0
501 167 3 0.000000 0.20732642 17.07401194 25.25479098 0 0 0
502 168 2 0.000000 16.97841243 11.85357802 6.70153022 0 0 1
503 168 3 0.000000 17.40724125 12.71234619 6.98193768 0 0 1
504 168 3 0.000000 16.92097027 11.23757063 7.48717681 0 0 1
505 169 2 0.000000 13.13320049 11.58016482 26.50420678 0 0 0
506 169 3 0.000000 12.89991353 12.51490294 26.23616366 0 0 0
507 169 3 0.000000 13.83101876 11.60300393 27.22012110 0 0 0
508 170 2 0.000000 14.46051641 11.71368338 3.59374890 0 0 1
509 170 3 0.000000 14.60663238 11.32869243 2.68246554 0 0 1
510 170 3 0.000000 15.16919514 12.39239730 3.78643297 0 0 1
511 171 2 0.000000 15.51608015 5.01320025 30.20437621 0 0 0
512 171 3 0.000000 15.77110589 5.62670286 0.37395814 0 0 1
513 171 3 0.000000 16.15303887 4.24292491 30.17331561 0 0 0
514 172 2 0.000000 7.67930267 15.43150705 27.27608868 0 0 0
515 172 3 0.000000 7.71866569 14.47237207 26.99588176 0 0 0
516 172 3 0.000000 8.60615497 15.76909780 27.44035244 0 0 0
517 173 2 0.000000 12.88965341 11.16363691 6.15690104 0 0 1
518 173 3 0.000000 13.27483322 11.98526467 6.57710291 0 0 1
519 173 3 0.000000 13.44922420 10.89691731 5.37220589 0 0 1
520 174 2 0.000000 15.07572180 5.01682651 3.17831717 0 0 1
521 174 3 0.000000 14.36480532 5.71519123 3.26132158 0 0 1
522 174 3 0.000000 15.86994247 5.40369872 2.70975693 0 0 1
523 175 2 0.000000 15.56187854 16.40200229 6.98111194 0 0 1
524 175 3 0.000000 16.28587985 15.77866748 6.68567819 0 0 1
525 175 3 0.000000 15.83029287 17.34400965 6.77966431 0 0 1
526 176 2 0.000000 2.76712603 19.92780782 26.05860306 0 0 0
527 176 3 0.000000 1.88231523 19.50253747 26.24902429 0 0 0
528 176 3 0.000000 2.97799702 19.83709294 25.08530480 0 0 0
529 177 1 0.000000 0.00000000 0.00000000 10.00000000 0 0 0
530 177 1 0.000000 1.47088817 2.54765304 10.00000000 0 0 0
531 177 1 0.000000 0.00000000 5.09530609 10.00000000 0 0 0
532 177 1 0.000000 1.47088817 7.64295913 10.00000000 0 0 0
533 177 1 0.000000 0.00000000 10.19061218 10.00000000 0 0 0
534 177 1 0.000000 1.47088817 12.73826522 10.00000000 0 0 0
535 177 1 0.000000 0.00000000 15.28591827 10.00000000 0 0 0
536 177 1 0.000000 1.47088817 17.83357131 10.00000000 0 0 0
537 177 1 0.000000 2.94177634 0.00000000 10.00000000 0 0 0
538 177 1 0.000000 4.41266451 2.54765304 10.00000000 0 0 0
539 177 1 0.000000 2.94177634 5.09530609 10.00000000 0 0 0
540 177 1 0.000000 4.41266451 7.64295913 10.00000000 0 0 0
541 177 1 0.000000 2.94177634 10.19061218 10.00000000 0 0 0
542 177 1 0.000000 4.41266451 12.73826522 10.00000000 0 0 0
543 177 1 0.000000 2.94177634 15.28591827 10.00000000 0 0 0
544 177 1 0.000000 4.41266451 17.83357131 10.00000000 0 0 0
545 177 1 0.000000 5.88355268 0.00000000 10.00000000 0 0 0
546 177 1 0.000000 7.35444085 2.54765304 10.00000000 0 0 0
547 177 1 0.000000 5.88355268 5.09530609 10.00000000 0 0 0
548 177 1 0.000000 7.35444085 7.64295913 10.00000000 0 0 0
549 177 1 0.000000 5.88355268 10.19061218 10.00000000 0 0 0
550 177 1 0.000000 7.35444085 12.73826522 10.00000000 0 0 0
551 177 1 0.000000 5.88355268 15.28591827 10.00000000 0 0 0
552 177 1 0.000000 7.35444085 17.83357131 10.00000000 0 0 0
553 177 1 0.000000 8.82532903 0.00000000 10.00000000 0 0 0
554 177 1 0.000000 10.29621720 2.54765304 10.00000000 0 0 0
555 177 1 0.000000 8.82532903 5.09530609 10.00000000 0 0 0
556 177 1 0.000000 10.29621720 7.64295913 10.00000000 0 0 0
557 177 1 0.000000 8.82532903 10.19061218 10.00000000 0 0 0
558 177 1 0.000000 10.29621720 12.73826522 10.00000000 0 0 0
559 177 1 0.000000 8.82532903 15.28591827 10.00000000 0 0 0
560 177 1 0.000000 10.29621720 17.83357131 10.00000000 0 0 0
561 177 1 0.000000 11.76710537 0.00000000 10.00000000 0 0 0
562 177 1 0.000000 13.23799354 2.54765304 10.00000000 0 0 0
563 177 1 0.000000 11.76710537 5.09530609 10.00000000 0 0 0
564 177 1 0.000000 13.23799354 7.64295913 10.00000000 0 0 0
565 177 1 0.000000 11.76710537 10.19061218 10.00000000 0 0 0
566 177 1 0.000000 13.23799354 12.73826522 10.00000000 0 0 0
567 177 1 0.000000 11.76710537 15.28591827 10.00000000 0 0 0
568 177 1 0.000000 13.23799354 17.83357131 10.00000000 0 0 0
569 177 1 0.000000 14.70888171 0.00000000 10.00000000 0 0 0
570 177 1 0.000000 16.17976988 2.54765304 10.00000000 0 0 0
571 177 1 0.000000 14.70888171 5.09530609 10.00000000 0 0 0
572 177 1 0.000000 16.17976988 7.64295913 10.00000000 0 0 0
573 177 1 0.000000 14.70888171 10.19061218 10.00000000 0 0 0
574 177 1 0.000000 16.17976988 12.73826522 10.00000000 0 0 0
575 177 1 0.000000 14.70888171 15.28591827 10.00000000 0 0 0
576 177 1 0.000000 16.17976988 17.83357131 10.00000000 0 0 0
577 177 1 0.000000 1.47088817 0.84921768 12.40195032 0 0 0
578 177 1 0.000000 2.94177634 3.39687073 12.40195032 0 0 0
579 177 1 0.000000 1.47088817 5.94452377 12.40195032 0 0 0
580 177 1 0.000000 2.94177634 8.49217681 12.40195032 0 0 0
581 177 1 0.000000 1.47088817 11.03982986 12.40195032 0 0 0
582 177 1 0.000000 2.94177634 13.58748290 12.40195032 0 0 0
583 177 1 0.000000 1.47088817 16.13513595 12.40195032 0 0 0
584 177 1 0.000000 2.94177634 18.68278899 12.40195032 0 0 0
585 177 1 0.000000 4.41266451 0.84921768 12.40195032 0 0 0
586 177 1 0.000000 5.88355268 3.39687073 12.40195032 0 0 0
587 177 1 0.000000 4.41266451 5.94452377 12.40195032 0 0 0
588 177 1 0.000000 5.88355268 8.49217681 12.40195032 0 0 0
589 177 1 0.000000 4.41266451 11.03982986 12.40195032 0 0 0
590 177 1 0.000000 5.88355268 13.58748290 12.40195032 0 0 0
591 177 1 0.000000 4.41266451 16.13513595 12.40195032 0 0 0
592 177 1 0.000000 5.88355268 18.68278899 12.40195032 0 0 0
593 177 1 0.000000 7.35444085 0.84921768 12.40195032 0 0 0
594 177 1 0.000000 8.82532903 3.39687073 12.40195032 0 0 0
595 177 1 0.000000 7.35444085 5.94452377 12.40195032 0 0 0
596 177 1 0.000000 8.82532903 8.49217681 12.40195032 0 0 0
597 177 1 0.000000 7.35444085 11.03982986 12.40195032 0 0 0
598 177 1 0.000000 8.82532903 13.58748290 12.40195032 0 0 0
599 177 1 0.000000 7.35444085 16.13513595 12.40195032 0 0 0
600 177 1 0.000000 8.82532903 18.68278899 12.40195032 0 0 0
601 177 1 0.000000 10.29621720 0.84921768 12.40195032 0 0 0
602 177 1 0.000000 11.76710537 3.39687073 12.40195032 0 0 0
603 177 1 0.000000 10.29621720 5.94452377 12.40195032 0 0 0
604 177 1 0.000000 11.76710537 8.49217681 12.40195032 0 0 0
605 177 1 0.000000 10.29621720 11.03982986 12.40195032 0 0 0
606 177 1 0.000000 11.76710537 13.58748290 12.40195032 0 0 0
607 177 1 0.000000 10.29621720 16.13513595 12.40195032 0 0 0
608 177 1 0.000000 11.76710537 18.68278899 12.40195032 0 0 0
609 177 1 0.000000 13.23799354 0.84921768 12.40195032 0 0 0
610 177 1 0.000000 14.70888171 3.39687073 12.40195032 0 0 0
611 177 1 0.000000 13.23799354 5.94452377 12.40195032 0 0 0
612 177 1 0.000000 14.70888171 8.49217681 12.40195032 0 0 0
613 177 1 0.000000 13.23799354 11.03982986 12.40195032 0 0 0
614 177 1 0.000000 14.70888171 13.58748290 12.40195032 0 0 0
615 177 1 0.000000 13.23799354 16.13513595 12.40195032 0 0 0
616 177 1 0.000000 14.70888171 18.68278899 12.40195032 0 0 0
617 177 1 0.000000 16.17976988 0.84921768 12.40195032 0 0 0
618 177 1 0.000000 0.00000000 3.39687073 12.40195032 0 0 0
619 177 1 0.000000 16.17976988 5.94452377 12.40195032 0 0 0
620 177 1 0.000000 0.00000000 8.49217681 12.40195032 0 0 0
621 177 1 0.000000 16.17976988 11.03982986 12.40195032 0 0 0
622 177 1 0.000000 0.00000000 13.58748290 12.40195032 0 0 0
623 177 1 0.000000 16.17976988 16.13513595 12.40195032 0 0 0
624 177 1 0.000000 0.00000000 18.68278899 12.40195032 0 0 0
625 177 1 0.000000 2.94177634 1.69843536 14.80390065 0 0 0
626 177 1 0.000000 4.41266451 4.24608841 14.80390065 0 0 0
627 177 1 0.000000 2.94177634 6.79374145 14.80390065 0 0 0
628 177 1 0.000000 4.41266451 9.34139450 14.80390065 0 0 0
629 177 1 0.000000 2.94177634 11.88904754 14.80390065 0 0 0
630 177 1 0.000000 4.41266451 14.43670058 14.80390065 0 0 0
631 177 1 0.000000 2.94177634 16.98435363 14.80390065 0 0 0
632 177 1 0.000000 4.41266451 19.53200667 14.80390065 0 0 0
633 177 1 0.000000 5.88355268 1.69843536 14.80390065 0 0 0
634 177 1 0.000000 7.35444085 4.24608841 14.80390065 0 0 0
635 177 1 0.000000 5.88355268 6.79374145 14.80390065 0 0 0
636 177 1 0.000000 7.35444085 9.34139450 14.80390065 0 0 0
637 177 1 0.000000 5.88355268 11.88904754 14.80390065 0 0 0
638 177 1 0.000000 7.35444085 14.43670058 14.80390065 0 0 0
639 177 1 0.000000 5.88355268 16.98435363 14.80390065 0 0 0
640 177 1 0.000000 7.35444085 19.53200667 14.80390065 0 0 0
641 177 1 0.000000 8.82532903 1.69843536 14.80390065 0 0 0
642 177 1 0.000000 10.29621720 4.24608841 14.80390065 0 0 0
643 177 1 0.000000 8.82532903 6.79374145 14.80390065 0 0 0
644 177 1 0.000000 10.29621720 9.34139450 14.80390065 0 0 0
645 177 1 0.000000 8.82532903 11.88904754 14.80390065 0 0 0
646 177 1 0.000000 10.29621720 14.43670058 14.80390065 0 0 0
647 177 1 0.000000 8.82532903 16.98435363 14.80390065 0 0 0
648 177 1 0.000000 10.29621720 19.53200667 14.80390065 0 0 0
649 177 1 0.000000 11.76710537 1.69843536 14.80390065 0 0 0
650 177 1 0.000000 13.23799354 4.24608841 14.80390065 0 0 0
651 177 1 0.000000 11.76710537 6.79374145 14.80390065 0 0 0
652 177 1 0.000000 13.23799354 9.34139450 14.80390065 0 0 0
653 177 1 0.000000 11.76710537 11.88904754 14.80390065 0 0 0
654 177 1 0.000000 13.23799354 14.43670058 14.80390065 0 0 0
655 177 1 0.000000 11.76710537 16.98435363 14.80390065 0 0 0
656 177 1 0.000000 13.23799354 19.53200667 14.80390065 0 0 0
657 177 1 0.000000 14.70888171 1.69843536 14.80390065 0 0 0
658 177 1 0.000000 16.17976988 4.24608841 14.80390065 0 0 0
659 177 1 0.000000 14.70888171 6.79374145 14.80390065 0 0 0
660 177 1 0.000000 16.17976988 9.34139450 14.80390065 0 0 0
661 177 1 0.000000 14.70888171 11.88904754 14.80390065 0 0 0
662 177 1 0.000000 16.17976988 14.43670058 14.80390065 0 0 0
663 177 1 0.000000 14.70888171 16.98435363 14.80390065 0 0 0
664 177 1 0.000000 16.17976988 19.53200667 14.80390065 0 0 0
665 177 1 0.000000 0.00000000 1.69843536 14.80390065 0 0 0
666 177 1 0.000000 1.47088817 4.24608841 14.80390065 0 0 0
667 177 1 0.000000 0.00000000 6.79374145 14.80390065 0 0 0
668 177 1 0.000000 1.47088817 9.34139450 14.80390065 0 0 0
669 177 1 0.000000 0.00000000 11.88904754 14.80390065 0 0 0
670 177 1 0.000000 1.47088817 14.43670058 14.80390065 0 0 0
671 177 1 0.000000 0.00000000 16.98435363 14.80390065 0 0 0
672 177 1 0.000000 1.47088817 19.53200667 14.80390065 0 0 0
673 177 1 0.000000 4.41266451 2.54765304 17.20585097 0 0 0
674 177 1 0.000000 5.88355268 5.09530609 17.20585097 0 0 0
675 177 1 0.000000 4.41266451 7.64295913 17.20585097 0 0 0
676 177 1 0.000000 5.88355268 10.19061218 17.20585097 0 0 0
677 177 1 0.000000 4.41266451 12.73826522 17.20585097 0 0 0
678 177 1 0.000000 5.88355268 15.28591827 17.20585097 0 0 0
679 177 1 0.000000 4.41266451 17.83357131 17.20585097 0 0 0
680 177 1 0.000000 5.88355268 0.00000000 17.20585097 0 0 0
681 177 1 0.000000 7.35444085 2.54765304 17.20585097 0 0 0
682 177 1 0.000000 8.82532903 5.09530609 17.20585097 0 0 0
683 177 1 0.000000 7.35444085 7.64295913 17.20585097 0 0 0
684 177 1 0.000000 8.82532903 10.19061218 17.20585097 0 0 0
685 177 1 0.000000 7.35444085 12.73826522 17.20585097 0 0 0
686 177 1 0.000000 8.82532903 15.28591827 17.20585097 0 0 0
687 177 1 0.000000 7.35444085 17.83357131 17.20585097 0 0 0
688 177 1 0.000000 8.82532903 0.00000000 17.20585097 0 0 0
689 177 1 0.000000 10.29621720 2.54765304 17.20585097 0 0 0
690 177 1 0.000000 11.76710537 5.09530609 17.20585097 0 0 0
691 177 1 0.000000 10.29621720 7.64295913 17.20585097 0 0 0
692 177 1 0.000000 11.76710537 10.19061218 17.20585097 0 0 0
693 177 1 0.000000 10.29621720 12.73826522 17.20585097 0 0 0
694 177 1 0.000000 11.76710537 15.28591827 17.20585097 0 0 0
695 177 1 0.000000 10.29621720 17.83357131 17.20585097 0 0 0
696 177 1 0.000000 11.76710537 0.00000000 17.20585097 0 0 0
697 177 1 0.000000 13.23799354 2.54765304 17.20585097 0 0 0
698 177 1 0.000000 14.70888171 5.09530609 17.20585097 0 0 0
699 177 1 0.000000 13.23799354 7.64295913 17.20585097 0 0 0
700 177 1 0.000000 14.70888171 10.19061218 17.20585097 0 0 0
701 177 1 0.000000 13.23799354 12.73826522 17.20585097 0 0 0
702 177 1 0.000000 14.70888171 15.28591827 17.20585097 0 0 0
703 177 1 0.000000 13.23799354 17.83357131 17.20585097 0 0 0
704 177 1 0.000000 14.70888171 0.00000000 17.20585097 0 0 0
705 177 1 0.000000 16.17976988 2.54765304 17.20585097 0 0 0
706 177 1 0.000000 0.00000000 5.09530609 17.20585097 0 0 0
707 177 1 0.000000 16.17976988 7.64295913 17.20585097 0 0 0
708 177 1 0.000000 0.00000000 10.19061218 17.20585097 0 0 0
709 177 1 0.000000 16.17976988 12.73826522 17.20585097 0 0 0
710 177 1 0.000000 0.00000000 15.28591827 17.20585097 0 0 0
711 177 1 0.000000 16.17976988 17.83357131 17.20585097 0 0 0
712 177 1 0.000000 0.00000000 0.00000000 17.20585097 0 0 0
713 177 1 0.000000 1.47088817 2.54765304 17.20585097 0 0 0
714 177 1 0.000000 2.94177634 5.09530609 17.20585097 0 0 0
715 177 1 0.000000 1.47088817 7.64295913 17.20585097 0 0 0
716 177 1 0.000000 2.94177634 10.19061218 17.20585097 0 0 0
717 177 1 0.000000 1.47088817 12.73826522 17.20585097 0 0 0
718 177 1 0.000000 2.94177634 15.28591827 17.20585097 0 0 0
719 177 1 0.000000 1.47088817 17.83357131 17.20585097 0 0 0
720 177 1 0.000000 2.94177634 0.00000000 17.20585097 0 0 0
721 177 1 0.000000 5.88355268 3.39687073 19.60780130 0 0 0
722 177 1 0.000000 7.35444085 5.94452377 19.60780130 0 0 0
723 177 1 0.000000 5.88355268 8.49217681 19.60780130 0 0 0
724 177 1 0.000000 7.35444085 11.03982986 19.60780130 0 0 0
725 177 1 0.000000 5.88355268 13.58748290 19.60780130 0 0 0
726 177 1 0.000000 7.35444085 16.13513595 19.60780130 0 0 0
727 177 1 0.000000 5.88355268 18.68278899 19.60780130 0 0 0
728 177 1 0.000000 7.35444085 0.84921768 19.60780130 0 0 0
729 177 1 0.000000 8.82532903 3.39687073 19.60780130 0 0 0
730 177 1 0.000000 10.29621720 5.94452377 19.60780130 0 0 0
731 177 1 0.000000 8.82532903 8.49217681 19.60780130 0 0 0
732 177 1 0.000000 10.29621720 11.03982986 19.60780130 0 0 0
733 177 1 0.000000 8.82532903 13.58748290 19.60780130 0 0 0
734 177 1 0.000000 10.29621720 16.13513595 19.60780130 0 0 0
735 177 1 0.000000 8.82532903 18.68278899 19.60780130 0 0 0
736 177 1 0.000000 10.29621720 0.84921768 19.60780130 0 0 0
737 177 1 0.000000 11.76710537 3.39687073 19.60780130 0 0 0
738 177 1 0.000000 13.23799354 5.94452377 19.60780130 0 0 0
739 177 1 0.000000 11.76710537 8.49217681 19.60780130 0 0 0
740 177 1 0.000000 13.23799354 11.03982986 19.60780130 0 0 0
741 177 1 0.000000 11.76710537 13.58748290 19.60780130 0 0 0
742 177 1 0.000000 13.23799354 16.13513595 19.60780130 0 0 0
743 177 1 0.000000 11.76710537 18.68278899 19.60780130 0 0 0
744 177 1 0.000000 13.23799354 0.84921768 19.60780130 0 0 0
745 177 1 0.000000 14.70888171 3.39687073 19.60780130 0 0 0
746 177 1 0.000000 16.17976988 5.94452377 19.60780130 0 0 0
747 177 1 0.000000 14.70888171 8.49217681 19.60780130 0 0 0
748 177 1 0.000000 16.17976988 11.03982986 19.60780130 0 0 0
749 177 1 0.000000 14.70888171 13.58748290 19.60780130 0 0 0
750 177 1 0.000000 16.17976988 16.13513595 19.60780130 0 0 0
751 177 1 0.000000 14.70888171 18.68278899 19.60780130 0 0 0
752 177 1 0.000000 16.17976988 0.84921768 19.60780130 0 0 0
753 177 1 0.000000 0.00000000 3.39687073 19.60780130 0 0 0
754 177 1 0.000000 1.47088817 5.94452377 19.60780130 0 0 0
755 177 1 0.000000 0.00000000 8.49217681 19.60780130 0 0 0
756 177 1 0.000000 1.47088817 11.03982986 19.60780130 0 0 0
757 177 1 0.000000 0.00000000 13.58748290 19.60780130 0 0 0
758 177 1 0.000000 1.47088817 16.13513595 19.60780130 0 0 0
759 177 1 0.000000 0.00000000 18.68278899 19.60780130 0 0 0
760 177 1 0.000000 1.47088817 0.84921768 19.60780130 0 0 0
761 177 1 0.000000 2.94177634 3.39687073 19.60780130 0 0 0
762 177 1 0.000000 4.41266451 5.94452377 19.60780130 0 0 0
763 177 1 0.000000 2.94177634 8.49217681 19.60780130 0 0 0
764 177 1 0.000000 4.41266451 11.03982986 19.60780130 0 0 0
765 177 1 0.000000 2.94177634 13.58748290 19.60780130 0 0 0
766 177 1 0.000000 4.41266451 16.13513595 19.60780130 0 0 0
767 177 1 0.000000 2.94177634 18.68278899 19.60780130 0 0 0
768 177 1 0.000000 4.41266451 0.84921768 19.60780130 0 0 0

RigidBodies

1 1
2 1
3 1
4 2
5 2
6 2
7 3
8 3
9 3
10 4
11 4
12 4
13 5
14 5
15 5
16 6
17 6
18 6
19 7
20 7
21 7
22 8
23 8
24 8
25 9
26 9
27 9
28 10
29 10
30 10
31 11
32 11
33 11
34 12
35 12
36 12
37 13
38 13
39 13
40 14
41 14
42 14
43 15
44 15
45 15
46 16
47 16
48 16
49 17
50 17
51 17
52 18
53 18
54 18
55 19
56 19
57 19
58 20
59 20
60 20
61 21
62 21
63 21
64 22
65 22
66 22
67 23
68 23
69 23
70 24
71 24
72 24
73 25
74 25
75 25
76 26
77 26
78 26
79 27
80 27
81 27
82 28
83 28
84 28
85 29
86 29
87 29
88 30
89 30
90 30
91 31
92 31
93 31
94 32
95 32
96 32
97 33
98 33
99 33
100 34
101 34
102 34
103 35
104 35
105 35
106 36
107 36
108 36
109 37
110 37
111 37
112 38
113 38
114 38
115 39
116 39
117 39
118 40
119 40
120 40
121 41
122 41
123 41
124 42
125 42
126 42
127 43
128 43
129 43
130 44
131 44
132 44
133 45
134 45
135 45
136 46
137 46
138 46
139 47
140 47
141 47
142 48
143 48
144 48
145 49
146 49
147 49
148 50
149 50
150 50
151 51
152 51
153 51
154 52
155 52
156 52
157 53
158 53
159 53
160 54
161 54
162 54
163 55
164 55
165 55
166 56
167 56
168 56
169 57
170 57
171 57
172 58
173 58
174 58
175 59
176 59
177 59
178 60
179 60
180 60
181 61
182 61
183 61
184 62
185 62
186 62
187 63
188 63
189 63
190 64
191 64
192 64
193 65
194 65
195 65
196 66
197 66
198 66
199 67
200 67
201 67
202 68
203 68
204 68
205 69
206 69
207 69
208 70
209 70
210 70
211 71
212 71
213 71
214 72
215 72
216 72
217 73
218 73
219 73
220 74
221 74
222 74
223 75
224 75
225 75
226 76
227 76
228 76
229 77
230 77
231 77
232 78
233 78
234 78
235 79
236 79
237 79
238 80
239 80
240 80
241 81
242 81
243 81
244 82
245 82
246 82
247 83
248 83
249 83
250 84
251 84
252 84
253 85
254 85
255 85
256 86
257 86
258 86
259 87
260 87
261 87
262 88
263 88
264 88
265 89
266 89
267 89
268 90
269 90
270 90
271 91
272 91
273 91
274 92
275 92
276 92
277 93
278 93
279 93
280 94
281 94
282 94
283 95
284 95
285 95
286 96
287 96
288 96
289 97
290 97
291 97
292 98
293 98
294 98
295 99
296 99
297 99
298 100
299 100
300 100
301 101
302 101
303 101
304 102
305 102
306 102
307 103
308 103
309 103
310 104
311 104
312 104
313 105
314 105
315 105
316 106
317 106
318 106
319 107
320 107
321 107
322 108
323 108
324 108
325 109
326 109
327 109
328 110
329 110
330 110
331 111
332 111
333 111
334 112
335 112
336 112
337 113
338 113
339 113
340 114
341 114
342 114
343 115
344 115
345 115
346 116
347 116
348 116
349 117
350 117
351 117
352 118
353 118
354 118
355 119
356 119
357 119
358 120
359 120
360 120
361 121
362 121
363 121
364 122
365 122
366 122
367 123
368 123
369 123
370 124
371 124
372 124
373 125
374 125
375 125
376 126
377 126
378 126
379 127
380 127
381 127
382 128
383 128
384 128
385 129
386 129
387 129
388 130
389 130
390 130
391 131
392 131
393 131
394 132
395 132
396 132
397 133
398 133
399 133
400 134
401 134
402 134
403 135
404 135
405 135
406 136
407 136
408 136
409 137
410 137
411 137
412 138
413 138
414 138
415 139
416 139
417 139
418 140
419 140
420 140
421 141
422 141
423 141
424 142
425 142
426 142
427 143
428 143
429 143
430 144
431 144
432 144
433 145
434 145
435 145
436 146
437 146
438 146
439 147
440 147
441 147
442 148
443 148
444 148
445 149
446 149
447 149
448 150
449 150
450 150
451 151
452 151
453 151
454 152
455 152
456 152
457 153
458 153
459 153
460 154
461 154
462 154
463 155
464 155
465 155
466 156
467 156
468 156
469 157
470 157
471 157
472 158
473 158
474 158
475 159
476 159
477 159
478 160
479 160
480 160
481 161
482 161
483 161
484 162
485 162
486 162
487 163
488 163
489 163
490 164
491 164
492 164
493 165
494 165
495 165
496 166
497 166
498 166
499 167
500 167
501 167
502 168
503 168
504 168
505 169
506 169
507 169
508 170
509 170
510 170
511 171
512 171
513 171
514 172
515 172
516 172
517 173
518 173
519 173
520 174
521 174
522 174
523 175
524 175
525 175
526 176
527 176
528 176
529 0
530 0
531 0
532 0
533 0
534 0
535 0
536 0
537 0
538 0
539 0
540 0
541 0
542 0
543 0
544 0
545 0
546 0
547 0
548 0
549 0
550 0
551 0
552 0
553 0
554 0
555 0
556 0
557 0
558 0
559 0
560 0
561 0
562 0
563 0
564 0
565 0
566 0
567 0
568 0
569 0
570 0
571 0
572 0
573 0
574 0
575 0
576 0
577 0
578 0
579 0
580 0
581 0
582 0
583 0
584 0
585 0
586 0
587 0
588 0
589 0
590 0
591 0
592 0
593 0
594 0
595 0
596 0
597 0
598 0
599 0
600 0
601 0
602 0
603 0
604 0
605 0
606 0
607 0
608 0
609 0
610 0
611 0
612 0
613 0
614 0
615 0
616 0
617 0
618 0
619 0
620 0
621 0
622 0
623 0
624 0
625 0
626 0
627 0
628 0
629 0
630 0
631 0
632 0
633 0
634 0
635 0
636 0
637 0
638 0
639 0
640 0
641 0
642 0
643 0
644 0
645 0
646 0
647 0
648 0
649 0
650 0
651 0
652 0
653 0
654 0
655 0
656 0
657 0
658 0
659 0
660 0
661 0
662 0
663 0
664 0
665 0
666 0
667 0
668 0
669 0
670 0
671 0
672 0
673 0
674 0
675 0
676 0
677 0
678 0
679 0
680 0
681 0
682 0
683 0
684 0
685 0
686 0
687 0
688 0
689 0
690 0
691 0
692 0
693 0
694 0
695 0
696 0
697 0
698 0
699 0
700 0
701 0
702 0
703 0
704 0
705 0
706 0
707 0
708 0
709 0
710 0
711 0
712 0
713 0
714 0
715 0
716 0
717 0
718 0
719 0
720 0
721 0
722 0
723 0
724 0
725 0
726 0
727 0
728 0
729 0
730 0
731 0
732 0
733 0
734 0
735 0
736 0
737 0
738 0
739 0
740 0
741 0
742 0
743 0
744 0
745 0
746 0
747 0
748 0
749 0
750 0
751 0
752 0
753 0
754 0
755 0
756 0
757 0
758 0
759 0
760 0
761 0
762 0
763 0
764 0
765 0
766 0
767 0
768 0
