LAMMPS (2 Sep 2026)
OMP_NUM_THREADS environment is not set. Defaulting to 1 thread.
  using 1 OpenMP thread(s) per MPI task
# Au(111) + SPC-FQ film dynamics, arm samqeq_eta0.3 (run_dyn_spc.py)
units           metal
atom_style      full
boundary        p p p
fix             pb all property/atom i_body ghost yes
read_data       data fix pb NULL RigidBodies
Reading data file ...
  orthogonal box = (0 0 0) to (17.650658 20.381224 30.577801)
  1 by 1 by 1 MPI processor grid
  reading atoms ...
  768 atoms
Finding 1-2 1-3 1-4 neighbors ...
  special bond factors lj:    0        0        0       
  special bond factors coul:  0        0        0       
     0 = max # of 1-2 neighbors
     0 = max # of 1-3 neighbors
     0 = max # of 1-4 neighbors
     1 = max # of special neighbors
  special bonds CPU = 0.000 seconds
  read_data CPU = 0.005 seconds
group           water type 2 3
528 atoms in group water
group           fq    type 1 2 3
768 atoms in group fq
pair_style      hybrid/overlay lj/cut 12.0 coul/long 12.0 coul/shield/intra 12.0 all cbrt
pair_coeff      * * lj/cut 0.0 1.0
pair_coeff      2 2 lj/cut 0.01275 3.144
pair_coeff      1 2 lj/cut 0.05 3.0            # illustrative Au-O term (not a fitted gold-water potential)
pair_coeff      * * coul/long
pair_coeff      1 1 coul/shield/intra 0.2372
pair_coeff      2 2 coul/shield/intra 1.11
pair_coeff      3 3 coul/shield/intra 1.11
kspace_style    pppm/samqeq 1.0e-6
kspace_modify   gewald 0.35 mesh 24 28 42   # pinned: all-zero start charges make the automatic mesh far too coarse
Updated KSpace settings:
  KSpace computation is turned:    ON
  Use MPI collective operations:   OFF
  Use MPI non-blocking operations: OFF
  Gewald manually set to:          0.35
neighbor        2.0 bin
neigh_modify    every 1 delay 0 check yes

# per-molecule constraints
fix             chg fq qeq/sam 1 0.0 12.0 1.0e-7 param
fix_modify      chg shield cbrt
samqeq: lr-solve shielding = cbrt J_shield (param 4th col = gamma); routed through compute_H + add_fixed_charge_field + the legacy gas path (calc_Hval)
fix_modify      chg energy yes
fix_modify      chg gself on width 0.50 types 1
samqeq: gself RESTRICTED to type(s) 1 -- the self-energy is a lattice regulariser (metal sites, where eta is a bulk TF quantity with no width in it) and a DOUBLE COUNT on molecular sites, whose eta was fit to the IP/EA of a finite-width atom
samqeq: gself ON -- finite-width charge self-energy K_e*sqrt(2a/pi) ADDED to the on-site diagonal (width 0.500 A for the listed type(s) only); folded into eta from eta0 at init()
velocity        water create 298.0 4928459 mom yes rot yes dist gaussian
fix             rig water rigid/nvt/small custom i_body temp 298.0 298.0 0.02
Fix rigid/nvt/small setup ...
  create bodies CPU = 0.000 seconds
  176 rigid bodies with 528 atoms
  1.0000026 = max distance from body owner to body atom
compute         kew water ke
variable        Tw equal c_kew*2.0/((6*176-3)*8.617333e-5)
variable        aq atom abs(q)
compute         qmax fq reduce max v_aq
thermo_style    custom step v_Tw pe c_qmax
thermo          100
timestep        0.00025
run             2000            # gentle start from the grid (tight coupling, 0.25 fs)

CITE-CITE-CITE-CITE-CITE-CITE-CITE-CITE-CITE-CITE-CITE-CITE-CITE

Your simulation uses code contributions which should be cited:

- fix acks2/reaxff command: https://doi.org/10.1137/18M1224684

@Article{O'Hearn2020,
 author = {K. A. {O'Hearn} and A. Alperen and H. M. Aktulga},
 title = {Fast Solvers for Charge Distribution Models on Shared Memory Platforms},
 journal = {SIAM J.\ Sci.\ Comput.},
 year =    2020,
 volume =  42,
 number =  1,
 pages =   {1--22}
}

CITE-CITE-CITE-CITE-CITE-CITE-CITE-CITE-CITE-CITE-CITE-CITE-CITE

PPPM initialization ...
WARNING: Using kspace solver on system with no charge (src/kspace.cpp:317)
  using 12-bit tables for long-range coulomb
  G vector (1/distance) = 0.35
  grid = 24 30 45
  stencil order = 5
  estimated absolute RMS force accuracy = 0
  estimated relative force accuracy = 0
  using double precision FFTW3
  3d grid and FFT values/proc = 59644 32400
Generated 0 of 3 mixed pair_coeff terms from geometric mixing rule
samqeq: E_self = sum(chi q + 1/2 eta qs^2) INCLUDED in pe/etotal (fix_modify chg energy yes; eselfref qs = q - q0) -- pe + E_self is the energy the forces integrate
samqeq: gself on-site self-energy per type (eV/e^2, added to eta; 0.000 = excluded): 1:16.248 2:0.000 3:0.000
Neighbor list info ...
  update: every = 1 steps, delay = 0 steps, check = yes
  max neighbors/atom: 2000, page size: 100000
  master list distance cutoff = 14
  ghost atom cutoff = 14
  binsize = 7, bins = 3 3 5
  5 neighbor lists, perpetual/occasional/extra = 5 0 0
  (1) pair lj/cut, perpetual, half/full from (5)
      attributes: half, newton on
      pair build: halffull/newton
      stencil: none
      bin: none
  (2) pair coul/long, perpetual, copy from (1)
      attributes: half, newton on
      pair build: copy
      stencil: none
      bin: none
  (3) pair coul/shield/intra, perpetual, skip from (1)
      attributes: half, newton on
      pair build: skip
      stencil: none
      bin: none
  (4) fix qeq/sam, perpetual, half/full from (5)
      attributes: half, newton off
      pair build: halffull/newtoff
      stencil: none
      bin: none
  (5) fix qeq/sam, perpetual
      attributes: full, newton on
      pair build: full/bin
      stencil: full/bin/3d
      bin: standard
samqeq: recip_self ACTIVE at run start (step 0): not yet calibrated -- measured at the first solve by the K=16 deterministic-probe route
samqeq: calibrated grid reciprocal self-term recip_self=0.39477 +/- 0.00014 (raw, K=16 deterministic probes) = 5.6846 eV/e (subtracted so the QEq diagonal stays = eta)
samqeq SOLVER-DIAG step 0: CG 34 iters (=34 matvecs), resid/b=8.95e-08
Per MPI rank memory allocation (min/avg/max) = 46.88 | 46.88 | 46.88 Mbytes
   Step          v_Tw          PotEng         c_qmax    
         0   292.12146     -790.95295      1.4680149    
       100   363.03493     -837.33939      1.5840173    
samqeq SOLVER-DIAG step 200: CG 41 iters (=41 matvecs), resid/b=5.70e-08
       200   539.58005     -1014.1952      2.2684383    
WARNING: samqeq: near-critical config at step 238 bounded with adaptive ridge=0.5 eV (max|q|=1.955) [1 engaged solves so far] (src/SAMQEQ/fix_qeq_sam_lr.cpp:2197)
WARNING: samqeq: near-critical config at step 239 bounded with adaptive ridge=0.5 eV (max|q|=1.995) [2 engaged solves so far] (src/SAMQEQ/fix_qeq_sam_lr.cpp:2197)
WARNING: samqeq: near-critical config at step 240 bounded with adaptive ridge=0.5 eV (max|q|=2.033) [3 engaged solves so far] (src/SAMQEQ/fix_qeq_sam_lr.cpp:2197)
WARNING: samqeq: near-critical config at step 241 bounded with adaptive ridge=0.5 eV (max|q|=2.069) [4 engaged solves so far] (src/SAMQEQ/fix_qeq_sam_lr.cpp:2197)
WARNING: samqeq: near-critical config at step 242 bounded with adaptive ridge=0.5 eV (max|q|=2.103) [5 engaged solves so far] (src/SAMQEQ/fix_qeq_sam_lr.cpp:2197)
       300   525.61165     -626.05147      1.9971424    
WARNING: samqeq: near-critical config at step 372 bounded with adaptive ridge=0.5 eV (max|q|=2.022) [100 engaged solves so far] (src/SAMQEQ/fix_qeq_sam_lr.cpp:2197)
samqeq SOLVER-DIAG step 400: CG 44 iters (=44 matvecs), resid/b=7.38e-08, ridge=0 (engaged 110 solves)
samqeq SOLVER-DIAG step 400: CG 36 iters (=36 matvecs), resid/b=7.09e-08, ridge=0.5 (engaged 110 solves)
       400   507.79006     -605.79716      1.9886326    
       500   506.7414      -608.07203      1.9708003    
WARNING: samqeq: near-critical config at step 543 bounded with adaptive ridge=0.5 eV (max|q|=1.977) [200 engaged solves so far] (src/SAMQEQ/fix_qeq_sam_lr.cpp:2197)
samqeq SOLVER-DIAG step 600: CG 46 iters (=46 matvecs), resid/b=7.04e-08, ridge=0 (engaged 228 solves)
       600   390.06523     -1177.581       3.8918995    
       700   434.40017     -1176.2046      3.8999051    
WARNING: samqeq: near-critical config at step 719 bounded with adaptive ridge=0.5 eV (max|q|=2.031) [300 engaged solves so far] (src/SAMQEQ/fix_qeq_sam_lr.cpp:2197)
samqeq SOLVER-DIAG step 800: CG 45 iters (=45 matvecs), resid/b=9.42e-08, ridge=0 (engaged 342 solves)
samqeq SOLVER-DIAG step 800: CG 36 iters (=36 matvecs), resid/b=8.51e-08, ridge=0.5 (engaged 342 solves)
       800   389.23125     -631.92166      2.0495589    
       900   427.34511     -1329.5902      3.9904931    
WARNING: samqeq: near-critical config at step 907 bounded with adaptive ridge=0.5 eV (max|q|=2.003) [400 engaged solves so far] (src/SAMQEQ/fix_qeq_sam_lr.cpp:2197)
samqeq SOLVER-DIAG step 1000: CG 48 iters (=48 matvecs), resid/b=9.80e-08, ridge=0 (engaged 457 solves)
      1000   449.78494     -1494.8227      3.9292334    
WARNING: samqeq: near-critical config at step 1064 bounded with adaptive ridge=0.5 eV (max|q|=2.005) [500 engaged solves so far] (src/SAMQEQ/fix_qeq_sam_lr.cpp:2197)
      1100   537.85023     -1377.2968      3.8997813    
samqeq SOLVER-DIAG step 1200: CG 48 iters (=48 matvecs), resid/b=7.15e-08, ridge=0 (engaged 575 solves)
samqeq SOLVER-DIAG step 1200: CG 37 iters (=37 matvecs), resid/b=9.76e-08, ridge=0.5 (engaged 575 solves)
      1200   565.53326     -694.85891      2.0181471    
WARNING: samqeq: near-critical config at step 1232 bounded with adaptive ridge=0.5 eV (max|q|=2.015) [600 engaged solves so far] (src/SAMQEQ/fix_qeq_sam_lr.cpp:2197)
      1300   486.10246     -672.3912       2.1160644    
WARNING: samqeq: near-critical config at step 1369 bounded with adaptive ridge=0.5 eV (max|q|=2.057) [700 engaged solves so far] (src/SAMQEQ/fix_qeq_sam_lr.cpp:2197)
samqeq SOLVER-DIAG step 1400: CG 45 iters (=45 matvecs), resid/b=6.74e-08, ridge=0 (engaged 719 solves)
samqeq SOLVER-DIAG step 1400: CG 36 iters (=36 matvecs), resid/b=6.16e-08, ridge=0.5 (engaged 719 solves)
      1400   454.0122      -643.34115      2.0282888    
      1500   448.67894     -1227.9611      3.9224203    
WARNING: samqeq: near-critical config at step 1524 bounded with adaptive ridge=0.5 eV (max|q|=2.053) [800 engaged solves so far] (src/SAMQEQ/fix_qeq_sam_lr.cpp:2197)
samqeq SOLVER-DIAG step 1600: CG 44 iters (=44 matvecs), resid/b=4.18e-08, ridge=0 (engaged 852 solves)
      1600   412.47465     -1206.2741      3.9538984    
      1700   471.5237      -648.20821      2.1307344    
WARNING: samqeq: near-critical config at step 1702 bounded with adaptive ridge=0.5 eV (max|q|=2.157) [900 engaged solves so far] (src/SAMQEQ/fix_qeq_sam_lr.cpp:2197)
samqeq SOLVER-DIAG step 1800: CG 44 iters (=44 matvecs), resid/b=7.43e-08, ridge=0 (engaged 976 solves)
samqeq SOLVER-DIAG step 1800: CG 35 iters (=35 matvecs), resid/b=9.22e-08, ridge=0.5 (engaged 976 solves)
      1800   380.73603     -632.82929      2.0542612    
WARNING: samqeq: near-critical config at step 1840 bounded with adaptive ridge=0.5 eV (max|q|=1.945) [1000 engaged solves so far] (src/SAMQEQ/fix_qeq_sam_lr.cpp:2197)
      1900   355.83781     -638.81157      1.9830097    
WARNING: samqeq: near-critical config at step 1981 bounded with adaptive ridge=0.5 eV (max|q|=1.973) [1100 engaged solves so far] (src/SAMQEQ/fix_qeq_sam_lr.cpp:2197)
samqeq SOLVER-DIAG step 2000: CG 44 iters (=44 matvecs), resid/b=5.87e-08, ridge=0 (engaged 1108 solves)
samqeq SOLVER-DIAG step 2000: CG 35 iters (=35 matvecs), resid/b=9.09e-08, ridge=0.5 (engaged 1108 solves)
      2000   372.30106     -639.9624       2.0111736    
Loop time of 190.532 on 1 procs for 2000 steps with 768 atoms

Performance: 0.227 ns/day, 105.851 hours/ns, 10.497 timesteps/s, 8.062 katom-step/s
100.0% CPU use with 1 MPI tasks x 1 OpenMP threads

MPI task timing breakdown:
Section |  min time  |  avg time  |  max time  |%varavg| %total
---------------------------------------------------------------
Pair    | 12.828     | 12.828     | 12.828     |   0.0 |  6.73
Bond    | 0.00056182 | 0.00056182 | 0.00056182 |   0.0 |  0.00
Kspace  | 3.1866     | 3.1866     | 3.1866     |   0.0 |  1.67
Neigh   | 0.3027     | 0.3027     | 0.3027     |   0.0 |  0.16
Comm    | 0.081793   | 0.081793   | 0.081793   |   0.0 |  0.04
Output  | 0.00097029 | 0.00097029 | 0.00097029 |   0.0 |  0.00
Modify  | 174.11     | 174.11     | 174.11     |   0.0 | 91.38
Other   |            | 0.01879    |            |       |  0.01

Nlocal:            768 ave         768 max         768 min
Histogram: 1 0 0 0 0 0 0 0 0 0
Nghost:           8314 ave        8314 max        8314 min
Histogram: 1 0 0 0 0 0 0 0 0 0
Neighs:         323317 ave      323317 max      323317 min
Histogram: 1 0 0 0 0 0 0 0 0 0
FullNghs:       646634 ave      646634 max      646634 min
Histogram: 1 0 0 0 0 0 0 0 0 0

Total # of neighbors = 646634
Ave neighs/atom = 841.97135
Ave special neighs/atom = 0
Neighbor list builds = 27
Dangerous builds = 0
unfix           rig
fix             rig water rigid/nvt/small custom i_body temp 298.0 298.0 0.1
Fix rigid/nvt/small setup ...
  create bodies CPU = 0.000 seconds
  176 rigid bodies with 528 atoms
  1.0000026 = max distance from body owner to body atom
timestep        0.001
run             3000
PPPM initialization ...
  using 12-bit tables for long-range coulomb
WARNING: For better accuracy use 'pair_modify table 0' (src/kspace.cpp:368)
  G vector (1/distance) = 0.35
  grid = 24 30 45
  stencil order = 5
  estimated absolute RMS force accuracy = 1.0196458e-05
  estimated relative force accuracy = 7.0810481e-07
  using double precision FFTW3
  3d grid and FFT values/proc = 59644 32400
Generated 0 of 3 mixed pair_coeff terms from geometric mixing rule
samqeq: E_self = sum(chi q + 1/2 eta qs^2) INCLUDED in pe/etotal (fix_modify chg energy yes; eselfref qs = q - q0) -- pe + E_self is the energy the forces integrate
samqeq: gself on-site self-energy per type (eV/e^2, added to eta; 0.000 = excluded): 1:16.248 2:0.000 3:0.000
samqeq: recip_self ACTIVE at run start (step 2000): 0.39477 raw = 5.6846 eV/e, K=16 deterministic-probe route, calibration #1 at step 0 on the 24x30x45 mesh; first at this mesh 0.39477 (step 0), drift +0.000%
samqeq: setup solve SKIPPED at run-boundary step 2000 (2nd+ run / restart): the setup forces use the STORED atom->q (the first in-loop step re-solves) -- use `reset_timestep 0` before the run to force a solve
Per MPI rank memory allocation (min/avg/max) = 47.6 | 47.6 | 47.6 Mbytes
   Step          v_Tw          PotEng         c_qmax    
      2000   372.30106     -639.9624       2.0111736    
WARNING: samqeq: near-critical config at step 2001 bounded with adaptive ridge=0.5 eV (max|q|=1.986) [1 engaged solves so far] (src/SAMQEQ/fix_qeq_sam_lr.cpp:2197)
WARNING: samqeq: near-critical config at step 2003 bounded with adaptive ridge=0.5 eV (max|q|=2.003) [2 engaged solves so far] (src/SAMQEQ/fix_qeq_sam_lr.cpp:2197)
WARNING: samqeq: near-critical config at step 2005 bounded with adaptive ridge=0.5 eV (max|q|=2.026) [3 engaged solves so far] (src/SAMQEQ/fix_qeq_sam_lr.cpp:2197)
WARNING: samqeq: near-critical config at step 2007 bounded with adaptive ridge=0.5 eV (max|q|=2.015) [4 engaged solves so far] (src/SAMQEQ/fix_qeq_sam_lr.cpp:2197)
WARNING: samqeq: near-critical config at step 2009 bounded with adaptive ridge=0.5 eV (max|q|=2.098) [5 engaged solves so far] (src/SAMQEQ/fix_qeq_sam_lr.cpp:2197)
      2100   1172.4271     -1310.5367      3.5797245    
samqeq SOLVER-DIAG step 2200: CG 46 iters (=46 matvecs), resid/b=6.06e-08, ridge=0 (engaged 83 solves)
samqeq SOLVER-DIAG step 2200: CG 36 iters (=36 matvecs), resid/b=6.20e-08, ridge=0.5 (engaged 83 solves)
      2200   2097.0628     -505.85735      1.9983199    
WARNING: samqeq: near-critical config at step 2237 bounded with adaptive ridge=0.5 eV (max|q|=1.935) [100 engaged solves so far] (src/SAMQEQ/fix_qeq_sam_lr.cpp:2197)
      2300   1575.5803     -660.23954      1.6375319    
samqeq SOLVER-DIAG step 2400: CG 37 iters (=37 matvecs), resid/b=7.43e-08, ridge=0 (engaged 113 solves)
      2400   897.82939     -698.22114      2.0018375    
      2500   1353.5055     -653.27964      1.5196368    
samqeq SOLVER-DIAG step 2600: CG 36 iters (=36 matvecs), resid/b=7.35e-08, ridge=0 (engaged 127 solves)
      2600   860.84371     -680.72934      1.8114239    
      2700   1051.571      -1107.6939      3.7821064    
samqeq SOLVER-DIAG step 2800: CG 39 iters (=39 matvecs), resid/b=7.63e-08, ridge=0 (engaged 159 solves)
      2800   1239.3359     -758.88256      3.4023235    
      2900   910.07741     -687.92374      1.4961301    
samqeq SOLVER-DIAG step 3000: CG 41 iters (=41 matvecs), resid/b=7.49e-08, ridge=0 (engaged 176 solves)
      3000   884.97951     -858.81813      3.6171819    
      3100   846.42522     -886.50251      2.4096681    
WARNING: samqeq: near-critical config at step 3158 bounded with adaptive ridge=0.5 eV (max|q|=1.918) [200 engaged solves so far] (src/SAMQEQ/fix_qeq_sam_lr.cpp:2197)
samqeq SOLVER-DIAG step 3200: CG 46 iters (=46 matvecs), resid/b=5.68e-08, ridge=0 (engaged 211 solves)
      3200   1298.83       -928.6833       3.5208094    
      3300   1099.5311     -782.17592      2.8054172    
samqeq SOLVER-DIAG step 3400: CG 45 iters (=45 matvecs), resid/b=5.14e-08, ridge=0 (engaged 228 solves)
samqeq SOLVER-DIAG step 3400: CG 35 iters (=35 matvecs), resid/b=7.84e-08, ridge=0.5 (engaged 228 solves)
      3400   1062.0264     -511.36076      2.0971256    
      3500   1046.422      -473.49963      1.9563274    
samqeq SOLVER-DIAG step 3600: CG 46 iters (=46 matvecs), resid/b=6.16e-08, ridge=0 (engaged 270 solves)
samqeq SOLVER-DIAG step 3600: CG 36 iters (=36 matvecs), resid/b=6.74e-08, ridge=0.5 (engaged 270 solves)
      3600   982.29005     -493.578        2.2299499    
      3700   1185.0211     -792.84537      3.2917885    
WARNING: samqeq: near-critical config at step 3750 bounded with adaptive ridge=0.5 eV (max|q|=2.066) [300 engaged solves so far] (src/SAMQEQ/fix_qeq_sam_lr.cpp:2197)
samqeq SOLVER-DIAG step 3800: CG 39 iters (=39 matvecs), resid/b=6.71e-08, ridge=0 (engaged 301 solves)
      3800   1061.4775     -708.61592      2.2739269    
      3900   898.40762     -771.2339       2.7994972    
samqeq SOLVER-DIAG step 4000: CG 44 iters (=44 matvecs), resid/b=7.50e-08, ridge=0 (engaged 340 solves)
      4000   1079.2021     -851.08239      2.6298559    
      4100   1142.4344     -487.5565       2.0021106    
samqeq SOLVER-DIAG step 4200: CG 39 iters (=39 matvecs), resid/b=8.75e-08, ridge=0 (engaged 372 solves)
      4200   1018.0912     -687.33866      1.9625754    
      4300   1033.0082     -657.41178      1.5760302    
WARNING: samqeq: near-critical config at step 4398 bounded with adaptive ridge=0.5 eV (max|q|=2.008) [400 engaged solves so far] (src/SAMQEQ/fix_qeq_sam_lr.cpp:2197)
samqeq SOLVER-DIAG step 4400: CG 43 iters (=43 matvecs), resid/b=7.65e-08, ridge=0 (engaged 401 solves)
      4400   1152.7458     -871.37479      3.9707221    
      4500   1008.7243     -684.1396       1.5925535    
samqeq SOLVER-DIAG step 4600: CG 40 iters (=40 matvecs), resid/b=7.54e-08, ridge=0 (engaged 435 solves)
      4600   1140.7543     -764.4151       2.2226861    
      4700   999.43982     -736.89304      3.2411981    
samqeq SOLVER-DIAG step 4800: CG 39 iters (=39 matvecs), resid/b=9.31e-08, ridge=0 (engaged 464 solves)
      4800   835.13041     -756.31057      2.0983779    
      4900   1031.5549     -495.65762      1.981388     
WARNING: samqeq: near-critical config at step 4927 bounded with adaptive ridge=0.5 eV (max|q|=2.167) [500 engaged solves so far] (src/SAMQEQ/fix_qeq_sam_lr.cpp:2197)
samqeq SOLVER-DIAG step 5000: CG 42 iters (=42 matvecs), resid/b=9.24e-08, ridge=0 (engaged 520 solves)
      5000   1109.4522     -791.7212       3.5095346    
Loop time of 207.695 on 1 procs for 3000 steps with 768 atoms

Performance: 1.248 ns/day, 19.231 hours/ns, 14.444 timesteps/s, 11.093 katom-step/s
100.0% CPU use with 1 MPI tasks x 1 OpenMP threads

MPI task timing breakdown:
Section |  min time  |  avg time  |  max time  |%varavg| %total
---------------------------------------------------------------
Pair    | 17.88      | 17.88      | 17.88      |   0.0 |  8.61
Bond    | 0.00073919 | 0.00073919 | 0.00073919 |   0.0 |  0.00
Kspace  | 4.4428     | 4.4428     | 4.4428     |   0.0 |  2.14
Neigh   | 3.0256     | 3.0256     | 3.0256     |   0.0 |  1.46
Comm    | 0.13328    | 0.13328    | 0.13328    |   0.0 |  0.06
Output  | 0.0013479  | 0.0013479  | 0.0013479  |   0.0 |  0.00
Modify  | 182.18     | 182.18     | 182.18     |   0.0 | 87.72
Other   |            | 0.02663    |            |       |  0.01

Nlocal:            768 ave         768 max         768 min
Histogram: 1 0 0 0 0 0 0 0 0 0
Nghost:           8640 ave        8640 max        8640 min
Histogram: 1 0 0 0 0 0 0 0 0 0
Neighs:         315528 ave      315528 max      315528 min
Histogram: 1 0 0 0 0 0 0 0 0 0
FullNghs:       631056 ave      631056 max      631056 min
Histogram: 1 0 0 0 0 0 0 0 0 0

Total # of neighbors = 631056
Ave neighs/atom = 821.6875
Ave special neighs/atom = 0
Neighbor list builds = 278
Dangerous builds = 0
dump            dq all custom 500 charges.lammpstrj id mol type q x y z
dump_modify     dq sort id
run             100
PPPM initialization ...
  using 12-bit tables for long-range coulomb
WARNING: For better accuracy use 'pair_modify table 0' (src/kspace.cpp:368)
  G vector (1/distance) = 0.35
  grid = 24 30 45
  stencil order = 5
  estimated absolute RMS force accuracy = 1.4133464e-05
  estimated relative force accuracy = 9.8151477e-07
  using double precision FFTW3
  3d grid and FFT values/proc = 59644 32400
Generated 0 of 3 mixed pair_coeff terms from geometric mixing rule
samqeq: E_self = sum(chi q + 1/2 eta qs^2) INCLUDED in pe/etotal (fix_modify chg energy yes; eselfref qs = q - q0) -- pe + E_self is the energy the forces integrate
samqeq: gself on-site self-energy per type (eV/e^2, added to eta; 0.000 = excluded): 1:16.248 2:0.000 3:0.000
samqeq: recip_self ACTIVE at run start (step 5000): 0.39477 raw = 5.6846 eV/e, K=16 deterministic-probe route, calibration #1 at step 0 on the 24x30x45 mesh; first at this mesh 0.39477 (step 0), drift +0.000%
Per MPI rank memory allocation (min/avg/max) = 46.78 | 46.78 | 46.78 Mbytes
   Step          v_Tw          PotEng         c_qmax    
      5000   1109.4522     -791.7212       3.5095346    
WARNING: samqeq: near-critical config at step 5004 bounded with adaptive ridge=0.5 eV (max|q|=2.196) [1 engaged solves so far] (src/SAMQEQ/fix_qeq_sam_lr.cpp:2197)
WARNING: samqeq: near-critical config at step 5006 bounded with adaptive ridge=0.5 eV (max|q|=2.080) [2 engaged solves so far] (src/SAMQEQ/fix_qeq_sam_lr.cpp:2197)
WARNING: samqeq: near-critical config at step 5007 bounded with adaptive ridge=0.5 eV (max|q|=2.109) [3 engaged solves so far] (src/SAMQEQ/fix_qeq_sam_lr.cpp:2197)
WARNING: samqeq: near-critical config at step 5075 bounded with adaptive ridge=0.5 eV (max|q|=1.956) [4 engaged solves so far] (src/SAMQEQ/fix_qeq_sam_lr.cpp:2197)
WARNING: samqeq: near-critical config at step 5076 bounded with adaptive ridge=0.5 eV (max|q|=1.926) [5 engaged solves so far] (src/SAMQEQ/fix_qeq_sam_lr.cpp:2197)
      5100   1125.7461     -972.69443      3.5694302    
Loop time of 6.69241 on 1 procs for 100 steps with 768 atoms

Performance: 1.291 ns/day, 18.590 hours/ns, 14.942 timesteps/s, 11.476 katom-step/s
100.0% CPU use with 1 MPI tasks x 1 OpenMP threads

MPI task timing breakdown:
Section |  min time  |  avg time  |  max time  |%varavg| %total
---------------------------------------------------------------
Pair    | 0.57857    | 0.57857    | 0.57857    |   0.0 |  8.65
Bond    | 2.44e-05   | 2.44e-05   | 2.44e-05   |   0.0 |  0.00
Kspace  | 0.14845    | 0.14845    | 0.14845    |   0.0 |  2.22
Neigh   | 0.1046     | 0.1046     | 0.1046     |   0.0 |  1.56
Comm    | 0.0045767  | 0.0045767  | 0.0045767  |   0.0 |  0.07
Output  | 4.5481e-05 | 4.5481e-05 | 4.5481e-05 |   0.0 |  0.00
Modify  | 5.8551     | 5.8551     | 5.8551     |   0.0 | 87.49
Other   |            | 0.001004   |            |       |  0.02

Nlocal:            768 ave         768 max         768 min
Histogram: 1 0 0 0 0 0 0 0 0 0
Nghost:           8518 ave        8518 max        8518 min
Histogram: 1 0 0 0 0 0 0 0 0 0
Neighs:         314952 ave      314952 max      314952 min
Histogram: 1 0 0 0 0 0 0 0 0 0
FullNghs:       629904 ave      629904 max      629904 min
Histogram: 1 0 0 0 0 0 0 0 0 0

Total # of neighbors = 629904
Ave neighs/atom = 820.1875
Ave special neighs/atom = 0
Neighbor list builds = 10
Dangerous builds = 0
print           "DYN_DONE" file done.txt screen no
Total wall time: 0:06:45
