ITEM: TIMESTEP
0
ITEM: NUMBER OF ATOMS
2162
ITEM: BOX BOUNDS pp pp ff
0.0000000000000000e+00 5.2951974149999998e+01
0.0000000000000000e+00 6.1143673049999997e+01
0.0000000000000000e+00 6.0000000000000000e+01
ITEM: ATOMS id mol type q x y z
1 1 1 0.00210966997506 0.00000000 0.00000000 25.00000000
2 1 1 0.00212646541001 1.47088817 2.54765304 25.00000000
3 1 1 0.00216421173093 0.00000000 5.09530609 25.00000000
4 1 1 0.00223632579259 1.47088817 7.64295913 25.00000000
5 1 1 0.00232372266388 0.00000000 10.19061218 25.00000000
6 1 1 0.00244671268819 1.47088817 12.73826522 25.00000000
7 1 1 0.00256970373186 0.00000000 15.28591827 25.00000000
8 1 1 0.00272703822216 1.47088817 17.83357131 25.00000000
9 1 1 0.00212126614535 2.94177634 0.00000000 25.00000000
10 1 1 0.00215100788818 4.41266451 2.54765304 25.00000000
11 1 1 0.00217905614772 2.94177634 5.09530609 25.00000000
12 1 1 0.00227451659814 4.41266451 7.64295913 25.00000000
13 1 1 0.00234947418913 2.94177634 10.19061218 25.00000000
14 1 1 0.00251665488709 4.41266451 12.73826522 25.00000000
15 1 1 0.00261652677985 2.94177634 15.28591827 25.00000000
16 1 1 0.00285128579915 4.41266451 17.83357131 25.00000000
17 1 1 0.00215510579659 5.88355268 0.00000000 25.00000000
18 1 1 0.00219817648407 7.35444085 2.54765304 25.00000000
19 1 1 0.0022226773406 5.88355268 5.09530609 25.00000000
20 1 1 0.00234927582757 7.35444085 7.64295913 25.00000000
21 1 1 0.00242638462372 5.88355268 10.19061218 25.00000000
22 1 1 0.00265747211161 7.35444085 12.73826522 25.00000000
23 1 1 0.00275940770619 5.88355268 15.28591827 25.00000000
24 1 1 0.0031109076545 7.35444085 17.83357131 25.00000000
25 1 1 0.00220828233557 8.82532903 0.00000000 25.00000000
26 1 1 0.00226397265904 10.29621720 2.54765304 25.00000000
27 1 1 0.00229214686615 8.82532903 5.09530609 25.00000000
28 1 1 0.00245659691635 10.29621720 7.64295913 25.00000000
29 1 1 0.00255273634682 8.82532903 10.19061218 25.00000000
30 1 1 0.00286907620698 10.29621720 12.73826522 25.00000000
31 1 1 0.00300458669745 8.82532903 15.28591827 25.00000000
32 1 1 0.00352678628849 10.29621720 17.83357131 25.00000000
33 1 1 0.0022758069755 11.76710537 0.00000000 25.00000000
34 1 1 0.00234210442458 13.23799354 2.54765304 25.00000000
35 1 1 0.00238201243199 11.76710537 5.09530609 25.00000000
36 1 1 0.00258877167435 13.23799354 7.64295913 25.00000000
37 1 1 0.00272347788377 11.76710537 10.19061218 25.00000000
38 1 1 0.00314617764663 13.23799354 12.73826522 25.00000000
39 1 1 0.00335833904394 11.76710537 15.28591827 25.00000000
40 1 1 0.0041217215543 13.23799354 17.83357131 25.00000000
41 1 1 0.00235058605919 14.70888171 0.00000000 25.00000000
42 1 1 0.00242398589246 16.17976988 2.54765304 25.00000000
43 1 1 0.00248373335624 14.70888171 5.09530609 25.00000000
44 1 1 0.00273304385865 16.17976988 7.64295913 25.00000000
45 1 1 0.00292726321817 14.70888171 10.19061218 25.00000000
46 1 1 0.00347130300395 16.17976988 12.73826522 25.00000000
47 1 1 0.00381742496328 14.70888171 15.28591827 25.00000000
48 1 1 0.00489700218332 16.17976988 17.83357131 25.00000000
49 1 1 -0.00140600009343 1.47088817 0.84921768 27.40195032
50 1 1 -0.00142838553986 2.94177634 3.39687073 27.40195032
51 1 1 -0.001456140174 1.47088817 5.94452377 27.40195032
52 1 1 -0.00151946728026 2.94177634 8.49217681 27.40195032
53 1 1 -0.00157801071107 1.47088817 11.03982986 27.40195032
54 1 1 -0.00168193459152 2.94177634 13.58748290 27.40195032
55 1 1 -0.00175714487988 1.47088817 16.13513595 27.40195032
56 1 1 -0.00189242334149 2.94177634 18.68278899 27.40195032
57 1 1 -0.00142175431425 4.41266451 0.84921768 27.40195032
58 1 1 -0.00145437912848 5.88355268 3.39687073 27.40195032
59 1 1 -0.0014779609685 4.41266451 5.94452377 27.40195032
60 1 1 -0.00156238880509 5.88355268 8.49217681 27.40195032
61 1 1 -0.00161708461969 4.41266451 11.03982986 27.40195032
62 1 1 -0.00176220994503 5.88355268 13.58748290 27.40195032
63 1 1 -0.00182853116378 4.41266451 16.13513595 27.40195032
64 1 1 -0.00203584144355 5.88355268 18.68278899 27.40195032
65 1 1 -0.00145197411362 7.35444085 0.84921768 27.40195032
66 1 1 -0.00149549948766 8.82532903 3.39687073 27.40195032
67 1 1 -0.00152036051718 7.35444085 5.94452377 27.40195032
68 1 1 -0.00163212656446 8.82532903 8.49217681 27.40195032
69 1 1 -0.00169504199964 7.35444085 11.03982986 27.40195032
70 1 1 -0.00189819005313 8.82532903 13.58748290 27.40195032
71 1 1 -0.0019761873177 7.35444085 16.13513595 27.40195032
72 1 1 -0.00229138829196 8.82532903 18.68278899 27.40195032
73 1 1 -0.00149399168519 10.29621720 0.84921768 27.40195032
74 1 1 -0.00154819565833 11.76710537 3.39687073 27.40195032
75 1 1 -0.001580540056 10.29621720 5.94452377 27.40195032
76 1 1 -0.00172496187481 11.76710537 8.49217681 27.40195032
77 1 1 -0.0018104944348 10.29621720 11.03982986 27.40195032
78 1 1 -0.00209015355214 11.76710537 13.58748290 27.40195032
79 1 1 -0.00220776844409 10.29621720 16.13513595 27.40195032
80 1 1 -0.00268041969124 11.76710537 18.68278899 27.40195032
81 1 1 -0.00154366946391 13.23799354 0.84921768 27.40195032
82 1 1 -0.00160718615366 14.70888171 3.39687073 27.40195032
83 1 1 -0.00165361850987 13.23799354 5.94452377 27.40195032
84 1 1 -0.00183375033928 14.70888171 8.49217681 27.40195032
85 1 1 -0.00195860453348 13.23799354 11.03982986 27.40195032
86 1 1 -0.00233167917847 14.70888171 13.58748290 27.40195032
87 1 1 -0.00252845515721 13.23799354 16.13513595 27.40195032
88 1 1 -0.00322264532778 14.70888171 18.68278899 27.40195032
89 1 1 -0.00159547054606 16.17976988 0.84921768 27.40195032
90 1 1 -0.00141950938481 0.00000000 3.39687073 27.40195032
91 1 1 -0.00173215293624 16.17976988 5.94452377 27.40195032
92 1 1 -0.00150500919155 0.00000000 8.49217681 27.40195032
93 1 1 -0.00212784662027 16.17976988 11.03982986 27.40195032
94 1 1 -0.00165546879034 0.00000000 13.58748290 27.40195032
95 1 1 -0.00293062045152 16.17976988 16.13513595 27.40195032
96 1 1 -0.00184635673923 0.00000000 18.68278899 27.40195032
97 1 1 -4.5308980646e-05 2.94177634 1.69843536 29.80390065
98 1 1 -4.64365314976e-05 4.41266451 4.24608841 29.80390065
99 1 1 -4.74322730925e-05 2.94177634 6.79374145 29.80390065
100 1 1 -5.00618110254e-05 4.41266451 9.34139450 29.80390065
101 1 1 -5.19778073249e-05 2.94177634 11.88904754 29.80390065
102 1 1 -5.62398329036e-05 4.41266451 14.43670058 29.80390065
103 1 1 -5.84426606229e-05 2.94177634 16.98435363 29.80390065
104 1 1 -6.40933344582e-05 4.41266451 19.53200667 29.80390065
105 1 1 -4.60795183252e-05 5.88355268 1.69843536 29.80390065
106 1 1 -4.7609267912e-05 7.35444085 4.24608841 29.80390065
107 1 1 -4.85805304006e-05 5.88355268 6.79374145 29.80390065
108 1 1 -5.21084018242e-05 7.35444085 9.34139450 29.80390065
109 1 1 -5.41009054774e-05 5.88355268 11.88904754 29.80390065
110 1 1 -6.01699194845e-05 7.35444085 14.43670058 29.80390065
111 1 1 -6.235906708e-05 5.88355268 16.98435363 29.80390065
112 1 1 -7.10942629059e-05 7.35444085 19.53200667 29.80390065
113 1 1 -4.72931782668e-05 8.82532903 1.69843536 29.80390065
114 1 1 -4.9257129565e-05 10.29621720 4.24608841 29.80390065
115 1 1 -5.04268377641e-05 8.82532903 6.79374145 29.80390065
116 1 1 -5.50985780878e-05 10.29621720 9.34139450 29.80390065
117 1 1 -5.76533669177e-05 8.82532903 11.88904754 29.80390065
118 1 1 -6.61863658051e-05 10.29621720 14.43670058 29.80390065
119 1 1 -6.91739992802e-05 8.82532903 16.98435363 29.80390065
120 1 1 -8.25955317084e-05 10.29621720 19.53200667 29.80390065
121 1 1 -4.88386557044e-05 11.76710537 1.69843536 29.80390065
122 1 1 -5.12334233291e-05 13.23799354 4.24608841 29.80390065
123 1 1 -5.28504947524e-05 11.76710537 6.79374145 29.80390065
124 1 1 -5.88560022115e-05 13.23799354 9.34139450 29.80390065
125 1 1 -6.25534087704e-05 11.76710537 11.88904754 29.80390065
126 1 1 -7.42427381163e-05 13.23799354 14.43670058 29.80390065
127 1 1 -7.92630734593e-05 11.76710537 16.98435363 29.80390065
128 1 1 -0.000100024639412 13.23799354 19.53200667 29.80390065
129 1 1 -5.05554376886e-05 14.70888171 1.69843536 29.80390065
130 1 1 -5.33279467811e-05 16.17976988 4.24608841 29.80390065
131 1 1 -5.56411969786e-05 14.70888171 6.79374145 29.80390065
132 1 1 -6.30337191599e-05 16.17976988 9.34139450 29.80390065
133 1 1 -6.85171905799e-05 14.70888171 11.88904754 29.80390065
134 1 1 -8.40182912571e-05 16.17976988 14.43670058 29.80390065
135 1 1 -9.29812314051e-05 14.70888171 16.98435363 29.80390065
136 1 1 -0.000124215145231 16.17976988 19.53200667 29.80390065
137 1 1 -4.50452982993e-05 0.00000000 1.69843536 29.80390065
138 1 1 -4.58289940942e-05 1.47088817 4.24608841 29.80390065
139 1 1 -4.70432070135e-05 0.00000000 6.79374145 29.80390065
140 1 1 -4.90276381634e-05 1.47088817 9.34139450 29.80390065
141 1 1 -5.12744426039e-05 0.00000000 11.88904754 29.80390065
142 1 1 -5.43184051149e-05 1.47088817 14.43670058 29.80390065
143 1 1 -5.71715255131e-05 0.00000000 16.98435363 29.80390065
144 1 1 -6.0765781961e-05 1.47088817 19.53200667 29.80390065
145 1 1 0.00151321092076 4.41266451 2.54765304 32.20585097
146 1 1 0.00156494868483 5.88355268 5.09530609 32.20585097
147 1 1 0.00160232495512 4.41266451 7.64295913 32.20585097
148 1 1 0.00171217167788 5.88355268 10.19061218 32.20585097
149 1 1 0.00177728584503 4.41266451 12.73826522 32.20585097
150 1 1 0.00195355602072 5.88355268 15.28591827 32.20585097
151 1 1 0.00201984973053 4.41266451 17.83357131 32.20585097
152 1 1 0.00151616508555 5.88355268 0.00000000 32.20585097
153 1 1 0.00154725094904 7.35444085 2.54765304 32.20585097
154 1 1 0.00161519387105 8.82532903 5.09530609 32.20585097
155 1 1 0.00165650141256 7.35444085 7.64295913 32.20585097
156 1 1 0.00180401752881 8.82532903 10.19061218 32.20585097
157 1 1 0.0018798546202 7.35444085 12.73826522 32.20585097
158 1 1 0.00213305561727 8.82532903 15.28591827 32.20585097
159 1 1 0.00221013776286 7.35444085 17.83357131 32.20585097
160 1 1 0.00155451818763 8.82532903 0.00000000 32.20585097
161 1 1 0.00159475976166 10.29621720 2.54765304 32.20585097
162 1 1 0.00168022512811 11.76710537 5.09530609 32.20585097
163 1 1 0.00173433613197 10.29621720 7.64295913 32.20585097
164 1 1 0.00192845328862 11.76710537 10.19061218 32.20585097
165 1 1 0.00203449165642 10.29621720 12.73826522 32.20585097
166 1 1 0.00239257842715 11.76710537 15.28591827 32.20585097
167 1 1 0.00251529341567 10.29621720 17.83357131 32.20585097
168 1 1 0.00160325033634 11.76710537 0.00000000 32.20585097
169 1 1 0.00165120455317 13.23799354 2.54765304 32.20585097
170 1 1 0.00175389462787 14.70888171 5.09530609 32.20585097
171 1 1 0.00183035098322 13.23799354 7.64295913 32.20585097
172 1 1 0.00207738986525 14.70888171 10.19061218 32.20585097
173 1 1 0.00223755803101 13.23799354 12.73826522 32.20585097
174 1 1 0.0027291959833 14.70888171 15.28591827 32.20585097
175 1 1 0.00295136739574 13.23799354 17.83357131 32.20585097
176 1 1 0.00165724663387 14.70888171 0.00000000 32.20585097
177 1 1 0.00171038578421 16.17976988 2.54765304 32.20585097
178 1 1 0.00152267935335 0.00000000 5.09530609 32.20585097
179 1 1 0.00193536824306 16.17976988 7.64295913 32.20585097
180 1 1 0.00163765154666 0.00000000 10.19061218 32.20585097
181 1 1 0.0024759206888 16.17976988 12.73826522 32.20585097
182 1 1 0.00181523603022 0.00000000 15.28591827 32.20585097
183 1 1 0.00352077229797 16.17976988 17.83357131 32.20585097
184 1 1 0.00148341702163 0.00000000 0.00000000 32.20585097
185 1 1 0.00149550741695 1.47088817 2.54765304 32.20585097
186 1 1 0.00153340989072 2.94177634 5.09530609 32.20585097
187 1 1 0.00157465427232 1.47088817 7.64295913 32.20585097
188 1 1 0.00165633950603 2.94177634 10.19061218 32.20585097
189 1 1 0.00172644331171 1.47088817 12.73826522 32.20585097
190 1 1 0.00184931626776 2.94177634 15.28591827 32.20585097
191 1 1 0.00192907585703 1.47088817 17.83357131 32.20585097
192 1 1 0.00149177279609 2.94177634 0.00000000 32.20585097
193 1 1 -0.00221930364356 5.88355268 3.39687073 34.60780130
194 1 1 -0.00231757974359 7.35444085 5.94452377 34.60780130
195 1 1 -0.00238025842929 5.88355268 8.49217681 34.60780130
196 1 1 -0.0025774185666 7.35444085 11.03982986 34.60780130
197 1 1 -0.00267747788317 5.88355268 13.58748290 34.60780130
198 1 1 -0.00299398896358 7.35444085 16.13513595 34.60780130
199 1 1 -0.00308290846485 5.88355268 18.68278899 34.60780130
200 1 1 -0.00221573877218 7.35444085 0.84921768 34.60780130
201 1 1 -0.00228057415679 8.82532903 3.39687073 34.60780130
202 1 1 -0.00240706915909 10.29621720 5.94452377 34.60780130
203 1 1 -0.00248377696499 8.82532903 8.49217681 34.60780130
204 1 1 -0.00274811389066 10.29621720 11.03982986 34.60780130
205 1 1 -0.00287813396727 8.82532903 13.58748290 34.60780130
206 1 1 -0.0033346892216 10.29621720 16.13513595 34.60780130
207 1 1 -0.00345880923603 8.82532903 18.68278899 34.60780130
208 1 1 -0.00227840321295 10.29621720 0.84921768 34.60780130
209 1 1 -0.00235905969531 11.76710537 3.39687073 34.60780130
210 1 1 -0.00251565345673 13.23799354 5.94452377 34.60780130
211 1 1 -0.00262137277155 11.76710537 8.49217681 34.60780130
212 1 1 -0.00296650364599 13.23799354 11.03982986 34.60780130
213 1 1 -0.00316070328098 11.76710537 13.58748290 34.60780130
214 1 1 -0.00380692695822 13.23799354 16.13513595 34.60780130
215 1 1 -0.00403213170047 11.76710537 18.68278899 34.60780130
216 1 1 -0.00235245408957 13.23799354 0.84921768 34.60780130
217 1 1 -0.00244688084708 14.70888171 3.39687073 34.60780130
218 1 1 -0.00263220476598 16.17976988 5.94452377 34.60780130
219 1 1 -0.0027822662494 14.70888171 8.49217681 34.60780130
220 1 1 -0.00321569919029 16.17976988 11.03982986 34.60780130
221 1 1 -0.00351612854964 14.70888171 13.58748290 34.60780130
222 1 1 -0.00439954662811 16.17976988 16.13513595 34.60780130
223 1 1 -0.00483050533134 14.70888171 18.68278899 34.60780130
224 1 1 -0.00242964047451 16.17976988 0.84921768 34.60780130
225 1 1 -0.00216732202141 0.00000000 3.39687073 34.60780130
226 1 1 -0.00222204209868 1.47088817 5.94452377 34.60780130
227 1 1 -0.00229503782662 0.00000000 8.49217681 34.60780130
228 1 1 -0.00240393073137 1.47088817 11.03982986 34.60780130
229 1 1 -0.00251946009405 0.00000000 13.58748290 34.60780130
230 1 1 -0.00267086959655 1.47088817 16.13513595 34.60780130
231 1 1 -0.00280376118379 0.00000000 18.68278899 34.60780130
232 1 1 -0.00214712365405 1.47088817 0.84921768 34.60780130
233 1 1 -0.00218055672535 2.94177634 3.39687073 34.60780130
234 1 1 -0.00225450671747 4.41266451 5.94452377 34.60780130
235 1 1 -0.00231651125135 2.94177634 8.49217681 34.60780130
236 1 1 -0.00246189373846 4.41266451 11.03982986 34.60780130
237 1 1 -0.00255868479343 2.94177634 13.58748290 34.60780130
238 1 1 -0.0027763816531 4.41266451 16.13513595 34.60780130
239 1 1 -0.00287174533395 2.94177634 18.68278899 34.60780130
240 1 1 -0.00217064362908 4.41266451 0.84921768 34.60780130
241 1 1 0.00285445752276 0.00000000 20.38122435 25.00000000
242 1 1 0.00300918374923 1.47088817 22.92887739 25.00000000
243 1 1 0.00309237279567 0.00000000 25.47653044 25.00000000
244 1 1 0.00319198984833 1.47088817 28.02418348 25.00000000
245 1 1 0.00318664545103 0.00000000 30.57183653 25.00000000
246 1 1 0.0031919911571 1.47088817 33.11948957 25.00000000
247 1 1 0.00309238162079 0.00000000 35.66714262 25.00000000
248 1 1 0.00300920297276 1.47088817 38.21479566 25.00000000
249 1 1 0.00293242488444 2.94177634 20.38122435 25.00000000
250 1 1 0.00320318013186 4.41266451 22.92887739 25.00000000
251 1 1 0.00320239415396 2.94177634 25.47653044 25.00000000
252 1 1 0.00344015743153 4.41266451 28.02418348 25.00000000
253 1 1 0.0033110206256 2.94177634 30.57183653 25.00000000
254 1 1 0.00344017898981 4.41266451 33.11948957 25.00000000
255 1 1 0.0032024163571 2.94177634 35.66714262 25.00000000
256 1 1 0.0032032298234 4.41266451 38.21479566 25.00000000
257 1 1 0.00317679448814 5.88355268 20.38122435 25.00000000
258 1 1 0.00362587614252 7.35444085 22.92887739 25.00000000
259 1 1 0.0035560051329 5.88355268 25.47653044 25.00000000
260 1 1 0.003996883005 7.35444085 28.02418348 25.00000000
261 1 1 0.00371501412141 5.88355268 30.57183653 25.00000000
262 1 1 0.0039969530845 7.35444085 33.11948957 25.00000000
263 1 1 0.00355608075284 5.88355268 35.66714262 25.00000000
264 1 1 0.00362599589805 7.35444085 38.21479566 25.00000000
265 1 1 0.00362014801253 8.82532903 20.38122435 25.00000000
266 1 1 0.00435261136564 10.29621720 22.92887739 25.00000000
267 1 1 0.00423110603757 8.82532903 25.47653044 25.00000000
268 1 1 0.0050016335266 10.29621720 28.02418348 25.00000000
269 1 1 0.00450272506667 8.82532903 30.57183653 25.00000000
270 1 1 0.00500173014321 10.29621720 33.11948957 25.00000000
271 1 1 0.00423124663146 8.82532903 35.66714262 25.00000000
272 1 1 0.00435276141598 10.29621720 38.21479566 25.00000000
273 1 1 0.0043159161458 11.76710537 20.38122435 25.00000000
274 1 1 0.00549857965966 13.23799354 22.92887739 25.00000000
275 1 1 0.00537442047366 11.76710537 25.47653044 25.00000000
276 1 1 0.00670377616768 13.23799354 28.02418348 25.00000000
277 1 1 0.00588094209536 11.76710537 30.57183653 25.00000000
278 1 1 0.00670379453621 13.23799354 33.11948957 25.00000000
279 1 1 0.00537454751316 11.76710537 35.66714262 25.00000000
280 1 1 0.00549869086282 13.23799354 38.21479566 25.00000000
281 1 1 0.00532116869612 14.70888171 20.38122435 25.00000000
282 1 1 0.00719319174858 16.17976988 22.92887739 25.00000000
283 1 1 0.0072123116751 14.70888171 25.47653044 25.00000000
284 1 1 0.00951216823554 16.17976988 28.02418348 25.00000000
285 1 1 0.00821355525998 14.70888171 30.57183653 25.00000000
286 1 1 0.00951223108594 16.17976988 33.11948957 25.00000000
287 1 1 0.00721245444685 14.70888171 35.66714262 25.00000000
288 1 1 0.00719334233535 16.17976988 38.21479566 25.00000000
289 1 1 -0.00195665082302 1.47088817 21.23044203 27.40195032
290 1 1 -0.00209718293659 2.94177634 23.77809508 27.40195032
291 1 1 -0.00211276267311 1.47088817 26.32574812 27.40195032
292 1 1 -0.00221655367849 2.94177634 28.87340116 27.40195032
293 1 1 -0.00215810171417 1.47088817 31.42105421 27.40195032
294 1 1 -0.00219111693607 2.94177634 33.96870725 27.40195032
295 1 1 -0.00207018258432 1.47088817 36.51636030 27.40195032
296 1 1 -0.00203431122377 2.94177634 39.06401334 27.40195032
297 1 1 -0.00207466539065 4.41266451 21.23044203 27.40195032
298 1 1 -0.0023191505005 5.88355268 23.77809508 27.40195032
299 1 1 -0.00227571916744 4.41266451 26.32574812 27.40195032
300 1 1 -0.00249277933379 5.88355268 28.87340116 27.40195032
301 1 1 -0.00233560969947 4.41266451 31.42105421 27.40195032
302 1 1 -0.00245523753113 5.88355268 33.96870725 27.40195032
303 1 1 -0.00222011055842 4.41266451 36.51636030 27.40195032
304 1 1 -0.00223029793139 5.88355268 39.06401334 27.40195032
305 1 1 -0.00232847310734 7.35444085 21.23044203 27.40195032
306 1 1 -0.00273548310433 8.82532903 23.77809508 27.40195032
307 1 1 -0.00263771167821 7.35444085 26.32574812 27.40195032
308 1 1 -0.0030283086532 8.82532903 28.87340116 27.40195032
309 1 1 -0.00273395029751 7.35444085 31.42105421 27.40195032
310 1 1 -0.00296361807691 8.82532903 33.96870725 27.40195032
311 1 1 -0.00255016444625 7.35444085 36.51636030 27.40195032
312 1 1 -0.00259197705426 8.82532903 39.06401334 27.40195032
313 1 1 -0.00275404169958 10.29621720 21.23044203 27.40195032
314 1 1 -0.00342566751181 11.76710537 23.77809508 27.40195032
315 1 1 -0.00328260043347 10.29621720 26.32574812 27.40195032
316 1 1 -0.00396690182921 11.76710537 28.87340116 27.40195032
317 1 1 -0.00345742447383 10.29621720 31.42105421 27.40195032
318 1 1 -0.00384379604355 11.76710537 33.96870725 27.40195032
319 1 1 -0.00312802668907 10.29621720 36.51636030 27.40195032
320 1 1 -0.00317514453701 11.76710537 39.06401334 27.40195032
321 1 1 -0.00340546848187 13.23799354 21.23044203 27.40195032
322 1 1 -0.00450859191478 14.70888171 23.77809508 27.40195032
323 1 1 -0.00436454987233 13.23799354 26.32574812 27.40195032
324 1 1 -0.00554665238571 14.70888171 28.87340116 27.40195032
325 1 1 -0.00470567312073 13.23799354 31.42105421 27.40195032
326 1 1 -0.00530311607816 14.70888171 33.96870725 27.40195032
327 1 1 -0.00407265498224 13.23799354 36.51636030 27.40195032
328 1 1 -0.00405640187838 14.70888171 39.06401334 27.40195032
329 1 1 -0.00433564915493 16.17976988 21.23044203 27.40195032
330 1 1 -0.00202760902088 0.00000000 23.77809508 27.40195032
331 1 1 -0.00607993590673 16.17976988 26.32574812 27.40195032
332 1 1 -0.00213124632504 0.00000000 28.87340116 27.40195032
333 1 1 -0.00674113043028 16.17976988 31.42105421 27.40195032
334 1 1 -0.00210928973896 0.00000000 33.96870725 27.40195032
335 1 1 -0.00552911036862 16.17976988 36.51636030 27.40195032
336 1 1 -0.00197242110106 0.00000000 39.06401334 27.40195032
337 1 1 -6.54374235476e-05 2.94177634 22.07965971 29.80390065
338 1 1 -7.14992108005e-05 4.41266451 24.62731276 29.80390065
339 1 1 -7.05431190983e-05 2.94177634 27.17496580 29.80390065
340 1 1 -7.52203062267e-05 4.41266451 29.72261885 29.80390065
341 1 1 -7.13430448563e-05 2.94177634 32.27027189 29.80390065
342 1 1 -7.32555070145e-05 4.41266451 34.81792493 29.80390065
343 1 1 -6.74369119006e-05 2.94177634 37.36557798 29.80390065
344 1 1 -6.67031534567e-05 4.41266451 39.91323102 29.80390065
345 1 1 -7.18158160354e-05 5.88355268 22.07965971 29.80390065
346 1 1 -8.22171399441e-05 7.35444085 24.62731276 29.80390065
347 1 1 -7.911808958e-05 5.88355268 27.17496580 29.80390065
348 1 1 -8.81780590314e-05 7.35444085 29.72261885 29.80390065
349 1 1 -8.03006412523e-05 5.88355268 32.27027189 29.80390065
350 1 1 -8.50127352581e-05 7.35444085 34.81792493 29.80390065
351 1 1 -7.46440947725e-05 5.88355268 37.36557798 29.80390065
352 1 1 -7.49351188642e-05 7.35444085 39.91323102 29.80390065
353 1 1 -8.35857387611e-05 8.82532903 22.07965971 29.80390065
354 1 1 -0.000101485808032 10.29621720 24.62731276 29.80390065
355 1 1 -9.58319565963e-05 8.82532903 27.17496580 29.80390065
356 1 1 -0.000112395084894 10.29621720 29.72261885 29.80390065
357 1 1 -9.79211250257e-05 8.82532903 32.27027189 29.80390065
358 1 1 -0.000106462769687 10.29621720 34.81792493 29.80390065
359 1 1 -8.82034928081e-05 8.82532903 37.36557798 29.80390065
360 1 1 -8.88115619794e-05 10.29621720 39.91323102 29.80390065
361 1 1 -0.00010317882501 11.76710537 22.07965971 29.80390065
362 1 1 -0.000134047557148 13.23799354 24.62731276 29.80390065
363 1 1 -0.000125778971578 11.76710537 27.17496580 29.80390065
364 1 1 -0.00015417408218 13.23799354 29.72261885 29.80390065
365 1 1 -0.000129617055539 11.76710537 32.27027189 29.80390065
366 1 1 -0.000143064114653 13.23799354 34.81792493 29.80390065
367 1 1 -0.000111249247307 11.76710537 37.36557798 29.80390065
368 1 1 -0.000110591319331 13.23799354 39.91323102 29.80390065
369 1 1 -0.000133506214727 14.70888171 22.07965971 29.80390065
370 1 1 -0.000182394456517 16.17976988 24.62731276 29.80390065
371 1 1 -0.000174400617012 14.70888171 27.17496580 29.80390065
372 1 1 -0.000214457656785 16.17976988 29.72261885 29.80390065
373 1 1 -0.000180783147886 14.70888171 32.27027189 29.80390065
374 1 1 -0.000197350723145 16.17976988 34.81792493 29.80390065
375 1 1 -0.000147822658696 14.70888171 37.36557798 29.80390065
376 1 1 -0.000142108176496 16.17976988 39.91323102 29.80390065
377 1 1 -6.34019998639e-05 0.00000000 22.07965971 29.80390065
378 1 1 -6.65996999583e-05 1.47088817 24.62731276 29.80390065
379 1 1 -6.78603722365e-05 0.00000000 27.17496580 29.80390065
380 1 1 -6.94423357125e-05 1.47088817 29.72261885 29.80390065
381 1 1 -6.85563095869e-05 0.00000000 32.27027189 29.80390065
382 1 1 -6.79514181549e-05 1.47088817 34.81792493 29.80390065
383 1 1 -6.51608252288e-05 0.00000000 37.36557798 29.80390065
384 1 1 -6.28481660432e-05 1.47088817 39.91323102 29.80390065
385 1 1 0.00227601673588 4.41266451 22.92887739 32.20585097
386 1 1 0.00253468733488 5.88355268 25.47653044 32.20585097
387 1 1 0.00244909127773 4.41266451 28.02418348 32.20585097
388 1 1 0.00265105730549 5.88355268 30.57183653 32.20585097
389 1 1 0.00244904853946 4.41266451 33.11948957 32.20585097
390 1 1 0.00253460318965 5.88355268 35.66714262 32.20585097
391 1 1 0.00227596403208 4.41266451 38.21479566 32.20585097
392 1 1 0.0022575487556 5.88355268 20.38122435 32.20585097
393 1 1 0.00258648707562 7.35444085 22.92887739 32.20585097
394 1 1 0.00302985182574 8.82532903 25.47653044 32.20585097
395 1 1 0.00285805422297 7.35444085 28.02418348 32.20585097
396 1 1 0.00322897054422 8.82532903 30.57183653 32.20585097
397 1 1 0.0028579540971 7.35444085 33.11948957 32.20585097
398 1 1 0.00302965212827 8.82532903 35.66714262 32.20585097
399 1 1 0.00258636259643 7.35444085 38.21479566 32.20585097
400 1 1 0.00258293144119 8.82532903 20.38122435 32.20585097
401 1 1 0.00311908452013 10.29621720 22.92887739 32.20585097
402 1 1 0.00387071297132 11.76710537 25.47653044 32.20585097
403 1 1 0.003595761011 10.29621720 28.02418348 32.20585097
404 1 1 0.00424575979255 11.76710537 30.57183653 32.20585097
405 1 1 0.00359553976465 10.29621720 33.11948957 32.20585097
406 1 1 0.00387040600793 11.76710537 35.66714262 32.20585097
407 1 1 0.00311884944115 10.29621720 38.21479566 32.20585097
408 1 1 0.00309276931514 11.76710537 20.38122435 32.20585097
409 1 1 0.00396279632309 13.23799354 22.92887739 32.20585097
410 1 1 0.00523482701875 14.70888171 25.47653044 32.20585097
411 1 1 0.0048570785914 13.23799354 28.02418348 32.20585097
412 1 1 0.00596956640761 14.70888171 30.57183653 32.20585097
413 1 1 0.00485674545471 13.23799354 33.11948957 32.20585097
414 1 1 0.00523442273631 14.70888171 35.66714262 32.20585097
415 1 1 0.00396251383468 13.23799354 38.21479566 32.20585097
416 1 1 0.00383257271324 14.70888171 20.38122435 32.20585097
417 1 1 0.00522115007856 16.17976988 22.92887739 32.20585097
418 1 1 0.00219369956317 0.00000000 25.47653044 32.20585097
419 1 1 0.00690197823421 16.17976988 28.02418348 32.20585097
420 1 1 0.00226216855126 0.00000000 30.57183653 32.20585097
421 1 1 0.00690169024631 16.17976988 33.11948957 32.20585097
422 1 1 0.00219366607818 0.00000000 35.66714262 32.20585097
423 1 1 0.00522075976373 16.17976988 38.21479566 32.20585097
424 1 1 0.00202120824297 0.00000000 20.38122435 32.20585097
425 1 1 0.00213353131183 1.47088817 22.92887739 32.20585097
426 1 1 0.00227461984815 2.94177634 25.47653044 32.20585097
427 1 1 0.00226634864152 1.47088817 28.02418348 32.20585097
428 1 1 0.00235379888152 2.94177634 30.57183653 32.20585097
429 1 1 0.00226631911002 1.47088817 33.11948957 32.20585097
430 1 1 0.00227457984963 2.94177634 35.66714262 32.20585097
431 1 1 0.00213349756619 1.47088817 38.21479566 32.20585097
432 1 1 0.0020782713476 2.94177634 20.38122435 32.20585097
433 1 1 -0.00350132456652 5.88355268 23.77809508 34.60780130
434 1 1 -0.00397057089626 7.35444085 26.32574812 34.60780130
435 1 1 -0.00375725435562 5.88355268 28.87340116 34.60780130
436 1 1 -0.00411221437562 7.35444085 31.42105421 34.60780130
437 1 1 -0.00370181712022 5.88355268 33.96870725 34.60780130
438 1 1 -0.00384116806413 7.35444085 36.51636030 34.60780130
439 1 1 -0.00337000799012 5.88355268 39.06401334 34.60780130
440 1 1 -0.00351431447604 7.35444085 21.23044203 34.60780130
441 1 1 -0.00411464221916 8.82532903 23.77809508 34.60780130
442 1 1 -0.00492044399808 10.29621720 26.32574812 34.60780130
443 1 1 -0.0045460385727 8.82532903 28.87340116 34.60780130
444 1 1 -0.00517631623342 10.29621720 31.42105421 34.60780130
445 1 1 -0.00445055684355 8.82532903 33.96870725 34.60780130
446 1 1 -0.00469266147612 10.29621720 36.51636030 34.60780130
447 1 1 -0.0039023347198 8.82532903 39.06401334 34.60780130
448 1 1 -0.00414161702853 10.29621720 21.23044203 34.60780130
449 1 1 -0.00513052273155 11.76710537 23.77809508 34.60780130
450 1 1 -0.00650176032915 13.23799354 26.32574812 34.60780130
451 1 1 -0.00592127139947 11.76710537 28.87340116 34.60780130
452 1 1 -0.00699770106262 13.23799354 31.42105421 34.60780130
453 1 1 -0.00574146621947 11.76710537 33.96870725 34.60780130
454 1 1 -0.0060756811706 13.23799354 36.51636030 34.60780130
455 1 1 -0.00476165369545 11.76710537 39.06401334 34.60780130
456 1 1 -0.00510022317364 13.23799354 21.23044203 34.60780130
457 1 1 -0.00671197930029 14.70888171 23.77809508 34.60780130
458 1 1 -0.00904408089244 16.17976988 26.32574812 34.60780130
459 1 1 -0.00823787076284 14.70888171 28.87340116 34.60780130
460 1 1 -0.0100608278384 16.17976988 31.42105421 34.60780130
461 1 1 -0.00787723938082 14.70888171 33.96870725 34.60780130
462 1 1 -0.00821470918477 16.17976988 36.51636030 34.60780130
463 1 1 -0.00605128581935 14.70888171 39.06401334 34.60780130
464 1 1 -0.00645836965936 16.17976988 21.23044203 34.60780130
465 1 1 -0.0030731585777 0.00000000 23.77809508 34.60780130
466 1 1 -0.00319915069282 1.47088817 26.32574812 34.60780130
467 1 1 -0.00322686415064 0.00000000 28.87340116 34.60780130
468 1 1 -0.00326627254163 1.47088817 31.42105421 34.60780130
469 1 1 -0.003194277839 0.00000000 33.96870725 34.60780130
470 1 1 -0.00313597554074 1.47088817 36.51636030 34.60780130
471 1 1 -0.00299112780307 0.00000000 39.06401334 34.60780130
472 1 1 -0.00296758096657 1.47088817 21.23044203 34.60780130
473 1 1 -0.00317532605477 2.94177634 23.77809508 34.60780130
474 1 1 -0.00343813321008 4.41266451 26.32574812 34.60780130
475 1 1 -0.00335182356138 2.94177634 28.87340116 34.60780130
476 1 1 -0.00352639956548 4.41266451 31.42105421 34.60780130
477 1 1 -0.00331418536386 2.94177634 33.96870725 34.60780130
478 1 1 -0.00335594432184 4.41266451 36.51636030 34.60780130
479 1 1 -0.00308212577287 2.94177634 39.06401334 34.60780130
480 1 1 -0.00314114874303 4.41266451 21.23044203 34.60780130
481 1 1 0.0028544710397 0.00000000 40.76244870 25.00000000
482 1 1 0.00272704911989 1.47088817 43.31010174 25.00000000
483 1 1 0.00256971785375 0.00000000 45.85775479 25.00000000
484 1 1 0.00244672761673 1.47088817 48.40540783 25.00000000
485 1 1 0.00232373104624 0.00000000 50.95306088 25.00000000
486 1 1 0.00223632840539 1.47088817 53.50071392 25.00000000
487 1 1 0.00216421499812 0.00000000 56.04836697 25.00000000
488 1 1 0.00212646966225 1.47088817 58.59602001 25.00000000
489 1 1 0.00293244635557 2.94177634 40.76244870 25.00000000
490 1 1 0.00285130606187 4.41266451 43.31010174 25.00000000
491 1 1 0.00261654060715 2.94177634 45.85775479 25.00000000
492 1 1 0.00251666851092 4.41266451 48.40540783 25.00000000
493 1 1 0.00234948234403 2.94177634 50.95306088 25.00000000
494 1 1 0.00227451953955 4.41266451 53.50071392 25.00000000
495 1 1 0.00217905970308 2.94177634 56.04836697 25.00000000
496 1 1 0.00215101230087 4.41266451 58.59602001 25.00000000
497 1 1 0.00317685509326 5.88355268 40.76244870 25.00000000
498 1 1 0.00311096365999 7.35444085 43.31010174 25.00000000
499 1 1 0.00275942772716 5.88355268 45.85775479 25.00000000
500 1 1 0.00265748692327 7.35444085 48.40540783 25.00000000
501 1 1 0.00242639147894 5.88355268 50.95306088 25.00000000
502 1 1 0.00234927792556 7.35444085 53.50071392 25.00000000
503 1 1 0.00222268124241 5.88355268 56.04836697 25.00000000
504 1 1 0.00219818090022 7.35444085 58.59602001 25.00000000
505 1 1 0.00362027223337 8.82532903 40.76244870 25.00000000
506 1 1 0.00352689485159 10.29621720 43.31010174 25.00000000
507 1 1 0.00300463014465 8.82532903 45.85775479 25.00000000
508 1 1 0.00286909932784 10.29621720 48.40540783 25.00000000
509 1 1 0.00255274117406 8.82532903 50.95306088 25.00000000
510 1 1 0.00245659677233 10.29621720 53.50071392 25.00000000
511 1 1 0.00229215012777 8.82532903 56.04836697 25.00000000
512 1 1 0.00226397642973 10.29621720 58.59602001 25.00000000
513 1 1 0.00431605723755 11.76710537 40.76244870 25.00000000
514 1 1 0.00412185528731 13.23799354 43.31010174 25.00000000
515 1 1 0.00335841448905 11.76710537 45.85775479 25.00000000
516 1 1 0.00314620780004 13.23799354 48.40540783 25.00000000
517 1 1 0.00272348204468 11.76710537 50.95306088 25.00000000
518 1 1 0.00258876951951 13.23799354 53.50071392 25.00000000
519 1 1 0.00238201403366 11.76710537 56.04836697 25.00000000
520 1 1 0.0023421069841 13.23799354 58.59602001 25.00000000
521 1 1 0.00532129006475 14.70888171 40.76244870 25.00000000
522 1 1 0.00489710029696 16.17976988 43.31010174 25.00000000
523 1 1 0.00381750390591 14.70888171 45.85775479 25.00000000
524 1 1 0.00347130866295 16.17976988 48.40540783 25.00000000
525 1 1 0.00292726285368 14.70888171 50.95306088 25.00000000
526 1 1 0.00273303773957 16.17976988 53.50071392 25.00000000
527 1 1 0.0024837335285 14.70888171 56.04836697 25.00000000
528 1 1 0.00242398750606 16.17976988 58.59602001 25.00000000
529 1 1 -0.00189140209814 1.47088817 41.61166638 27.40195032
530 1 1 -0.00181956219883 2.94177634 44.15931943 27.40195032
531 1 1 -0.00169279213108 1.47088817 46.70697247 27.40195032
532 1 1 -0.00162079356755 2.94177634 49.25462551 27.40195032
533 1 1 -0.00152998235396 1.47088817 51.80227856 27.40195032
534 1 1 -0.00148066081646 2.94177634 54.34993160 27.40195032
535 1 1 -0.00143115391007 1.47088817 56.89758465 27.40195032
536 1 1 -0.0014152451992 2.94177634 59.44523769 27.40195032
537 1 1 -0.00199287764594 4.41266451 41.61166638 27.40195032
538 1 1 -0.00193916710525 5.88355268 44.15931943 27.40195032
539 1 1 -0.00175157094028 4.41266451 46.70697247 27.40195032
540 1 1 -0.00168589242882 5.88355268 49.25462551 27.40195032
541 1 1 -0.00156182086132 4.41266451 51.80227856 27.40195032
542 1 1 -0.00151602934997 5.88355268 54.34993160 27.40195032
543 1 1 -0.00144987731521 4.41266451 56.89758465 27.40195032
544 1 1 -0.00143902240518 5.88355268 59.44523769 27.40195032
545 1 1 -0.00220835272676 7.35444085 41.61166638 27.40195032
546 1 1 -0.00214861376717 8.82532903 44.15931943 27.40195032
547 1 1 -0.00187161058052 7.35444085 46.70697247 27.40195032
548 1 1 -0.00179449252909 8.82532903 49.25462551 27.40195032
549 1 1 -0.00162470405492 7.35444085 51.80227856 27.40195032
550 1 1 -0.00157287827624 8.82532903 54.34993160 27.40195032
551 1 1 -0.00148603731561 7.35444085 56.89758465 27.40195032
552 1 1 -0.00147646755643 8.82532903 59.44523769 27.40195032
553 1 1 -0.00256149707933 10.29621720 41.61166638 27.40195032
554 1 1 -0.00245896298591 11.76710537 44.15931943 27.40195032
555 1 1 -0.00205607680704 10.29621720 46.70697247 27.40195032
556 1 1 -0.00194454242213 11.76710537 49.25462551 27.40195032
557 1 1 -0.00171633826772 10.29621720 51.80227856 27.40195032
558 1 1 -0.0016473990692 11.76710537 54.34993160 27.40195032
559 1 1 -0.00153685970729 10.29621720 56.89758465 27.40195032
560 1 1 -0.00152415006913 11.76710537 59.44523769 27.40195032
561 1 1 -0.00308329272141 13.23799354 41.61166638 27.40195032
562 1 1 -0.00287531615286 14.70888171 44.15931943 27.40195032
563 1 1 -0.00230443230865 13.23799354 46.70697247 27.40195032
564 1 1 -0.00212838580694 14.70888171 49.25462551 27.40195032
565 1 1 -0.0018314745762 13.23799354 51.80227856 27.40195032
566 1 1 -0.00173312916451 14.70888171 54.34993160 27.40195032
567 1 1 -0.00159779164461 13.23799354 56.89758465 27.40195032
568 1 1 -0.00157712084796 14.70888171 59.44523769 27.40195032
569 1 1 -0.00379571143586 16.17976988 41.61166638 27.40195032
570 1 1 -0.0017808046696 0.00000000 44.15931943 27.40195032
571 1 1 -0.00260489918592 16.17976988 46.70697247 27.40195032
572 1 1 -0.00159916002099 0.00000000 49.25462551 27.40195032
573 1 1 -0.0019600066432 16.17976988 51.80227856 27.40195032
574 1 1 -0.00146868147167 0.00000000 54.34993160 27.40195032
575 1 1 -0.00166233699398 16.17976988 56.89758465 27.40195032
576 1 1 -0.00140710692222 0.00000000 59.44523769 27.40195032
577 1 1 -6.0772937603e-05 2.94177634 42.46088406 29.80390065
578 1 1 -5.87077557179e-05 4.41266451 45.00853711 29.80390065
579 1 1 -5.39379773492e-05 2.94177634 47.55619015 29.80390065
580 1 1 -5.18367976467e-05 4.41266451 50.10384320 29.80390065
581 1 1 -4.8678158559e-05 2.94177634 52.65149624 29.80390065
582 1 1 -4.73396024253e-05 4.41266451 55.19914928 29.80390065
583 1 1 -4.57310713747e-05 2.94177634 57.74680233 29.80390065
584 1 1 -4.55151383182e-05 4.41266451 60.29445537 29.80390065
585 1 1 -6.54530863228e-05 5.88355268 42.46088406 29.80390065
586 1 1 -6.35254325878e-05 7.35444085 45.00853711 29.80390065
587 1 1 -5.65546753889e-05 5.88355268 47.55619015 29.80390065
588 1 1 -5.43765225234e-05 7.35444085 50.10384320 29.80390065
589 1 1 -5.00725073497e-05 5.88355268 52.65149624 29.80390065
590 1 1 -4.87162056792e-05 7.35444085 55.19914928 29.80390065
591 1 1 -4.65742191715e-05 5.88355268 57.74680233 29.80390065
592 1 1 -4.64946059652e-05 7.35444085 60.29445537 29.80390065
593 1 1 -7.37430940019e-05 8.82532903 42.46088406 29.80390065
594 1 1 -7.10465394763e-05 10.29621720 45.00853711 29.80390065
595 1 1 -6.09935124295e-05 8.82532903 47.55619015 29.80390065
596 1 1 -5.81477723812e-05 10.29621720 50.10384320 29.80390065
597 1 1 -5.2342315284e-05 8.82532903 52.65149624 29.80390065
598 1 1 -5.06717397357e-05 10.29621720 55.19914928 29.80390065
599 1 1 -4.79081342067e-05 8.82532903 57.74680233 29.80390065
600 1 1 -4.78569830552e-05 10.29621720 60.29445537 29.80390065
601 1 1 -8.64280127087e-05 11.76710537 42.46088406 29.80390065
602 1 1 -8.14779590632e-05 13.23799354 45.00853711 29.80390065
603 1 1 -6.72414636645e-05 11.76710537 47.55619015 29.80390065
604 1 1 -6.29844476701e-05 13.23799354 50.10384320 29.80390065
605 1 1 -5.53730756745e-05 11.76710537 52.65149624 29.80390065
606 1 1 -5.30514968338e-05 13.23799354 55.19914928 29.80390065
607 1 1 -4.96180909021e-05 11.76710537 57.74680233 29.80390065
608 1 1 -4.94679424266e-05 13.23799354 60.29445537 29.80390065
609 1 1 -0.000104521384823 14.70888171 42.46088406 29.80390065
610 1 1 -9.47685475507e-05 16.17976988 45.00853711 29.80390065
611 1 1 -7.50843588205e-05 14.70888171 47.55619015 29.80390065
612 1 1 -6.84955875204e-05 16.17976988 50.10384320 29.80390065
613 1 1 -5.8932409145e-05 14.70888171 52.65149624 29.80390065
614 1 1 -5.56152845782e-05 16.17976988 55.19914928 29.80390065
615 1 1 -5.15338108185e-05 14.70888171 57.74680233 29.80390065
616 1 1 -5.11477731456e-05 16.17976988 60.29445537 29.80390065
617 1 1 -5.92660772878e-05 0.00000000 42.46088406 29.80390065
618 1 1 -5.63779461167e-05 1.47088817 45.00853711 29.80390065
619 1 1 -5.30779350061e-05 0.00000000 47.55619015 29.80390065
620 1 1 -5.05676277836e-05 1.47088817 50.10384320 29.80390065
621 1 1 -4.8208699277e-05 0.00000000 52.65149624 29.80390065
622 1 1 -4.66310356662e-05 1.47088817 55.19914928 29.80390065
623 1 1 -4.54431658454e-05 0.00000000 57.74680233 29.80390065
624 1 1 -4.500477151e-05 1.47088817 60.29445537 29.80390065
625 1 1 0.0020197960192 4.41266451 43.31010174 32.20585097
626 1 1 0.00195351685261 5.88355268 45.85775479 32.20585097
627 1 1 0.00177726577926 4.41266451 48.40540783 32.20585097
628 1 1 0.00171215084672 5.88355268 50.95306088 32.20585097
629 1 1 0.00160230703014 4.41266451 53.50071392 32.20585097
630 1 1 0.0015649424651 5.88355268 56.04836697 32.20585097
631 1 1 0.00151321334789 4.41266451 58.59602001 32.20585097
632 1 1 0.00225747066966 5.88355268 40.76244870 32.20585097
633 1 1 0.00221005435984 7.35444085 43.31010174 32.20585097
634 1 1 0.00213300012205 8.82532903 45.85775479 32.20585097
635 1 1 0.00187983015514 7.35444085 48.40540783 32.20585097
636 1 1 0.00180399542782 8.82532903 50.95306088 32.20585097
637 1 1 0.00165648314886 7.35444085 53.50071392 32.20585097
638 1 1 0.00161518881012 8.82532903 56.04836697 32.20585097
639 1 1 0.00154725391365 7.35444085 58.59602001 32.20585097
640 1 1 0.00258277601303 8.82532903 40.76244870 32.20585097
641 1 1 0.0025151505787 10.29621720 43.31010174 32.20585097
642 1 1 0.00239249804364 11.76710537 45.85775479 32.20585097
643 1 1 0.00203446393065 10.29621720 48.40540783 32.20585097
644 1 1 0.00192843479629 11.76710537 50.95306088 32.20585097
645 1 1 0.00173431968674 10.29621720 53.50071392 32.20585097
646 1 1 0.00168022334601 11.76710537 56.04836697 32.20585097
647 1 1 0.00159476385021 10.29621720 58.59602001 32.20585097
648 1 1 0.00309251788895 11.76710537 40.76244870 32.20585097
649 1 1 0.00295115526322 13.23799354 43.31010174 32.20585097
650 1 1 0.00272911159935 14.70888171 45.85775479 32.20585097
651 1 1 0.00223753367099 13.23799354 48.40540783 32.20585097
652 1 1 0.00207738394683 14.70888171 50.95306088 32.20585097
653 1 1 0.0018303413828 13.23799354 53.50071392 32.20585097
654 1 1 0.00175389947777 14.70888171 56.04836697 32.20585097
655 1 1 0.00165121094186 13.23799354 58.59602001 32.20585097
656 1 1 0.00383225486851 14.70888171 40.76244870 32.20585097
657 1 1 0.00352055214605 16.17976988 43.31010174 32.20585097
658 1 1 0.00181520709546 0.00000000 45.85775479 32.20585097
659 1 1 0.00247592654386 16.17976988 48.40540783 32.20585097
660 1 1 0.00163763385036 0.00000000 50.95306088 32.20585097
661 1 1 0.00193537127189 16.17976988 53.50071392 32.20585097
662 1 1 0.00152267257934 0.00000000 56.04836697 32.20585097
663 1 1 0.00171039590387 16.17976988 58.59602001 32.20585097
664 1 1 0.00202116662928 0.00000000 40.76244870 32.20585097
665 1 1 0.00192903133193 1.47088817 43.31010174 32.20585097
666 1 1 0.00184928489965 2.94177634 45.85775479 32.20585097
667 1 1 0.00172642625914 1.47088817 48.40540783 32.20585097
668 1 1 0.00165632089699 2.94177634 50.95306088 32.20585097
669 1 1 0.00157463674218 1.47088817 53.50071392 32.20585097
670 1 1 0.00153340324997 2.94177634 56.04836697 32.20585097
671 1 1 0.00149550960935 1.47088817 58.59602001 32.20585097
672 1 1 0.00207822404167 2.94177634 40.76244870 32.20585097
673 1 1 -0.00293975373882 5.88355268 44.15931943 34.60780130
674 1 1 -0.00283917956374 7.35444085 46.70697247 34.60780130
675 1 1 -0.00256402360979 5.88355268 49.25462551 34.60780130
676 1 1 -0.00247283732696 7.35444085 51.80227856 34.60780130
677 1 1 -0.00231116993101 5.88355268 54.34993160 34.60780130
678 1 1 -0.00226645826306 7.35444085 56.89758465 34.60780130
679 1 1 -0.00219640563921 5.88355268 59.44523769 34.60780130
680 1 1 -0.00333675118881 7.35444085 41.61166638 34.60780130
681 1 1 -0.00324783462688 8.82532903 44.15931943 34.60780130
682 1 1 -0.00311074168047 10.29621720 46.70697247 34.60780130
683 1 1 -0.00272461848998 8.82532903 49.25462551 34.60780130
684 1 1 -0.00260863754685 10.29621720 51.80227856 34.60780130
685 1 1 -0.00239567503855 8.82532903 54.34993160 34.60780130
686 1 1 -0.00234213075332 10.29621720 56.89758465 34.60780130
687 1 1 -0.00225225258987 8.82532903 59.44523769 34.60780130
688 1 1 -0.00385667585784 10.29621720 41.61166638 34.60780130
689 1 1 -0.00370459687405 11.76710537 44.15931943 34.60780130
690 1 1 -0.00347613216595 13.23799354 46.70697247 34.60780130
691 1 1 -0.00294588362696 11.76710537 49.25462551 34.60780130
692 1 1 -0.00277888019075 13.23799354 51.80227856 34.60780130
693 1 1 -0.00250636713734 11.76710537 54.34993160 34.60780130
694 1 1 -0.00243281721594 13.23799354 56.89758465 34.60780130
695 1 1 -0.0023233317717 11.76710537 59.44523769 34.60780130
696 1 1 -0.00462557631302 13.23799354 41.61166638 34.60780130
697 1 1 -0.00431817198448 14.70888171 44.15931943 34.60780130
698 1 1 -0.0039188525418 16.17976988 46.70697247 34.60780130
699 1 1 -0.00321652546341 14.70888171 49.25462551 34.60780130
700 1 1 -0.00296854410031 16.17976988 51.80227856 34.60780130
701 1 1 -0.00263353902532 14.70888171 54.34993160 34.60780130
702 1 1 -0.00252882474815 16.17976988 56.89758465 34.60780130
703 1 1 -0.00240226147721 14.70888171 59.44523769 34.60780130
704 1 1 -0.0056692795976 16.17976988 41.61166638 34.60780130
705 1 1 -0.00270611742102 0.00000000 44.15931943 34.60780130
706 1 1 -0.00257496787953 1.47088817 46.70697247 34.60780130
707 1 1 -0.00243546865474 0.00000000 49.25462551 34.60780130
708 1 1 -0.00233225176339 1.47088817 51.80227856 34.60780130
709 1 1 -0.00224077285912 0.00000000 54.34993160 34.60780130
710 1 1 -0.00218470367723 1.47088817 56.89758465 34.60780130
711 1 1 -0.00214877761838 0.00000000 59.44523769 34.60780130
712 1 1 -0.00287054752153 1.47088817 41.61166638 34.60780130
713 1 1 -0.00276340758559 2.94177634 44.15931943 34.60780130
714 1 1 -0.002661970998 4.41266451 46.70697247 34.60780130
715 1 1 -0.00246755351517 2.94177634 49.25462551 34.60780130
716 1 1 -0.00237951761234 4.41266451 51.80227856 34.60780130
717 1 1 -0.00225858384545 2.94177634 54.34993160 34.60780130
718 1 1 -0.00221259920489 4.41266451 56.89758465 34.60780130
719 1 1 -0.00216092547752 2.94177634 59.44523769 34.60780130
720 1 1 -0.00301998619058 4.41266451 41.61166638 34.60780130
721 1 1 0.00242375135205 17.65065805 0.00000000 25.00000000
722 1 1 0.00249928812737 19.12154622 2.54765304 25.00000000
723 1 1 0.00258555216013 17.65065805 5.09530609 25.00000000
724 1 1 0.00287119428566 19.12154622 7.64295913 25.00000000
725 1 1 0.00314326030818 17.65065805 10.19061218 25.00000000
726 1 1 0.0038065660536 19.12154622 12.73826522 25.00000000
727 1 1 0.00435117289657 17.65065805 15.28591827 25.00000000
728 1 1 0.00579004195001 19.12154622 17.83357131 25.00000000
729 1 1 0.00248557869058 20.59243439 0.00000000 25.00000000
730 1 1 0.00255728681585 22.06332256 2.54765304 25.00000000
731 1 1 0.00267340909743 20.59243439 5.09530609 25.00000000
732 1 1 0.0029813547288 22.06332256 7.64295913 25.00000000
733 1 1 0.00333998134365 20.59243439 10.19061218 25.00000000
734 1 1 0.00409162362229 22.06332256 12.73826522 25.00000000
735 1 1 0.00488199493813 20.59243439 15.28591827 25.00000000
736 1 1 0.00663115100354 22.06332256 17.83357131 25.00000000
737 1 1 0.00252703462564 23.53421073 0.00000000 25.00000000
738 1 1 0.0025889098575 25.00509890 2.54765304 25.00000000
739 1 1 0.00273327410934 23.53421073 5.09530609 25.00000000
740 1 1 0.00304284818601 25.00509890 7.64295913 25.00000000
741 1 1 0.00347980306471 23.53421073 10.19061218 25.00000000
742 1 1 0.00425780791733 25.00509890 12.73826522 25.00000000
743 1 1 0.00528640341264 23.53421073 15.28591827 25.00000000
744 1 1 0.00715945336079 25.00509890 17.83357131 25.00000000
745 1 1 0.00254164101442 26.47598708 0.00000000 25.00000000
746 1 1 0.00258890985737 27.94687525 2.54765304 25.00000000
747 1 1 0.00275455287107 26.47598708 5.09530609 25.00000000
748 1 1 0.0030428481857 27.94687525 7.64295913 25.00000000
749 1 1 0.00353066402726 26.47598708 10.19061218 25.00000000
750 1 1 0.00425780791649 27.94687525 12.73826522 25.00000000
751 1 1 0.00543928867661 26.47598708 15.28591827 25.00000000
752 1 1 0.00715945335851 27.94687525 17.83357131 25.00000000
753 1 1 0.00252703462572 29.41776342 0.00000000 25.00000000
754 1 1 0.00255728681643 30.88865159 2.54765304 25.00000000
755 1 1 0.00273327410928 29.41776342 5.09530609 25.00000000
756 1 1 0.00298135472903 30.88865159 7.64295913 25.00000000
757 1 1 0.00347980306411 29.41776342 10.19061218 25.00000000
758 1 1 0.00409162362155 30.88865159 12.73826522 25.00000000
759 1 1 0.00528640341061 29.41776342 15.28591827 25.00000000
760 1 1 0.00663115100018 30.88865159 17.83357131 25.00000000
761 1 1 0.00248557869174 32.35953976 0.00000000 25.00000000
762 1 1 0.00249928812893 33.83042793 2.54765304 25.00000000
763 1 1 0.00267340909845 32.35953976 5.09530609 25.00000000
764 1 1 0.00287119428689 33.83042793 7.64295913 25.00000000
765 1 1 0.0033399813441 32.35953976 10.19061218 25.00000000
766 1 1 0.00380656605389 33.83042793 12.73826522 25.00000000
767 1 1 0.00488199493706 32.35953976 15.28591827 25.00000000
768 1 1 0.0057900419479 33.83042793 17.83357131 25.00000000
769 1 1 -0.00164287133763 19.12154622 0.84921768 27.40195032
770 1 1 -0.00171539864237 20.59243439 3.39687073 27.40195032
771 1 1 -0.00180618905326 19.12154622 5.94452377 27.40195032
772 1 1 -0.00204740963454 20.59243439 8.49217681 27.40195032
773 1 1 -0.00229732926295 19.12154622 11.03982986 27.40195032
774 1 1 -0.00286282695078 20.59243439 13.58748290 27.40195032
775 1 1 -0.00337631337531 19.12154622 16.13513595 27.40195032
776 1 1 -0.00465760583269 20.59243439 18.68278899 27.40195032
777 1 1 -0.00167922457389 22.06332256 0.84921768 27.40195032
778 1 1 -0.00174908490211 23.53421073 3.39687073 27.40195032
779 1 1 -0.00186441882413 22.06332256 5.94452377 27.40195032
780 1 1 -0.00211778474889 23.53421073 8.49217681 27.40195032
781 1 1 -0.00243765285706 22.06332256 11.03982986 27.40195032
782 1 1 -0.00305580857403 23.53421073 13.58748290 27.40195032
783 1 1 -0.00378102675366 22.06332256 16.13513595 27.40195032
784 1 1 -0.00526577698279 23.53421073 18.68278899 27.40195032
785 1 1 -0.00169898890539 25.00509890 0.84921768 27.40195032
786 1 1 -0.00176100542075 26.47598708 3.39687073 27.40195032
787 1 1 -0.00189661456501 25.00509890 5.94452377 27.40195032
788 1 1 -0.00214313847976 26.47598708 8.49217681 27.40195032
789 1 1 -0.00251797422673 25.00509890 11.03982986 27.40195032
790 1 1 -0.0031276691857 26.47598708 13.58748290 27.40195032
791 1 1 -0.00402785550327 25.00509890 16.13513595 27.40195032
792 1 1 -0.00550330630346 26.47598708 18.68278899 27.40195032
793 1 1 -0.00169898890507 27.94687525 0.84921768 27.40195032
794 1 1 -0.00174908490141 29.41776342 3.39687073 27.40195032
795 1 1 -0.0018966145647 27.94687525 5.94452377 27.40195032
796 1 1 -0.0021177847482 29.41776342 8.49217681 27.40195032
797 1 1 -0.00251797422643 27.94687525 11.03982986 27.40195032
798 1 1 -0.00305580857322 29.41776342 13.58748290 27.40195032
799 1 1 -0.00402785550282 27.94687525 16.13513595 27.40195032
800 1 1 -0.00526577698126 29.41776342 18.68278899 27.40195032
801 1 1 -0.00167922457279 30.88865159 0.84921768 27.40195032
802 1 1 -0.00171539864088 32.35953976 3.39687073 27.40195032
803 1 1 -0.00186441882304 30.88865159 5.94452377 27.40195032
804 1 1 -0.002047409633 32.35953976 8.49217681 27.40195032
805 1 1 -0.00243765285593 30.88865159 11.03982986 27.40195032
806 1 1 -0.00286282694892 32.35953976 13.58748290 27.40195032
807 1 1 -0.00378102675204 30.88865159 16.13513595 27.40195032
808 1 1 -0.00465760582936 32.35953976 18.68278899 27.40195032
809 1 1 -0.00164287133585 33.83042793 0.84921768 27.40195032
810 1 1 -0.00166555814872 17.65065805 3.39687073 27.40195032
811 1 1 -0.00180618905142 33.83042793 5.94452377 27.40195032
812 1 1 -0.0019466829191 17.65065805 8.49217681 27.40195032
813 1 1 -0.00229732926091 33.83042793 11.03982986 27.40195032
814 1 1 -0.00260255841455 17.65065805 13.58748290 27.40195032
815 1 1 -0.00337631337237 33.83042793 16.13513595 27.40195032
816 1 1 -0.00391046208067 17.65065805 18.68278899 27.40195032
817 1 1 -5.36680117606e-05 20.59243439 1.69843536 29.80390065
818 1 1 -5.6787810428e-05 22.06332256 4.24608841 29.80390065
819 1 1 -6.09642832148e-05 20.59243439 6.79374145 29.80390065
820 1 1 -7.03969875476e-05 22.06332256 9.34139450 29.80390065
821 1 1 -8.1037180332e-05 20.59243439 11.88904754 29.80390065
822 1 1 -0.000103943997147 22.06332256 14.43670058 29.80390065
823 1 1 -0.000127578047533 20.59243439 16.98435363 29.80390065
824 1 1 -0.000179575833797 22.06332256 19.53200667 29.80390065
825 1 1 -5.46272137488e-05 23.53421073 1.69843536 29.80390065
826 1 1 -5.76176544621e-05 25.00509890 4.24608841 29.80390065
827 1 1 -6.26751204289e-05 23.53421073 6.79374145 29.80390065
828 1 1 -7.2255634114e-05 25.00509890 9.34139450 29.80390065
829 1 1 -8.54399842417e-05 23.53421073 11.88904754 29.80390065
830 1 1 -0.00010950508353 25.00509890 14.43670058 29.80390065
831 1 1 -0.000141520434589 23.53421073 16.98435363 29.80390065
832 1 1 -0.000196432155394 25.00509890 19.53200667 29.80390065
833 1 1 -5.49655500884e-05 26.47598708 1.69843536 29.80390065
834 1 1 -5.76176542978e-05 27.94687525 4.24608841 29.80390065
835 1 1 -6.32869911209e-05 26.47598708 6.79374145 29.80390065
836 1 1 -7.22556340033e-05 27.94687525 9.34139450 29.80390065
837 1 1 -8.70559092544e-05 26.47598708 11.88904754 29.80390065
838 1 1 -0.000109505083505 27.94687525 14.43670058 29.80390065
839 1 1 -0.000146786569687 26.47598708 16.98435363 29.80390065
840 1 1 -0.000196432155466 27.94687525 19.53200667 29.80390065
841 1 1 -5.46272134115e-05 29.41776342 1.69843536 29.80390065
842 1 1 -5.67878099643e-05 30.88865159 4.24608841 29.80390065
843 1 1 -6.26751201613e-05 29.41776342 6.79374145 29.80390065
844 1 1 -7.03969872014e-05 30.88865159 9.34139450 29.80390065
845 1 1 -8.54399841386e-05 29.41776342 11.88904754 29.80390065
846 1 1 -0.000103943996983 30.88865159 14.43670058 29.80390065
847 1 1 -0.000141520434725 29.41776342 16.98435363 29.80390065
848 1 1 -0.000179575833817 30.88865159 19.53200667 29.80390065
849 1 1 -5.36680111963e-05 32.35953976 1.69843536 29.80390065
850 1 1 -5.52749391808e-05 33.83042793 4.24608841 29.80390065
851 1 1 -6.09642827343e-05 32.35953976 6.79374145 29.80390065
852 1 1 -6.7102393981e-05 33.83042793 9.34139450 29.80390065
853 1 1 -8.10371800583e-05 32.35953976 11.88904754 29.80390065
854 1 1 -9.45796885219e-05 33.83042793 14.43670058 29.80390065
855 1 1 -0.000127578047496 32.35953976 16.98435363 29.80390065
856 1 1 -0.000152739916694 33.83042793 19.53200667 29.80390065
857 1 1 -5.22403460889e-05 17.65065805 1.69843536 29.80390065
858 1 1 -5.52749397392e-05 19.12154622 4.24608841 29.80390065
859 1 1 -5.84803540174e-05 17.65065805 6.79374145 29.80390065
860 1 1 -6.7102394371e-05 19.12154622 9.34139450 29.80390065
861 1 1 -7.49835698677e-05 17.65065805 11.88904754 29.80390065
862 1 1 -9.45796886336e-05 19.12154622 14.43670058 29.80390065
863 1 1 -0.000109898341934 17.65065805 16.98435363 29.80390065
864 1 1 -0.000152739916486 19.12154622 19.53200667 29.80390065
865 1 1 0.00180678987322 22.06332256 2.54765304 32.20585097
866 1 1 0.00193494064257 23.53421073 5.09530609 32.20585097
867 1 1 0.00211645994431 22.06332256 7.64295913 32.20585097
868 1 1 0.00248152030429 23.53421073 10.19061218 32.20585097
869 1 1 0.00292958813226 22.06332256 12.73826522 32.20585097
870 1 1 0.00380734247026 23.53421073 15.28591827 32.20585097
871 1 1 0.00480480360081 22.06332256 17.83357131 32.20585097
872 1 1 0.00178473160629 23.53421073 0.00000000 32.20585097
873 1 1 0.00182967099636 25.00509890 2.54765304 32.20585097
874 1 1 0.00195039750715 26.47598708 5.09530609 32.20585097
875 1 1 0.00216131962533 25.00509890 7.64295913 32.20585097
876 1 1 0.00251862691642 26.47598708 10.19061218 32.20585097
877 1 1 0.00305088378619 25.00509890 12.73826522 32.20585097
878 1 1 0.00392004923521 26.47598708 15.28591827 32.20585097
879 1 1 0.00519655790499 25.00509890 17.83357131 32.20585097
880 1 1 0.00179528850667 26.47598708 0.00000000 32.20585097
881 1 1 0.00182967099645 27.94687525 2.54765304 32.20585097
882 1 1 0.00193494064256 29.41776342 5.09530609 32.20585097
883 1 1 0.00216131962538 27.94687525 7.64295913 32.20585097
884 1 1 0.00248152030409 29.41776342 10.19061218 32.20585097
885 1 1 0.0030508837861 27.94687525 12.73826522 32.20585097
886 1 1 0.00380734246954 29.41776342 15.28591827 32.20585097
887 1 1 0.00519655790451 27.94687525 17.83357131 32.20585097
888 1 1 0.00178473160633 29.41776342 0.00000000 32.20585097
889 1 1 0.00180678987305 30.88865159 2.54765304 32.20585097
890 1 1 0.00189146792925 32.35953976 5.09530609 32.20585097
891 1 1 0.00211645994395 30.88865159 7.64295913 32.20585097
892 1 1 0.00237939145625 32.35953976 10.19061218 32.20585097
893 1 1 0.00292958813137 30.88865159 12.73826522 32.20585097
894 1 1 0.0035097817961 32.35953976 15.28591827 32.20585097
895 1 1 0.00480480359849 30.88865159 17.83357131 32.20585097
896 1 1 0.00175477188106 32.35953976 0.00000000 32.20585097
897 1 1 0.00176483567561 33.83042793 2.54765304 32.20585097
898 1 1 0.00182771094682 17.65065805 5.09530609 32.20585097
899 1 1 0.00203609200949 33.83042793 7.64295913 32.20585097
900 1 1 0.00223548101769 17.65065805 10.19061218 32.20585097
901 1 1 0.00272132614898 33.83042793 12.73826522 32.20585097
902 1 1 0.00312028570364 17.65065805 15.28591827 32.20585097
903 1 1 0.00418068423709 33.83042793 17.83357131 32.20585097
904 1 1 0.00171009821398 17.65065805 0.00000000 32.20585097
905 1 1 0.00176483567633 19.12154622 2.54765304 32.20585097
906 1 1 0.00189146792977 20.59243439 5.09530609 32.20585097
907 1 1 0.00203609201049 19.12154622 7.64295913 32.20585097
908 1 1 0.0023793914572 20.59243439 10.19061218 32.20585097
909 1 1 0.00272132615081 19.12154622 12.73826522 32.20585097
910 1 1 0.00350978179813 20.59243439 15.28591827 32.20585097
911 1 1 0.00418068424095 19.12154622 17.83357131 32.20585097
912 1 1 0.00175477188147 20.59243439 0.00000000 32.20585097
913 1 1 -0.00265793651642 23.53421073 3.39687073 34.60780130
914 1 1 -0.00287582892326 25.00509890 5.94452377 34.60780130
915 1 1 -0.00320144288992 23.53421073 8.49217681 34.60780130
916 1 1 -0.00379124591487 25.00509890 11.03982986 34.60780130
917 1 1 -0.00458420729052 23.53421073 13.58748290 34.60780130
918 1 1 -0.00600830049039 25.00509890 16.13513595 34.60780130
919 1 1 -0.00782107179143 23.53421073 18.68278899 34.60780130
920 1 1 -0.00258382644452 25.00509890 0.84921768 34.60780130
921 1 1 -0.00267565281476 26.47598708 3.39687073 34.60780130
922 1 1 -0.00287582892287 27.94687525 5.94452377 34.60780130
923 1 1 -0.0032388716053 26.47598708 8.49217681 34.60780130
924 1 1 -0.00379124591421 27.94687525 11.03982986 34.60780130
925 1 1 -0.00469027282863 26.47598708 13.58748290 34.60780130
926 1 1 -0.00600830048892 27.94687525 16.13513595 34.60780130
927 1 1 -0.00817586273092 26.47598708 18.68278899 34.60780130
928 1 1 -0.0025838264442 27.94687525 0.84921768 34.60780130
929 1 1 -0.00265793651598 29.41776342 3.39687073 34.60780130
930 1 1 -0.00282817336751 30.88865159 5.94452377 34.60780130
931 1 1 -0.00320144288924 29.41776342 8.49217681 34.60780130
932 1 1 -0.00367250556534 30.88865159 11.03982986 34.60780130
933 1 1 -0.00458420728908 29.41776342 13.58748290 34.60780130
934 1 1 -0.00564714729029 30.88865159 16.13513595 34.60780130
935 1 1 -0.00782107178748 29.41776342 18.68278899 34.60780130
936 1 1 -0.00255439404504 30.88865159 0.84921768 34.60780130
937 1 1 -0.00260785993225 32.35953976 3.39687073 34.60780130
938 1 1 -0.00274194275575 33.83042793 5.94452377 34.60780130
939 1 1 -0.00309759265131 32.35953976 8.49217681 34.60780130
940 1 1 -0.00346539872061 33.83042793 11.03982986 34.60780130
941 1 1 -0.00429935806156 32.35953976 13.58748290 34.60780130
942 1 1 -0.0050545460639 33.83042793 16.13513595 34.60780130
943 1 1 -0.00692543644528 32.35953976 18.68278899 34.60780130
944 1 1 -0.002500251049 33.83042793 0.84921768 34.60780130
945 1 1 -0.00253373720791 17.65065805 3.39687073 34.60780130
946 1 1 -0.0027419427552 19.12154622 5.94452377 34.60780130
947 1 1 -0.00294899009023 17.65065805 8.49217681 34.60780130
948 1 1 -0.00346539872044 19.12154622 11.03982986 34.60780130
949 1 1 -0.00391532550877 17.65065805 13.58748290 34.60780130
950 1 1 -0.00505454606507 19.12154622 16.13513595 34.60780130
951 1 1 -0.00583650694106 17.65065805 18.68278899 34.60780130
952 1 1 -0.00250025104835 19.12154622 0.84921768 34.60780130
953 1 1 -0.00260785993202 20.59243439 3.39687073 34.60780130
954 1 1 -0.00282817336776 22.06332256 5.94452377 34.60780130
955 1 1 -0.0030975926513 20.59243439 8.49217681 34.60780130
956 1 1 -0.00367250556602 22.06332256 11.03982986 34.60780130
957 1 1 -0.00429935806233 20.59243439 13.58748290 34.60780130
958 1 1 -0.00564714729245 22.06332256 16.13513595 34.60780130
959 1 1 -0.00692543644872 20.59243439 18.68278899 34.60780130
960 1 1 -0.00255439404518 22.06332256 0.84921768 34.60780130
961 1 1 0.0066473041774 17.65065805 20.38122435 25.00000000
962 1 1 0.00948568300012 19.12154622 22.92887739 25.00000000
963 1 1 0.0100335848068 17.65065805 25.47653044 25.00000000
964 1 1 0.0139294830713 19.12154622 28.02418348 25.00000000
965 1 1 0.0120823118284 17.65065805 30.57183653 25.00000000
966 1 1 0.0139299172599 19.12154622 33.11948957 25.00000000
967 1 1 0.0100336767537 17.65065805 35.66714262 25.00000000
968 1 1 0.00948577568652 19.12154622 38.21479566 25.00000000
969 1 1 0.00816223733479 20.59243439 20.38122435 25.00000000
970 1 1 0.0120562011253 22.06332256 22.92887739 25.00000000
971 1 1 0.0139205351653 20.59243439 25.47653044 25.00000000
972 1 1 0.01981946067 22.06332256 28.02418348 25.00000000
973 1 1 0.0179585954173 20.59243439 30.57183653 25.00000000
974 1 1 0.0198199183887 22.06332256 33.11948957 25.00000000
975 1 1 0.0139209996034 20.59243439 35.66714262 25.00000000
976 1 1 0.0120562192901 22.06332256 38.21479566 25.00000000
977 1 1 0.00947097856414 23.53421073 20.38122435 25.00000000
978 1 1 0.0139093030172 25.00509890 22.92887739 25.00000000
979 1 1 0.0179477476214 23.53421073 25.47653044 25.00000000
980 1 1 0.0250170890286 25.00509890 28.02418348 25.00000000
981 1 1 0.0250197018356 23.53421073 30.57183653 25.00000000
982 1 1 0.0250170560254 25.00509890 33.11948957 25.00000000
983 1 1 0.017947759393 23.53421073 35.66714262 25.00000000
984 1 1 0.0139088677544 25.00509890 38.21479566 25.00000000
985 1 1 0.0100050273964 26.47598708 20.38122435 25.00000000
986 1 1 0.0139093030106 27.94687525 22.92887739 25.00000000
987 1 1 0.0198124035157 26.47598708 25.47653044 25.00000000
988 1 1 0.025017089012 27.94687525 28.02418348 25.00000000
989 1 1 0.0289834028465 26.47598708 30.57183653 25.00000000
990 1 1 0.0250170560088 27.94687525 33.11948957 25.00000000
991 1 1 0.0198119301834 26.47598708 35.66714262 25.00000000
992 1 1 0.0139088677478 27.94687525 38.21479566 25.00000000
993 1 1 0.00947097855803 29.41776342 20.38122435 25.00000000
994 1 1 0.0120562011141 30.88865159 22.92887739 25.00000000
995 1 1 0.0179477476042 29.41776342 25.47653044 25.00000000
996 1 1 0.0198194606434 30.88865159 28.02418348 25.00000000
997 1 1 0.0250197018049 29.41776342 30.57183653 25.00000000
998 1 1 0.0198199183621 30.88865159 33.11948957 25.00000000
999 1 1 0.0179477593757 29.41776342 35.66714262 25.00000000
1000 1 1 0.0120562192789 30.88865159 38.21479566 25.00000000
1001 1 1 0.00816223732942 32.35953976 20.38122435 25.00000000
1002 1 1 0.00948568299188 33.83042793 22.92887739 25.00000000
1003 1 1 0.013920535149 32.35953976 25.47653044 25.00000000
1004 1 1 0.013929483053 33.83042793 28.02418348 25.00000000
1005 1 1 0.017958595391 32.35953976 30.57183653 25.00000000
1006 1 1 0.0139299172416 33.83042793 33.11948957 25.00000000
1007 1 1 0.013920999587 32.35953976 35.66714262 25.00000000
1008 1 1 0.0094857756782 33.83042793 38.21479566 25.00000000
1009 1 1 -0.00551659824968 19.12154622 21.23044203 27.40195032
1010 1 1 -0.00795588431814 20.59243439 23.77809508 27.40195032
1011 1 1 -0.00845773209472 19.12154622 26.32574812 27.40195032
1012 1 1 -0.0110317171004 20.59243439 28.87340116 27.40195032
1013 1 1 -0.00961646741955 19.12154622 31.42105421 27.40195032
1014 1 1 -0.0102814975708 20.59243439 33.96870725 27.40195032
1015 1 1 -0.00750686194763 19.12154622 36.51636030 27.40195032
1016 1 1 -0.0067178468754 20.59243439 39.06401334 27.40195032
1017 1 1 -0.00671458385032 22.06332256 21.23044203 27.40195032
1018 1 1 -0.00960367709 23.53421073 23.77809508 27.40195032
1019 1 1 -0.0110274033753 22.06332256 26.32574812 27.40195032
1020 1 1 -0.0140513805131 23.53421073 28.87340116 27.40195032
1021 1 1 -0.0128565002373 22.06332256 31.42105421 27.40195032
1022 1 1 -0.0128536007669 23.53421073 33.96870725 27.40195032
1023 1 1 -0.00960624687558 22.06332256 36.51636030 27.40195032
1024 1 1 -0.00794985738491 23.53421073 39.06401334 27.40195032
1025 1 1 -0.00749451565022 25.00509890 21.23044203 27.40195032
1026 1 1 -0.0102725911354 26.47598708 23.77809508 27.40195032
1027 1 1 -0.0128519408443 25.00509890 26.32574812 27.40195032
1028 1 1 -0.0156522574118 26.47598708 28.87340116 27.40195032
1029 1 1 -0.015652837334 25.00509890 31.42105421 27.40195032
1030 1 1 -0.0140492406238 26.47598708 33.96870725 27.40195032
1031 1 1 -0.011023042315 25.00509890 36.51636030 27.40195032
1032 1 1 -0.00844397754903 26.47598708 39.06401334 27.40195032
1033 1 1 -0.00749451564917 27.94687525 21.23044203 27.40195032
1034 1 1 -0.00960367708662 29.41776342 23.77809508 27.40195032
1035 1 1 -0.0128519408419 27.94687525 26.32574812 27.40195032
1036 1 1 -0.0140513805061 29.41776342 28.87340116 27.40195032
1037 1 1 -0.0156528373293 27.94687525 31.42105421 27.40195032
1038 1 1 -0.0128536007616 29.41776342 33.96870725 27.40195032
1039 1 1 -0.0110230423133 27.94687525 36.51636030 27.40195032
1040 1 1 -0.00794985738238 29.41776342 39.06401334 27.40195032
1041 1 1 -0.00671458384673 30.88865159 21.23044203 27.40195032
1042 1 1 -0.00795588431106 32.35953976 23.77809508 27.40195032
1043 1 1 -0.0110274033682 30.88865159 26.32574812 27.40195032
1044 1 1 -0.0110317170895 32.35953976 28.87340116 27.40195032
1045 1 1 -0.0128565002281 30.88865159 31.42105421 27.40195032
1046 1 1 -0.010281497561 32.35953976 33.96870725 27.40195032
1047 1 1 -0.00960624686968 30.88865159 36.51636030 27.40195032
1048 1 1 -0.00671784686997 32.35953976 39.06401334 27.40195032
1049 1 1 -0.00551659824386 33.83042793 21.23044203 27.40195032
1050 1 1 -0.00606972525183 17.65065805 23.77809508 27.40195032
1051 1 1 -0.00845773208412 33.83042793 26.32574812 27.40195032
1052 1 1 -0.00796958181534 17.65065805 28.87340116 27.40195032
1053 1 1 -0.0096164674071 33.83042793 31.42105421 27.40195032
1054 1 1 -0.00751481675819 17.65065805 33.96870725 27.40195032
1055 1 1 -0.00750686193876 33.83042793 36.51636030 27.40195032
1056 1 1 -0.00528019417058 17.65065805 39.06401334 27.40195032
1057 1 1 -0.000213711856845 20.59243439 22.07965971 29.80390065
1058 1 1 -0.000272579107848 22.06332256 24.62731276 29.80390065
1059 1 1 -0.000279418157742 20.59243439 27.17496580 29.80390065
1060 1 1 -0.000211633521524 22.06332256 29.72261885 29.80390065
1061 1 1 -0.000279553975575 20.59243439 32.27027189 29.80390065
1062 1 1 -0.000279441749748 22.06332256 34.81792493 29.80390065
1063 1 1 -0.000244080004094 20.59243439 37.36557798 29.80390065
1064 1 1 -0.000213604524153 22.06332256 39.91323102 29.80390065
1065 1 1 -0.000243882181926 23.53421073 22.07965971 29.80390065
1066 1 1 -0.000279300765792 25.00509890 24.62731276 29.80390065
1067 1 1 -0.000211594495761 23.53421073 27.17496580 29.80390065
1068 1 1 0.000293541639029 25.00509890 29.72261885 29.80390065
1069 1 1 -6.97214623331e-05 23.53421073 32.27027189 29.80390065
1070 1 1 -0.000211563943602 25.00509890 34.81792493 29.80390065
1071 1 1 -0.000272450975326 23.53421073 37.36557798 29.80390065
1072 1 1 -0.000234799383218 25.00509890 39.91323102 29.80390065
1073 1 1 -0.000254396654902 26.47598708 22.07965971 29.80390065
1074 1 1 -0.000279300766045 27.94687525 24.62731276 29.80390065
1075 1 1 -6.96532270394e-05 26.47598708 27.17496580 29.80390065
1076 1 1 0.000293541636816 27.94687525 29.72261885 29.80390065
1077 1 1 0.000293507449202 26.47598708 32.27027189 29.80390065
1078 1 1 -0.000211563944227 27.94687525 34.81792493 29.80390065
1079 1 1 -0.000279100848992 26.47598708 37.36557798 29.80390065
1080 1 1 -0.000234799383425 27.94687525 39.91323102 29.80390065
1081 1 1 -0.000243882182309 29.41776342 22.07965971 29.80390065
1082 1 1 -0.000272579108153 30.88865159 24.62731276 29.80390065
1083 1 1 -0.000211594496801 29.41776342 27.17496580 29.80390065
1084 1 1 -0.000211633522964 30.88865159 29.72261885 29.80390065
1085 1 1 -6.97214643689e-05 29.41776342 32.27027189 29.80390065
1086 1 1 -0.000279441750448 30.88865159 34.81792493 29.80390065
1087 1 1 -0.000272450975586 29.41776342 37.36557798 29.80390065
1088 1 1 -0.000213604524571 30.88865159 39.91323102 29.80390065
1089 1 1 -0.000213711856982 32.35953976 22.07965971 29.80390065
1090 1 1 -0.000235235210798 33.83042793 24.62731276 29.80390065
1091 1 1 -0.000279418158129 32.35953976 27.17496580 29.80390065
1092 1 1 -0.000272853736425 33.83042793 29.72261885 29.80390065
1093 1 1 -0.000279553976361 32.35953976 32.27027189 29.80390065
1094 1 1 -0.000254883378434 33.83042793 34.81792493 29.80390065
1095 1 1 -0.000244080004622 32.35953976 37.36557798 29.80390065
1096 1 1 -0.000179797841981 33.83042793 39.91323102 29.80390065
1097 1 1 -0.000173647553534 17.65065805 22.07965971 29.80390065
1098 1 1 -0.000235235210307 19.12154622 24.62731276 29.80390065
1099 1 1 -0.00023547793238 17.65065805 27.17496580 29.80390065
1100 1 1 -0.000272853735932 19.12154622 29.72261885 29.80390065
1101 1 1 -0.000244539351117 17.65065805 32.27027189 29.80390065
1102 1 1 -0.000254883378172 19.12154622 34.81792493 29.80390065
1103 1 1 -0.000196994862386 17.65065805 37.36557798 29.80390065
1104 1 1 -0.000179797841836 19.12154622 39.91323102 29.80390065
1105 1 1 0.00861197765712 22.06332256 22.92887739 32.20585097
1106 1 1 0.0119262761763 23.53421073 25.47653044 32.20585097
1107 1 1 0.0127833547323 22.06332256 28.02418348 32.20585097
1108 1 1 0.0146046904668 23.53421073 30.57183653 32.20585097
1109 1 1 0.0127832923754 22.06332256 33.11948957 32.20585097
1110 1 1 0.0119263020842 23.53421073 35.66714262 32.20585097
1111 1 1 0.00861201150797 22.06332256 38.21479566 32.20585097
1112 1 1 0.00687224558189 23.53421073 20.38122435 32.20585097
1113 1 1 0.00975309748066 25.00509890 22.92887739 32.20585097
1114 1 1 0.0127779421374 26.47598708 25.47653044 32.20585097
1115 1 1 0.014602815247 25.00509890 28.02418348 32.20585097
1116 1 1 0.0154206138123 26.47598708 30.57183653 32.20585097
1117 1 1 0.0146027445891 25.00509890 33.11948957 32.20585097
1118 1 1 0.0127779750639 26.47598708 35.66714262 32.20585097
1119 1 1 0.00975328938573 25.00509890 38.21479566 32.20585097
1120 1 1 0.00724556994824 26.47598708 20.38122435 32.20585097
1121 1 1 0.0097530974793 27.94687525 22.92887739 32.20585097
1122 1 1 0.0119262761721 29.41776342 25.47653044 32.20585097
1123 1 1 0.0146028152458 27.94687525 28.02418348 32.20585097
1124 1 1 0.014604690463 29.41776342 30.57183653 32.20585097
1125 1 1 0.0146027445878 27.94687525 33.11948957 32.20585097
1126 1 1 0.01192630208 29.41776342 35.66714262 32.20585097
1127 1 1 0.00975328938433 27.94687525 38.21479566 32.20585097
1128 1 1 0.00687224557976 29.41776342 20.38122435 32.20585097
1129 1 1 0.00861197765157 30.88865159 22.92887739 32.20585097
1130 1 1 0.00976157916915 32.35953976 25.47653044 32.20585097
1131 1 1 0.0127833547241 30.88865159 28.02418348 32.20585097
1132 1 1 0.0119340490757 32.35953976 30.57183653 32.20585097
1133 1 1 0.012783292367 30.88865159 33.11948957 32.20585097
1134 1 1 0.00976144446133 32.35953976 35.66714262 32.20585097
1135 1 1 0.00861201150248 30.88865159 38.21479566 32.20585097
1136 1 1 0.00593288079072 32.35953976 20.38122435 32.20585097
1137 1 1 0.0068830368332 33.83042793 22.92887739 32.20585097
1138 1 1 0.00726684315316 17.65065805 25.47653044 32.20585097
1139 1 1 0.00976799133291 33.83042793 28.02418348 32.20585097
1140 1 1 0.00863064151918 17.65065805 30.57183653 32.20585097
1141 1 1 0.0097677961435 33.83042793 33.11948957 32.20585097
1142 1 1 0.00726600550241 17.65065805 35.66714262 32.20585097
1143 1 1 0.00688280408216 33.83042793 38.21479566 32.20585097
1144 1 1 0.00481666866968 17.65065805 20.38122435 32.20585097
1145 1 1 0.00688303684155 19.12154622 22.92887739 32.20585097
1146 1 1 0.00976157917896 20.59243439 25.47653044 32.20585097
1147 1 1 0.0097679913463 19.12154622 28.02418348 32.20585097
1148 1 1 0.011934049088 20.59243439 30.57183653 32.20585097
1149 1 1 0.00976779615699 19.12154622 33.11948957 32.20585097
1150 1 1 0.00976144447122 20.59243439 35.66714262 32.20585097
1151 1 1 0.00688280409068 19.12154622 38.21479566 32.20585097
1152 1 1 0.0059328807956 20.59243439 20.38122435 32.20585097
1153 1 1 -0.0150024088455 23.53421073 23.77809508 34.60780130
1154 1 1 -0.0217013237146 25.00509890 26.32574812 34.60780130
1155 1 1 -0.024181917186 23.53421073 28.87340116 34.60780130
1156 1 1 -0.0271009941797 25.00509890 31.42105421 34.60780130
1157 1 1 -0.0217038486492 23.53421073 33.96870725 34.60780130
1158 1 1 -0.0178238367252 25.00509890 36.51636030 34.60780130
1159 1 1 -0.0120369581609 23.53421073 39.06401334 34.60780130
1160 1 1 -0.0112788932986 25.00509890 21.23044203 34.60780130
1161 1 1 -0.0163029216842 26.47598708 23.77809508 34.60780130
1162 1 1 -0.0217013237031 27.94687525 26.32574812 34.60780130
1163 1 1 -0.0271001095586 26.47598708 28.87340116 34.60780130
1164 1 1 -0.0271009941644 27.94687525 31.42105421 34.60780130
1165 1 1 -0.0241786181027 26.47598708 33.96870725 34.60780130
1166 1 1 -0.0178238367166 27.94687525 36.51636030 34.60780130
1167 1 1 -0.0128913581927 26.47598708 39.06401334 34.60780130
1168 1 1 -0.0112788932944 27.94687525 21.23044203 34.60780130
1169 1 1 -0.0150024088335 29.41776342 23.77809508 34.60780130
1170 1 1 -0.01783037427 30.88865159 26.32574812 34.60780130
1171 1 1 -0.0241819171614 29.41776342 28.87340116 34.60780130
1172 1 1 -0.0217082698096 30.88865159 31.42105421 34.60780130
1173 1 1 -0.0217038486281 29.41776342 33.96870725 34.60780130
1174 1 1 -0.0150062685857 30.88865159 36.51636030 34.60780130
1175 1 1 -0.0120369581526 29.41776342 39.06401334 34.60780130
1176 1 1 -0.0100208904187 30.88865159 21.23044203 34.60780130
1177 1 1 -0.0120460277903 32.35953976 23.77809508 34.60780130
1178 1 1 -0.0129120347801 33.83042793 26.32574812 34.60780130
1179 1 1 -0.0178369276821 32.35953976 28.87340116 34.60780130
1180 1 1 -0.0150216833332 33.83042793 31.42105421 34.60780130
1181 1 1 -0.0163163087795 32.35953976 33.96870725 34.60780130
1182 1 1 -0.0112974615456 33.83042793 36.51636030 34.60780130
1183 1 1 -0.0100257983843 32.35953976 39.06401334 34.60780130
1184 1 1 -0.00819269391455 33.83042793 21.23044203 34.60780130
1185 1 1 -0.00902874323153 17.65065805 23.77809508 34.60780130
1186 1 1 -0.012912034795 19.12154622 26.32574812 34.60780130
1187 1 1 -0.0120666490779 17.65065805 28.87340116 34.60780130
1188 1 1 -0.0150216833533 19.12154622 31.42105421 34.60780130
1189 1 1 -0.0113094216141 17.65065805 33.96870725 34.60780130
1190 1 1 -0.0112974615569 19.12154622 36.51636030 34.60780130
1191 1 1 -0.0078428029993 17.65065805 39.06401334 34.60780130
1192 1 1 -0.00819269391992 19.12154622 21.23044203 34.60780130
1193 1 1 -0.012046027802 20.59243439 23.77809508 34.60780130
1194 1 1 -0.0178303742908 22.06332256 26.32574812 34.60780130
1195 1 1 -0.0178369277065 20.59243439 28.87340116 34.60780130
1196 1 1 -0.021708269838 22.06332256 31.42105421 34.60780130
1197 1 1 -0.0163163088003 20.59243439 33.96870725 34.60780130
1198 1 1 -0.0150062686012 22.06332256 36.51636030 34.60780130
1199 1 1 -0.0100257983921 20.59243439 39.06401334 34.60780130
1200 1 1 -0.010020890426 22.06332256 21.23044203 34.60780130
1201 1 1 0.00664732711933 17.65065805 40.76244870 25.00000000
1202 1 1 0.00579003501388 19.12154622 43.31010174 25.00000000
1203 1 1 0.00435117792767 17.65065805 45.85775479 25.00000000
1204 1 1 0.00380649693051 19.12154622 48.40540783 25.00000000
1205 1 1 0.00314323476652 17.65065805 50.95306088 25.00000000
1206 1 1 0.00287117465909 19.12154622 53.50071392 25.00000000
1207 1 1 0.00258555080846 17.65065805 56.04836697 25.00000000
1208 1 1 0.00249928936502 19.12154622 58.59602001 25.00000000
1209 1 1 0.00816222849186 20.59243439 40.76244870 25.00000000
1210 1 1 0.00663111432498 22.06332256 43.31010174 25.00000000
1211 1 1 0.00488189748847 20.59243439 45.85775479 25.00000000
1212 1 1 0.00409149149313 22.06332256 48.40540783 25.00000000
1213 1 1 0.00333990778825 20.59243439 50.95306088 25.00000000
1214 1 1 0.0029813125942 22.06332256 53.50071392 25.00000000
1215 1 1 0.00267340355106 20.59243439 56.04836697 25.00000000
1216 1 1 0.00255728757578 22.06332256 58.59602001 25.00000000
1217 1 1 0.00947088917711 23.53421073 40.76244870 25.00000000
1218 1 1 0.00715930576249 25.00509890 43.31010174 25.00000000
1219 1 1 0.00528628647209 23.53421073 45.85775479 25.00000000
1220 1 1 0.00425767190808 25.00509890 48.40540783 25.00000000
1221 1 1 0.00347968940596 23.53421073 50.95306088 25.00000000
1222 1 1 0.00304278863108 25.00509890 53.50071392 25.00000000
1223 1 1 0.0027332620687 23.53421073 56.04836697 25.00000000
1224 1 1 0.00258890994503 25.00509890 58.59602001 25.00000000
1225 1 1 0.0100049288566 26.47598708 40.76244870 25.00000000
1226 1 1 0.00715930576016 27.94687525 43.31010174 25.00000000
1227 1 1 0.00543919466412 26.47598708 45.85775479 25.00000000
1228 1 1 0.00425767190719 27.94687525 48.40540783 25.00000000
1229 1 1 0.00353053839239 26.47598708 50.95306088 25.00000000
1230 1 1 0.00304278863075 27.94687525 53.50071392 25.00000000
1231 1 1 0.00275453748421 26.47598708 56.04836697 25.00000000
1232 1 1 0.0025889099449 27.94687525 58.59602001 25.00000000
1233 1 1 0.00947088917093 29.41776342 40.76244870 25.00000000
1234 1 1 0.00663111432158 30.88865159 43.31010174 25.00000000
1235 1 1 0.00528628646999 29.41776342 45.85775479 25.00000000
1236 1 1 0.00409149149233 30.88865159 48.40540783 25.00000000
1237 1 1 0.00347968940531 29.41776342 50.95306088 25.00000000
1238 1 1 0.00298131259438 30.88865159 53.50071392 25.00000000
1239 1 1 0.00273326206861 29.41776342 56.04836697 25.00000000
1240 1 1 0.00255728757633 30.88865159 58.59602001 25.00000000
1241 1 1 0.00816222848631 32.35953976 40.76244870 25.00000000
1242 1 1 0.00579003501166 33.83042793 43.31010174 25.00000000
1243 1 1 0.00488189748722 32.35953976 45.85775479 25.00000000
1244 1 1 0.0038064969307 33.83042793 48.40540783 25.00000000
1245 1 1 0.00333990778858 32.35953976 50.95306088 25.00000000
1246 1 1 0.00287117466024 33.83042793 53.50071392 25.00000000
1247 1 1 0.00267340355201 32.35953976 56.04836697 25.00000000
1248 1 1 0.00249928936654 33.83042793 58.59602001 25.00000000
1249 1 1 -0.00466115695061 19.12154622 41.61166638 27.40195032
1250 1 1 -0.00390342879491 20.59243439 44.15931943 27.40195032
1251 1 1 -0.00292470122673 19.12154622 46.70697247 27.40195032
1252 1 1 -0.00251501117786 20.59243439 49.25462551 27.40195032
1253 1 1 -0.0020857549793 19.12154622 51.80227856 27.40195032
1254 1 1 -0.00189695519844 20.59243439 54.34993160 27.40195032
1255 1 1 -0.0017223317224 19.12154622 56.89758465 27.40195032
1256 1 1 -0.00167317183888 20.59243439 59.44523769 27.40195032
1257 1 1 -0.00550964643375 22.06332256 41.61166638 27.40195032
1258 1 1 -0.00431664053429 23.53421073 44.15931943 27.40195032
1259 1 1 -0.00320463043086 22.06332256 46.70697247 27.40195032
1260 1 1 -0.00264996807529 23.53421073 49.25462551 27.40195032
1261 1 1 -0.00218777668064 22.06332256 51.80227856 27.40195032
1262 1 1 -0.00194971543952 23.53421073 54.34993160 27.40195032
1263 1 1 -0.00176896183685 22.06332256 56.89758465 27.40195032
1264 1 1 -0.00170277949684 23.53421073 59.44523769 27.40195032
1265 1 1 -0.00605236199937 25.00509890 41.61166638 27.40195032
1266 1 1 -0.0044758178141 26.47598708 44.15931943 27.40195032
1267 1 1 -0.00337127135078 25.00509890 46.70697247 27.40195032
1268 1 1 -0.00269953792975 26.47598708 49.25462551 27.40195032
1269 1 1 -0.00224536260366 25.00509890 51.80227856 27.40195032
1270 1 1 -0.0019685867469 26.47598708 54.34993160 27.40195032
1271 1 1 -0.00179454183902 25.00509890 56.89758465 27.40195032
1272 1 1 -0.00171322388459 26.47598708 59.44523769 27.40195032
1273 1 1 -0.00605236199862 27.94687525 41.61166638 27.40195032
1274 1 1 -0.00431664053326 29.41776342 44.15931943 27.40195032
1275 1 1 -0.00337127135047 27.94687525 46.70697247 27.40195032
1276 1 1 -0.00264996807467 29.41776342 49.25462551 27.40195032
1277 1 1 -0.0022453626034 27.94687525 51.80227856 27.40195032
1278 1 1 -0.00194971543889 29.41776342 54.34993160 27.40195032
1279 1 1 -0.00179454183873 27.94687525 56.89758465 27.40195032
1280 1 1 -0.00170277949616 29.41776342 59.44523769 27.40195032
1281 1 1 -0.00550964643102 30.88865159 41.61166638 27.40195032
1282 1 1 -0.00390342879248 32.35953976 44.15931943 27.40195032
1283 1 1 -0.00320463042956 30.88865159 46.70697247 27.40195032
1284 1 1 -0.00251501117633 32.35953976 49.25462551 27.40195032
1285 1 1 -0.00218777667961 30.88865159 51.80227856 27.40195032
1286 1 1 -0.00189695519703 32.35953976 54.34993160 27.40195032
1287 1 1 -0.00176896183579 30.88865159 56.89758465 27.40195032
1288 1 1 -0.00167317183742 32.35953976 59.44523769 27.40195032
1289 1 1 -0.00466115694624 33.83042793 41.61166638 27.40195032
1290 1 1 -0.00337960876831 17.65065805 44.15931943 27.40195032
1291 1 1 -0.00292470122441 33.83042793 46.70697247 27.40195032
1292 1 1 -0.00232846802518 17.65065805 49.25462551 27.40195032
1293 1 1 -0.0020857549775 33.83042793 51.80227856 27.40195032
1294 1 1 -0.0018204322235 17.65065805 54.34993160 27.40195032
1295 1 1 -0.00172233172066 33.83042793 56.89758465 27.40195032
1296 1 1 -0.0016291119522 17.65065805 59.44523769 27.40195032
1297 1 1 -0.000152646061085 20.59243439 42.46088406 29.80390065
1298 1 1 -0.000123756267759 22.06332256 45.00853711 29.80390065
1299 1 1 -9.25651375251e-05 20.59243439 47.55619015 29.80390065
1300 1 1 -7.85654577659e-05 22.06332256 50.10384320 29.80390065
1301 1 1 -6.59024228635e-05 20.59243439 52.65149624 29.80390065
1302 1 1 -5.99341404637e-05 22.06332256 55.19914928 29.80390065
1303 1 1 -5.50538398406e-05 20.59243439 57.74680233 29.80390065
1304 1 1 -5.38642393837e-05 22.06332256 60.29445537 29.80390065
1305 1 1 -0.000173205876062 23.53421073 42.46088406 29.80390065
1306 1 1 -0.0001325975193 25.00509890 45.00853711 29.80390065
1307 1 1 -9.91354491566e-05 23.53421073 47.55619015 29.80390065
1308 1 1 -8.11892407221e-05 25.00509890 50.10384320 29.80390065
1309 1 1 -6.81764250856e-05 23.53421073 52.65149624 29.80390065
1310 1 1 -6.09809348224e-05 25.00509890 55.19914928 29.80390065
1311 1 1 -5.61505596494e-05 23.53421073 57.74680233 29.80390065
1312 1 1 -5.45054570854e-05 25.00509890 60.29445537 29.80390065
1313 1 1 -0.00018156262659 26.47598708 42.46088406 29.80390065
1314 1 1 -0.000132597519388 27.94687525 45.00853711 29.80390065
1315 1 1 -0.000101639397517 26.47598708 47.55619015 29.80390065
1316 1 1 -8.11892406937e-05 27.94687525 50.10384320 29.80390065
1317 1 1 -6.89911871537e-05 26.47598708 52.65149624 29.80390065
1318 1 1 -6.09809347034e-05 27.94687525 55.19914928 29.80390065
1319 1 1 -5.65385908198e-05 26.47598708 57.74680233 29.80390065
1320 1 1 -5.45054569178e-05 27.94687525 60.29445537 29.80390065
1321 1 1 -0.000173205876128 29.41776342 42.46088406 29.80390065
1322 1 1 -0.000123756267946 30.88865159 45.00853711 29.80390065
1323 1 1 -9.91354491074e-05 29.41776342 47.55619015 29.80390065
1324 1 1 -7.85654576683e-05 30.88865159 50.10384320 29.80390065
1325 1 1 -6.81764248905e-05 29.41776342 52.65149624 29.80390065
1326 1 1 -5.99341401299e-05 30.88865159 55.19914928 29.80390065
1327 1 1 -5.61505593426e-05 29.41776342 57.74680233 29.80390065
1328 1 1 -5.38642389201e-05 30.88865159 60.29445537 29.80390065
1329 1 1 -0.000152646061346 32.35953976 42.46088406 29.80390065
1330 1 1 -0.00010978973733 33.83042793 45.00853711 29.80390065
1331 1 1 -9.25651374994e-05 32.35953976 47.55619015 29.80390065
1332 1 1 -7.40019321712e-05 33.83042793 50.10384320 29.80390065
1333 1 1 -6.59024225639e-05 32.35953976 52.65149624 29.80390065
1334 1 1 -5.80346214208e-05 33.83042793 55.19914928 29.80390065
1335 1 1 -5.50538393422e-05 32.35953976 57.74680233 29.80390065
1336 1 1 -5.26850383115e-05 33.83042793 60.29445537 29.80390065
1337 1 1 -0.000127800497545 17.65065805 42.46088406 29.80390065
1338 1 1 -0.000109789737313 19.12154622 45.00853711 29.80390065
1339 1 1 -8.39302245748e-05 17.65065805 47.55619015 29.80390065
1340 1 1 -7.40019323868e-05 19.12154622 50.10384320 29.80390065
1341 1 1 -6.26246453385e-05 17.65065805 52.65149624 29.80390065
1342 1 1 -5.80346218682e-05 19.12154622 55.19914928 29.80390065
1343 1 1 -5.34317016149e-05 17.65065805 57.74680233 29.80390065
1344 1 1 -5.26850388894e-05 19.12154622 60.29445537 29.80390065
1345 1 1 0.004805098392 22.06332256 43.31010174 32.20585097
1346 1 1 0.00380766112841 23.53421073 45.85775479 32.20585097
1347 1 1 0.0029297936437 22.06332256 48.40540783 32.20585097
1348 1 1 0.0024816405835 23.53421073 50.95306088 32.20585097
1349 1 1 0.00211650149967 22.06332256 53.50071392 32.20585097
1350 1 1 0.00193497048737 23.53421073 56.04836697 32.20585097
1351 1 1 0.00180680760204 22.06332256 58.59602001 32.20585097
1352 1 1 0.00687247996101 23.53421073 40.76244870 32.20585097
1353 1 1 0.00519694828952 25.00509890 43.31010174 32.20585097
1354 1 1 0.00392035619856 26.47598708 45.85775479 32.20585097
1355 1 1 0.00305113493417 25.00509890 48.40540783 32.20585097
1356 1 1 0.00251876545902 26.47598708 50.95306088 32.20585097
1357 1 1 0.00216137695448 25.00509890 53.50071392 32.20585097
1358 1 1 0.00195043016182 26.47598708 56.04836697 32.20585097
1359 1 1 0.00182969049759 25.00509890 58.59602001 32.20585097
1360 1 1 0.00724639120226 26.47598708 40.76244870 32.20585097
1361 1 1 0.00519694828898 27.94687525 43.31010174 32.20585097
1362 1 1 0.00380766112756 29.41776342 45.85775479 32.20585097
1363 1 1 0.00305113493404 27.94687525 48.40540783 32.20585097
1364 1 1 0.00248164058321 29.41776342 50.95306088 32.20585097
1365 1 1 0.0021613769545 27.94687525 53.50071392 32.20585097
1366 1 1 0.00193497048731 29.41776342 56.04836697 32.20585097
1367 1 1 0.00182969049767 27.94687525 58.59602001 32.20585097
1368 1 1 0.00687247995874 29.41776342 40.76244870 32.20585097
1369 1 1 0.00480509838968 30.88865159 43.31010174 32.20585097
1370 1 1 0.00350999522207 32.35953976 45.85775479 32.20585097
1371 1 1 0.00292979364274 30.88865159 48.40540783 32.20585097
1372 1 1 0.00237946354143 32.35953976 50.95306088 32.20585097
1373 1 1 0.00211650149925 30.88865159 53.50071392 32.20585097
1374 1 1 0.00189149078721 32.35953976 56.04836697 32.20585097
1375 1 1 0.00180680760184 30.88865159 58.59602001 32.20585097
1376 1 1 0.00593286178417 32.35953976 40.76244870 32.20585097
1377 1 1 0.00418066806658 33.83042793 43.31010174 32.20585097
1378 1 1 0.00312029073268 17.65065805 45.85775479 32.20585097
1379 1 1 0.00272141936446 33.83042793 48.40540783 32.20585097
1380 1 1 0.00223550335148 17.65065805 50.95306088 32.20585097
1381 1 1 0.00203611259959 33.83042793 53.50071392 32.20585097
1382 1 1 0.00182772481457 17.65065805 56.04836697 32.20585097
1383 1 1 0.00176485003672 33.83042793 58.59602001 32.20585097
1384 1 1 0.00481634267931 17.65065805 40.76244870 32.20585097
1385 1 1 0.00418066807063 19.12154622 43.31010174 32.20585097
1386 1 1 0.00350999522429 20.59243439 45.85775479 32.20585097
1387 1 1 0.00272141936645 19.12154622 48.40540783 32.20585097
1388 1 1 0.00237946354251 20.59243439 50.95306088 32.20585097
1389 1 1 0.00203611260071 19.12154622 53.50071392 32.20585097
1390 1 1 0.0018914907878 20.59243439 56.04836697 32.20585097
1391 1 1 0.00176485003747 19.12154622 58.59602001 32.20585097
1392 1 1 0.00593286178925 20.59243439 40.76244870 32.20585097
1393 1 1 -0.00642971599157 23.53421073 44.15931943 34.60780130
1394 1 1 -0.00504875132145 25.00509890 46.70697247 34.60780130
1395 1 1 -0.00398629832672 23.53421073 49.25462551 34.60780130
1396 1 1 -0.0033896249822 25.00509890 51.80227856 34.60780130
1397 1 1 -0.00295409999757 23.53421073 54.34993160 34.60780130
1398 1 1 -0.00272524881845 25.00509890 56.89758465 34.60780130
1399 1 1 -0.00258939996058 23.53421073 59.44523769 34.60780130
1400 1 1 -0.0090025937788 25.00509890 41.61166638 34.60780130
1401 1 1 -0.00666264375936 26.47598708 44.15931943 34.60780130
1402 1 1 -0.00504875132041 27.94687525 46.70697247 34.60780130
1403 1 1 -0.00405970005809 26.47598708 49.25462551 34.60780130
1404 1 1 -0.0033896249817 27.94687525 51.80227856 34.60780130
1405 1 1 -0.00298200905658 26.47598708 54.34993160 34.60780130
1406 1 1 -0.0027252488181 27.94687525 56.89758465 34.60780130
1407 1 1 -0.00260494809293 26.47598708 59.44523769 34.60780130
1408 1 1 -0.00900259377593 27.94687525 41.61166638 34.60780130
1409 1 1 -0.00642971598887 29.41776342 44.15931943 34.60780130
1410 1 1 -0.00480336377299 30.88865159 46.70697247 34.60780130
1411 1 1 -0.0039862983257 29.41776342 49.25462551 34.60780130
1412 1 1 -0.00330454411152 30.88865159 51.80227856 34.60780130
1413 1 1 -0.00295409999705 29.41776342 54.34993160 34.60780130
1414 1 1 -0.00268726672603 30.88865159 56.89758465 34.60780130
1415 1 1 -0.00258939996017 29.41776342 59.44523769 34.60780130
1416 1 1 -0.00818220443305 30.88865159 41.61166638 34.60780130
1417 1 1 -0.00582589776352 32.35953976 44.15931943 34.60780130
1418 1 1 -0.00439062140634 33.83042793 46.70697247 34.60780130
1419 1 1 -0.0037866544108 32.35953976 49.25462551 34.60780130
1420 1 1 -0.00315398186433 33.83042793 51.80227856 34.60780130
1421 1 1 -0.00287606961492 32.35953976 54.34993160 34.60780130
1422 1 1 -0.00261800036005 33.83042793 56.89758465 34.60780130
1423 1 1 -0.00254531876704 32.35953976 59.44523769 34.60780130
1424 1 1 -0.00693079235261 33.83042793 41.61166638 34.60780130
1425 1 1 -0.00505951187911 17.65065805 44.15931943 34.60780130
1426 1 1 -0.00439062140676 19.12154622 46.70697247 34.60780130
1427 1 1 -0.00351126208074 17.65065805 49.25462551 34.60780130
1428 1 1 -0.00315398186388 19.12154622 51.80227856 34.60780130
1429 1 1 -0.00276284855987 17.65065805 54.34993160 34.60780130
1430 1 1 -0.0026180003594 19.12154622 56.89758465 34.60780130
1431 1 1 -0.00247970617687 17.65065805 59.44523769 34.60780130
1432 1 1 -0.00693079235596 19.12154622 41.61166638 34.60780130
1433 1 1 -0.00582589776551 20.59243439 44.15931943 34.60780130
1434 1 1 -0.00480336377439 22.06332256 46.70697247 34.60780130
1435 1 1 -0.00378665441105 20.59243439 49.25462551 34.60780130
1436 1 1 -0.00330454411193 22.06332256 51.80227856 34.60780130
1437 1 1 -0.00287606961471 20.59243439 54.34993160 34.60780130
1438 1 1 -0.00268726672619 22.06332256 56.89758465 34.60780130
1439 1 1 -0.00254531876677 20.59243439 59.44523769 34.60780130
1440 1 1 -0.0081822044379 22.06332256 41.61166638 34.60780130
1441 1 1 0.00242375135395 35.30131610 0.00000000 25.00000000
1442 1 1 0.00242398589457 36.77220427 2.54765304 25.00000000
1443 1 1 0.0025855521619 35.30131610 5.09530609 25.00000000
1444 1 1 0.00273304386048 36.77220427 7.64295913 25.00000000
1445 1 1 0.00314326030941 35.30131610 10.19061218 25.00000000
1446 1 1 0.00347130300502 36.77220427 12.73826522 25.00000000
1447 1 1 0.00435117289643 35.30131610 15.28591827 25.00000000
1448 1 1 0.00489700218255 36.77220427 17.83357131 25.00000000
1449 1 1 0.00235058606146 38.24309244 0.00000000 25.00000000
1450 1 1 0.00234210442697 39.71398061 2.54765304 25.00000000
1451 1 1 0.00248373335841 38.24309244 5.09530609 25.00000000
1452 1 1 0.00258877167655 39.71398061 7.64295913 25.00000000
1453 1 1 0.00292726321994 38.24309244 10.19061218 25.00000000
1454 1 1 0.00314617764832 39.71398061 12.73826522 25.00000000
1455 1 1 0.00381742496402 38.24309244 15.28591827 25.00000000
1456 1 1 0.00412172155476 39.71398061 17.83357131 25.00000000
1457 1 1 0.00227580697789 41.18486878 0.00000000 25.00000000
1458 1 1 0.00226397266104 42.65575695 2.54765304 25.00000000
1459 1 1 0.00238201243433 41.18486878 5.09530609 25.00000000
1460 1 1 0.00245659691827 42.65575695 7.64295913 25.00000000
1461 1 1 0.00272347788588 41.18486878 10.19061218 25.00000000
1462 1 1 0.00286907620863 42.65575695 12.73826522 25.00000000
1463 1 1 0.00335833904547 41.18486878 15.28591827 25.00000000
1464 1 1 0.00352678628948 42.65575695 17.83357131 25.00000000
1465 1 1 0.00220828233673 44.12664513 0.00000000 25.00000000
1466 1 1 0.00219817648469 45.59753330 2.54765304 25.00000000
1467 1 1 0.00229214686721 44.12664513 5.09530609 25.00000000
1468 1 1 0.00234927582811 45.59753330 7.64295913 25.00000000
1469 1 1 0.00255273634755 44.12664513 10.19061218 25.00000000
1470 1 1 0.00265747211194 45.59753330 12.73826522 25.00000000
1471 1 1 0.0030045866974 44.12664513 15.28591827 25.00000000
1472 1 1 0.00311090765439 45.59753330 17.83357131 25.00000000
1473 1 1 0.0021551057968 47.06842147 0.00000000 25.00000000
1474 1 1 0.00215100788828 48.53930964 2.54765304 25.00000000
1475 1 1 0.00222267734077 47.06842147 5.09530609 25.00000000
1476 1 1 0.00227451659818 48.53930964 7.64295913 25.00000000
1477 1 1 0.00242638462376 47.06842147 10.19061218 25.00000000
1478 1 1 0.002516654887 48.53930964 12.73826522 25.00000000
1479 1 1 0.00275940770597 47.06842147 15.28591827 25.00000000
1480 1 1 0.00285128579879 48.53930964 17.83357131 25.00000000
1481 1 1 0.00212126614544 50.01019781 0.00000000 25.00000000
1482 1 1 0.00212646541005 51.48108598 2.54765304 25.00000000
1483 1 1 0.0021790561478 50.01019781 5.09530609 25.00000000
1484 1 1 0.00223632579263 51.48108598 7.64295913 25.00000000
1485 1 1 0.00234947418916 50.01019781 10.19061218 25.00000000
1486 1 1 0.00244671268819 51.48108598 12.73826522 25.00000000
1487 1 1 0.00261652677977 50.01019781 15.28591827 25.00000000
1488 1 1 0.00272703822209 51.48108598 17.83357131 25.00000000
1489 1 1 -0.0015954705444 36.77220427 0.84921768 27.40195032
1490 1 1 -0.00160718615196 38.24309244 3.39687073 27.40195032
1491 1 1 -0.00173215293453 36.77220427 5.94452377 27.40195032
1492 1 1 -0.00183375033747 38.24309244 8.49217681 27.40195032
1493 1 1 -0.00212784661839 36.77220427 11.03982986 27.40195032
1494 1 1 -0.00233167917629 38.24309244 13.58748290 27.40195032
1495 1 1 -0.00293062044895 36.77220427 16.13513595 27.40195032
1496 1 1 -0.00322264532452 38.24309244 18.68278899 27.40195032
1497 1 1 -0.00154366946228 39.71398061 0.84921768 27.40195032
1498 1 1 -0.00154819565681 41.18486878 3.39687073 27.40195032
1499 1 1 -0.00165361850816 39.71398061 5.94452377 27.40195032
1500 1 1 -0.00172496187312 41.18486878 8.49217681 27.40195032
1501 1 1 -0.00195860453153 39.71398061 11.03982986 27.40195032
1502 1 1 -0.00209015355005 41.18486878 13.58748290 27.40195032
1503 1 1 -0.00252845515465 39.71398061 16.13513595 27.40195032
1504 1 1 -0.00268041968832 41.18486878 18.68278899 27.40195032
1505 1 1 -0.00149399168393 42.65575695 0.84921768 27.40195032
1506 1 1 -0.00149549948651 44.12664513 3.39687073 27.40195032
1507 1 1 -0.00158054005463 42.65575695 5.94452377 27.40195032
1508 1 1 -0.00163212656302 44.12664513 8.49217681 27.40195032
1509 1 1 -0.00181049443316 42.65575695 11.03982986 27.40195032
1510 1 1 -0.00189819005103 44.12664513 13.58748290 27.40195032
1511 1 1 -0.00220776844188 42.65575695 16.13513595 27.40195032
1512 1 1 -0.00229138828871 44.12664513 18.68278899 27.40195032
1513 1 1 -0.00145197411296 45.59753330 0.84921768 27.40195032
1514 1 1 -0.00145437912801 47.06842147 3.39687073 27.40195032
1515 1 1 -0.00152036051643 45.59753330 5.94452377 27.40195032
1516 1 1 -0.00156238880448 47.06842147 8.49217681 27.40195032
1517 1 1 -0.00169504199864 45.59753330 11.03982986 27.40195032
1518 1 1 -0.00176220994412 47.06842147 13.58748290 27.40195032
1519 1 1 -0.00197618731625 45.59753330 16.13513595 27.40195032
1520 1 1 -0.0020358414422 47.06842147 18.68278899 27.40195032
1521 1 1 -0.00142175431393 48.53930964 0.84921768 27.40195032
1522 1 1 -0.00142838553959 50.01019781 3.39687073 27.40195032
1523 1 1 -0.00147796096812 48.53930964 5.94452377 27.40195032
1524 1 1 -0.00151946727989 50.01019781 8.49217681 27.40195032
1525 1 1 -0.00161708461912 48.53930964 11.03982986 27.40195032
1526 1 1 -0.00168193459097 50.01019781 13.58748290 27.40195032
1527 1 1 -0.00182853116292 48.53930964 16.13513595 27.40195032
1528 1 1 -0.00189242334069 50.01019781 18.68278899 27.40195032
1529 1 1 -0.00140600009321 51.48108598 0.84921768 27.40195032
1530 1 1 -0.00166555814693 35.30131610 3.39687073 27.40195032
1531 1 1 -0.00145614017375 51.48108598 5.94452377 27.40195032
1532 1 1 -0.00194668291723 35.30131610 8.49217681 27.40195032
1533 1 1 -0.00157801071073 51.48108598 11.03982986 27.40195032
1534 1 1 -0.00260255841228 35.30131610 13.58748290 27.40195032
1535 1 1 -0.00175714487941 51.48108598 16.13513595 27.40195032
1536 1 1 -0.0039104620769 35.30131610 18.68278899 27.40195032
1537 1 1 -5.05554373536e-05 38.24309244 1.69843536 29.80390065
1538 1 1 -5.1233423152e-05 39.71398061 4.24608841 29.80390065
1539 1 1 -5.56411966845e-05 38.24309244 6.79374145 29.80390065
1540 1 1 -5.88560020693e-05 39.71398061 9.34139450 29.80390065
1541 1 1 -6.85171903921e-05 38.24309244 11.88904754 29.80390065
1542 1 1 -7.42427380287e-05 39.71398061 14.43670058 29.80390065
1543 1 1 -9.29812313433e-05 38.24309244 16.98435363 29.80390065
1544 1 1 -0.000100024639361 39.71398061 19.53200667 29.80390065
1545 1 1 -4.88386556807e-05 41.18486878 1.69843536 29.80390065
1546 1 1 -4.92571296815e-05 42.65575695 4.24608841 29.80390065
1547 1 1 -5.28504947117e-05 41.18486878 6.79374145 29.80390065
1548 1 1 -5.50985781483e-05 42.65575695 9.34139450 29.80390065
1549 1 1 -6.25534087064e-05 41.18486878 11.88904754 29.80390065
1550 1 1 -6.61863657769e-05 42.65575695 14.43670058 29.80390065
1551 1 1 -7.92630733623e-05 41.18486878 16.98435363 29.80390065
1552 1 1 -8.25955315724e-05 42.65575695 19.53200667 29.80390065
1553 1 1 -4.72931785245e-05 44.12664513 1.69843536 29.80390065
1554 1 1 -4.76092682419e-05 45.59753330 4.24608841 29.80390065
1555 1 1 -5.04268379659e-05 44.12664513 6.79374145 29.80390065
1556 1 1 -5.2108402049e-05 45.59753330 9.34139450 29.80390065
1557 1 1 -5.76533669966e-05 44.12664513 11.88904754 29.80390065
1558 1 1 -6.01699195425e-05 45.59753330 14.43670058 29.80390065
1559 1 1 -6.91739991933e-05 44.12664513 16.98435363 29.80390065
1560 1 1 -7.10942627773e-05 45.59753330 19.53200667 29.80390065
1561 1 1 -4.60795186993e-05 47.06842147 1.69843536 29.80390065
1562 1 1 -4.64365318149e-05 48.53930964 4.24608841 29.80390065
1563 1 1 -4.85805307124e-05 47.06842147 6.79374145 29.80390065
1564 1 1 -5.00618112425e-05 48.53930964 9.34139450 29.80390065
1565 1 1 -5.41009056458e-05 47.06842147 11.88904754 29.80390065
1566 1 1 -5.62398329626e-05 48.53930964 14.43670058 29.80390065
1567 1 1 -6.23590670604e-05 47.06842147 16.98435363 29.80390065
1568 1 1 -6.40933343443e-05 48.53930964 19.53200667 29.80390065
1569 1 1 -4.5308980899e-05 50.01019781 1.69843536 29.80390065
1570 1 1 -4.58289942238e-05 51.48108598 4.24608841 29.80390065
1571 1 1 -4.7432273301e-05 50.01019781 6.79374145 29.80390065
1572 1 1 -4.90276382563e-05 51.48108598 9.34139450 29.80390065
1573 1 1 -5.19778074335e-05 50.01019781 11.88904754 29.80390065
1574 1 1 -5.43184051473e-05 51.48108598 14.43670058 29.80390065
1575 1 1 -5.84426606018e-05 50.01019781 16.98435363 29.80390065
1576 1 1 -6.07657819243e-05 51.48108598 19.53200667 29.80390065
1577 1 1 -5.22403455334e-05 35.30131610 1.69843536 29.80390065
1578 1 1 -5.3327946331e-05 36.77220427 4.24608841 29.80390065
1579 1 1 -5.84803535383e-05 35.30131610 6.79374145 29.80390065
1580 1 1 -6.30337188211e-05 36.77220427 9.34139450 29.80390065
1581 1 1 -7.49835695765e-05 35.30131610 11.88904754 29.80390065
1582 1 1 -8.40182910987e-05 36.77220427 14.43670058 29.80390065
1583 1 1 -0.000109898341863 35.30131610 16.98435363 29.80390065
1584 1 1 -0.000124215145244 36.77220427 19.53200667 29.80390065
1585 1 1 0.0016512045518 39.71398061 2.54765304 32.20585097
1586 1 1 0.0016802251265 41.18486878 5.09530609 32.20585097
1587 1 1 0.00183035098168 39.71398061 7.64295913 32.20585097
1588 1 1 0.00192845328676 41.18486878 10.19061218 32.20585097
1589 1 1 0.002237558029 39.71398061 12.73826522 32.20585097
1590 1 1 0.00239257842473 41.18486878 15.28591827 32.20585097
1591 1 1 0.00295136739269 39.71398061 17.83357131 32.20585097
1592 1 1 0.00160325033478 41.18486878 0.00000000 32.20585097
1593 1 1 0.00159475976004 42.65575695 2.54765304 32.20585097
1594 1 1 0.00161519386937 44.12664513 5.09530609 32.20585097
1595 1 1 0.00173433613026 42.65575695 7.64295913 32.20585097
1596 1 1 0.00180401752688 44.12664513 10.19061218 32.20585097
1597 1 1 0.00203449165444 42.65575695 12.73826522 32.20585097
1598 1 1 0.00213305561474 44.12664513 15.28591827 32.20585097
1599 1 1 0.0025152934131 42.65575695 17.83357131 32.20585097
1600 1 1 0.00155451818602 44.12664513 0.00000000 32.20585097
1601 1 1 0.0015472509478 45.59753330 2.54765304 32.20585097
1602 1 1 0.00156494868377 47.06842147 5.09530609 32.20585097
1603 1 1 0.00165650141131 45.59753330 7.64295913 32.20585097
1604 1 1 0.00171217167684 47.06842147 10.19061218 32.20585097
1605 1 1 0.0018798546189 45.59753330 12.73826522 32.20585097
1606 1 1 0.00195355601966 47.06842147 15.28591827 32.20585097
1607 1 1 0.00221013776136 45.59753330 17.83357131 32.20585097
1608 1 1 0.00151616508449 47.06842147 0.00000000 32.20585097
1609 1 1 0.00151321091986 48.53930964 2.54765304 32.20585097
1610 1 1 0.00153340989 50.01019781 5.09530609 32.20585097
1611 1 1 0.00160232495424 48.53930964 7.64295913 32.20585097
1612 1 1 0.00165633950534 50.01019781 10.19061218 32.20585097
1613 1 1 0.00177728584418 48.53930964 12.73826522 32.20585097
1614 1 1 0.00184931626708 50.01019781 15.28591827 32.20585097
1615 1 1 0.00201984972965 48.53930964 17.83357131 32.20585097
1616 1 1 0.00149177279537 50.01019781 0.00000000 32.20585097
1617 1 1 0.00149550741647 51.48108598 2.54765304 32.20585097
1618 1 1 0.00182771094596 35.30131610 5.09530609 32.20585097
1619 1 1 0.00157465427185 51.48108598 7.64295913 32.20585097
1620 1 1 0.00223548101634 35.30131610 10.19061218 32.20585097
1621 1 1 0.00172644331124 51.48108598 12.73826522 32.20585097
1622 1 1 0.00312028570108 35.30131610 15.28591827 32.20585097
1623 1 1 0.00192907585655 51.48108598 17.83357131 32.20585097
1624 1 1 0.00171009821323 35.30131610 0.00000000 32.20585097
1625 1 1 0.00171038578339 36.77220427 2.54765304 32.20585097
1626 1 1 0.0017538946267 38.24309244 5.09530609 32.20585097
1627 1 1 0.00193536824199 36.77220427 7.64295913 32.20585097
1628 1 1 0.00207738986371 38.24309244 10.19061218 32.20585097
1629 1 1 0.00247592068707 36.77220427 12.73826522 32.20585097
1630 1 1 0.00272919598089 38.24309244 15.28591827 32.20585097
1631 1 1 0.00352077229468 36.77220427 17.83357131 32.20585097
1632 1 1 0.00165724663279 38.24309244 0.00000000 32.20585097
1633 1 1 -0.00235905969759 41.18486878 3.39687073 34.60780130
1634 1 1 -0.00240706916114 42.65575695 5.94452377 34.60780130
1635 1 1 -0.00262137277365 41.18486878 8.49217681 34.60780130
1636 1 1 -0.00274811389242 42.65575695 11.03982986 34.60780130
1637 1 1 -0.00316070328263 41.18486878 13.58748290 34.60780130
1638 1 1 -0.00333468922272 42.65575695 16.13513595 34.60780130
1639 1 1 -0.00403213170107 41.18486878 18.68278899 34.60780130
1640 1 1 -0.0022784032151 42.65575695 0.84921768 34.60780130
1641 1 1 -0.00228057415827 44.12664513 3.39687073 34.60780130
1642 1 1 -0.00231757974467 45.59753330 5.94452377 34.60780130
1643 1 1 -0.00248377696612 44.12664513 8.49217681 34.60780130
1644 1 1 -0.00257741856733 45.59753330 11.03982986 34.60780130
1645 1 1 -0.0028781339676 44.12664513 13.58748290 34.60780130
1646 1 1 -0.00299398896371 45.59753330 16.13513595 34.60780130
1647 1 1 -0.00345880923491 44.12664513 18.68278899 34.60780130
1648 1 1 -0.00221573877338 45.59753330 0.84921768 34.60780130
1649 1 1 -0.00221930364432 47.06842147 3.39687073 34.60780130
1650 1 1 -0.00225450671797 48.53930964 5.94452377 34.60780130
1651 1 1 -0.00238025842983 47.06842147 8.49217681 34.60780130
1652 1 1 -0.00246189373868 48.53930964 11.03982986 34.60780130
1653 1 1 -0.00267747788326 47.06842147 13.58748290 34.60780130
1654 1 1 -0.00277638165285 48.53930964 16.13513595 34.60780130
1655 1 1 -0.00308290846427 47.06842147 18.68278899 34.60780130
1656 1 1 -0.00217064362968 48.53930964 0.84921768 34.60780130
1657 1 1 -0.00218055672577 50.01019781 3.39687073 34.60780130
1658 1 1 -0.00222204209888 51.48108598 5.94452377 34.60780130
1659 1 1 -0.00231651125164 50.01019781 8.49217681 34.60780130
1660 1 1 -0.00240393073147 51.48108598 11.03982986 34.60780130
1661 1 1 -0.00255868479347 50.01019781 13.58748290 34.60780130
1662 1 1 -0.00267086959648 51.48108598 16.13513595 34.60780130
1663 1 1 -0.00287174533362 50.01019781 18.68278899 34.60780130
1664 1 1 -0.00214712365429 51.48108598 0.84921768 34.60780130
1665 1 1 -0.00253373720892 35.30131610 3.39687073 34.60780130
1666 1 1 -0.00263220476732 36.77220427 5.94452377 34.60780130
1667 1 1 -0.00294899009106 35.30131610 8.49217681 34.60780130
1668 1 1 -0.0032156991913 36.77220427 11.03982986 34.60780130
1669 1 1 -0.00391532550894 35.30131610 13.58748290 34.60780130
1670 1 1 -0.00439954662806 36.77220427 16.13513595 34.60780130
1671 1 1 -0.00583650693909 35.30131610 18.68278899 34.60780130
1672 1 1 -0.00242964047593 36.77220427 0.84921768 34.60780130
1673 1 1 -0.00244688084883 38.24309244 3.39687073 34.60780130
1674 1 1 -0.00251565345875 39.71398061 5.94452377 34.60780130
1675 1 1 -0.00278226625097 38.24309244 8.49217681 34.60780130
1676 1 1 -0.00296650364771 39.71398061 11.03982986 34.60780130
1677 1 1 -0.00351612855066 38.24309244 13.58748290 34.60780130
1678 1 1 -0.00380692695912 39.71398061 16.13513595 34.60780130
1679 1 1 -0.00483050533082 38.24309244 18.68278899 34.60780130
1680 1 1 -0.00235245409168 39.71398061 0.84921768 34.60780130
1681 1 1 0.00664730417388 35.30131610 20.38122435 25.00000000
1682 1 1 0.00719319174387 36.77220427 22.92887739 25.00000000
1683 1 1 0.0100335847965 35.30131610 25.47653044 25.00000000
1684 1 1 0.00951216822561 36.77220427 28.02418348 25.00000000
1685 1 1 0.0120823118131 35.30131610 30.57183653 25.00000000
1686 1 1 0.00951223107598 36.77220427 33.11948957 25.00000000
1687 1 1 0.0100336767434 35.30131610 35.66714262 25.00000000
1688 1 1 0.00719334233056 36.77220427 38.21479566 25.00000000
1689 1 1 0.00532116869461 38.24309244 20.38122435 25.00000000
1690 1 1 0.00549857965782 39.71398061 22.92887739 25.00000000
1691 1 1 0.00721231166994 38.24309244 25.47653044 25.00000000
1692 1 1 0.00670377616335 39.71398061 28.02418348 25.00000000
1693 1 1 0.00821355525248 38.24309244 30.57183653 25.00000000
1694 1 1 0.00670379453186 39.71398061 33.11948957 25.00000000
1695 1 1 0.00721245444165 38.24309244 35.66714262 25.00000000
1696 1 1 0.00549869086093 39.71398061 38.21479566 25.00000000
1697 1 1 0.00431591614604 41.18486878 20.38122435 25.00000000
1698 1 1 0.00435261136547 42.65575695 22.92887739 25.00000000
1699 1 1 0.00537442047204 41.18486878 25.47653044 25.00000000
1700 1 1 0.00500163352528 42.65575695 28.02418348 25.00000000
1701 1 1 0.00588094209271 41.18486878 30.57183653 25.00000000
1702 1 1 0.0050017301419 42.65575695 33.11948957 25.00000000
1703 1 1 0.00537454751153 41.18486878 35.66714262 25.00000000
1704 1 1 0.00435276141581 42.65575695 38.21479566 25.00000000
1705 1 1 0.00362014801104 44.12664513 20.38122435 25.00000000
1706 1 1 0.00362587614173 45.59753330 22.92887739 25.00000000
1707 1 1 0.00423110603423 44.12664513 25.47653044 25.00000000
1708 1 1 0.00399688300362 45.59753330 28.02418348 25.00000000
1709 1 1 0.00450272506239 44.12664513 30.57183653 25.00000000
1710 1 1 0.00399695308313 45.59753330 33.11948957 25.00000000
1711 1 1 0.00423124662812 44.12664513 35.66714262 25.00000000
1712 1 1 0.00362599589728 45.59753330 38.21479566 25.00000000
1713 1 1 0.00317679448745 47.06842147 20.38122435 25.00000000
1714 1 1 0.00320318013113 48.53930964 22.92887739 25.00000000
1715 1 1 0.00355600513168 47.06842147 25.47653044 25.00000000
1716 1 1 0.0034401574305 48.53930964 28.02418348 25.00000000
1717 1 1 0.00371501411995 47.06842147 30.57183653 25.00000000
1718 1 1 0.00344017898879 48.53930964 33.11948957 25.00000000
1719 1 1 0.00355608075165 47.06842147 35.66714262 25.00000000
1720 1 1 0.0032032298227 48.53930964 38.21479566 25.00000000
1721 1 1 0.00293242488416 50.01019781 20.38122435 25.00000000
1722 1 1 0.00300918374905 51.48108598 22.92887739 25.00000000
1723 1 1 0.00320239415345 50.01019781 25.47653044 25.00000000
1724 1 1 0.00319198984807 51.48108598 28.02418348 25.00000000
1725 1 1 0.003311020625 50.01019781 30.57183653 25.00000000
1726 1 1 0.00319199115685 51.48108598 33.11948957 25.00000000
1727 1 1 0.00320241635661 50.01019781 35.66714262 25.00000000
1728 1 1 0.0030092029726 51.48108598 38.21479566 25.00000000
1729 1 1 -0.00433564915031 36.77220427 21.23044203 27.40195032
1730 1 1 -0.00450859190923 38.24309244 23.77809508 27.40195032
1731 1 1 -0.0060799358987 36.77220427 26.32574812 27.40195032
1732 1 1 -0.00554665237788 38.24309244 28.87340116 27.40195032
1733 1 1 -0.00674113042087 36.77220427 31.42105421 27.40195032
1734 1 1 -0.00530311607092 38.24309244 33.96870725 27.40195032
1735 1 1 -0.0055291103618 36.77220427 36.51636030 27.40195032
1736 1 1 -0.00405640187379 38.24309244 39.06401334 27.40195032
1737 1 1 -0.00340546847795 39.71398061 21.23044203 27.40195032
1738 1 1 -0.00342566750754 41.18486878 23.77809508 27.40195032
1739 1 1 -0.00436454986648 39.71398061 26.32574812 27.40195032
1740 1 1 -0.00396690182376 41.18486878 28.87340116 27.40195032
1741 1 1 -0.0047056731141 39.71398061 31.42105421 27.40195032
1742 1 1 -0.00384379603839 41.18486878 33.96870725 27.40195032
1743 1 1 -0.00407265497708 39.71398061 36.51636030 27.40195032
1744 1 1 -0.00317514453324 41.18486878 39.06401334 27.40195032
1745 1 1 -0.00275404169645 42.65575695 21.23044203 27.40195032
1746 1 1 -0.00273548309952 44.12664513 23.77809508 27.40195032
1747 1 1 -0.00328260042927 42.65575695 26.32574812 27.40195032
1748 1 1 -0.0030283086472 44.12664513 28.87340116 27.40195032
1749 1 1 -0.00345742446924 42.65575695 31.42105421 27.40195032
1750 1 1 -0.00296361807118 44.12664513 33.96870725 27.40195032
1751 1 1 -0.0031280266852 42.65575695 36.51636030 27.40195032
1752 1 1 -0.00259197704997 44.12664513 39.06401334 27.40195032
1753 1 1 -0.00232847310528 45.59753330 21.23044203 27.40195032
1754 1 1 -0.00231915049865 47.06842147 23.77809508 27.40195032
1755 1 1 -0.00263771167554 45.59753330 26.32574812 27.40195032
1756 1 1 -0.00249277933162 47.06842147 28.87340116 27.40195032
1757 1 1 -0.00273395029464 45.59753330 31.42105421 27.40195032
1758 1 1 -0.00245523752901 47.06842147 33.96870725 27.40195032
1759 1 1 -0.00255016444373 45.59753330 36.51636030 27.40195032
1760 1 1 -0.00223029792966 47.06842147 39.06401334 27.40195032
1761 1 1 -0.00207466538941 48.53930964 21.23044203 27.40195032
1762 1 1 -0.00209718293554 50.01019781 23.77809508 27.40195032
1763 1 1 -0.00227571916588 48.53930964 26.32574812 27.40195032
1764 1 1 -0.00221655367728 50.01019781 28.87340116 27.40195032
1765 1 1 -0.0023356096978 48.53930964 31.42105421 27.40195032
1766 1 1 -0.00219111693488 50.01019781 33.96870725 27.40195032
1767 1 1 -0.00222011055691 48.53930964 36.51636030 27.40195032
1768 1 1 -0.00203431122276 50.01019781 39.06401334 27.40195032
1769 1 1 -0.0019566508224 51.48108598 21.23044203 27.40195032
1770 1 1 -0.00606972524443 35.30131610 23.77809508 27.40195032
1771 1 1 -0.00211276267237 51.48108598 26.32574812 27.40195032
1772 1 1 -0.00796958180422 35.30131610 28.87340116 27.40195032
1773 1 1 -0.00215810171338 51.48108598 31.42105421 27.40195032
1774 1 1 -0.00751481674797 35.30131610 33.96870725 27.40195032
1775 1 1 -0.0020701825836 51.48108598 36.51636030 27.40195032
1776 1 1 -0.00528019416466 35.30131610 39.06401334 27.40195032
1777 1 1 -0.000133506214749 38.24309244 22.07965971 29.80390065
1778 1 1 -0.000134047557095 39.71398061 24.62731276 29.80390065
1779 1 1 -0.000174400617072 38.24309244 27.17496580 29.80390065
1780 1 1 -0.000154174082123 39.71398061 29.72261885 29.80390065
1781 1 1 -0.000180783147975 38.24309244 32.27027189 29.80390065
1782 1 1 -0.000143064114619 39.71398061 34.81792493 29.80390065
1783 1 1 -0.000147822658804 38.24309244 37.36557798 29.80390065
1784 1 1 -0.000110591319323 39.71398061 39.91323102 29.80390065
1785 1 1 -0.000103178824864 41.18486878 22.07965971 29.80390065
1786 1 1 -0.00010148580779 42.65575695 24.62731276 29.80390065
1787 1 1 -0.000125778971392 41.18486878 27.17496580 29.80390065
1788 1 1 -0.000112395084594 42.65575695 29.72261885 29.80390065
1789 1 1 -0.000129617055359 41.18486878 32.27027189 29.80390065
1790 1 1 -0.000106462769412 42.65575695 34.81792493 29.80390065
1791 1 1 -0.000111249247189 41.18486878 37.36557798 29.80390065
1792 1 1 -8.88115617952e-05 42.65575695 39.91323102 29.80390065
1793 1 1 -8.35857384982e-05 44.12664513 22.07965971 29.80390065
1794 1 1 -8.22171396553e-05 45.59753330 24.62731276 29.80390065
1795 1 1 -9.58319561988e-05 44.12664513 27.17496580 29.80390065
1796 1 1 -8.81780586591e-05 45.59753330 29.72261885 29.80390065
1797 1 1 -9.79211245972e-05 44.12664513 32.27027189 29.80390065
1798 1 1 -8.50127349087e-05 45.59753330 34.81792493 29.80390065
1799 1 1 -8.82034924717e-05 44.12664513 37.36557798 29.80390065
1800 1 1 -7.49351186327e-05 45.59753330 39.91323102 29.80390065
1801 1 1 -7.18158158316e-05 47.06842147 22.07965971 29.80390065
1802 1 1 -7.14992105438e-05 48.53930964 24.62731276 29.80390065
1803 1 1 -7.91180892448e-05 47.06842147 27.17496580 29.80390065
1804 1 1 -7.52203058984e-05 48.53930964 29.72261885 29.80390065
1805 1 1 -8.03006408795e-05 47.06842147 32.27027189 29.80390065
1806 1 1 -7.32555067067e-05 48.53930964 34.81792493 29.80390065
1807 1 1 -7.46440944673e-05 47.06842147 37.36557798 29.80390065
1808 1 1 -6.67031532532e-05 48.53930964 39.91323102 29.80390065
1809 1 1 -6.54374234016e-05 50.01019781 22.07965971 29.80390065
1810 1 1 -6.6599699861e-05 51.48108598 24.62731276 29.80390065
1811 1 1 -7.05431188684e-05 50.01019781 27.17496580 29.80390065
1812 1 1 -6.94423355786e-05 51.48108598 29.72261885 29.80390065
1813 1 1 -7.13430446057e-05 50.01019781 32.27027189 29.80390065
1814 1 1 -6.79514180206e-05 51.48108598 34.81792493 29.80390065
1815 1 1 -6.74369116987e-05 50.01019781 37.36557798 29.80390065
1816 1 1 -6.28481659463e-05 51.48108598 39.91323102 29.80390065
1817 1 1 -0.000173647553639 35.30131610 22.07965971 29.80390065
1818 1 1 -0.000182394456647 36.77220427 24.62731276 29.80390065
1819 1 1 -0.000235477932636 35.30131610 27.17496580 29.80390065
1820 1 1 -0.000214457656991 36.77220427 29.72261885 29.80390065
1821 1 1 -0.000244539351493 35.30131610 32.27027189 29.80390065
1822 1 1 -0.000197350723376 36.77220427 34.81792493 29.80390065
1823 1 1 -0.00019699486272 35.30131610 37.36557798 29.80390065
1824 1 1 -0.000142108176697 36.77220427 39.91323102 29.80390065
1825 1 1 0.00396279631815 39.71398061 22.92887739 32.20585097
1826 1 1 0.00387071296626 41.18486878 25.47653044 32.20585097
1827 1 1 0.0048570785844 39.71398061 28.02418348 32.20585097
1828 1 1 0.00424575978662 41.18486878 30.57183653 32.20585097
1829 1 1 0.00485674544769 39.71398061 33.11948957 32.20585097
1830 1 1 0.00387040600286 41.18486878 35.66714262 32.20585097
1831 1 1 0.00396251382967 39.71398061 38.21479566 32.20585097
1832 1 1 0.00309276931163 41.18486878 20.38122435 32.20585097
1833 1 1 0.00311908451659 42.65575695 22.92887739 32.20585097
1834 1 1 0.0030298518206 44.12664513 25.47653044 32.20585097
1835 1 1 0.0035957610065 42.65575695 28.02418348 32.20585097
1836 1 1 0.00322897053832 44.12664513 30.57183653 32.20585097
1837 1 1 0.00359553976016 42.65575695 33.11948957 32.20585097
1838 1 1 0.00302965212314 44.12664513 35.66714262 32.20585097
1839 1 1 0.00311884943761 42.65575695 38.21479566 32.20585097
1840 1 1 0.00258293143751 44.12664513 20.38122435 32.20585097
1841 1 1 0.00258648707375 45.59753330 22.92887739 32.20585097
1842 1 1 0.00253468733347 47.06842147 25.47653044 32.20585097
1843 1 1 0.00285805422074 45.59753330 28.02418348 32.20585097
1844 1 1 0.00265105730397 47.06842147 30.57183653 32.20585097
1845 1 1 0.00285795409489 45.59753330 33.11948957 32.20585097
1846 1 1 0.00253460318827 47.06842147 35.66714262 32.20585097
1847 1 1 0.00258636259459 45.59753330 38.21479566 32.20585097
1848 1 1 0.0022575487544 47.06842147 20.38122435 32.20585097
1849 1 1 0.00227601673491 48.53930964 22.92887739 32.20585097
1850 1 1 0.00227461984739 50.01019781 25.47653044 32.20585097
1851 1 1 0.00244909127666 48.53930964 28.02418348 32.20585097
1852 1 1 0.00235379888073 50.01019781 30.57183653 32.20585097
1853 1 1 0.00244904853841 48.53930964 33.11948957 32.20585097
1854 1 1 0.00227457984888 50.01019781 35.66714262 32.20585097
1855 1 1 0.00227596403116 48.53930964 38.21479566 32.20585097
1856 1 1 0.0020782713469 50.01019781 20.38122435 32.20585097
1857 1 1 0.0021335313113 51.48108598 22.92887739 32.20585097
1858 1 1 0.00726684314287 35.30131610 25.47653044 32.20585097
1859 1 1 0.00226634864096 51.48108598 28.02418348 32.20585097
1860 1 1 0.00863064150604 35.30131610 30.57183653 32.20585097
1861 1 1 0.00226631910947 51.48108598 33.11948957 32.20585097
1862 1 1 0.00726600549212 35.30131610 35.66714262 32.20585097
1863 1 1 0.00213349756568 51.48108598 38.21479566 32.20585097
1864 1 1 0.00481666866426 35.30131610 20.38122435 32.20585097
1865 1 1 0.00522115007202 36.77220427 22.92887739 32.20585097
1866 1 1 0.00523482701145 38.24309244 25.47653044 32.20585097
1867 1 1 0.00690197822396 36.77220427 28.02418348 32.20585097
1868 1 1 0.00596956639852 38.24309244 30.57183653 32.20585097
1869 1 1 0.00690169023602 36.77220427 33.11948957 32.20585097
1870 1 1 0.00523442272895 38.24309244 35.66714262 32.20585097
1871 1 1 0.0052207597571 36.77220427 38.21479566 32.20585097
1872 1 1 0.00383257270896 38.24309244 20.38122435 32.20585097
1873 1 1 -0.00513052273036 41.18486878 23.77809508 34.60780130
1874 1 1 -0.00492044399666 42.65575695 26.32574812 34.60780130
1875 1 1 -0.00592127139671 41.18486878 28.87340116 34.60780130
1876 1 1 -0.00517631623149 42.65575695 31.42105421 34.60780130
1877 1 1 -0.0057414662171 41.18486878 33.96870725 34.60780130
1878 1 1 -0.00469266147513 42.65575695 36.51636030 34.60780130
1879 1 1 -0.00476165369493 41.18486878 39.06401334 34.60780130
1880 1 1 -0.0041416170285 42.65575695 21.23044203 34.60780130
1881 1 1 -0.00411464221601 44.12664513 23.77809508 34.60780130
1882 1 1 -0.00397057089467 45.59753330 26.32574812 34.60780130
1883 1 1 -0.00454603856799 44.12664513 28.87340116 34.60780130
1884 1 1 -0.00411221437373 45.59753330 31.42105421 34.60780130
1885 1 1 -0.0044505568392 44.12664513 33.96870725 34.60780130
1886 1 1 -0.00384116806276 45.59753330 36.51636030 34.60780130
1887 1 1 -0.00390233471734 44.12664513 39.06401334 34.60780130
1888 1 1 -0.0035143144753 45.59753330 21.23044203 34.60780130
1889 1 1 -0.00350132456517 47.06842147 23.77809508 34.60780130
1890 1 1 -0.00343813320871 48.53930964 26.32574812 34.60780130
1891 1 1 -0.00375725435375 47.06842147 28.87340116 34.60780130
1892 1 1 -0.00352639956393 48.53930964 31.42105421 34.60780130
1893 1 1 -0.00370181711845 47.06842147 33.96870725 34.60780130
1894 1 1 -0.00335594432059 48.53930964 36.51636030 34.60780130
1895 1 1 -0.00337000798898 47.06842147 39.06401334 34.60780130
1896 1 1 -0.00314114874219 48.53930964 21.23044203 34.60780130
1897 1 1 -0.00317532605403 50.01019781 23.77809508 34.60780130
1898 1 1 -0.00319915069238 51.48108598 26.32574812 34.60780130
1899 1 1 -0.00335182356039 50.01019781 28.87340116 34.60780130
1900 1 1 -0.00326627254113 51.48108598 31.42105421 34.60780130
1901 1 1 -0.00331418536292 50.01019781 33.96870725 34.60780130
1902 1 1 -0.00313597554034 51.48108598 36.51636030 34.60780130
1903 1 1 -0.00308212577225 50.01019781 39.06401334 34.60780130
1904 1 1 -0.00296758096631 51.48108598 21.23044203 34.60780130
1905 1 1 -0.00902874322414 35.30131610 23.77809508 34.60780130
1906 1 1 -0.00904408088441 36.77220427 26.32574812 34.60780130
1907 1 1 -0.0120666490635 35.30131610 28.87340116 34.60780130
1908 1 1 -0.0100608278279 36.77220427 31.42105421 34.60780130
1909 1 1 -0.0113094216016 35.30131610 33.96870725 34.60780130
1910 1 1 -0.00821470917863 36.77220427 36.51636030 34.60780130
1911 1 1 -0.00784280299424 35.30131610 39.06401334 34.60780130
1912 1 1 -0.00645836965647 36.77220427 21.23044203 34.60780130
1913 1 1 -0.00671197929666 38.24309244 23.77809508 34.60780130
1914 1 1 -0.00650176032558 39.71398061 26.32574812 34.60780130
1915 1 1 -0.00823787075594 38.24309244 28.87340116 34.60780130
1916 1 1 -0.00699770105798 39.71398061 31.42105421 34.60780130
1917 1 1 -0.00787723937477 38.24309244 33.96870725 34.60780130
1918 1 1 -0.00607568116793 39.71398061 36.51636030 34.60780130
1919 1 1 -0.00605128581699 38.24309244 39.06401334 34.60780130
1920 1 1 -0.0051002231727 39.71398061 21.23044203 34.60780130
1921 1 1 0.00664732711573 35.30131610 40.76244870 25.00000000
1922 1 1 0.00489710029608 36.77220427 43.31010174 25.00000000
1923 1 1 0.00435117792742 35.30131610 45.85775479 25.00000000
1924 1 1 0.00347130866391 36.77220427 48.40540783 25.00000000
1925 1 1 0.00314323476766 35.30131610 50.95306088 25.00000000
1926 1 1 0.00273303774133 36.77220427 53.50071392 25.00000000
1927 1 1 0.00258555081017 35.30131610 56.04836697 25.00000000
1928 1 1 0.00242398750814 36.77220427 58.59602001 25.00000000
1929 1 1 0.00532129006317 38.24309244 40.76244870 25.00000000
1930 1 1 0.00412185528771 39.71398061 43.31010174 25.00000000
1931 1 1 0.00381750390657 38.24309244 45.85775479 25.00000000
1932 1 1 0.00314620780167 39.71398061 48.40540783 25.00000000
1933 1 1 0.00292726285538 38.24309244 50.95306088 25.00000000
1934 1 1 0.00258876952167 39.71398061 53.50071392 25.00000000
1935 1 1 0.00248373353063 38.24309244 56.04836697 25.00000000
1936 1 1 0.00234210698647 39.71398061 58.59602001 25.00000000
1937 1 1 0.00431605723777 41.18486878 40.76244870 25.00000000
1938 1 1 0.00352689485259 42.65575695 43.31010174 25.00000000
1939 1 1 0.00335841449054 41.18486878 45.85775479 25.00000000
1940 1 1 0.00286909932948 42.65575695 48.40540783 25.00000000
1941 1 1 0.00272348204677 41.18486878 50.95306088 25.00000000
1942 1 1 0.00245659677425 42.65575695 53.50071392 25.00000000
1943 1 1 0.00238201403598 41.18486878 56.04836697 25.00000000
1944 1 1 0.00226397643173 42.65575695 58.59602001 25.00000000
1945 1 1 0.00362027223189 44.12664513 40.76244870 25.00000000
1946 1 1 0.00311096365991 45.59753330 43.31010174 25.00000000
1947 1 1 0.00300463014462 44.12664513 45.85775479 25.00000000
1948 1 1 0.00265748692363 45.59753330 48.40540783 25.00000000
1949 1 1 0.00255274117481 44.12664513 50.95306088 25.00000000
1950 1 1 0.00234927792614 45.59753330 53.50071392 25.00000000
1951 1 1 0.00229215012884 44.12664513 56.04836697 25.00000000
1952 1 1 0.00219818090086 45.59753330 58.59602001 25.00000000
1953 1 1 0.00317685509261 47.06842147 40.76244870 25.00000000
1954 1 1 0.00285130606156 48.53930964 43.31010174 25.00000000
1955 1 1 0.00275942772698 47.06842147 45.85775479 25.00000000
1956 1 1 0.00251666851087 48.53930964 48.40540783 25.00000000
1957 1 1 0.00242639147903 47.06842147 50.95306088 25.00000000
1958 1 1 0.00227451953963 48.53930964 53.50071392 25.00000000
1959 1 1 0.00222268124261 47.06842147 56.04836697 25.00000000
1960 1 1 0.00215101230097 48.53930964 58.59602001 25.00000000
1961 1 1 0.00293244635532 50.01019781 40.76244870 25.00000000
1962 1 1 0.00272704911984 51.48108598 43.31010174 25.00000000
1963 1 1 0.0026165406071 50.01019781 45.85775479 25.00000000
1964 1 1 0.00244672761675 51.48108598 48.40540783 25.00000000
1965 1 1 0.00234948234409 50.01019781 50.95306088 25.00000000
1966 1 1 0.00223632840544 51.48108598 53.50071392 25.00000000
1967 1 1 0.00217905970317 50.01019781 56.04836697 25.00000000
1968 1 1 0.0021264696623 51.48108598 58.59602001 25.00000000
1969 1 1 -0.00379571143223 36.77220427 41.61166638 27.40195032
1970 1 1 -0.00287531615018 38.24309244 44.15931943 27.40195032
1971 1 1 -0.0026048991838 36.77220427 46.70697247 27.40195032
1972 1 1 -0.00212838580502 38.24309244 49.25462551 27.40195032
1973 1 1 -0.00196000664151 36.77220427 51.80227856 27.40195032
1974 1 1 -0.00173312916282 38.24309244 54.34993160 27.40195032
1975 1 1 -0.00166233699235 36.77220427 56.89758465 27.40195032
1976 1 1 -0.00157712084629 38.24309244 59.44523769 27.40195032
1977 1 1 -0.00308329271813 39.71398061 41.61166638 27.40195032
1978 1 1 -0.00245896298335 41.18486878 44.15931943 27.40195032
1979 1 1 -0.00230443230643 39.71398061 46.70697247 27.40195032
1980 1 1 -0.00194454242023 41.18486878 49.25462551 27.40195032
1981 1 1 -0.00183147457442 39.71398061 51.80227856 27.40195032
1982 1 1 -0.0016473990676 41.18486878 54.34993160 27.40195032
1983 1 1 -0.00159779164297 39.71398061 56.89758465 27.40195032
1984 1 1 -0.00152415006763 41.18486878 59.44523769 27.40195032
1985 1 1 -0.00256149707655 42.65575695 41.61166638 27.40195032
1986 1 1 -0.00214861376434 44.12664513 44.15931943 27.40195032
1987 1 1 -0.00205607680505 42.65575695 46.70697247 27.40195032
1988 1 1 -0.00179449252724 44.12664513 49.25462551 27.40195032
1989 1 1 -0.00171633826619 42.65575695 51.80227856 27.40195032
1990 1 1 -0.00157287827491 44.12664513 54.34993160 27.40195032
1991 1 1 -0.00153685970597 42.65575695 56.89758465 27.40195032
1992 1 1 -0.00147646755531 44.12664513 59.44523769 27.40195032
1993 1 1 -0.00220835272487 45.59753330 41.61166638 27.40195032
1994 1 1 -0.00193916710401 47.06842147 44.15931943 27.40195032
1995 1 1 -0.00187161057919 45.59753330 46.70697247 27.40195032
1996 1 1 -0.00168589242798 47.06842147 49.25462551 27.40195032
1997 1 1 -0.00162470405398 45.59753330 51.80227856 27.40195032
1998 1 1 -0.00151602934939 47.06842147 54.34993160 27.40195032
1999 1 1 -0.00148603731489 45.59753330 56.89758465 27.40195032
2000 1 1 -0.00143902240473 47.06842147 59.44523769 27.40195032
2001 1 1 -0.00199287764477 48.53930964 41.61166638 27.40195032
2002 1 1 -0.00181956219808 50.01019781 44.15931943 27.40195032
2003 1 1 -0.00175157093946 48.53930964 46.70697247 27.40195032
2004 1 1 -0.00162079356703 50.01019781 49.25462551 27.40195032
2005 1 1 -0.00156182086077 48.53930964 51.80227856 27.40195032
2006 1 1 -0.00148066081611 50.01019781 54.34993160 27.40195032
2007 1 1 -0.00144987731484 48.53930964 56.89758465 27.40195032
2008 1 1 -0.00141524519893 50.01019781 59.44523769 27.40195032
2009 1 1 -0.00189140209755 51.48108598 41.61166638 27.40195032
2010 1 1 -0.00337960876536 35.30131610 44.15931943 27.40195032
2011 1 1 -0.00169279213064 51.48108598 46.70697247 27.40195032
2012 1 1 -0.00232846802324 35.30131610 49.25462551 27.40195032
2013 1 1 -0.00152998235364 51.48108598 51.80227856 27.40195032
2014 1 1 -0.00182043222177 35.30131610 54.34993160 27.40195032
2015 1 1 -0.00143115390982 51.48108598 56.89758465 27.40195032
2016 1 1 -0.00162911195045 35.30131610 59.44523769 27.40195032
2017 1 1 -0.000104521384893 38.24309244 42.46088406 29.80390065
2018 1 1 -8.14779590386e-05 39.71398061 45.00853711 29.80390065
2019 1 1 -7.50843587754e-05 38.24309244 47.55619015 29.80390065
2020 1 1 -6.29844475913e-05 39.71398061 50.10384320 29.80390065
2021 1 1 -5.89324089588e-05 38.24309244 52.65149624 29.80390065
2022 1 1 -5.30514966957e-05 39.71398061 55.19914928 29.80390065
2023 1 1 -5.15338105234e-05 38.24309244 57.74680233 29.80390065
2024 1 1 -4.9467942251e-05 39.71398061 60.29445537 29.80390065
2025 1 1 -8.64280126542e-05 41.18486878 42.46088406 29.80390065
2026 1 1 -7.10465394026e-05 42.65575695 45.00853711 29.80390065
2027 1 1 -6.72414636447e-05 41.18486878 47.55619015 29.80390065
2028 1 1 -5.8147772407e-05 42.65575695 50.10384320 29.80390065
2029 1 1 -5.53730756651e-05 41.18486878 52.65149624 29.80390065
2030 1 1 -5.06717398335e-05 42.65575695 55.19914928 29.80390065
2031 1 1 -4.96180908896e-05 41.18486878 57.74680233 29.80390065
2032 1 1 -4.78569831851e-05 42.65575695 60.29445537 29.80390065
2033 1 1 -7.37430938248e-05 44.12664513 42.46088406 29.80390065
2034 1 1 -6.3525432531e-05 45.59753330 45.00853711 29.80390065
2035 1 1 -6.09935124233e-05 44.12664513 47.55619015 29.80390065
2036 1 1 -5.43765226503e-05 45.59753330 50.10384320 29.80390065
2037 1 1 -5.23423154257e-05 44.12664513 52.65149624 29.80390065
2038 1 1 -4.87162059529e-05 45.59753330 55.19914928 29.80390065
2039 1 1 -4.79081344428e-05 44.12664513 57.74680233 29.80390065
2040 1 1 -4.64946063129e-05 45.59753330 60.29445537 29.80390065
2041 1 1 -6.54530861684e-05 47.06842147 42.46088406 29.80390065
2042 1 1 -5.87077556739e-05 48.53930964 45.00853711 29.80390065
2043 1 1 -5.65546754249e-05 47.06842147 47.55619015 29.80390065
2044 1 1 -5.18367977732e-05 48.53930964 50.10384320 29.80390065
2045 1 1 -5.0072507566e-05 47.06842147 52.65149624 29.80390065
2046 1 1 -4.73396026898e-05 48.53930964 55.19914928 29.80390065
2047 1 1 -4.6574219511e-05 47.06842147 57.74680233 29.80390065
2048 1 1 -4.55151386526e-05 48.53930964 60.29445537 29.80390065
2049 1 1 -6.07729375026e-05 50.01019781 42.46088406 29.80390065
2050 1 1 -5.6377946084e-05 51.48108598 45.00853711 29.80390065
2051 1 1 -5.39379773767e-05 50.01019781 47.55619015 29.80390065
2052 1 1 -5.05676278233e-05 51.48108598 50.10384320 29.80390065
2053 1 1 -4.86781587076e-05 50.01019781 52.65149624 29.80390065
2054 1 1 -4.66310357661e-05 51.48108598 55.19914928 29.80390065
2055 1 1 -4.57310716058e-05 50.01019781 57.74680233 29.80390065
2056 1 1 -4.50047716424e-05 51.48108598 60.29445537 29.80390065
2057 1 1 -0.00012780049774 35.30131610 42.46088406 29.80390065
2058 1 1 -9.47685476161e-05 36.77220427 45.00853711 29.80390065
2059 1 1 -8.39302245353e-05 35.30131610 47.55619015 29.80390065
2060 1 1 -6.84955873774e-05 36.77220427 50.10384320 29.80390065
2061 1 1 -6.26246450394e-05 35.30131610 52.65149624 29.80390065
2062 1 1 -5.56152842407e-05 36.77220427 55.19914928 29.80390065
2063 1 1 -5.34317011249e-05 35.30131610 57.74680233 29.80390065
2064 1 1 -5.11477726947e-05 36.77220427 60.29445537 29.80390065
2065 1 1 0.00295115526009 39.71398061 43.31010174 32.20585097
2066 1 1 0.0023924980412 41.18486878 45.85775479 32.20585097
2067 1 1 0.0022375336689 39.71398061 48.40540783 32.20585097
2068 1 1 0.00192843479442 41.18486878 50.95306088 32.20585097
2069 1 1 0.00183034138121 39.71398061 53.50071392 32.20585097
2070 1 1 0.00168022334438 41.18486878 56.04836697 32.20585097
2071 1 1 0.00165121094047 39.71398061 58.59602001 32.20585097
2072 1 1 0.00309251788541 41.18486878 40.76244870 32.20585097
2073 1 1 0.00251515057615 42.65575695 43.31010174 32.20585097
2074 1 1 0.00213300011954 44.12664513 45.85775479 32.20585097
2075 1 1 0.00203446392868 42.65575695 48.40540783 32.20585097
2076 1 1 0.00180399542592 44.12664513 50.95306088 32.20585097
2077 1 1 0.00173431968503 42.65575695 53.50071392 32.20585097
2078 1 1 0.00161518880845 44.12664513 56.04836697 32.20585097
2079 1 1 0.00159476384859 42.65575695 58.59602001 32.20585097
2080 1 1 0.00258277600938 44.12664513 40.76244870 32.20585097
2081 1 1 0.00221005435839 45.59753330 43.31010174 32.20585097
2082 1 1 0.0019535168516 47.06842147 45.85775479 32.20585097
2083 1 1 0.00187983015388 45.59753330 48.40540783 32.20585097
2084 1 1 0.00171215084574 47.06842147 50.95306088 32.20585097
2085 1 1 0.00165648314764 45.59753330 53.50071392 32.20585097
2086 1 1 0.00156494246408 47.06842147 56.04836697 32.20585097
2087 1 1 0.00154725391241 45.59753330 58.59602001 32.20585097
2088 1 1 0.00225747066851 47.06842147 40.76244870 32.20585097
2089 1 1 0.00201979601839 48.53930964 43.31010174 32.20585097
2090 1 1 0.00184928489901 50.01019781 45.85775479 32.20585097
2091 1 1 0.00177726577846 48.53930964 48.40540783 32.20585097
2092 1 1 0.00165632089634 50.01019781 50.95306088 32.20585097
2093 1 1 0.00160230702929 48.53930964 53.50071392 32.20585097
2094 1 1 0.00153340324928 50.01019781 56.04836697 32.20585097
2095 1 1 0.001513213347 48.53930964 58.59602001 32.20585097
2096 1 1 0.002078224041 50.01019781 40.76244870 32.20585097
2097 1 1 0.00192903133146 51.48108598 43.31010174 32.20585097
2098 1 1 0.00312029073 35.30131610 45.85775479 32.20585097
2099 1 1 0.00172642625869 51.48108598 48.40540783 32.20585097
2100 1 1 0.00223550335001 35.30131610 50.95306088 32.20585097
2101 1 1 0.00157463674173 51.48108598 53.50071392 32.20585097
2102 1 1 0.00182772481363 35.30131610 56.04836697 32.20585097
2103 1 1 0.00149550960888 51.48108598 58.59602001 32.20585097
2104 1 1 0.00481634267382 35.30131610 40.76244870 32.20585097
2105 1 1 0.00352055214265 36.77220427 43.31010174 32.20585097
2106 1 1 0.00272911159684 38.24309244 45.85775479 32.20585097
2107 1 1 0.00247592654201 36.77220427 48.40540783 32.20585097
2108 1 1 0.00207738394521 38.24309244 50.95306088 32.20585097
2109 1 1 0.00193537127073 36.77220427 53.50071392 32.20585097
2110 1 1 0.00175389947654 38.24309244 56.04836697 32.20585097
2111 1 1 0.00171039590301 36.77220427 58.59602001 32.20585097
2112 1 1 0.00383225486415 38.24309244 40.76244870 32.20585097
2113 1 1 -0.00370459687512 41.18486878 44.15931943 34.60780130
2114 1 1 -0.00311074168185 42.65575695 46.70697247 34.60780130
2115 1 1 -0.00294588362884 41.18486878 49.25462551 34.60780130
2116 1 1 -0.00260863754874 42.65575695 51.80227856 34.60780130
2117 1 1 -0.00250636713954 41.18486878 54.34993160 34.60780130
2118 1 1 -0.00234213075542 42.65575695 56.89758465 34.60780130
2119 1 1 -0.002323331774 41.18486878 59.44523769 34.60780130
2120 1 1 -0.00385667585825 42.65575695 41.61166638 34.60780130
2121 1 1 -0.0032478346263 44.12664513 44.15931943 34.60780130
2122 1 1 -0.00283917956406 45.59753330 46.70697247 34.60780130
2123 1 1 -0.00272461849062 44.12664513 49.25462551 34.60780130
2124 1 1 -0.0024728373278 45.59753330 51.80227856 34.60780130
2125 1 1 -0.00239567503982 44.12664513 54.34993160 34.60780130
2126 1 1 -0.00226645826419 45.59753330 56.89758465 34.60780130
2127 1 1 -0.00225225259139 44.12664513 59.44523769 34.60780130
2128 1 1 -0.00333675118835 45.59753330 41.61166638 34.60780130
2129 1 1 -0.00293975373845 47.06842147 44.15931943 34.60780130
2130 1 1 -0.00266197099788 48.53930964 46.70697247 34.60780130
2131 1 1 -0.00256402361002 47.06842147 49.25462551 34.60780130
2132 1 1 -0.00237951761264 48.53930964 51.80227856 34.60780130
2133 1 1 -0.00231116993162 47.06842147 54.34993160 34.60780130
2134 1 1 -0.00221259920542 48.53930964 56.89758465 34.60780130
2135 1 1 -0.00219640564 47.06842147 59.44523769 34.60780130
2136 1 1 -0.0030199861899 48.53930964 41.61166638 34.60780130
2137 1 1 -0.00276340758536 50.01019781 44.15931943 34.60780130
2138 1 1 -0.0025749678795 51.48108598 46.70697247 34.60780130
2139 1 1 -0.00246755351528 50.01019781 49.25462551 34.60780130
2140 1 1 -0.00233225176351 51.48108598 51.80227856 34.60780130
2141 1 1 -0.00225858384578 50.01019781 54.34993160 34.60780130
2142 1 1 -0.00218470367744 51.48108598 56.89758465 34.60780130
2143 1 1 -0.00216092547796 50.01019781 59.44523769 34.60780130
2144 1 1 -0.00287054752131 51.48108598 41.61166638 34.60780130
2145 1 1 -0.00505951187822 35.30131610 44.15931943 34.60780130
2146 1 1 -0.00391885254234 36.77220427 46.70697247 34.60780130
2147 1 1 -0.00351126208133 35.30131610 49.25462551 34.60780130
2148 1 1 -0.00296854410156 36.77220427 51.80227856 34.60780130
2149 1 1 -0.00276284856086 35.30131610 54.34993160 34.60780130
2150 1 1 -0.00252882474957 36.77220427 56.89758465 34.60780130
2151 1 1 -0.00247970617792 35.30131610 59.44523769 34.60780130
2152 1 1 -0.00566927959603 36.77220427 41.61166638 34.60780130
2153 1 1 -0.00431817198471 38.24309244 44.15931943 34.60780130
2154 1 1 -0.00347613216728 39.71398061 46.70697247 34.60780130
2155 1 1 -0.00321652546476 38.24309244 49.25462551 34.60780130
2156 1 1 -0.00277888019266 39.71398061 51.80227856 34.60780130
2157 1 1 -0.00263353902702 38.24309244 54.34993160 34.60780130
2158 1 1 -0.00243281721803 39.71398061 56.89758465 34.60780130
2159 1 1 -0.002402261479 38.24309244 59.44523769 34.60780130
2160 1 1 -0.00462557631287 39.71398061 41.61166638 34.60780130
2161 2 2 1 26.47598707 30.57183653 46.60780130
2162 3 2 -1 26.47598707 30.57183653 13.00000000
