ITEM: TIMESTEP
0
ITEM: NUMBER OF ATOMS
324
ITEM: BOX BOUNDS pp pp ff
0.0000000000000000e+00 1.7650658050000001e+01
0.0000000000000000e+00 2.0381224350000000e+01
0.0000000000000000e+00 6.0000000000000000e+01
ITEM: ATOMS id mol type q x y z
1 1 2 0 8.24512 15.5811 22.6078
2 1 3 0.589682 8.99931 15.9949 23.0275
3 1 3 0.474616 7.50381 16.1396 22.8419
4 1 4 -1.0643 8.24677 15.7056 22.6915
5 2 2 0 15.9474 18.3987 22.6904
6 2 3 0.553315 16.7177 18.4609 22.1255
7 2 3 0.482506 15.5517 17.5568 22.4646
8 2 4 -1.03582 15.9953 18.2989 22.5891
9 3 2 0 17.4336 10.1601 22.7313
10 3 3 0.462884 17.0473 9.37133 22.3508
11 3 3 0.52652 0.666335 9.89505 22.9876
12 3 4 -0.989403 17.4973 10.0252 22.7154
13 4 2 0 1.34938 4.55603 22.8066
14 4 3 0.448238 2.25303 4.29537 22.6286
15 4 3 0.515196 1.36125 4.85803 23.7149
16 4 4 -0.963433 1.46658 4.56132 22.9001
17 5 2 0 13.7945 8.69815 22.9189
18 5 3 0.547246 13.7682 9.65499 22.9198
19 5 3 0.542423 14.3148 8.47168 23.6898
20 5 4 -1.08967 13.8578 8.79165 23.0177
21 6 2 0 2.45384 11.1318 23.0093
22 6 3 0.483572 3.34523 10.8882 23.2589
23 6 3 0.489097 2.56798 11.7872 22.3211
24 6 4 -0.972669 2.58256 11.1845 22.9532
25 7 2 0 5.78675 16.9269 23.0964
26 7 3 0.486822 5.28323 16.4758 23.774
27 7 3 0.45161 5.17678 17.0172 22.3643
28 7 4 -0.938432 5.64421 16.8807 23.0894
29 8 2 0 9.01 19.5718 23.1809
30 8 3 0.565373 8.78239 19.2523 24.054
31 8 3 0.448316 8.18499 19.553 22.6959
32 8 4 -1.01369 8.87525 19.5285 23.2306
33 9 2 0 8.83043 2.85816 23.1944
34 9 3 0.551743 9.21769 2.02206 23.4536
35 9 3 0.546094 9.56649 3.46996 23.1819
36 9 4 -1.09784 8.97423 2.82945 23.2259
37 10 2 0 6.02784 0.121735 23.207
38 10 3 0.474457 5.47822 0.331622 22.452
39 10 3 0.590613 5.79198 19.6032 23.4328
40 10 4 -1.06507 5.92729 0.03342 23.1393
41 11 2 0 4.18398 8.35953 23.2649
42 11 3 0.599104 5.05229 7.96143 23.3264
43 11 3 0.503377 3.81528 8.0072 22.4549
44 11 4 -1.10248 4.24793 8.26346 23.1691
45 12 2 0 0.455538 19.5148 23.3731
46 12 3 0.491549 0.121261 20.358 23.6789
47 12 3 0.53675 0.154066 18.8853 24.0281
48 12 4 -1.0283 0.374155 19.5422 23.4961
49 13 2 0 15.0973 11.5452 23.4974
50 13 3 0.590146 15.2885 12.4294 23.8101
51 13 3 0.58032 15.9118 11.2543 23.0872
52 13 4 -1.17047 15.2261 11.6211 23.4849
53 14 2 0 10.7461 16.7668 23.5645
54 14 3 0.55665 10.7994 17.511 24.1641
55 14 3 0.526798 11.0965 16.0299 24.0649
56 14 4 -1.08345 10.7978 16.7678 23.7053
57 15 2 0 10.921 4.4994 23.5767
58 15 3 0.628129 10.7333 5.43784 23.5955
59 15 3 0.535542 11.4399 4.37429 22.7822
60 15 4 -1.16367 10.9634 4.60351 23.4774
61 16 2 0 11.2076 7.43499 23.639
62 16 3 0.592361 12.0804 7.79234 23.4753
63 16 3 0.577158 10.72 8.16114 24.0278
64 16 4 -1.16952 11.2569 7.57369 23.6678
65 17 2 0 2.77487 2.13963 23.8056
66 17 3 0.50043 1.87563 2.20241 24.1275
67 17 3 0.537615 3.06143 1.26345 24.0633
68 17 4 -1.03804 2.69644 2.0355 23.8798
69 18 2 0 6.66557 7.03158 23.8598
70 18 3 0.650098 7.1212 7.12855 24.696
71 18 3 0.525671 7.35394 7.11666 23.2001
72 18 4 -1.17577 6.81202 7.05488 23.8824
73 19 2 0 13.6469 1.83258 24.1953
74 19 3 0.53983 12.8577 1.41329 24.5381
75 19 3 0.505301 13.9692 2.36706 24.921
76 19 4 -1.04513 13.5871 1.84732 24.3321
77 20 2 0 5.00715 4.70371 24.2236
78 20 3 0.598205 5.69863 5.36155 24.1506
79 20 3 0.506619 4.7139 4.56278 23.3234
80 20 4 -1.10482 5.05813 4.76988 24.099
81 21 2 0 15.0774 5.32895 24.2771
82 21 3 0.531071 15.7355 6.01264 24.4026
83 21 3 0.513288 14.9344 5.30425 23.331
84 21 4 -1.04436 15.1433 5.41331 24.172
85 22 2 0 1.93369 15.4749 24.3177
86 22 3 0.556968 2.65042 14.8675 24.5009
87 22 3 0.48431 2.23596 15.9827 23.5647
88 22 4 -1.04128 2.06413 15.4622 24.2447
89 23 2 0 9.6367 9.69834 24.3185
90 23 3 0.550838 8.68004 9.72352 24.2988
91 23 3 0.539602 9.90755 10.4084 23.7365
92 23 4 -1.09044 9.54891 9.79246 24.2415
93 24 2 0 4.31715 14.0659 24.39
94 24 3 0.545598 4.78989 13.851 23.5859
95 24 3 0.588341 4.04767 13.2182 24.7438
96 24 4 -1.13394 4.34317 13.9299 24.3324
97 25 2 0 8.26061 12.8318 24.4457
98 25 3 0.645825 9.17833 13.1021 24.4768
99 25 3 0.616214 7.78735 13.5382 24.8853
100 25 4 -1.26204 8.31751 12.9568 24.5059
101 26 2 0 3.49509 18.9521 24.4756
102 26 3 0.451701 2.58902 18.6657 24.3604
103 26 3 0.605587 3.69139 18.7642 25.3934
104 26 4 -1.05729 3.40423 18.8914 24.5783
105 27 2 0 6.70189 10.4889 24.5724
106 27 3 0.488999 6.4601 10.3188 23.662
107 27 3 0.694116 7.31297 11.2241 24.525
108 27 4 -1.18312 6.74916 10.5612 24.4498
109 28 2 0 15.2988 14.0888 24.76
110 28 3 0.688057 14.6094 14.7458 24.8572
111 28 3 0.461759 16.086 14.5151 25.0989
112 28 4 -1.14982 15.3113 14.2275 24.8158
113 29 2 0 10.7718 14.1551 24.806
114 29 3 0.565138 10.5783 14.6285 25.6151
115 29 3 0.580066 11.4787 13.5546 25.0425
116 29 4 -1.1452 10.8376 14.1388 24.9398
117 30 2 0 16.9127 2.62313 24.9699
118 30 3 0.524547 16.9991 3.50638 25.3285
119 30 3 0.471901 16.3092 2.72118 24.2334
120 30 4 -0.996448 16.8465 2.74875 24.9215
121 31 2 0 6.30171 2.2317 24.986
122 31 3 0.56564 5.83234 3.00106 24.6635
123 31 3 0.659125 6.3327 1.63768 24.2361
124 31 4 -1.22477 6.24559 2.25415 24.8487
125 32 2 0 11.0113 1.83247 25.2033
126 32 3 0.588008 10.72 2.0168 26.0962
127 32 3 0.516719 11.1065 2.6949 24.799
128 32 4 -1.10473 10.9862 1.96647 25.2658
129 33 2 0 13.3281 15.9054 25.2163
130 33 3 0.580806 13.8555 16.6134 25.5864
131 33 3 0.557895 12.9724 15.4477 25.978
132 33 4 -1.1387 13.3501 15.9375 25.3612
133 34 2 0 12.5202 12.012 25.2517
134 34 3 0.581409 13.1685 11.765 24.5922
135 34 3 0.565056 12.465 11.2516 25.8305
136 34 4 -1.14647 12.5961 11.8831 25.2414
137 35 2 0 16.4084 19.4574 25.2643
138 35 3 0.553454 16.4595 0.0160556 25.0903
139 35 3 0.611201 16.0168 19.0878 24.4729
140 35 4 -1.16465 16.3648 19.5304 25.1407
141 36 2 0 8.47518 18.0613 25.4228
142 36 3 0.534813 9.37482 18.03 25.7482
143 36 3 0.613529 8.14607 17.1703 25.5409
144 36 4 -1.14834 8.54821 17.9432 25.4795
145 37 2 0 15.1933 8.74581 25.5353
146 37 3 0.598994 15.441 8.06498 26.1609
147 37 3 0.540738 15.7833 9.47464 25.7277
148 37 4 -1.13973 15.3006 8.75196 25.64
149 38 2 0 0.849383 5.70515 25.5358
150 38 3 0.523384 1.03248 6.5923 25.8451
151 38 3 0.573878 1.58163 5.1816 25.8613
152 38 4 -1.09726 0.966558 5.7517 25.6171
153 39 2 0 11.2248 18.6822 25.5988
154 39 3 0.553771 11.2233 19.6021 25.3342
155 39 3 0.570076 12.0392 18.5752 26.0902
156 39 4 -1.12385 11.3289 18.7863 25.6279
157 40 2 0 0.411834 11.5579 25.6059
158 40 3 0.543978 0.646138 10.6415 25.7526
159 40 3 0.49672 1.16805 11.9291 25.1514
160 40 4 -1.0407 0.538633 11.4881 25.5665
161 41 2 0 8.12633 4.17882 25.8171
162 41 3 0.495227 8.77925 3.69358 26.3215
163 41 3 0.683994 7.91021 3.60076 25.0854
164 41 4 -1.17922 8.18225 4.0427 25.788
165 42 2 0 7.56909 15.3645 25.8381
166 42 3 0.597158 8.22538 15.1392 26.4975
167 42 3 0.55662 6.7305 15.2491 26.285
168 42 4 -1.15378 7.54575 15.3209 25.9797
169 43 2 0 0.993709 8.71986 25.8512
170 43 3 0.440321 0.751348 8.66391 24.9269
171 43 3 0.691964 1.94997 8.7619 25.8464
172 43 4 -1.13229 1.0851 8.71808 25.7322
173 44 2 0 12.8093 5.16015 25.9068
174 44 3 0.538514 12.1585 4.87924 25.2635
175 44 3 0.630363 13.6088 5.29227 25.3974
176 44 4 -1.16888 12.8283 5.14111 25.7593
177 45 2 0 8.66085 7.03337 26.0497
178 45 3 0.625786 8.59535 6.07872 26.0738
179 45 3 0.652172 9.58679 7.21455 26.2111
180 45 4 -1.27796 8.771 6.93436 26.0734
181 46 2 0 3.89554 11.6023 26.0632
182 46 3 0.497166 4.36256 11.8708 26.8544
183 46 3 0.6168 4.10647 10.674 25.9633
184 46 4 -1.11397 3.98232 11.5179 26.1517
185 47 2 0 3.62979 8.71462 26.079
186 47 3 0.692409 4.19972 8.1061 26.5492
187 47 3 0.573695 3.81499 8.551 25.1542
188 47 4 -1.2661 3.72645 8.61578 26.0208
189 48 2 0 3.21465 4.26028 26.4933
190 48 3 0.506665 3.37191 4.89379 27.1934
191 48 3 0.572699 3.82221 4.51448 25.7987
192 48 4 -1.07936 3.31256 4.37391 26.494
193 49 2 0 14.1833 18.3928 26.573
194 49 3 0.538149 14.0528 18.7079 27.4674
195 49 3 0.641834 14.9661 18.852 26.2687
196 49 4 -1.17998 14.2668 18.4919 26.6486
197 50 2 0 6.69367 8.81958 26.694
198 50 3 0.60846 6.66206 9.56284 26.0916
199 50 3 0.595641 7.4921 8.34957 26.4535
200 50 4 -1.2041 6.79183 8.85456 26.5861
201 51 2 0 9.63566 11.0181 26.7854
202 51 3 0.546671 9.80181 10.8072 25.8667
203 51 3 0.513749 8.84713 11.5605 26.7683
204 51 4 -1.06042 9.55599 11.0606 26.6656
205 52 2 0 2.56207 1.3178 26.8614
206 52 3 0.546238 2.86473 2.03251 26.3012
207 52 3 0.64078 3.10343 1.38371 27.648
208 52 4 -1.18702 2.67012 1.41773 26.8904
209 53 2 0 1.35573 16.7658 26.9744
210 53 3 0.439529 0.761873 16.1909 27.4572
211 53 3 0.529432 1.52887 16.2996 26.1565
212 53 4 -0.968961 1.30187 16.6325 26.9315
213 54 2 0 15.2029 12.0084 26.9958
214 54 3 0.501023 16.0244 11.6363 26.6749
215 54 3 0.563173 15.0191 12.7342 26.3993
216 54 4 -1.0642 15.2846 12.0537 26.8783
217 55 2 0 14.2005 2.9421 26.9987
218 55 3 0.552882 13.9477 3.86531 27.0028
219 55 3 0.479857 14.8959 2.88072 27.6536
220 55 4 -1.03274 14.2572 3.05242 27.083
221 56 2 0 11.2498 7.42906 27.0286
222 56 3 0.582617 11.6552 6.82977 26.4019
223 56 3 0.601601 10.9878 6.87013 27.7602
224 56 4 -1.18422 11.2681 7.2808 27.0421
225 57 2 0 4.12557 17.8566 27.0474
226 57 3 0.580274 4.62033 17.0373 27.0354
227 57 3 0.509915 3.20873 17.5839 27.0121
228 57 4 -1.09019 4.07154 17.7168 27.0414
229 58 2 0 13.0276 9.70643 27.0728
230 58 3 0.613195 12.4523 8.95603 26.9238
231 58 3 0.565987 13.8432 9.47563 26.6282
232 58 4 -1.17918 13.0583 9.58083 26.9968
233 59 2 0 5.09464 15.28 27.1594
234 59 3 0.517399 4.68903 14.9903 26.3422
235 59 3 0.613147 5.01627 14.5278 27.7461
236 59 4 -1.13055 5.03268 15.1466 27.1299
237 60 2 0 6.66158 0.627939 27.1878
238 60 3 0.643052 6.64215 1.2715 26.4795
239 60 3 0.575762 6.86267 20.1802 26.7534
240 60 4 -1.21881 6.68483 0.60421 27.0415
241 61 2 0 9.88209 14.9365 27.2976
242 61 3 0.489603 9.67707 14.1418 27.7902
243 61 3 0.669324 10.3756 15.4793 27.9124
244 61 4 -1.15893 9.91902 14.9042 27.4393
245 62 2 0 7.39682 12.8253 27.5178
246 62 3 0.574562 6.44357 12.8815 27.584
247 62 3 0.448846 7.67312 12.4423 28.3504
248 62 4 -1.02341 7.31016 12.7834 27.6328
249 63 2 0 10.3271 2.90882 27.5535
250 63 3 0.68263 9.59638 2.71213 28.1396
251 63 3 0.596668 10.4709 3.84955 27.6564
252 63 4 -1.2793 10.252 3.00407 27.6417
253 64 2 0 13.0864 14.7025 27.7565
254 64 3 0.48136 13.8495 14.8337 28.3192
255 64 3 0.795649 12.8916 13.7682 27.8303
256 64 4 -1.27701 13.1591 14.5997 27.838
257 65 2 0 15.8689 6.9906 27.7592
258 65 3 0.490177 15.2977 7.08061 28.5219
259 65 3 0.512195 16.6647 7.46601 27.9978
260 65 4 -1.00237 15.8977 7.06298 27.8874
261 66 2 0 5.11344 6.80446 27.879
262 66 3 0.518764 5.75586 7.32599 27.3978
263 66 3 0.625423 5.57738 5.9971 28.1007
264 66 4 -1.14419 5.25507 6.76787 27.8458
265 67 2 0 0.211954 1.70798 27.8963
266 67 3 0.669171 1.01377 1.56701 27.3929
267 67 3 0.377509 17.3435 0.917692 27.7472
268 67 4 -1.04668 0.248149 1.58877 27.8128
269 68 2 0 12.4 12.2025 28.078
270 68 3 0.691888 13.0635 11.5883 27.7639
271 68 3 0.554825 11.6385 12.0385 27.5217
272 68 4 -1.24671 12.3874 12.1029 27.9666
273 69 2 0 12.13 1.09928 28.3372
274 69 3 0.493987 12.9972 1.38319 28.0481
275 69 3 0.572175 11.5346 1.77162 28.006
276 69 4 -1.06616 12.1648 1.22169 28.2578
277 70 2 0 4.82941 12.9409 28.4631
278 70 3 0.534039 5.04059 12.1379 28.9394
279 70 3 0.692879 3.90801 13.1041 28.6646
280 70 4 -1.22692 4.73849 12.859 28.5498
281 71 2 0 6.39772 4.46443 28.6396
282 71 3 0.620984 7.00223 3.77492 28.9142
283 71 3 0.459121 6.37639 4.39875 27.6849
284 71 4 -1.08011 6.47237 4.36776 28.5526
285 72 2 0 1.91487 13.2385 28.6604
286 72 3 0.531832 1.83367 12.4644 28.1032
287 72 3 0.528362 1.06628 13.6755 28.5891
288 72 4 -1.06019 1.79584 13.1953 28.58
289 73 2 0 9.81652 18.7515 28.7025
290 73 3 0.547144 10.301 17.9839 29.0061
291 73 3 0.538175 10.4067 19.1774 28.0808
292 73 4 -1.08532 9.9541 18.7078 28.6618
293 74 2 0 11.3866 16.466 28.8776
294 74 3 0.712502 12.1494 16.0075 28.5251
295 74 3 0.481244 11.2219 16.0444 29.721
296 74 4 -1.19375 11.4632 16.3533 28.9405
297 75 2 0 4.50753 1.14806 28.9451
298 75 3 0.579058 5.27862 1.26248 28.3896
299 75 3 0.499111 4.52804 0.224816 29.1969
300 75 4 -1.07817 4.60886 1.04452 28.9062
301 76 2 0 10.1626 5.47986 28.9569
302 76 3 0.571558 9.46083 5.86992 29.4781
303 76 3 0.501997 10.7844 5.14589 29.6034
304 76 4 -1.07355 10.1524 5.48704 29.1064
305 77 2 0 8.19493 2.24313 29.0867
306 77 3 0.673161 7.9238 1.55035 28.4844
307 77 3 0.5502 8.54769 1.77743 29.8449
308 77 4 -1.22336 8.20538 2.09483 29.1067
309 78 2 0 15.0516 19.3119 29.1214
310 78 3 0.463633 14.4723 19.2936 29.8832
311 78 3 0.495095 15.3583 20.2174 29.0749
312 78 4 -0.958727 15.0167 19.4255 29.213
313 79 2 0 2.52582 9.94933 29.3324
314 79 3 0.435689 2.51448 10.6325 30.0028
315 79 3 0.466197 3.45518 9.79256 29.1653
316 79 4 -0.901885 2.64334 10.0167 29.3968
317 80 2 0 7.65495 9.21183 29.3654
318 80 3 0.407959 8.27486 9.81541 29.7748
319 80 3 0.543626 7.81335 9.30574 28.426
320 80 4 -0.951585 7.75458 9.30112 29.2975
321 81 2 0 7.30022 17.6751 29.5017
322 81 3 0.570958 8.09222 18.0895 29.1592
323 81 3 0.380398 7.51513 16.7433 29.542
324 81 4 -0.951356 7.42912 17.6089 29.463
ITEM: TIMESTEP
1000
ITEM: NUMBER OF ATOMS
324
ITEM: BOX BOUNDS pp pp ff
0.0000000000000000e+00 1.7650658050000001e+01
0.0000000000000000e+00 2.0381224350000000e+01
0.0000000000000000e+00 6.0000000000000000e+01
ITEM: ATOMS id mol type q x y z
1 1 2 0 8.85273 15.6671 22.5573
2 1 3 0.572264 9.64362 16.1594 22.7772
3 1 3 0.470041 9.11853 14.7491 22.6117
4 1 4 -1.0423 8.988 15.6126 22.5924
5 2 2 0 14.0605 18.0405 23.4576
6 2 3 0.463998 14.4551 17.1753 23.3479
7 2 3 0.656256 13.147 17.9223 23.1973
8 2 4 -1.12025 13.9941 17.9146 23.4102
9 3 2 0 16.8787 10.0599 23.8143
10 3 3 0.55924 16.1563 10.6649 23.6459
11 3 3 0.610614 0.0129013 10.6064 23.7745
12 3 4 -1.16985 16.8867 10.2073 23.7876
13 4 2 0 1.62366 4.33972 23.0226
14 4 3 0.458763 1.45449 4.25951 22.0839
15 4 3 0.606732 1.56995 5.27943 23.1967
16 4 4 -1.06549 1.59513 4.44975 22.9247
17 5 2 0 13.8234 8.9529 23.5134
18 5 3 0.566313 14.0938 9.81499 23.1973
19 5 3 0.578701 14.3216 8.82619 24.3208
20 5 4 -1.14501 13.9218 9.04704 23.5763
21 6 2 0 2.18879 10.2025 23.6387
22 6 3 0.567169 2.79512 9.46314 23.683
23 6 3 0.461884 2.64657 10.9153 24.0843
24 6 4 -1.02905 2.32501 10.1991 23.7014
25 7 2 0 5.88089 16.0591 23.3721
26 7 3 0.567883 6.82305 16.1371 23.522
27 7 3 0.429033 5.71102 16.6201 22.6154
28 7 4 -0.996916 5.97975 16.1409 23.2944
29 8 2 0 8.85536 20.3491 22.7669
30 8 3 0.488995 9.28021 19.736 23.3667
31 8 3 0.508678 7.95516 0.0310253 23.0861
32 8 4 -0.997673 8.79451 20.2787 22.8845
33 9 2 0 8.46862 2.72878 23.6134
34 9 3 0.567851 8.83355 1.84802 23.6989
35 9 3 0.48933 8.32915 2.84044 22.673
36 9 4 -1.05718 8.49748 2.63033 23.5039
37 10 2 0 5.80316 0.492057 23.772
38 10 3 0.548394 4.99477 0.998038 23.69
39 10 3 0.551846 5.51107 19.9875 23.9873
40 10 4 -1.10024 5.66229 0.443441 23.7891
41 11 2 0 4.20374 8.08509 23.3817
42 11 3 0.533068 4.87168 8.73724 23.17
43 11 3 0.647373 4.57638 7.25486 23.0849
44 11 4 -1.18044 4.33695 8.06229 23.3166
45 12 2 0 1.97669 19.5128 22.3334
46 12 3 0.444696 2.77511 19.8511 22.7387
47 12 3 0.467233 1.6854 20.2163 21.7533
48 12 4 -0.911929 2.04161 19.6462 22.311
49 13 2 0 15.1171 11.5382 23.2654
50 13 3 0.711479 15.2288 12.3794 23.7082
51 13 3 0.647615 15.8443 11.002 23.5817
52 13 4 -1.35909 15.2245 11.5772 23.3626
53 14 2 0 11.5378 17.2866 23.5183
54 14 3 0.629755 11.1766 17.9348 24.123
55 14 3 0.560863 12.3487 16.9952 23.9351
56 14 4 -1.19062 11.5953 17.3323 23.649
57 15 2 0 11.7066 4.41044 24.1392
58 15 3 0.651266 11.3485 5.28962 24.0164
59 15 3 0.520532 12.4658 4.37703 23.5572
60 15 4 -1.1718 11.7579 4.51871 24.049
61 16 2 0 11.4599 7.20239 23.9138
62 16 3 0.693444 12.2353 7.75438 23.8125
63 16 3 0.66107 10.7289 7.76675 23.6618
64 16 4 -1.35451 11.4655 7.34529 23.8686
65 17 2 0 3.72701 2.57942 23.7226
66 17 3 0.661018 3.14021 3.13959 23.2145
67 17 3 0.567171 3.36418 2.5925 24.6083
68 17 4 -1.22819 3.60545 2.65281 23.7709
69 18 2 0 7.00966 7.13581 23.2019
70 18 3 0.59649 7.32442 6.8876 24.0712
71 18 3 0.579314 7.7125 7.6732 22.8366
72 18 4 -1.1758 7.13993 7.17283 23.2665
73 19 2 0 13.4756 2.08868 24.693
74 19 3 0.692733 12.5287 2.03996 24.824
75 19 3 0.668488 13.8368 2.15814 25.5767
76 19 4 -1.36122 13.4006 2.09133 24.8229
77 20 2 0 4.98072 5.36511 23.6589
78 20 3 0.622915 5.79945 5.81546 23.4512
79 20 3 0.547235 5.07809 4.4973 23.2669
80 20 4 -1.17015 5.09799 5.31167 23.5821
81 21 2 0 16.3687 5.16862 25.1478
82 21 3 0.544438 17.2129 5.31634 24.7216
83 21 3 0.525274 15.977 6.03961 25.2127
84 21 4 -1.06971 16.4266 5.29903 25.1015
85 22 2 0 2.09089 15.7917 24.2904
86 22 3 0.597947 2.68071 15.0583 24.1158
87 22 3 0.489916 2.28518 16.4255 23.5999
88 22 4 -1.08786 2.19126 15.779 24.1796
89 23 2 0 9.48317 8.95724 23.2611
90 23 3 0.618517 8.75403 9.31564 23.7672
91 23 3 0.544777 9.96733 9.72619 22.9602
92 23 4 -1.16329 9.45181 9.10156 23.2874
93 24 2 0 3.84357 13.702 24.7482
94 24 3 0.494011 4.23208 13.6319 23.8762
95 24 3 0.677593 3.96389 12.8347 25.1349
96 24 4 -1.1716 3.90871 13.582 24.6861
97 25 2 0 8.13587 12.8932 23.1508
98 25 3 0.610417 9.01453 13.035 23.503
99 25 3 0.529048 7.75999 13.7708 23.0827
100 25 4 -1.13947 8.20023 13.0237 23.1871
101 26 2 0 3.96233 19.2792 25.3435
102 26 3 0.493615 3.31799 19.9722 25.1991
103 26 3 0.622172 3.79545 18.9786 26.2368
104 26 4 -1.11579 3.85848 19.3294 25.4394
105 27 2 0 6.89083 10.5078 24.2768
106 27 3 0.461862 6.68753 10.4938 25.212
107 27 3 0.640557 7.05773 11.4298 24.0812
108 27 4 -1.10242 6.88617 10.624 24.3715
109 28 2 0 15.4829 13.9354 24.6485
110 28 3 0.695463 14.7083 14.4896 24.7443
111 28 3 0.494993 16.2206 14.5433 24.6983
112 28 4 -1.19046 15.4782 14.0842 24.6671
113 29 2 0 10.6277 13.3095 24.5208
114 29 3 0.579401 10.522 13.7952 25.3389
115 29 3 0.63261 11.3761 12.734 24.6785
116 29 4 -1.21201 10.7099 13.298 24.6457
117 30 2 0 17.3504 2.05494 23.727
118 30 3 0.526813 17.0955 2.90743 24.0799
119 30 3 0.446509 16.5253 1.64849 23.462
120 30 4 -0.973322 17.2122 2.11204 23.7383
121 31 2 0 5.84672 2.63975 25.5033
122 31 3 0.616786 5.0057 2.63283 25.0463
123 31 3 0.525705 6.46163 2.25258 24.8802
124 31 4 -1.14249 5.81777 2.5893 25.365
125 32 2 0 11.2576 1.82144 25.0242
126 32 3 0.679625 10.7739 2.61889 24.8088
127 32 3 0.701644 12.1737 2.09724 25.0548
128 32 4 -1.38127 11.3129 1.95883 25.0005
129 33 2 0 12.9081 15.2056 24.9024
130 33 3 0.615929 12.8225 15.7732 25.6683
131 33 3 0.585905 12.1366 14.6399 24.9355
132 33 4 -1.20183 12.7984 15.2058 25.0047
133 34 2 0 12.9409 11.9188 25.1383
134 34 3 0.592814 13.6788 11.6382 24.5969
135 34 3 0.52171 12.9562 11.3269 25.8903
136 34 4 -1.11452 13.0373 11.8071 25.1653
137 35 2 0 15.8877 0.036369 25.4551
138 35 3 0.515684 16.389 0.784687 25.131
139 35 3 0.541333 15.5676 19.9828 24.6647
140 35 4 -1.05702 15.9109 0.0765047 25.3124
141 36 2 0 7.13151 18.5027 26.8819
142 36 3 0.571748 7.84382 18.5675 27.518
143 36 3 0.582331 7.41335 17.8184 26.2749
144 36 4 -1.15408 7.25877 18.4234 26.8856
145 37 2 0 14.7703 8.75849 26.2903
146 37 3 0.727689 15.3601 8.57464 27.0215
147 37 3 0.52729 13.9373 8.98334 26.7046
148 37 4 -1.25498 14.7392 8.76374 26.437
149 38 2 0 1.52451 6.73289 24.6914
150 38 3 0.721427 0.991967 7.26708 25.2807
151 38 3 0.743905 2.10583 6.24183 25.272
152 38 4 -1.46533 1.53076 6.73841 24.8411
153 39 2 0 11.163 19.3016 25.3855
154 39 3 0.672188 11.4595 20.2087 25.3105
155 39 3 0.59788 11.8708 18.8554 25.8505
156 39 4 -1.27007 11.2916 19.3606 25.4354
157 40 2 0 1.27262 10.2738 26.9313
158 40 3 0.570471 1.009 9.3718 26.7494
159 40 3 0.653564 2.22836 10.2594 26.8805
160 40 4 -1.22404 1.36122 10.1565 26.9015
161 41 2 0 8.00301 4.34451 26.8485
162 41 3 0.660458 8.70203 3.82111 27.2405
163 41 3 0.568946 7.79712 3.8947 26.0291
164 41 4 -1.2294 8.06614 4.21993 26.7938
165 42 2 0 7.99217 16.1672 25.6061
166 42 3 0.472366 8.72777 16.3922 26.1758
167 42 3 0.566168 7.21847 16.2753 26.1592
168 42 4 -1.03853 7.98729 16.2099 25.7498
169 43 2 0 0.382029 8.04416 26.1176
170 43 3 0.693224 0.895943 8.84977 26.1734
171 43 3 0.805891 0.909904 7.45996 25.5732
172 43 4 -1.49912 0.51539 8.0725 26.055
173 44 2 0 13.671 5.44187 25.7698
174 44 3 0.576576 13.0269 4.90651 25.3065
175 44 3 0.520372 14.5021 5.24514 25.3376
176 44 4 -1.09695 13.695 5.34816 25.6552
177 45 2 0 7.90849 6.90131 25.8856
178 45 3 0.712076 7.89772 6.04642 26.3161
179 45 3 0.585346 8.82382 7.17849 25.9254
180 45 4 -1.29742 8.02429 6.82736 25.9458
181 46 2 0 3.89076 11.2744 26.0019
182 46 3 0.655806 4.25543 11.3948 26.8787
183 46 3 0.62767 4.0579 10.3545 25.7968
184 46 4 -1.28348 3.95884 11.1721 26.0879
185 47 2 0 3.53165 8.52263 25.9104
186 47 3 0.662206 3.87119 7.81943 26.464
187 47 3 0.650157 3.65469 8.20461 25.016
188 47 4 -1.31236 3.59087 8.3919 25.8668
189 48 2 0 3.31982 4.90759 25.8354
190 48 3 0.580546 3.61523 5.48273 26.5413
191 48 3 0.625383 3.99705 4.98504 25.1634
192 48 4 -1.20593 3.44433 4.99113 25.8398
193 49 2 0 13.4638 17.646 26.0776
194 49 3 0.660319 13.7979 18.2118 26.7737
195 49 3 0.558058 14.0129 17.8479 25.32
196 49 4 -1.21838 13.5769 17.7443 26.0698
197 50 2 0 6.2182 8.94419 26.6477
198 50 3 0.47066 6.08164 9.38286 25.808
199 50 3 0.616259 6.83078 8.23537 26.4514
200 50 4 -1.08692 6.27914 8.90961 26.5151
201 51 2 0 9.85029 10.8491 26.567
202 51 3 0.509522 10.3684 10.4027 27.2367
203 51 3 0.509166 10.3291 11.6596 26.3939
204 51 4 -1.01869 9.97791 10.8957 26.6306
205 52 2 0 2.9327 1.7584 27.044
206 52 3 0.478096 2.42135 2.53699 27.2643
207 52 3 0.659595 3.40938 1.54912 27.8472
208 52 4 -1.13769 2.92827 1.83128 27.175
209 53 2 0 1.75882 16.3821 27.1302
210 53 3 0.462542 1.66916 17.3326 27.2
211 53 3 0.605783 1.47418 16.1791 26.2391
212 53 4 -1.06833 1.71091 16.4778 27.0251
213 54 2 0 16.2377 11.9864 26.9994
214 54 3 0.51 17.0365 11.4746 26.8725
215 54 3 0.485145 16.167 12.5209 26.2084
216 54 4 -0.995146 16.3309 11.9893 26.8819
217 55 2 0 14.7667 2.8032 27.053
218 55 3 0.528448 14.4706 3.69306 26.8614
219 55 3 0.621124 15.7199 2.87318 27.1038
220 55 4 -1.14957 14.8508 2.92607 27.035
221 56 2 0 10.8304 7.75583 26.375
222 56 3 0.726493 11.036 7.50184 25.4753
223 56 3 0.532024 11.0362 6.97996 26.8964
224 56 4 -1.25852 10.883 7.624 26.3266
225 57 2 0 3.22596 18.6782 27.6255
226 57 3 0.537025 3.18535 19.0346 26.738
227 57 3 0.641903 3.13776 17.7323 27.5085
228 57 4 -1.17893 3.20947 18.6028 27.4969
229 58 2 0 12.6828 9.48426 27.4057
230 58 3 0.694195 12.047 8.84017 27.0941
231 58 3 0.623043 13.5022 9.24032 26.9753
232 58 4 -1.31724 12.7063 9.37058 27.3107
233 59 2 0 5.1006 15.5253 26.5303
234 59 3 0.613972 4.72054 14.9393 25.8758
235 59 3 0.435121 4.39124 15.6808 27.1539
236 59 4 -1.04909 4.96114 15.4702 26.5263
237 60 2 0 6.81703 0.828001 27.1919
238 60 3 0.629701 6.60309 1.40209 26.4564
239 60 3 0.625777 6.76084 -0.0564425 26.8302
240 60 4 -1.25548 6.78245 0.788273 27.0514
241 61 2 0 9.92497 14.1985 27.2331
242 61 3 0.579308 9.03325 13.9685 27.4942
243 61 3 0.555674 10.2413 14.7674 27.935
244 61 4 -1.13498 9.85131 14.2419 27.3564
245 62 2 0 7.57256 12.9708 28.237
246 62 3 0.657668 6.72643 12.5335 28.3323
247 62 3 0.432395 7.85655 12.7531 27.3492
248 62 4 -1.09006 7.5006 12.8869 28.1355
249 63 2 0 9.9421 2.89644 27.8835
250 63 3 0.645847 9.35775 2.60795 28.5846
251 63 3 0.526242 10.0891 3.82555 28.0606
252 63 4 -1.17209 9.88612 2.97845 27.9959
253 64 2 0 13.0024 13.9561 28.1933
254 64 3 0.515992 13.8759 13.6047 28.0209
255 64 3 0.628319 12.4833 13.1938 28.4496
256 64 4 -1.14431 13.0477 13.8135 28.204
257 65 2 0 16.0499 7.5482 28.3632
258 65 3 0.517128 15.998 6.61572 28.5731
259 65 3 0.524205 16.9633 7.68744 28.1131
260 65 4 -1.04133 16.1602 7.44665 28.3581
261 66 2 0 4.59907 6.62331 27.427
262 66 3 0.588263 5.34138 7.21292 27.2944
263 66 3 0.696396 4.97603 5.85589 27.8573
264 66 4 -1.28466 4.74235 6.60055 27.4651
265 67 2 0 17.6315 1.58461 27.0179
266 67 3 0.555092 0.920401 1.42229 26.9332
267 67 3 0.526859 17.2189 0.841252 26.5781
268 67 4 -1.08195 0.0483307 1.46868 26.9508
269 68 2 0 11.3441 11.7273 28.7634
270 68 3 0.557994 11.9856 11.035 28.604
271 68 3 0.536011 10.6109 11.5126 28.1867
272 68 4 -1.09401 11.3323 11.6112 28.6692
273 69 2 0 12.4221 1.26497 27.5615
274 69 3 0.514324 13.0164 1.9819 27.7831
275 69 3 0.640501 11.5521 1.59741 27.7825
276 69 4 -1.15483 12.3868 1.3993 27.6182
277 70 2 0 5.13537 11.8175 28.4388
278 70 3 0.702427 4.54415 11.2115 28.8855
279 70 3 0.533042 4.93759 12.672 28.822
280 70 4 -1.23547 5.03437 11.8493 28.5451
281 71 2 0 5.08387 4.04579 28.1333
282 71 3 0.52183 4.9357 3.44466 28.8634
283 71 3 0.572466 5.99464 3.89571 27.8799
284 71 4 -1.0943 5.18149 3.94962 28.1944
285 72 2 0 1.49898 13.3693 28.593
286 72 3 0.457722 0.886393 12.6646 28.3823
287 72 3 0.48602 1.47853 13.9422 27.8264
288 72 4 -0.943743 1.41794 13.3525 28.4679
289 73 2 0 9.86151 19.2602 27.8815
290 73 3 0.496861 10.5321 18.6376 28.1624
291 73 3 0.598355 10.0086 19.3634 26.9413
292 73 4 -1.09522 9.96618 19.1937 27.7971
293 74 2 0 11.8465 16.3652 28.6136
294 74 3 0.636687 12.3381 15.545 28.5713
295 74 3 0.459221 12.3594 16.9225 29.1989
296 74 4 -1.09591 11.9751 16.3316 28.6831
297 75 2 0 4.53657 0.738462 28.9468
298 75 3 0.580544 5.18532 0.880222 28.2574
299 75 3 0.573097 4.40019 20.1723 28.9569
300 75 4 -1.15364 4.60216 0.635333 28.8598
301 76 2 0 9.62112 6.22707 28.4844
302 76 3 0.528946 9.70113 7.16322 28.3015
303 76 3 0.499046 9.03094 6.17905 29.2365
304 76 4 -1.02799 9.55581 6.34076 28.5573
305 77 2 0 7.83383 2.08887 29.6855
306 77 3 0.614576 7.47748 1.61111 28.9365
307 77 3 0.488585 8.30559 1.42642 30.1903
308 77 4 -1.10316 7.8486 1.94291 29.6542
309 78 2 0 14.1431 19.5878 28.0071
310 78 3 0.651053 13.6396 20.3964 27.9136
311 78 3 0.491796 15.0269 19.8212 27.7232
312 78 4 -1.14285 14.1918 19.7212 27.9588
313 79 2 0 3.24972 9.98478 29.2539
314 79 3 0.538761 3.13331 9.06354 29.4863
315 79 3 0.534902 2.46024 10.2097 28.7616
316 79 4 -1.07366 3.13375 9.89564 29.2206
317 80 2 0 8.53982 10.4305 29.3582
318 80 3 0.468821 8.46691 10.9502 30.1587
319 80 3 0.516194 8.24398 11.0181 28.6629
320 80 4 -0.985015 8.49262 10.5722 29.3717
321 81 2 0 7.5825 17.4101 29.4224
322 81 3 0.49832 7.19157 17.7243 28.6071
323 81 3 0.450158 8.52603 17.4439 29.2647
324 81 4 -0.948477 7.65324 17.4546 29.2978
ITEM: TIMESTEP
2000
ITEM: NUMBER OF ATOMS
324
ITEM: BOX BOUNDS pp pp ff
0.0000000000000000e+00 1.7650658050000001e+01
0.0000000000000000e+00 2.0381224350000000e+01
0.0000000000000000e+00 6.0000000000000000e+01
ITEM: ATOMS id mol type q x y z
1 1 2 0 8.52646 16.1735 22.9307
2 1 3 0.580755 9.44192 16.3268 22.6968
3 1 3 0.549706 8.41507 16.6202 23.7699
4 1 4 -1.13046 8.62939 16.2504 23.0082
5 2 2 0 13.3632 18.8564 23.788
6 2 3 0.559637 13.1021 19.4532 24.4893
7 2 3 0.505329 12.7024 18.9824 23.1071
8 2 4 -1.06497 13.2452 18.9489 23.7906
9 3 2 0 17.0058 9.8245 24.8523
10 3 3 0.691822 16.2672 10.2281 24.3964
11 3 3 0.73597 0.12901 10.163 24.4021
12 3 4 -1.42779 17.0103 9.9195 24.7363
13 4 2 0 1.39552 4.81847 23.1023
14 4 3 0.520771 1.41101 5.03369 22.1697
15 4 3 0.650967 1.37836 5.66736 23.5442
16 4 4 -1.17174 1.39531 4.95469 23.0395
17 5 2 0 13.4579 8.60307 23.8597
18 5 3 0.619352 13.7649 9.46035 23.5646
19 5 3 0.567064 13.843 8.4966 24.7295
20 5 4 -1.18642 13.5465 8.69918 23.9333
21 6 2 0 1.61829 10.7192 23.6347
22 6 3 0.525069 1.97204 9.93634 23.2126
23 6 3 0.59292 2.21456 10.8888 24.3641
24 6 4 -1.11799 1.7399 10.6407 23.674
25 7 2 0 6.00653 14.5031 22.8877
26 7 3 0.576107 6.66157 15.2009 22.8721
27 7 3 0.470932 5.73827 14.4054 21.974
28 7 4 -1.04704 6.05604 14.5799 22.7687
29 8 2 0 8.06546 0.592638 23.2259
30 8 3 0.48802 8.03233 0.732504 22.2796
31 8 3 0.643537 7.30579 0.0414213 23.4138
32 8 4 -1.13156 7.96398 0.53998 23.1288
33 9 2 0 8.35063 2.938 24.3157
34 9 3 0.699016 8.33028 2.04541 23.9706
35 9 3 0.541711 9.1924 3.28868 24.0247
36 9 4 -1.24073 8.45578 2.86863 24.2343
37 10 2 0 5.3977 0.0675864 23.9853
38 10 3 0.55155 5.00493 0.930295 23.8523
39 10 3 0.578779 4.71699 19.9407 24.4265
40 10 4 -1.13033 5.26028 0.112975 24.0247
41 11 2 0 5.2499 9.07881 22.9272
42 11 3 0.479682 5.58424 9.87557 23.3391
43 11 3 0.559789 5.9595 8.4435 23.0225
44 11 4 -1.03947 5.38353 9.09948 22.9921
45 12 2 0 2.60865 18.6109 22.2688
46 12 3 0.507928 3.21186 19.3178 22.4982
47 12 3 0.4959 2.89949 18.318 21.4052
48 12 4 -1.00383 2.7231 18.6639 22.1876
49 13 2 0 15.2408 10.7876 23.7664
50 13 3 0.763169 15.3005 11.7174 23.9857
51 13 3 0.735743 15.9398 10.3758 24.2743
52 13 4 -1.49891 15.3379 10.8539 23.8595
53 14 2 0 11.2649 17.0925 23.6764
54 14 3 0.601818 10.7699 17.8121 24.068
55 14 3 0.574813 12.1821 17.3289 23.8148
56 14 4 -1.17663 11.319 17.2149 23.7443
57 15 2 0 11.3624 5.17195 24.5777
58 15 3 0.701307 10.942 6.02899 24.6482
59 15 3 0.487038 12.1722 5.25978 25.0805
60 15 4 -1.18834 11.4122 5.2929 24.6511
61 16 2 0 10.8298 7.79173 24.3428
62 16 3 0.769771 11.73 7.99008 24.0851
63 16 3 0.664499 10.3012 8.05364 23.5889
64 16 4 -1.43427 10.8773 7.85065 24.2133
65 17 2 0 3.02146 2.4354 23.2567
66 17 3 0.569923 2.73551 3.33957 23.1266
67 17 3 0.461211 2.20886 1.93556 23.3346
68 17 4 -1.03113 2.88084 2.48716 23.25
69 18 2 0 7.15198 6.88648 23.3971
70 18 3 0.691041 7.79961 6.87677 24.1019
71 18 3 0.546737 7.56732 7.38926 22.6964
72 18 4 -1.23778 7.28805 6.9496 23.3976
73 19 2 0 14.1002 1.97574 24.3285
74 19 3 0.552555 13.1868 1.79727 24.1046
75 19 3 0.594633 14.1241 1.94123 25.2848
76 19 4 -1.14719 13.9863 1.94848 24.4223
77 20 2 0 5.00447 4.85548 23.6287
78 20 3 0.692782 5.62336 5.52309 23.3329
79 20 3 0.642665 5.42179 4.46468 24.3964
80 20 4 -1.33545 5.13712 4.89091 23.6891
81 21 2 0 16.6708 4.48049 25.0376
82 21 3 0.477985 17.4144 4.57407 24.4422
83 21 3 0.598379 16.4156 5.37922 25.246
84 21 4 -1.07636 16.7333 4.60752 24.988
85 22 2 0 2.30853 16.7897 24.373
86 22 3 0.495503 3.07949 16.2227 24.3544
87 22 3 0.646913 2.47404 17.4423 23.6926
88 22 4 -1.14242 2.42841 16.8007 24.2835
89 23 2 0 8.90276 8.91148 22.2614
90 23 3 0.627609 8.63455 9.37759 23.0533
91 23 3 0.521211 8.89386 9.57896 21.5754
92 23 4 -1.14882 8.86729 9.05659 22.275
93 24 2 0 3.82837 14.0117 24.9243
94 24 3 0.500614 4.45855 14.2354 24.2394
95 24 3 0.613253 3.8258 13.0548 24.9448
96 24 4 -1.11387 3.90871 13.9179 24.8393
97 25 2 0 8.69529 12.8451 23.3077
98 25 3 0.510683 9.43738 13.014 23.8882
99 25 3 0.547169 8.25443 13.6912 23.2294
100 25 4 -1.05785 8.73385 12.9751 23.3719
101 26 2 0 3.48898 19.1568 25.715
102 26 3 0.715759 3.02111 19.9894 25.6506
103 26 3 0.54989 3.48734 18.9523 26.6501
104 26 4 -1.26565 3.42887 19.2372 25.8264
105 27 2 0 8.11885 10.0093 24.5813
106 27 3 0.766242 8.88394 10.4554 24.9444
107 27 3 0.525232 7.68331 10.6748 24.0487
108 27 4 -1.29147 8.16103 10.1516 24.5596
109 28 2 0 15.3288 13.3576 24.4525
110 28 3 0.71498 14.5141 13.8284 24.6283
111 28 3 0.527264 15.7287 13.8336 23.7246
112 28 4 -1.24224 15.2757 13.4788 24.3818
113 29 2 0 10.78 13.9349 25.082
114 29 3 0.709162 10.467 14.2585 25.9266
115 29 3 0.794309 11.6418 14.3376 24.9751
116 29 4 -1.50347 10.8503 14.0279 25.1764
117 30 2 0 17.384 1.92093 23.5763
118 30 3 0.489463 0.171 2.77216 23.5833
119 30 3 0.541937 16.4714 2.12204 23.369
120 30 4 -1.0314 17.3232 2.05564 23.5506
121 31 2 0 6.04136 3.62144 25.3618
122 31 3 0.609591 5.51764 4.0628 24.6931
123 31 3 0.800124 6.90989 3.53591 24.9686
124 31 4 -1.40971 6.0855 3.66699 25.2259
125 32 2 0 11.6638 1.47887 24.1975
126 32 3 0.610613 11.3288 1.89603 24.9913
127 32 3 0.596792 12.6074 1.63764 24.2229
128 32 4 -1.20741 11.7417 1.5526 24.3024
129 33 2 0 12.9182 14.7729 24.6749
130 33 3 0.798107 12.9987 15.5664 25.2041
131 33 3 0.664133 12.0739 14.3999 24.9286
132 33 4 -1.46224 12.8204 14.8267 24.7751
133 34 2 0 13.267 11.2735 25.7432
134 34 3 0.549903 13.9288 11.0011 25.1075
135 34 3 0.469407 13.5137 12.1681 25.9779
136 34 4 -1.01931 13.3833 11.3532 25.6918
137 35 2 0 16.1414 20.0359 25.1333
138 35 3 0.576175 16.4891 0.24508 24.4649
139 35 3 0.471973 15.6506 19.3781 24.6407
140 35 4 -1.04815 16.1231 20.0273 24.9847
141 36 2 0 6.37221 18.6247 27.4673
142 36 3 0.633489 7.32312 18.6728 27.3688
143 36 3 0.58565 6.12339 17.8238 27.006
144 36 4 -1.21914 6.46209 18.5283 27.3956
145 37 2 0 14.2959 8.64059 26.8848
146 37 3 0.700981 14.8783 8.21526 27.5141
147 37 3 0.490691 13.5478 8.92966 27.4074
148 37 4 -1.19167 14.2747 8.62314 27.0322
149 38 2 0 1.48563 7.0805 24.487
150 38 3 0.783577 0.860379 7.06219 25.2115
151 38 3 0.77867 2.22099 6.54851 24.7911
152 38 4 -1.56225 1.49972 7.01006 24.6187
153 39 2 0 10.5712 19.4312 24.8169
154 39 3 0.60895 10.8361 20.3226 24.5903
155 39 3 0.556822 9.96301 19.5401 25.548
156 39 4 -1.16577 10.5272 19.5592 24.8815
157 40 2 0 0.714102 8.78008 27.4679
158 40 3 0.620406 0.477161 7.95916 27.0364
159 40 3 0.718206 17.8015 9.43731 27.0592
160 40 4 -1.33861 0.611672 8.75912 27.3604
161 41 2 0 8.6965 4.50467 27.3815
162 41 3 0.66266 9.37047 3.90708 27.7054
163 41 3 0.675474 7.87189 4.12025 27.679
164 41 4 -1.33813 8.67721 4.37896 27.4611
165 42 2 0 8.10135 16.5378 25.8582
166 42 3 0.606043 8.44595 15.7742 26.3213
167 42 3 0.536528 7.1763 16.5691 26.1022
168 42 4 -1.14257 8.02705 16.4441 25.9488
169 43 2 0 0.0169381 6.96746 26.164
170 43 3 0.814481 0.276798 7.66775 26.7626
171 43 3 0.815115 0.680903 6.98225 25.4747
172 43 4 -1.6296 0.135199 7.059 26.1524
173 44 2 0 13.5486 5.23373 25.8033
174 44 3 0.604449 12.7716 5.09359 25.2621
175 44 3 0.499808 14.1138 4.48574 25.61
176 44 4 -1.10426 13.5215 5.12004 25.7092
177 45 2 0 8.54782 6.76259 25.764
178 45 3 0.729666 8.7438 6.04418 26.3655
179 45 3 0.578996 9.1133 7.47871 26.0532
180 45 4 -1.30866 8.6453 6.76229 25.8781
181 46 2 0 3.88055 11.3362 25.5089
182 46 3 0.678232 4.23548 11.5313 26.3762
183 46 3 0.597442 3.79173 10.3832 25.4947
184 46 4 -1.27567 3.91462 11.2392 25.6181
185 47 2 0 4.29826 8.46169 25.4778
186 47 3 0.705798 5.19795 8.45597 25.8046
187 47 3 0.552095 4.38723 8.37886 24.5284
188 47 4 -1.25789 4.42482 8.45035 25.3981
189 48 2 0 3.34087 5.77421 25.7349
190 48 3 0.622032 3.57352 6.70263 25.7462
191 48 3 0.603928 3.9322 5.38643 25.0898
192 48 4 -1.22596 3.44635 5.84342 25.6538
193 49 2 0 12.5643 17.0418 26.0862
194 49 3 0.741724 12.9397 17.8941 26.3074
195 49 3 0.586151 11.8586 17.2426 25.4715
196 49 4 -1.32788 12.522 17.1766 26.0358
197 50 2 0 6.63574 8.68308 26.6232
198 50 3 0.652432 7.03302 9.27498 25.9844
199 50 3 0.594931 7.23007 7.93355 26.6579
200 50 4 -1.24736 6.76268 8.6629 26.5459
201 51 2 0 10.2639 11.4872 25.6775
202 51 3 0.647388 10.6147 11.5979 26.5613
203 51 3 0.746234 10.2961 12.3641 25.295
204 51 4 -1.39362 10.3129 11.6136 25.7417
205 52 2 0 2.19444 1.15282 26.1439
206 52 3 0.686437 1.38018 1.61389 26.3455
207 52 3 0.752542 2.81991 1.47562 26.7927
208 52 4 -1.43898 2.17028 1.25316 26.2528
209 53 2 0 2.58976 16.4345 27.1151
210 53 3 0.604388 2.78989 17.3046 27.4601
211 53 3 0.827327 2.37028 16.5855 26.1957
212 53 4 -1.43171 2.58729 16.5652 27.0416
213 54 2 0 16.4995 12.3702 27.4719
214 54 3 0.495852 17.2505 12.9213 27.6924
215 54 3 0.4857 16.3742 12.5002 26.5319
216 54 4 -0.981552 16.5796 12.4574 27.3798
217 55 2 0 15.2187 2.89522 27.5196
218 55 3 0.420959 14.9191 3.36258 26.7398
219 55 3 0.68386 16.1513 2.7442 27.3653
220 55 4 -1.10482 15.2998 2.93571 27.4
221 56 2 0 10.1643 8.69471 26.6368
222 56 3 0.819047 10.3543 8.37775 25.7538
223 56 3 0.547074 10.3869 7.96004 27.2086
224 56 4 -1.36612 10.2171 8.56009 26.5969
225 57 2 0 3.12345 18.5393 28.0637
226 57 3 0.612082 3.46666 19.0026 27.2996
227 57 3 0.709226 2.74916 17.7335 27.7076
228 57 4 -1.32131 3.11947 18.4955 27.9203
229 58 2 0 12.1931 9.02477 28.2723
230 58 3 0.658139 11.5175 9.0022 27.5946
231 58 3 0.633127 12.996 8.76699 27.8194
232 58 4 -1.29127 12.2094 8.98888 28.1275
233 59 2 0 5.4085 15.9521 26.5612
234 59 3 0.552516 5.64327 15.1206 26.1493
235 59 3 0.631673 4.4804 15.8597 26.7765
236 59 4 -1.18419 5.31974 15.8339 26.5361
237 60 2 0 6.33279 1.0203 27.6401
238 60 3 0.537889 6.19469 1.49599 26.821
239 60 3 0.680053 6.20918 0.100177 27.407
240 60 4 -1.21794 6.29929 0.963407 27.5054
241 61 2 0 9.07511 14.3499 27.3642
242 61 3 0.716622 8.6474 13.7191 27.9434
243 61 3 0.53931 9.32105 15.0749 27.9388
244 61 4 -1.25593 9.05184 14.362 27.5119
245 62 2 0 7.42398 12.6438 28.7977
246 62 3 0.707483 6.53191 12.3658 28.59
247 62 3 0.567676 7.85051 11.8537 29.1294
248 62 4 -1.27516 7.36439 12.5071 28.8136
249 63 2 0 10.3401 2.99392 28.1806
250 63 3 0.706546 9.73948 2.61726 28.8236
251 63 3 0.659138 9.89261 3.7791 27.8652
252 63 4 -1.36568 10.206 3.04622 28.2225
253 64 2 0 13.1653 13.7714 27.6281
254 64 3 0.514628 13.9769 13.4142 27.9887
255 64 3 0.573822 12.4947 13.1311 27.8661
256 64 4 -1.08845 13.1834 13.6437 27.7048
257 65 2 0 15.6361 7.20113 28.7008
258 65 3 0.534744 16.2179 7.35447 29.4453
259 65 3 0.554907 15.7337 6.26863 28.5081
260 65 4 -1.08965 15.7231 7.10139 28.7715
261 66 2 0 5.05108 7.07372 28.4898
262 66 3 0.513998 5.77488 7.53389 28.0648
263 66 3 0.550604 5.39814 6.20151 28.677
264 66 4 -1.0646 5.18817 7.02097 28.4594
265 67 2 0 0.212226 2.27383 26.7042
266 67 3 0.708005 0.923542 1.71856 26.3849
267 67 3 0.62669 0.238198 3.04584 26.1389
268 67 4 -1.3347 0.306607 2.30158 26.5909
269 68 2 0 11.1483 11.5474 27.9108
270 68 3 0.725539 11.5965 10.7071 28.0071
271 68 3 0.681664 10.8716 11.5683 26.9947
272 68 4 -1.4072 11.1702 11.4425 27.8059
273 69 2 0 12.7341 1.75263 27.2508
274 69 3 0.597234 13.5182 2.11793 27.6606
275 69 3 0.6579 12.0068 2.12796 27.7473
276 69 4 -1.25513 12.7414 1.84744 27.3668
277 70 2 0 4.77802 11.8536 27.8988
278 70 3 0.766806 4.32779 11.0429 28.1361
279 70 3 0.561656 4.09045 12.4131 27.5376
280 70 4 -1.32846 4.63237 11.8214 27.8829
281 71 2 0 5.99959 4.1957 28.3956
282 71 3 0.519791 5.30523 3.80679 28.9275
283 71 3 0.58716 5.74167 4.01167 27.4924
284 71 4 -1.10695 5.87769 4.12236 28.3481
285 72 2 0 2.56853 13.7565 28.147
286 72 3 0.448175 2.96279 13.644 29.012
287 72 3 0.599759 2.56569 14.7032 28.0058
288 72 4 -1.04793 2.61864 13.8633 28.2397
289 73 2 0 9.11759 18.5381 27.4518
290 73 3 0.52316 9.74801 18.6895 28.156
291 73 3 0.598171 8.89943 17.6086 27.5208
292 73 4 -1.12133 9.17036 18.4385 27.5508
293 74 2 0 11.5757 16.0538 28.6066
294 74 3 0.522859 12.2342 15.3694 28.7255
295 74 3 0.54134 11.9299 16.6096 27.9124
296 74 4 -1.0642 11.7053 16.0374 28.533
297 75 2 0 3.77843 1.94616 28.1695
298 75 3 0.64207 4.68811 1.66129 28.0826
299 75 3 0.533546 3.5384 1.71247 29.0661
300 75 4 -1.17562 3.86415 1.87978 28.2731
301 76 2 0 10.9813 6.57458 27.8301
302 76 3 0.47813 10.7312 7.45963 27.5648
303 76 3 0.596629 11.823 6.68537 28.2721
304 76 4 -1.07476 11.057 6.70206 27.8527
305 77 2 0 8.39109 1.99787 29.8536
306 77 3 0.576827 7.78716 1.66418 29.1902
307 77 3 0.521833 8.11029 1.57795 30.6667
308 77 4 -1.09866 8.27783 1.9014 29.8728
309 78 2 0 13.5945 19.4193 26.5586
310 78 3 0.648281 13.3925 20.2577 26.9739
311 78 3 0.604326 14.5152 19.4917 26.3071
312 78 4 -1.25261 13.6865 19.5359 26.5795
313 79 2 0 3.50532 9.63571 28.2852
314 79 3 0.637874 3.88668 8.77246 28.1251
315 79 3 0.596064 2.5598 9.48961 28.2555
316 79 4 -1.23394 3.4331 9.5065 28.2609
317 80 2 0 8.96599 10.7337 29.6303
318 80 3 0.606743 9.80482 11.1208 29.3799
319 80 3 0.464939 8.35836 11.4729 29.655
320 80 4 -1.07168 8.99559 10.8779 29.6014
321 81 2 0 7.58241 16.5094 29.141
322 81 3 0.527877 7.02416 17.276 29.0111
323 81 3 0.500209 7.0101 15.7629 28.9636
324 81 4 -1.02809 7.43769 16.5119 29.1017
ITEM: TIMESTEP
3000
ITEM: NUMBER OF ATOMS
324
ITEM: BOX BOUNDS pp pp ff
0.0000000000000000e+00 1.7650658050000001e+01
0.0000000000000000e+00 2.0381224350000000e+01
0.0000000000000000e+00 6.0000000000000000e+01
ITEM: ATOMS id mol type q x y z
1 1 2 0 8.43913 16.8282 22.9652
2 1 3 0.68795 9.35984 17.089 22.9884
3 1 3 0.535765 8.15982 16.8521 23.8804
4 1 4 -1.22372 8.52123 16.8647 23.0853
5 2 2 0 12.596 19.7765 22.4762
6 2 3 0.53995 12.2997 -0.180836 23.2816
7 2 3 0.549867 13.1534 20.4292 22.0525
8 2 4 -1.08982 12.6294 19.9143 22.525
9 3 2 0 17.6291 10.3804 25.7342
10 3 3 0.753545 16.8145 10.5953 25.2798
11 3 3 0.811374 0.669202 10.675 25.1406
12 3 4 -1.56492 17.6133 10.4456 25.6
13 4 2 0 1.60427 4.24108 22.7591
14 4 3 0.428334 1.6852 4.26507 21.8056
15 4 3 0.618916 1.60504 5.16111 23.0233
16 4 4 -1.04725 1.61473 4.36192 22.6709
17 5 2 0 13.6848 7.88597 24.3532
18 5 3 0.552169 13.9458 8.7888 24.1716
19 5 3 0.631398 13.9564 7.73512 25.2586
20 5 4 -1.18357 13.753 7.98223 24.4458
21 6 2 0 1.72884 10.6748 23.8416
22 6 3 0.553278 1.96619 9.98356 23.2235
23 6 3 0.610125 2.53665 10.8543 24.3227
24 6 4 -1.1634 1.86263 10.6093 23.824
25 7 2 0 7.04719 14.484 22.8543
26 7 3 0.795437 7.56699 15.2772 22.7243
27 7 3 0.555174 7.69248 13.7782 22.8951
28 7 4 -1.35061 7.19633 14.4952 22.8429
29 8 2 0 7.57496 0.820278 23.7743
30 8 3 0.475861 7.6678 1.09023 22.8606
31 8 3 0.587805 6.65139 0.970236 23.9762
32 8 4 -1.06367 7.46862 0.874031 23.6832
33 9 2 0 9.01186 3.48813 24.6274
34 9 3 0.549148 9.30381 2.66903 24.2273
35 9 3 0.725423 9.75325 4.08433 24.5219
36 9 4 -1.27457 9.14414 3.45959 24.5627
37 10 2 0 4.53702 0.636823 24.0341
38 10 3 0.612041 3.81273 0.853688 23.447
39 10 3 0.577375 4.15075 0.0519208 24.6859
40 10 4 -1.18942 4.39486 0.58971 24.0424
41 11 2 0 6.04744 9.78874 22.8585
42 11 3 0.6497 6.67772 10.2896 23.3763
43 11 3 0.504213 5.87763 9.00444 23.3803
44 11 4 -1.15391 6.10639 9.75246 22.9916
45 12 2 0 3.70992 18.5197 23.425
46 12 3 0.591926 3.84987 19.4653 23.3755
47 12 3 0.448369 2.91034 18.3687 22.9209
48 12 4 -1.04029 3.62548 18.6214 23.3542
49 13 2 0 15.6283 10.9249 24.7623
50 13 3 0.783798 15.669 11.8725 24.6334
51 13 3 0.723618 16.4645 10.7023 25.1716
52 13 4 -1.50742 15.7406 11.0177 24.7982
53 14 2 0 11.0007 17.468 23.1408
54 14 3 0.592269 10.7132 17.9084 23.9406
55 14 3 0.685828 11.6159 18.0803 22.7375
56 14 4 -1.2781 11.0426 17.6027 23.1916
57 15 2 0 11.1571 4.98765 24.4611
58 15 3 0.757399 11.0895 5.92879 24.6222
59 15 3 0.619987 12.0665 4.77327 24.6691
60 15 4 -1.37739 11.2649 5.08068 24.5084
61 16 2 0 11.0699 7.69222 24.8501
62 16 3 0.724113 11.9875 7.72058 24.579
63 16 3 0.75413 10.5907 8.07576 24.1156
64 16 4 -1.47824 11.1261 7.74495 24.7213
65 17 2 0 2.23035 1.04697 22.3903
66 17 3 0.480501 2.56819 1.85461 22.0032
67 17 3 0.658298 1.49177 1.3299 22.9294
68 17 4 -1.1388 2.17905 1.18658 22.4097
69 18 2 0 7.2431 6.55693 23.9387
70 18 3 0.620672 7.59293 6.5305 24.8293
71 18 3 0.579533 7.96633 6.88854 23.4065
72 18 4 -1.20021 7.38047 6.596 23.9846
73 19 2 0 14.6146 1.55788 22.8647
74 19 3 0.628809 13.8325 1.68855 23.4008
75 19 3 0.58983 15.2695 1.21791 23.4744
76 19 4 -1.21864 14.5983 1.53109 23.0114
77 20 2 0 5.44603 4.44302 23.9401
78 20 3 0.63915 6.10682 5.13355 23.8876
79 20 3 0.663492 5.76921 3.8529 24.621
80 20 4 -1.30264 5.57199 4.45587 24.0205
81 21 2 0 16.1373 4.25782 25.3211
82 21 3 0.623029 15.23 4.56282 25.3193
83 21 3 0.577688 16.5842 4.83789 25.9375
84 21 4 -1.20072 16.0783 4.37112 25.3998
85 22 2 0 2.53546 16.1894 25.1811
86 22 3 0.705768 3.13811 15.5253 24.8465
87 22 3 0.602169 2.83134 17.0063 24.7793
88 22 4 -1.30794 2.65048 16.209 25.0868
89 23 2 0 9.32588 8.28528 22.8471
90 23 3 0.653508 8.70895 8.83391 23.3315
91 23 3 0.535682 8.95358 8.22467 21.9674
92 23 4 -1.18919 9.19925 8.34776 22.7965
93 24 2 0 4.46545 14.3826 24.2854
94 24 3 0.686168 5.19619 14.2039 23.6935
95 24 3 0.560294 4.37343 13.5819 24.8017
96 24 4 -1.24646 4.54721 14.2573 24.2757
97 25 2 0 8.73511 12.7726 22.7863
98 25 3 0.660168 9.42704 13.1979 23.2928
99 25 3 0.654761 7.99405 13.3762 22.8382
100 25 4 -1.31493 8.72882 12.9043 22.8578
101 26 2 0 3.14618 19.9299 26.4206
102 26 3 0.761088 2.49592 0.240087 26.297
103 26 3 0.648565 2.77985 19.3764 27.1103
104 26 4 -1.40965 3.01605 19.9475 26.493
105 27 2 0 8.2633 10.4416 24.2473
106 27 3 0.637688 8.58887 10.6695 25.1181
107 27 3 0.665656 8.48111 11.1989 23.7039
108 27 4 -1.30334 8.33286 10.5677 24.2892
109 28 2 0 15.4497 13.5709 24.6418
110 28 3 0.743973 14.5301 13.8326 24.6854
111 28 3 0.547927 15.8291 14.138 23.9705
112 28 4 -1.2919 15.3806 13.677 24.5614
113 29 2 0 10.9749 13.2639 24.7264
114 29 3 0.806581 10.4028 13.5368 25.4436
115 29 3 0.813782 11.7593 13.8032 24.8266
116 29 4 -1.62036 11.0021 13.3679 24.831
117 30 2 0 17.4557 2.00423 23.425
118 30 3 0.623032 0.00381311 2.93857 23.3639
119 30 3 0.508752 16.5601 1.9274 23.0961
120 30 4 -1.13178 17.3665 2.114 23.375
121 31 2 0 6.65274 3.2975 25.6567
122 31 3 0.567011 6.2384 3.86104 25.0033
123 31 3 0.823435 7.56562 3.23516 25.3757
124 31 4 -1.39045 6.71656 3.36166 25.5371
125 32 2 0 12.7476 1.57833 24.3871
126 32 3 0.64803 13.1209 1.55215 25.2682
127 32 3 0.56267 13.4854 1.38696 23.8081
128 32 4 -1.2107 12.8898 1.55048 24.4258
129 33 2 0 12.9042 14.374 24.9168
130 33 3 0.810068 12.6112 15.2709 25.0776
131 33 3 0.800689 12.103 13.851 24.9455
132 33 4 -1.61076 12.7641 14.4218 24.9411
133 34 2 0 13.3358 11.3746 26.0152
134 34 3 0.648089 14.1697 11.107 25.6289
135 34 3 0.433889 13.5777 11.997 26.7009
136 34 4 -1.08198 13.4735 11.42 26.0535
137 35 2 0 15.8623 20.1345 25.0898
138 35 3 0.566699 16.2205 0.251594 25.8244
139 35 3 0.517026 16.5796 19.5635 24.8147
140 35 4 -1.08373 16 20.1252 25.1486
141 36 2 0 5.8584 18.6258 27.5144
142 36 3 0.509984 6.81415 18.6765 27.5003
143 36 3 0.586495 5.65963 17.75 27.1832
144 36 4 -1.09648 5.9553 18.5202 27.4702
145 37 2 0 13.73 7.99726 27.0913
146 37 3 0.761055 14.2816 7.46024 27.6602
147 37 3 0.745345 13.1561 8.47221 27.6923
148 37 4 -1.5064 13.7272 7.98932 27.241
149 38 2 0 1.72878 6.54114 24.4489
150 38 3 0.801165 1.0928 6.725 25.1402
151 38 3 0.817904 2.56656 6.46961 24.9063
152 38 4 -1.61907 1.75461 6.55552 24.5959
153 39 2 0 9.72096 19.2418 24.9342
154 39 3 0.657622 8.81693 19.5098 24.7696
155 39 3 0.575309 9.72253 18.95 25.8459
156 39 4 -1.23293 9.60543 19.2388 25.0298
157 40 2 0 0.920463 8.37375 27.2564
158 40 3 0.736638 0.72719 7.58686 26.7468
159 40 3 0.827429 0.433514 9.07039 26.8161
160 40 4 -1.56407 0.833387 8.3622 27.1348
161 41 2 0 8.96378 4.52741 28.1143
162 41 3 0.669844 9.63918 3.85396 28.0335
163 41 3 0.735592 8.24235 4.09062 28.5671
164 41 4 -1.40544 8.95789 4.38528 28.1619
165 42 2 0 8.28166 16.4544 25.8915
166 42 3 0.566451 8.82809 15.8843 26.4324
167 42 3 0.601717 7.384 16.2261 26.133
168 42 4 -1.16817 8.2367 16.3522 25.9917
169 43 2 0 0.296134 6.63945 26.0415
170 43 3 0.908197 0.585185 7.34663 26.6182
171 43 3 0.955049 0.931938 6.63825 25.3259
172 43 4 -1.86325 0.414527 6.72983 26.0237
173 44 2 0 13.3978 4.69491 25.2799
174 44 3 0.689649 12.6029 4.97017 24.8231
175 44 3 0.562353 13.1164 4.54567 26.1826
176 44 4 -1.252 13.26 4.71104 25.337
177 45 2 0 8.33361 6.6163 26.3896
178 45 3 0.701827 8.43102 5.80908 26.8947
179 45 3 0.56864 8.9316 7.23522 26.8086
180 45 4 -1.27047 8.42263 6.59219 26.5079
181 46 2 0 4.16596 11.5073 25.3011
182 46 3 0.597457 4.58028 11.7215 26.137
183 46 3 0.613135 4.30066 10.565 25.2009
184 46 4 -1.21059 4.23624 11.4141 25.3953
185 47 2 0 4.80195 8.96515 24.864
186 47 3 0.685837 5.48208 9.03991 25.5334
187 47 3 0.684081 5.16588 9.41402 24.1009
188 47 4 -1.36992 4.9356 9.03218 24.852
189 48 2 0 4.24944 6.34343 25.5124
190 48 3 0.627177 4.37181 7.23093 25.1753
191 48 3 0.641727 4.74705 5.78806 24.9122
192 48 4 -1.2689 4.32881 6.38595 25.3924
193 49 2 0 12.0722 16.8812 25.5457
194 49 3 0.686639 12.512 17.6664 25.8716
195 49 3 0.620335 11.8332 17.0967 24.6442
196 49 4 -1.30697 12.0979 17.0093 25.472
197 50 2 0 6.79266 8.91482 26.822
198 50 3 0.621185 7.02354 9.3936 27.618
199 50 3 0.62167 7.43852 8.21028 26.7698
200 50 4 -1.24285 6.90489 8.88592 26.9172
201 51 2 0 10.4605 11.0562 26.098
202 51 3 0.667063 10.6984 11.0992 27.0242
203 51 3 0.755462 10.8083 11.8654 25.7231
204 51 4 -1.42252 10.5355 11.1653 26.1686
205 52 2 0 1.21702 1.53993 25.9986
206 52 3 0.743983 0.31659 1.75077 26.2456
207 52 3 0.729089 1.75714 2.05207 26.6004
208 52 4 -1.47307 1.1709 1.63248 26.1072
209 53 2 0 3.03112 16.636 27.6415
210 53 3 0.773836 2.80895 17.5584 27.7678
211 53 3 0.804439 2.69618 16.4256 26.7698
212 53 4 -1.57827 2.95981 16.7271 27.5461
213 54 2 0 15.3383 13.049 27.4256
214 54 3 0.521164 16.2811 12.9089 27.3374
215 54 3 0.548918 15.0697 13.4121 26.5816
216 54 4 -1.07008 15.4246 13.0776 27.3062
217 55 2 0 14.1515 3.73696 28.059
218 55 3 0.695865 13.784 2.90865 27.7507
219 55 3 0.579772 14.9175 3.88118 27.5034
220 55 4 -1.27564 14.2025 3.64939 27.9484
221 56 2 0 10.3716 8.33895 27.4089
222 56 3 0.828995 10.6738 8.22786 26.5074
223 56 3 0.535599 10.6425 7.53572 27.8535
224 56 4 -1.36459 10.445 8.22191 27.3504
225 57 2 0 2.20146 18.6728 28.0933
226 57 3 0.769677 2.57403 19.2663 27.4412
227 57 3 0.808739 2.5782 17.8184 27.8831
228 57 4 -1.57842 2.29738 18.6394 27.9829
229 58 2 0 12.6428 9.14825 28.6597
230 58 3 0.657379 11.7799 8.76244 28.5088
231 58 3 0.810227 13.2256 8.6715 28.0686
232 58 4 -1.46761 12.607 9.03783 28.5647
233 59 2 0 5.37399 16.1871 26.2855
234 59 3 0.620457 5.14843 15.5308 25.6263
235 59 3 0.59362 4.5632 16.3234 26.7757
236 59 4 -1.21408 5.24132 16.1206 26.2639
237 60 2 0 5.53149 1.15355 27.3061
238 60 3 0.583853 5.81294 1.56876 26.4909
239 60 3 0.632247 5.41668 0.230955 27.0784
240 60 4 -1.2161 5.55282 1.0886 27.1726
241 61 2 0 9.62488 13.999 26.7757
242 61 3 0.699279 8.78701 13.7592 27.1716
243 61 3 0.700168 10.1074 14.4328 27.4794
244 61 4 -1.39945 9.57939 14.0238 26.9165
245 62 2 0 7.29257 13.2663 27.8797
246 62 3 0.77581 6.42723 12.875 27.7602
247 62 3 0.572079 7.83335 12.5536 28.2201
248 62 4 -1.34789 7.25103 13.125 27.908
249 63 2 0 10.4386 2.71466 27.6862
250 63 3 0.759098 9.77096 2.03674 27.7904
251 63 3 0.601383 9.97363 3.53601 27.8455
252 63 4 -1.36048 10.2936 2.73302 27.7199
253 64 2 0 13.0321 13.7668 28.8782
254 64 3 0.583463 13.8826 13.6748 28.4489
255 64 3 0.55109 12.6064 12.9189 28.7516
256 64 4 -1.13455 13.0865 13.6465 28.8071
257 65 2 0 15.0701 6.44521 28.8463
258 65 3 0.553443 14.7767 6.51196 29.755
259 65 3 0.563783 14.6164 5.67517 28.5036
260 65 4 -1.11723 14.9744 6.35518 28.9188
261 66 2 0 5.13715 7.51646 28.4806
262 66 3 0.608982 5.57079 7.82445 27.6848
263 66 3 0.557862 5.35434 6.5854 28.5273
264 66 4 -1.16684 5.22046 7.4367 28.3847
265 67 2 0 16.8076 2.0343 26.7596
266 67 3 0.713181 0.0692122 1.76711 26.6475
267 67 3 0.731836 16.6621 2.68533 26.0731
268 67 4 -1.44502 16.9057 2.08343 26.6574
269 68 2 0 11.1264 11.3674 28.2629
270 68 3 0.780414 11.7174 10.6587 28.517
271 68 3 0.744337 10.9471 11.2097 27.3359
272 68 4 -1.52475 11.1791 11.2565 28.1768
273 69 2 0 13.0938 1.79516 27.2693
274 69 3 0.630659 13.6836 2.50749 27.5162
275 69 3 0.772284 12.2299 2.08719 27.5602
276 69 4 -1.40294 13.0587 1.92373 27.3382
277 70 2 0 5.09422 11.7329 27.784
278 70 3 0.787825 4.54085 10.9526 27.817
279 70 3 0.540004 4.49215 12.4451 27.5683
280 70 4 -1.32783 4.94631 11.7242 27.7606
281 71 2 0 5.81007 5.05865 27.9543
282 71 3 0.521787 5.44492 5.94032 28.0288
283 71 3 0.600758 5.83289 4.88711 27.0129
284 71 4 -1.12255 5.76624 5.14955 27.8433
285 72 2 0 2.88442 13.8902 27.4593
286 72 3 0.475211 2.12755 13.5512 27.9373
287 72 3 0.590832 2.76689 14.8402 27.4663
288 72 4 -1.06604 2.77249 13.9684 27.5214
289 73 2 0 9.17242 18.7922 27.3146
290 73 3 0.651682 8.94509 17.8631 27.3495
291 73 3 0.549515 9.40727 18.9477 26.3998
292 73 4 -1.2012 9.17338 18.6932 27.202
293 74 2 0 11.1636 15.6875 28.2783
294 74 3 0.629044 11.8722 15.0626 28.4322
295 74 3 0.518377 11.5128 16.2891 27.6209
296 74 4 -1.14742 11.299 15.6845 28.2139
297 75 2 0 3.2538 2.69745 27.4837
298 75 3 0.669449 3.98176 2.07763 27.4377
299 75 3 0.527864 3.5974 3.43408 27.9892
300 75 4 -1.19731 3.39097 2.7124 27.5425
301 76 2 0 11.3242 6.23366 28.2949
302 76 3 0.528784 11.0202 7.00873 27.8226
303 76 3 0.594008 10.6133 5.59991 28.1988
304 76 4 -1.12279 11.1943 6.25175 28.2222
305 77 2 0 8.22364 1.34678 28.8929
306 77 3 0.604559 7.27681 1.38001 28.7564
307 77 3 0.54672 8.40259 0.432293 29.1119
308 77 4 -1.15128 8.12534 1.23397 28.9035
309 78 2 0 13.1748 19.3705 26.4774
310 78 3 0.590342 12.9212 20.235 26.8008
311 78 3 0.531916 14.0365 19.5052 26.0829
312 78 4 -1.12226 13.2527 19.4984 26.4683
313 79 2 0 3.4501 9.65364 27.9338
314 79 3 0.623156 3.86648 8.91694 28.3811
315 79 3 0.653924 2.54892 9.3666 27.7864
316 79 4 -1.27708 3.38804 9.52259 27.9722
317 80 2 0 8.39832 11.3307 29.0499
318 80 3 0.657473 9.34177 11.4009 28.9042
319 80 3 0.505373 8.03152 12.1058 28.6245
320 80 4 -1.16285 8.47214 11.4389 28.9768
321 81 2 0 7.88561 16.2405 28.9124
322 81 3 0.469138 7.098 16.6866 29.2237
323 81 3 0.517085 7.67897 15.3088 28.9868
324 81 4 -0.986223 7.75834 16.1783 28.9618
ITEM: TIMESTEP
4000
ITEM: NUMBER OF ATOMS
324
ITEM: BOX BOUNDS pp pp ff
0.0000000000000000e+00 1.7650658050000001e+01
0.0000000000000000e+00 2.0381224350000000e+01
0.0000000000000000e+00 6.0000000000000000e+01
ITEM: ATOMS id mol type q x y z
1 1 2 0 8.71502 16.7415 23.0572
2 1 3 0.721145 9.62706 17.0042 22.933
3 1 3 0.685087 8.55962 16.8504 23.9954
4 1 4 -1.40623 8.81188 16.7891 23.1614
5 2 2 0 10.8489 20.0292 22.1183
6 2 3 0.572499 10.9528 0.412794 22.6844
7 2 3 0.484882 10.867 0.00306104 21.2296
8 2 4 -1.05738 10.8645 20.1726 22.077
9 3 2 0 17.5622 9.9349 25.6742
10 3 3 0.761141 16.8054 10.3138 25.227
11 3 3 0.739807 0.653736 10.1399 25.1057
12 3 4 -1.50095 17.5603 10.0096 25.5442
13 4 2 0 1.50102 4.04953 22.6731
14 4 3 0.459055 2.21253 3.66497 22.1611
15 4 3 0.665862 1.93801 4.64552 23.2814
16 4 4 -1.12492 1.64804 4.0766 22.6854
17 5 2 0 13.8951 8.70744 24.7107
18 5 3 0.614547 14.4874 9.36668 24.3491
19 5 3 0.589356 14.1705 8.61158 25.6224
20 5 4 -1.2039 14.0061 8.77956 24.7811
21 6 2 0 2.07543 10.9226 24.388
22 6 3 0.524691 2.44921 10.238 24.9429
23 6 3 0.630052 2.81213 11.5014 24.1919
24 6 4 -1.15474 2.21759 10.9091 24.4339
25 7 2 0 7.71517 14.1093 23.537
26 7 3 0.713222 7.84505 15.0265 23.2961
27 7 3 0.832322 8.46564 13.6527 23.1568
28 7 4 -1.54554 7.82787 14.1683 23.4575
29 8 2 0 7.42757 0.450643 24.431
30 8 3 0.534003 7.23337 1.24321 24.9313
31 8 3 0.575062 6.60349 0.234286 23.9947
32 8 4 -1.10906 7.29722 0.524405 24.4392
33 9 2 0 8.9672 3.36504 24.9741
34 9 3 0.488683 9.07895 2.69696 25.6504
35 9 3 0.730352 9.83022 3.77103 24.8929
36 9 4 -1.21904 9.09198 3.33149 25.0503
37 10 2 0 4.29595 0.388234 24.4958
38 10 3 0.686609 3.59208 0.491865 23.8554
39 10 3 0.54299 4.5647 19.8547 24.4111
40 10 4 -1.2296 4.24025 0.284397 24.403
41 11 2 0 6.53294 9.57652 22.9502
42 11 3 0.685646 7.37147 9.91245 23.2669
43 11 3 0.454989 6.0011 9.47611 23.7397
44 11 4 -1.14063 6.5722 9.60667 23.0918
45 12 2 0 4.61489 18.3834 24.2479
46 12 3 0.632679 4.33627 19.2952 24.3331
47 12 3 0.642014 4.92127 18.1434 25.1224
48 12 4 -1.27469 4.61844 18.4694 24.3708
49 13 2 0 15.7576 10.8092 24.4659
50 13 3 0.79072 15.6986 11.733 24.7096
51 13 3 0.69987 16.5193 10.4828 24.9449
52 13 4 -1.49059 15.8476 10.8857 24.5584
53 14 2 0 10.9879 17.1294 22.9855
54 14 3 0.68229 10.0872 16.84 23.1312
55 14 3 0.766652 10.9244 18.0812 22.9067
56 14 4 -1.44894 10.8644 17.2142 22.9941
57 15 2 0 11.3165 4.83404 25.0159
58 15 3 0.677956 11.2158 5.78546 25.0455
59 15 3 0.701282 12.2506 4.69641 24.8582
60 15 4 -1.37924 11.4232 4.93821 24.9995
61 16 2 0 11.4209 7.60776 25.3396
62 16 3 0.757961 12.2645 8.00828 25.1294
63 16 3 0.767965 10.8845 7.755 24.5606
64 16 4 -1.52593 11.4602 7.67788 25.213
65 17 2 0 2.63012 0.907161 22.3625
66 17 3 0.494941 2.7271 0.838467 21.4127
67 17 3 0.598893 1.68785 1.00266 22.5012
68 17 4 -1.09383 2.52191 0.910591 22.2587
69 18 2 0 7.72218 6.42567 24.3011
70 18 3 0.555758 8.0177 6.32507 25.206
71 18 3 0.657942 8.44652 6.86955 23.8601
72 18 4 -1.2137 7.85274 6.46961 24.3605
73 19 2 0 14.4088 1.47557 23.0141
74 19 3 0.597864 13.5726 1.5561 23.473
75 19 3 0.543617 15.0614 1.7641 23.6521
76 19 4 -1.14148 14.3853 1.52282 23.1545
77 20 2 0 5.40889 4.95832 23.7388
78 20 3 0.690298 6.06254 5.65606 23.7851
79 20 3 0.748966 5.77806 4.24841 24.2641
80 20 4 -1.43926 5.53983 4.95677 23.8119
81 21 2 0 16.5103 4.88609 26.2708
82 21 3 0.545482 15.8653 5.54982 26.0265
83 21 3 0.67403 17.3543 5.27656 26.0438
84 21 4 -1.21951 16.5358 5.02104 26.2105
85 22 2 0 2.98889 15.9859 24.6066
86 22 3 0.692802 3.65188 15.3176 24.4335
87 22 3 0.625273 3.30347 16.7619 24.1427
88 22 4 -1.31807 3.11403 15.9997 24.525
89 23 2 0 9.74997 7.95874 23.3608
90 23 3 0.781386 9.49854 8.87681 23.26
91 23 3 0.524272 10.412 7.81558 22.6845
92 23 4 -1.30566 9.80254 8.05794 23.2614
93 24 2 0 5.15182 14.2742 24.3773
94 24 3 0.730992 5.97756 14.2392 23.8944
95 24 3 0.679648 4.92437 13.3571 24.5304
96 24 4 -1.41064 5.22841 14.1523 24.3351
97 25 2 0 9.49253 13.1482 22.6282
98 25 3 0.826456 10.1447 13.1422 23.3288
99 25 3 0.74097 8.74913 13.6257 22.9964
100 25 4 -1.56743 9.48085 13.2085 22.765
101 26 2 0 2.6956 20.2859 27.9335
102 26 3 0.832216 1.99614 0.550471 27.834
103 26 3 0.574018 2.302 19.4603 27.651
104 26 4 -1.40623 2.55568 20.2629 27.8846
105 27 2 0 9.12572 10.5421 23.6048
106 27 3 0.73457 9.40735 10.6901 24.5075
107 27 3 0.68854 9.28463 11.3767 23.1639
108 27 4 -1.42311 9.18211 10.6678 23.6639
109 28 2 0 15.6074 13.2571 25.0145
110 28 3 0.815574 14.6974 13.4986 24.8419
111 28 3 0.474284 15.8853 12.7899 24.2267
112 28 4 -1.28986 15.5265 13.2282 24.8916
113 29 2 0 11.1386 13.0969 24.6194
114 29 3 0.933748 10.7406 13.4738 25.4041
115 29 3 1.13278 12.0321 13.4404 24.6148
116 29 4 -2.06652 11.2021 13.1891 24.7192
117 30 2 0 17.4239 1.76775 23.2504
118 30 3 0.613141 -0.0530903 2.6482 22.9174
119 30 3 0.486128 16.5339 1.57169 22.9578
120 30 4 -1.09927 17.3322 1.85536 23.1703
121 31 2 0 6.32811 3.56245 25.2989
122 31 3 0.651953 5.94569 4.14778 24.6452
123 31 3 0.748031 7.261 3.54121 25.0856
124 31 4 -1.39998 6.39858 3.63466 25.1879
125 32 2 0 12.1629 1.84317 23.9417
126 32 3 0.619153 12.1869 1.19944 24.6497
127 32 3 0.578455 13.03 1.79035 23.5397
128 32 4 -1.19761 12.277 1.75401 23.9809
129 33 2 0 13.0467 13.8763 24.7174
130 33 3 0.939181 12.8769 14.8162 24.7807
131 33 3 1.01206 12.18 13.4724 24.7603
132 33 4 -1.95124 12.9141 13.9449 24.731
133 34 2 0 13.3159 11.374 26.2308
134 34 3 0.52747 13.9778 10.9225 25.7071
135 34 3 0.59578 13.801 12.0569 26.6938
136 34 4 -1.12325 13.4627 11.4036 26.223
137 35 2 0 15.3837 0.11081 25.5651
138 35 3 0.565919 15.97 0.71886 26.0155
139 35 3 0.509678 15.9343 20.0733 24.9036
140 35 4 -1.0756 15.5292 0.135039 25.5381
141 36 2 0 5.79288 19.0695 26.8118
142 36 3 0.569669 6.6216 18.7888 27.2
143 36 3 0.548128 5.12485 18.5817 27.2935
144 36 4 -1.1178 5.81345 18.9711 26.9231
145 37 2 0 14.1724 8.66902 27.4994
146 37 3 0.732137 14.1529 7.80627 27.9136
147 37 3 0.71784 13.4827 9.16346 27.9422
148 37 4 -1.44998 14.0816 8.62187 27.6091
149 38 2 0 2.3174 5.81054 24.5177
150 38 3 0.69587 1.67686 6.09413 25.17
151 38 3 0.884268 3.15574 6.1329 24.8486
152 38 4 -1.58014 2.34272 5.88811 24.6436
153 39 2 0 9.97885 19.4792 25.0231
154 39 3 0.632331 9.25936 19.8869 24.5411
155 39 3 0.644525 9.60801 19.2768 25.8821
156 39 4 -1.27686 9.83928 19.5055 25.0714
157 40 2 0 1.94045 8.54975 26.2161
158 40 3 0.837591 1.62016 7.64929 26.163
159 40 3 0.824096 1.14781 9.0863 26.2244
160 40 4 -1.66169 1.79798 8.50317 26.2103
161 41 2 0 9.0658 4.3806 28.1015
162 41 3 0.983094 9.3137 3.47562 27.9123
163 41 3 0.870468 8.1087 4.37034 28.1107
164 41 4 -1.85356 8.97501 4.26344 28.0785
165 42 2 0 8.3794 16.4705 25.8364
166 42 3 0.630481 8.95659 15.7215 25.9849
167 42 3 0.624696 7.50134 16.1372 26.0212
168 42 4 -1.25518 8.34088 16.332 25.879
169 43 2 0 1.00345 6.56172 26.1295
170 43 3 0.938961 1.26727 7.48165 26.1482
171 43 3 0.937131 1.54014 6.1721 25.4393
172 43 4 -1.87609 1.10592 6.6296 26.0435
173 44 2 0 13.676 4.75153 24.9712
174 44 3 0.620907 12.7213 4.75488 25.0405
175 44 3 0.618222 13.9792 4.5094 25.8462
176 44 4 -1.23913 13.5926 4.72097 25.0921
177 45 2 0 8.65588 6.69144 27.009
178 45 3 0.671607 8.74683 5.81347 27.3793
179 45 3 0.665353 9.38671 7.18549 27.3806
180 45 4 -1.33696 8.76108 6.64229 27.104
181 46 2 0 4.70095 11.7278 25.0837
182 46 3 0.646726 4.74184 11.9858 26.0046
183 46 3 0.623003 4.83232 10.7797 25.0941
184 46 4 -1.26973 4.723 11.6394 25.2029
185 47 2 0 4.89398 9.01055 24.747
186 47 3 0.706696 5.4784 8.90143 25.4972
187 47 3 0.725259 5.47181 9.26547 24.0277
188 47 4 -1.43196 5.04276 9.02921 24.751
189 48 2 0 4.58232 6.56462 25.6339
190 48 3 0.704405 4.74024 7.465 25.3499
191 48 3 0.647544 4.91375 6.02501 24.9161
192 48 4 -1.35195 4.64497 6.6108 25.5056
193 49 2 0 12.17 16.298 25.2076
194 49 3 0.716457 12.4929 17.1141 25.5897
195 49 3 0.731212 11.8875 16.5411 24.326
196 49 4 -1.44767 12.1752 16.4336 25.1437
197 50 2 0 6.73905 8.77885 26.7076
198 50 3 0.745739 7.04726 9.37847 27.3871
199 50 3 0.675143 7.4016 8.08865 26.6781
200 50 4 -1.42088 6.86332 8.76726 26.7908
201 51 2 0 10.3085 10.9688 25.9
202 51 3 0.718644 10.5445 11.053 26.8239
203 51 3 0.781387 10.8648 11.6056 25.4513
204 51 4 -1.50003 10.4099 11.0611 25.9608
205 52 2 0 0.851681 1.64044 27.3016
206 52 3 0.801339 17.5697 1.83937 27.2191
207 52 3 0.820287 1.29142 2.46982 27.1145
208 52 4 -1.62163 0.788582 1.77208 27.2671
209 53 2 0 3.4738 17.319 26.7225
210 53 3 0.788997 2.70214 17.8663 26.8681
211 53 3 0.835048 3.22749 16.745 25.9972
212 53 4 -1.62404 3.34349 17.3156 26.6483
213 54 2 0 14.5023 13.3724 27.7946
214 54 3 0.501377 14.8784 13.6797 28.6195
215 54 3 0.557527 15.0814 13.7269 27.12
216 54 4 -1.0589 14.6246 13.4571 27.8139
217 55 2 0 13.7176 2.82192 27.2111
218 55 3 0.59627 13.1398 2.06002 27.2545
219 55 3 0.674545 14.5699 2.49334 27.4972
220 55 4 -1.27082 13.7528 2.68232 27.2533
221 56 2 0 10.7872 7.90654 27.7098
222 56 3 0.959165 11.0595 7.72264 26.8108
223 56 3 0.813492 10.9055 7.07614 28.171
224 56 4 -1.77266 10.8372 7.7767 27.6538
225 57 2 0 1.57364 18.4559 27.0083
226 57 3 0.792628 1.94741 19.2001 27.4803
227 57 3 0.771358 2.31865 17.8783 26.8424
228 57 4 -1.56399 1.71686 18.4773 27.0475
229 58 2 0 12.4426 9.59094 28.6911
230 58 3 0.79903 11.829 8.86358 28.5878
231 58 3 0.77393 13.2435 9.29234 28.2602
232 58 4 -1.57296 12.4666 9.4596 28.6227
233 59 2 0 5.75593 15.7231 26.5321
234 59 3 0.672274 5.58203 15.2035 25.7472
235 59 3 0.564302 4.95317 16.2259 26.6698
236 59 4 -1.23658 5.63091 15.7209 26.4492
237 60 2 0 4.77052 1.97549 27.657
238 60 3 0.663592 5.6524 1.70278 27.4037
239 60 3 0.639145 4.28449 1.15652 27.7535
240 60 4 -1.30274 4.8212 1.83574 27.6369
241 61 2 0 9.87343 14.2741 26.6274
242 61 3 0.745955 9.1947 13.9255 27.2054
243 61 3 0.701543 10.2105 15.042 27.0888
244 61 4 -1.4475 9.82968 14.3278 26.7605
245 62 2 0 7.73614 12.9002 27.8496
246 62 3 0.753276 6.79598 13.0349 27.9689
247 62 3 0.819254 7.8895 12.0029 28.1455
248 62 4 -1.57253 7.63542 12.8026 27.9028
249 63 2 0 9.48768 2.32008 27.645
250 63 3 0.898033 8.61347 1.93973 27.5595
251 63 3 0.8297 9.32987 3.24977 27.8094
252 63 4 -1.72773 9.35557 2.3904 27.6551
253 64 2 0 11.4902 13.7512 28.8827
254 64 3 0.465775 12.422 13.6585 29.0816
255 64 3 0.624015 11.223 12.8847 28.5759
256 64 4 -1.08979 11.5753 13.6284 28.8689
257 65 2 0 14.1708 6.23834 28.8316
258 65 3 0.525121 14.8488 5.56489 28.7779
259 65 3 0.597188 13.3489 5.74902 28.8675
260 65 4 -1.12231 14.1523 6.08949 28.8293
261 66 2 0 5.76013 7.3394 28.7241
262 66 3 0.676941 5.95964 7.87084 27.9534
263 66 3 0.542007 5.84796 6.43551 28.4216
264 66 4 -1.21895 5.79691 7.29172 28.5867
265 67 2 0 16.3752 2.26616 27.1287
266 67 3 0.782341 17.28 1.96715 27.2189
267 67 3 0.815463 16.4506 3.17183 26.8282
268 67 4 -1.5978 16.5007 2.34382 27.1018
269 68 2 0 10.556 11.2267 28.1909
270 68 3 0.926462 11.2801 10.6239 28.3596
271 68 3 0.703005 10.4381 11.2005 27.2413
272 68 4 -1.62947 10.6336 11.1462 28.0909
273 69 2 0 11.967 1.05565 27.0501
274 69 3 0.542845 12.5941 1.77528 27.1217
275 69 3 0.728906 11.1439 1.42142 27.374
276 69 4 -1.27175 11.9419 1.19459 27.1007
277 70 2 0 4.95017 12.6049 27.6235
278 70 3 0.640552 4.57142 11.7481 27.8202
279 70 3 0.662829 4.2519 13.2279 27.8248
280 70 4 -1.30338 4.8123 12.575 27.6744
281 71 2 0 6.42497 5.06417 28.0252
282 71 3 0.674463 6.20143 5.92137 28.3878
283 71 3 0.671318 5.98961 5.04314 27.173
284 71 4 -1.34578 6.34062 5.17121 27.9625
285 72 2 0 2.67136 14.3742 27.5347
286 72 3 0.497328 2.40186 14.0266 26.6846
287 72 3 0.523837 2.72026 15.3209 27.4024
288 72 4 -1.02117 2.64312 14.4509 27.409
289 73 2 0 8.83653 19.1536 27.0646
290 73 3 0.701825 9.03721 18.2201 27.1318
291 73 3 0.626117 9.19898 19.4166 26.2187
292 73 4 -1.32794 8.90862 19.0677 26.9649
293 74 2 0 10.8886 16.5293 27.6875
294 74 3 0.569912 10.9996 15.802 28.2999
295 74 3 0.56476 11.5611 16.3869 27.0214
296 74 4 -1.13467 10.9889 16.4179 27.6806
297 75 2 0 2.62858 3.60983 27.1207
298 75 3 0.745198 3.42272 3.11633 27.3257
299 75 3 0.429426 2.27363 3.85864 27.9741
300 75 4 -1.17462 2.6848 3.5785 27.2562
301 76 2 0 11.0697 5.9307 28.6917
302 76 3 0.665163 10.9575 6.73555 28.1858
303 76 3 0.837824 10.2564 5.44518 28.5537
304 76 4 -1.50299 10.9513 5.97158 28.6092
305 77 2 0 7.09954 1.38019 27.2186
306 77 3 0.669254 6.32306 1.39564 27.7782
307 77 3 0.754781 7.0366 0.551544 26.7437
308 77 4 -1.42403 6.99208 1.27609 27.2295
309 78 2 0 13.1559 18.8874 25.9535
310 78 3 0.571322 12.5119 19.454 26.3783
311 78 3 0.600397 13.9907 19.34 26.0746
312 78 4 -1.17172 13.1804 19.0179 26.0234
313 79 2 0 3.83581 9.92677 27.8174
314 79 3 0.529556 4.23602 9.23758 28.3476
315 79 3 0.634396 3.3285 9.45652 27.1558
316 79 4 -1.16395 3.8221 9.77834 27.8006
317 80 2 0 7.84738 10.7498 28.2588
318 80 3 0.774769 8.79529 10.7804 28.3882
319 80 3 0.799054 7.60983 11.6439 28.0128
320 80 4 -1.57382 7.93832 10.8682 28.2439
321 81 2 0 8.00721 15.7224 28.7398
322 81 3 0.486744 7.96808 14.7744 28.8658
323 81 3 0.496102 7.21642 15.9313 28.2425
324 81 4 -0.982846 7.90097 15.6278 28.6923
