LAMMPS (2 Sep 2026)
OMP_NUM_THREADS environment is not set. Defaulting to 1 thread.
  using 1 OpenMP thread(s) per MPI task
# conductor demonstration, dynamics: arm samqeq, eta_Au 5.172 (run_dyn.py)
units           metal
atom_style      full
boundary        p p f
fix             pb all property/atom i_body ghost yes
read_data       data fix pb NULL RigidBodies
Reading data file ...
  orthogonal box = (0 0 0) to (17.650658 20.381224 60)
  1 by 1 by 1 MPI processor grid
  reading atoms ...
  564 atoms
  scanning bonds ...
  2 = max bonds/atom
  scanning angles ...
  1 = max angles/atom
  orthogonal box = (0 0 0) to (17.650658 20.381224 60)
  1 by 1 by 1 MPI processor grid
  reading bonds ...
  162 bonds
  reading angles ...
  81 angles
Finding 1-2 1-3 1-4 neighbors ...
  special bond factors lj:    0        0        0       
  special bond factors coul:  0        0        0       
     2 = max # of 1-2 neighbors
     1 = max # of 1-3 neighbors
     1 = max # of 1-4 neighbors
     2 = max # of special neighbors
  special bonds CPU = 0.000 seconds
  read_data CPU = 0.007 seconds
group           au   type 1
240 atoms in group au
group           water type 2 3 4
324 atoms in group water
group           fq   type 1 3 4
483 atoms in group fq
delete_atoms    group au bond yes
Deleted 240 atoms, new total = 324
Deleted 0 bonds, new total = 162
Deleted 0 angles, new total = 81
group           fq   type 3 4
243 atoms in group fq
pair_style      hybrid/overlay lj/cut 12.0 coul/long 12.0 coul/shield/intra 12.0 all gaussian
pair_coeff      * * lj/cut 0.0 1.0
pair_coeff      2 2 lj/cut 0.012412 3.159
pair_coeff      1 2 lj/cut 0.05 3.0            # illustrative Au-O term (not a fitted gold-water potential)
pair_coeff      * * coul/long
pair_coeff      1 1 coul/shield/intra 1.618
pair_coeff      2 2 coul/shield/intra 0.315328
pair_coeff      3 3 coul/shield/intra 0.404355
pair_coeff      4 4 coul/shield/intra 0.315328
special_bonds   lj/coul 1.0e-8 1.0e-8 1.0
Finding 1-2 1-3 1-4 neighbors ...
  special bond factors lj:    1e-08    1e-08    1       
  special bond factors coul:  1e-08    1e-08    1       
     2 = max # of 1-2 neighbors
     1 = max # of 1-3 neighbors
     2 = max # of special neighbors
  special bonds CPU = 0.000 seconds
kspace_style    pppm/samqeq 1.0e-6
kspace_modify   slab 3.0 mesh 24 28 80 gewald 0.35
Updated KSpace settings:
  KSpace computation is turned:    ON
  Use MPI collective operations:   OFF
  Use MPI non-blocking operations: OFF
  Gewald manually set to:          0.35
  Slab volfactor manually set to:    3
neighbor        2.0 bin
neigh_modify    every 1 delay 0 check yes
# per-molecule constraints
fix             chg fq qeq/sam 1 0.0 10.0 1.0e-8 param
fix_modify      chg shield gaussian
samqeq: lr-solve shielding = PQEq Gaussian erf(a_ij r)/r (param 4th col = Rc (Gaussian radius)); routed through compute_H + add_fixed_charge_field + the legacy gas path (calc_Hval)
fix_modify      chg energy yes
velocity        water create 298.0 4928459 mom yes rot yes dist gaussian
fix             rig water rigid/nvt/small custom i_body temp 298.0 298.0 0.1
Fix rigid/nvt/small setup ...
  create bodies CPU = 0.000 seconds
  81 rigid bodies with 324 atoms
  0.87348128 = max distance from body owner to body atom
variable        aq atom abs(q)
compute         qmax fq reduce max v_aq
thermo_style    custom step pe c_qmax
thermo          100
timestep        0.0002
dump            dq all custom 1000 charges.lammpstrj id mol type q x y z
dump_modify     dq sort id
run             4000

CITE-CITE-CITE-CITE-CITE-CITE-CITE-CITE-CITE-CITE-CITE-CITE-CITE

Your simulation uses code contributions which should be cited:

- fix acks2/reaxff command: https://doi.org/10.1137/18M1224684

@Article{O'Hearn2020,
 author = {K. A. {O'Hearn} and A. Alperen and H. M. Aktulga},
 title = {Fast Solvers for Charge Distribution Models on Shared Memory Platforms},
 journal = {SIAM J.\ Sci.\ Comput.},
 year =    2020,
 volume =  42,
 number =  1,
 pages =   {1--22}
}

CITE-CITE-CITE-CITE-CITE-CITE-CITE-CITE-CITE-CITE-CITE-CITE-CITE

PPPM initialization ...
WARNING: Using kspace solver on system with no charge (src/kspace.cpp:317)
  using 12-bit tables for long-range coulomb
  G vector (1/distance) = 0.35
  grid = 24 30 80
  stencil order = 5
  estimated absolute RMS force accuracy = 0
  estimated relative force accuracy = 0
  using double precision FFTW3
  3d grid and FFT values/proc = 94054 57600
Generated 0 of 6 mixed pair_coeff terms from geometric mixing rule
WARNING: Bonds are defined but no bond style is set (src/force.cpp:165)
WARNING: Likewise 1-2 special neighbor interactions != 1.0 (src/force.cpp:167)
WARNING: Angles are defined but no angle style is set (src/force.cpp:170)
WARNING: Likewise 1-3 special neighbor interactions != 1.0 (src/force.cpp:172)
samqeq: E_self = sum(chi q + 1/2 eta qs^2) INCLUDED in pe/etotal (fix_modify chg energy yes; eselfref qs = q - q0) -- pe + E_self is the energy the forces integrate
Neighbor list info ...
  update: every = 1 steps, delay = 0 steps, check = yes
  max neighbors/atom: 2000, page size: 100000
  master list distance cutoff = 14
  ghost atom cutoff = 14
  binsize = 7, bins = 3 3 9
  5 neighbor lists, perpetual/occasional/extra = 5 0 0
  (1) pair lj/cut, perpetual, half/full from (5)
      attributes: half, newton on
      pair build: halffull/newton
      stencil: none
      bin: none
  (2) pair coul/long, perpetual, copy from (1)
      attributes: half, newton on
      pair build: copy
      stencil: none
      bin: none
  (3) pair coul/shield/intra, perpetual, skip from (1)
      attributes: half, newton on
      pair build: skip
      stencil: none
      bin: none
  (4) fix qeq/sam, perpetual, half/full from (5)
      attributes: half, newton off
      pair build: halffull/newtoff
      stencil: none
      bin: none
  (5) fix qeq/sam, perpetual
      attributes: full, newton on
      pair build: full/bin
      stencil: full/bin/3d
      bin: standard
samqeq: recip_self ACTIVE at run start (step 0): not yet calibrated -- measured at the first solve by the K=16 deterministic-probe route
samqeq: calibrated grid reciprocal self-term recip_self=0.39461 +/- 0.00022 (raw, K=16 deterministic probes) = 5.6822 eV/e (subtracted so the QEq diagonal stays = eta)
samqeq SOLVER-DIAG step 0: CG 18 iters (=18 matvecs), resid/b=4.55e-09
Per MPI rank memory allocation (min/avg/max) = 32.19 | 32.19 | 32.19 Mbytes
   Step         PotEng         c_qmax    
         0  -537.1019       1.2792977    
       100  -542.06362      1.3057185    
samqeq SOLVER-DIAG step 200: CG 18 iters (=18 matvecs), resid/b=6.72e-09
       200  -540.93274      1.3186281    
       300  -544.72893      1.3351979    
samqeq SOLVER-DIAG step 400: CG 18 iters (=18 matvecs), resid/b=5.49e-09
       400  -546.40844      1.395348     
       500  -550.03861      1.4576382    
samqeq SOLVER-DIAG step 600: CG 18 iters (=18 matvecs), resid/b=9.33e-09
       600  -556.33225      1.4570571    
       700  -567.44059      1.4819963    
samqeq SOLVER-DIAG step 800: CG 18 iters (=18 matvecs), resid/b=7.32e-09
       800  -562.31053      1.3633815    
       900  -563.27556      1.3457413    
samqeq SOLVER-DIAG step 1000: CG 20 iters (=20 matvecs), resid/b=4.39e-09
      1000  -576.85677      1.4991156    
      1100  -577.06772      1.5229153    
samqeq SOLVER-DIAG step 1200: CG 20 iters (=20 matvecs), resid/b=8.97e-09
      1200  -577.37112      1.5764316    
      1300  -618.67166      1.8188929    
samqeq SOLVER-DIAG step 1400: CG 22 iters (=22 matvecs), resid/b=4.49e-09
      1400  -641.47988      1.9353883    
      1500  -656.56478      2.0034629    
samqeq SOLVER-DIAG step 1600: CG 22 iters (=22 matvecs), resid/b=4.86e-09
      1600  -644.40659      1.8984755    
      1700  -667.1761       2.0857704    
samqeq SOLVER-DIAG step 1800: CG 21 iters (=21 matvecs), resid/b=7.61e-09
      1800  -646.99584      1.6063153    
      1900  -650.09376      1.7539397    
samqeq SOLVER-DIAG step 2000: CG 21 iters (=21 matvecs), resid/b=7.57e-09
      2000  -642.24045      1.6295969    
      2100  -653.47652      1.5637136    
samqeq SOLVER-DIAG step 2200: CG 23 iters (=23 matvecs), resid/b=4.33e-09
      2200  -695.19321      1.9545899    
      2300  -687.18995      1.891182     
samqeq SOLVER-DIAG step 2400: CG 22 iters (=22 matvecs), resid/b=5.66e-09
      2400  -703.97824      1.8026533    
      2500  -701.81533      1.8056854    
samqeq SOLVER-DIAG step 2600: CG 21 iters (=21 matvecs), resid/b=7.84e-09
      2600  -695.85443      1.5863959    
      2700  -711.76947      2.0215207    
samqeq SOLVER-DIAG step 2800: CG 22 iters (=22 matvecs), resid/b=4.09e-09
      2800  -710.39545      1.6868934    
      2900  -704.73526      1.726245     
samqeq SOLVER-DIAG step 3000: CG 22 iters (=22 matvecs), resid/b=5.10e-09
      3000  -711.77889      1.8632466    
      3100  -729.38787      1.843708     
samqeq SOLVER-DIAG step 3200: CG 22 iters (=22 matvecs), resid/b=6.07e-09
      3200  -740.17882      1.7926031    
      3300  -769.22048      2.0878986    
samqeq SOLVER-DIAG step 3400: CG 23 iters (=23 matvecs), resid/b=7.51e-09
      3400  -787.34177      2.1359056    
      3500  -804.47741      2.2234255    
samqeq SOLVER-DIAG step 3600: CG 23 iters (=23 matvecs), resid/b=5.21e-09
      3600  -785.35862      1.9159414    
      3700  -835.72862      2.4364473    
samqeq SOLVER-DIAG step 3800: CG 23 iters (=23 matvecs), resid/b=4.54e-09
      3800  -783.41779      1.8751589    
      3900  -833.25137      2.4120248    
samqeq SOLVER-DIAG step 4000: CG 23 iters (=23 matvecs), resid/b=9.21e-09
      4000  -803.60691      2.0665249    
Loop time of 268.764 on 1 procs for 4000 steps with 324 atoms

Performance: 0.257 ns/day, 93.321 hours/ns, 14.883 timesteps/s, 4.822 katom-step/s
99.8% CPU use with 1 MPI tasks x 1 OpenMP threads

MPI task timing breakdown:
Section |  min time  |  avg time  |  max time  |%varavg| %total
---------------------------------------------------------------
Pair    | 10.875     | 10.875     | 10.875     |   0.0 |  4.05
Bond    | 0.0018603  | 0.0018603  | 0.0018603  |   0.0 |  0.00
Kspace  | 22.35      | 22.35      | 22.35      |   0.0 |  8.32
Neigh   | 0.097733   | 0.097733   | 0.097733   |   0.0 |  0.04
Comm    | 0.069987   | 0.069987   | 0.069987   |   0.0 |  0.03
Output  | 0.0036487  | 0.0036487  | 0.0036487  |   0.0 |  0.00
Modify  | 235.33     | 235.33     | 235.33     |   0.0 | 87.56
Other   |            | 0.03217    |            |       |  0.01

Nlocal:            324 ave         324 max         324 min
Histogram: 1 0 0 0 0 0 0 0 0 0
Nghost:           1779 ave        1779 max        1779 min
Histogram: 1 0 0 0 0 0 0 0 0 0
Neighs:          85868 ave       85868 max       85868 min
Histogram: 1 0 0 0 0 0 0 0 0 0
FullNghs:       171736 ave      171736 max      171736 min
Histogram: 1 0 0 0 0 0 0 0 0 0

Total # of neighbors = 171736
Ave neighs/atom = 530.04938
Ave special neighs/atom = 1.5
Neighbor list builds = 29
Dangerous builds = 0
print           "DYN_DONE" file done.txt screen no
Total wall time: 0:04:28
