ITEM: TIMESTEP
0
ITEM: NUMBER OF ATOMS
2162
ITEM: BOX BOUNDS pp pp ff
0.0000000000000000e+00 5.2951974149999998e+01
0.0000000000000000e+00 6.1143673049999997e+01
0.0000000000000000e+00 6.0000000000000000e+01
ITEM: ATOMS id mol type q x y z
1 1 1 0.000551946729649 0.00000000 0.00000000 25.00000000
2 1 1 0.000556890375146 1.47088817 2.54765304 25.00000000
3 1 1 0.000567988074534 0.00000000 5.09530609 25.00000000
4 1 1 0.000589344602916 1.47088817 7.64295913 25.00000000
5 1 1 0.000615277019743 0.00000000 10.19061218 25.00000000
6 1 1 0.000652273831251 1.47088817 12.73826522 25.00000000
7 1 1 0.000689296115025 0.00000000 15.28591827 25.00000000
8 1 1 0.000737656425806 1.47088817 17.83357131 25.00000000
9 1 1 0.000555373899553 2.94177634 0.00000000 25.00000000
10 1 1 0.0005641879766 4.41266451 2.54765304 25.00000000
11 1 1 0.00057245882164 2.94177634 5.09530609 25.00000000
12 1 1 0.000601069596768 4.41266451 7.64295913 25.00000000
13 1 1 0.000623320639663 2.94177634 10.19061218 25.00000000
14 1 1 0.000674610170815 4.41266451 12.73826522 25.00000000
15 1 1 0.000704489259328 2.94177634 15.28591827 25.00000000
16 1 1 0.000778946567043 4.41266451 17.83357131 25.00000000
17 1 1 0.000565392877189 5.88355268 0.00000000 25.00000000
18 1 1 0.000578256669073 7.35444085 2.54765304 25.00000000
19 1 1 0.000585634889209 5.88355268 5.09530609 25.00000000
20 1 1 0.000624164002215 7.35444085 7.64295913 25.00000000
21 1 1 0.000647486415282 5.88355268 10.19061218 25.00000000
22 1 1 0.000720138861792 7.35444085 12.73826522 25.00000000
23 1 1 0.000751368351774 5.88355268 15.28591827 25.00000000
24 1 1 0.000867011695833 7.35444085 17.83357131 25.00000000
25 1 1 0.000581189947319 8.82532903 0.00000000 25.00000000
26 1 1 0.000597975057901 10.29621720 2.54765304 25.00000000
27 1 1 0.000606737137188 8.82532903 5.09530609 25.00000000
28 1 1 0.000657652495553 10.29621720 7.64295913 25.00000000
29 1 1 0.000687654974632 8.82532903 10.19061218 25.00000000
30 1 1 0.000789912131899 10.29621720 12.73826522 25.00000000
31 1 1 0.000833533735891 8.82532903 15.28591827 25.00000000
32 1 1 0.00101290777849 10.29621720 17.83357131 25.00000000
33 1 1 0.000601340709027 11.76710537 0.00000000 25.00000000
34 1 1 0.000621530735995 13.23799354 2.54765304 25.00000000
35 1 1 0.000634252250272 11.76710537 5.09530609 25.00000000
36 1 1 0.000699445567277 13.23799354 7.64295913 25.00000000
37 1 1 0.000742854178074 11.76710537 10.19061218 25.00000000
38 1 1 0.000883634960817 13.23799354 12.73826522 25.00000000
39 1 1 0.000955727009193 11.76710537 15.28591827 25.00000000
40 1 1 0.00123268032066 13.23799354 17.83357131 25.00000000
41 1 1 0.000623773232501 14.70888171 0.00000000 25.00000000
42 1 1 0.000646380444144 16.17976988 2.54765304 25.00000000
43 1 1 0.000665696997561 14.70888171 5.09530609 25.00000000
44 1 1 0.000745756032036 16.17976988 7.64295913 25.00000000
45 1 1 0.000810082897639 14.70888171 10.19061218 25.00000000
46 1 1 0.000996956000181 16.17976988 12.73826522 25.00000000
47 1 1 0.00112087344445 14.70888171 15.28591827 25.00000000
48 1 1 0.0015424631905 16.17976988 17.83357131 25.00000000
49 1 1 0.000149501668649 1.47088817 0.84921768 27.40195032
50 1 1 0.000152080660211 2.94177634 3.39687073 27.40195032
51 1 1 0.000155271505552 1.47088817 5.94452377 27.40195032
52 1 1 0.000162627137148 2.94177634 8.49217681 27.40195032
53 1 1 0.000169398131658 1.47088817 11.03982986 27.40195032
54 1 1 0.000181651926542 2.94177634 13.58748290 27.40195032
55 1 1 0.000190412748449 1.47088817 16.13513595 27.40195032
56 1 1 0.000206672706662 2.94177634 18.68278899 27.40195032
57 1 1 0.000151319624137 4.41266451 0.84921768 27.40195032
58 1 1 0.000155100931521 5.88355268 3.39687073 27.40195032
59 1 1 0.000157832423077 4.41266451 5.94452377 27.40195032
60 1 1 0.000167746501301 5.88355268 8.49217681 27.40195032
61 1 1 0.000174117379615 4.41266451 11.03982986 27.40195032
62 1 1 0.00019150933921 5.88355268 13.58748290 27.40195032
63 1 1 0.000199262354031 4.41266451 16.13513595 27.40195032
64 1 1 0.000224685926365 5.88355268 18.68278899 27.40195032
65 1 1 0.000154812989892 7.35444085 0.84921768 27.40195032
66 1 1 0.00015989463762 8.82532903 3.39687073 27.40195032
67 1 1 0.00016282780358 7.35444085 5.94452377 27.40195032
68 1 1 0.000176117482869 8.82532903 8.49217681 27.40195032
69 1 1 0.000183587858099 7.35444085 11.03982986 27.40195032
70 1 1 0.000208331946914 8.82532903 13.58748290 27.40195032
71 1 1 0.000217685619459 7.35444085 16.13513595 27.40195032
72 1 1 0.000257215463803 8.82532903 18.68278899 27.40195032
73 1 1 0.000159684061584 10.29621720 0.84921768 27.40195032
74 1 1 0.000166066258129 11.76710537 3.39687073 27.40195032
75 1 1 0.000169959407492 10.29621720 5.94452377 27.40195032
76 1 1 0.000187348317783 11.76710537 8.49217681 27.40195032
77 1 1 0.000197724920709 10.29621720 11.03982986 27.40195032
78 1 1 0.000232338133878 11.76710537 13.58748290 27.40195032
79 1 1 0.000246944006637 10.29621720 16.13513595 27.40195032
80 1 1 0.000308360046352 11.76710537 18.68278899 27.40195032
81 1 1 0.000165464707349 13.23799354 0.84921768 27.40195032
82 1 1 0.000173012446438 14.70888171 3.39687073 27.40195032
83 1 1 0.000178679789016 13.23799354 5.94452377 27.40195032
84 1 1 0.000200619479391 14.70888171 8.49217681 27.40195032
85 1 1 0.000216031314149 13.23799354 11.03982986 27.40195032
86 1 1 0.000263059268792 14.70888171 13.58748290 27.40195032
87 1 1 0.000288473008171 13.23799354 16.13513595 27.40195032
88 1 1 0.000384841323264 14.70888171 18.68278899 27.40195032
89 1 1 0.000171517811703 16.17976988 0.84921768 27.40195032
90 1 1 0.000151051063289 0.00000000 3.39687073 27.40195032
91 1 1 0.000188118744369 16.17976988 5.94452377 27.40195032
92 1 1 0.000160908951155 0.00000000 8.49217681 27.40195032
93 1 1 0.000237195468241 16.17976988 11.03982986 27.40195032
94 1 1 0.000178415805612 0.00000000 13.58748290 27.40195032
95 1 1 0.00034306598211 16.17976988 16.13513595 27.40195032
96 1 1 0.000200915285933 0.00000000 18.68278899 27.40195032
97 1 1 1.68484778936e-07 2.94177634 1.69843536 29.80390065
98 1 1 1.72750694147e-07 4.41266451 4.24608841 29.80390065
99 1 1 1.76403636388e-07 2.94177634 6.79374145 29.80390065
100 1 1 1.86773095233e-07 4.41266451 9.34139450 29.80390065
101 1 1 1.93975435861e-07 2.94177634 11.88904754 29.80390065
102 1 1 2.10991160608e-07 4.41266451 14.43670058 29.80390065
103 1 1 2.19541492606e-07 2.94177634 16.98435363 29.80390065
104 1 1 2.4251948255e-07 4.41266451 19.53200667 29.80390065
105 1 1 1.71654908581e-07 5.88355268 1.69843536 29.80390065
106 1 1 1.77675710772e-07 7.35444085 4.24608841 29.80390065
107 1 1 1.81240031055e-07 5.88355268 6.79374145 29.80390065
108 1 1 1.95513443112e-07 7.35444085 9.34139450 29.80390065
109 1 1 2.02949910978e-07 5.88355268 11.88904754 29.80390065
110 1 1 2.27494834038e-07 7.35444085 14.43670058 29.80390065
111 1 1 2.3562906324e-07 5.88355268 16.98435363 29.80390065
112 1 1 2.69710722918e-07 7.35444085 19.53200667 29.80390065
113 1 1 1.76695222072e-07 8.82532903 1.69843536 29.80390065
114 1 1 1.8473546705e-07 10.29621720 4.24608841 29.80390065
115 1 1 1.89177303603e-07 8.82532903 6.79374145 29.80390065
116 1 1 2.0857158674e-07 10.29621720 9.34139450 29.80390065
117 1 1 2.18206706656e-07 8.82532903 11.88904754 29.80390065
118 1 1 2.53379664409e-07 10.29621720 14.43670058 29.80390065
119 1 1 2.63267182708e-07 8.82532903 16.98435363 29.80390065
120 1 1 3.12034381088e-07 10.29621720 19.53200667 29.80390065
121 1 1 1.83199795822e-07 11.76710537 1.69843536 29.80390065
122 1 1 1.93402273114e-07 13.23799354 4.24608841 29.80390065
123 1 1 1.99859092004e-07 11.76710537 6.79374145 29.80390065
124 1 1 2.25473889946e-07 13.23799354 9.34139450 29.80390065
125 1 1 2.39970650877e-07 11.76710537 11.88904754 29.80390065
126 1 1 2.91291847997e-07 13.23799354 14.43670058 29.80390065
127 1 1 3.06663896812e-07 11.76710537 16.98435363 29.80390065
128 1 1 3.88815211218e-07 13.23799354 19.53200667 29.80390065
129 1 1 1.90536366315e-07 14.70888171 1.69843536 29.80390065
130 1 1 2.02799572351e-07 16.17976988 4.24608841 29.80390065
131 1 1 2.12486451097e-07 14.70888171 6.79374145 29.80390065
132 1 1 2.45113661384e-07 16.17976988 9.34139450 29.80390065
133 1 1 2.68278090889e-07 14.70888171 11.88904754 29.80390065
134 1 1 3.45709195487e-07 16.17976988 14.43670058 29.80390065
135 1 1 3.8186850774e-07 14.70888171 16.98435363 29.80390065
136 1 1 5.67826714874e-07 16.17976988 19.53200667 29.80390065
137 1 1 1.67405008405e-07 0.00000000 1.69843536 29.80390065
138 1 1 1.70232520905e-07 1.47088817 4.24608841 29.80390065
139 1 1 1.74784082278e-07 0.00000000 6.79374145 29.80390065
140 1 1 1.82425443616e-07 1.47088817 9.34139450 29.80390065
141 1 1 1.91025089708e-07 0.00000000 11.88904754 29.80390065
142 1 1 2.02947524199e-07 1.47088817 14.43670058 29.80390065
143 1 1 2.14261894826e-07 0.00000000 16.98435363 29.80390065
144 1 1 2.28969681014e-07 1.47088817 19.53200667 29.80390065
145 1 1 -0.000151551493998 4.41266451 2.54765304 32.20585097
146 1 1 -0.000157204166039 5.88355268 5.09530609 32.20585097
147 1 1 -0.000161275100273 4.41266451 7.64295913 32.20585097
148 1 1 -0.000173462425556 5.88355268 10.19061218 32.20585097
149 1 1 -0.00018060302099 4.41266451 12.73826522 32.20585097
150 1 1 -0.000200590394814 5.88355268 15.28591827 32.20585097
151 1 1 -0.000207845822961 4.41266451 17.83357131 32.20585097
152 1 1 -0.000151869764547 5.88355268 0.00000000 32.20585097
153 1 1 -0.000155261525973 7.35444085 2.54765304 32.20585097
154 1 1 -0.000162752165131 8.82532903 5.09530609 32.20585097
155 1 1 -0.000167329235796 7.35444085 7.64295913 32.20585097
156 1 1 -0.000183923756807 8.82532903 10.19061218 32.20585097
157 1 1 -0.000192412570636 7.35444085 12.73826522 32.20585097
158 1 1 -0.000221618764548 8.82532903 15.28591827 32.20585097
159 1 1 -0.000230296434142 7.35444085 17.83357131 32.20585097
160 1 1 -0.000156038273004 8.82532903 0.00000000 32.20585097
161 1 1 -0.00016045740888 10.29621720 2.54765304 32.20585097
162 1 1 -0.000169974681976 11.76710537 5.09530609 32.20585097
163 1 1 -0.000176086657491 10.29621720 7.64295913 32.20585097
164 1 1 -0.000198215302278 11.76710537 10.19061218 32.20585097
165 1 1 -0.000210365380254 10.29621720 12.73826522 32.20585097
166 1 1 -0.00025244326837 11.76710537 15.28591827 32.20585097
167 1 1 -0.000266902291608 10.29621720 17.83357131 32.20585097
168 1 1 -0.000161351862269 11.76710537 0.00000000 32.20585097
169 1 1 -0.000166658095088 13.23799354 2.54765304 32.20585097
170 1 1 -0.000178210877714 14.70888171 5.09530609 32.20585097
171 1 1 -0.000186974663266 13.23799354 7.64295913 32.20585097
172 1 1 -0.000215479023962 14.70888171 10.19061218 32.20585097
173 1 1 -0.000234200506147 13.23799354 12.73826522 32.20585097
174 1 1 -0.000293494140998 14.70888171 15.28591827 32.20585097
175 1 1 -0.000321256089496 13.23799354 17.83357131 32.20585097
176 1 1 -0.000167262230614 14.70888171 0.00000000 32.20585097
177 1 1 -0.00017319159257 16.17976988 2.54765304 32.20585097
178 1 1 -0.000152559334691 0.00000000 5.09530609 32.20585097
179 1 1 -0.000198979923238 16.17976988 7.64295913 32.20585097
180 1 1 -0.000165041572716 0.00000000 10.19061218 32.20585097
181 1 1 -0.000262649330248 16.17976988 12.73826522 32.20585097
182 1 1 -0.000184531871898 0.00000000 15.28591827 32.20585097
183 1 1 -0.00039793906373 16.17976988 17.83357131 32.20585097
184 1 1 -0.000148319528209 0.00000000 0.00000000 32.20585097
185 1 1 -0.00014962612729 1.47088817 2.54765304 32.20585097
186 1 1 -0.000153736516106 2.94177634 5.09530609 32.20585097
187 1 1 -0.000158197357476 1.47088817 7.64295913 32.20585097
188 1 1 -0.00016714692612 2.94177634 10.19061218 32.20585097
189 1 1 -0.000174784178673 1.47088817 12.73826522 32.20585097
190 1 1 -0.000188475773002 2.94177634 15.28591827 32.20585097
191 1 1 -0.000197212175979 1.47088817 17.83357131 32.20585097
192 1 1 -0.000149224601398 2.94177634 0.00000000 32.20585097
193 1 1 -0.000575047182628 5.88355268 3.39687073 34.60780130
194 1 1 -0.000604274796528 7.35444085 5.94452377 34.60780130
195 1 1 -0.000622876079093 5.88355268 8.49217681 34.60780130
196 1 1 -0.000683131950818 7.35444085 11.03982986 34.60780130
197 1 1 -0.000713194995553 5.88355268 13.58748290 34.60780130
198 1 1 -0.000813995864976 7.35444085 16.13513595 34.60780130
199 1 1 -0.000840592270765 5.88355268 18.68278899 34.60780130
200 1 1 -0.000573951432955 7.35444085 0.84921768 34.60780130
201 1 1 -0.000593161657364 8.82532903 3.39687073 34.60780130
202 1 1 -0.000631331300961 10.29621720 5.94452377 34.60780130
203 1 1 -0.000654745768307 8.82532903 8.49217681 34.60780130
204 1 1 -0.000737452099977 10.29621720 11.03982986 34.60780130
205 1 1 -0.000778162896487 8.82532903 13.58748290 34.60780130
206 1 1 -0.00092902305156 10.29621720 16.13513595 34.60780130
207 1 1 -0.000968992839702 8.82532903 18.68278899 34.60780130
208 1 1 -0.000592334976032 10.29621720 0.84921768 34.60780130
209 1 1 -0.000616507590654 11.76710537 3.39687073 34.60780130
210 1 1 -0.000664493824793 13.23799354 5.94452377 34.60780130
211 1 1 -0.000697668507593 11.76710537 8.49217681 34.60780130
212 1 1 -0.000808395847613 13.23799354 11.03982986 34.60780130
213 1 1 -0.000871943730332 11.76710537 13.58748290 34.60780130
214 1 1 -0.00109487792771 13.23799354 16.13513595 34.60780130
215 1 1 -0.00117416557438 11.76710537 18.68278899 34.60780130
216 1 1 -0.000614168582484 13.23799354 0.84921768 34.60780130
217 1 1 -0.000642819316364 14.70888171 3.39687073 34.60780130
218 1 1 -0.000700500467431 16.17976988 5.94452377 34.60780130
219 1 1 -0.000748669974636 14.70888171 8.49217681 34.60780130
220 1 1 -0.000891280335631 16.17976988 11.03982986 34.60780130
221 1 1 -0.00099363424872 14.70888171 13.58748290 34.60780130
222 1 1 -0.00131489258812 16.17976988 16.13513595 34.60780130
223 1 1 -0.0014821107083 14.70888171 18.68278899 34.60780130
224 1 1 -0.000637051517673 16.17976988 0.84921768 34.60780130
225 1 1 -0.000559755835692 0.00000000 3.39687073 34.60780130
226 1 1 -0.000575660858383 1.47088817 5.94452377 34.60780130
227 1 1 -0.000596910059787 0.00000000 8.49217681 34.60780130
228 1 1 -0.000628967297067 1.47088817 11.03982986 34.60780130
229 1 1 -0.000663030067795 0.00000000 13.58748290 34.60780130
230 1 1 -0.000708496238352 1.47088817 16.13513595 34.60780130
231 1 1 -0.00074827674223 0.00000000 18.68278899 34.60780130
232 1 1 -0.000553921711203 1.47088817 0.84921768 34.60780130
233 1 1 -0.000563642307011 2.94177634 3.39687073 34.60780130
234 1 1 -0.000585352790632 4.41266451 5.94452377 34.60780130
235 1 1 -0.000603430015978 2.94177634 8.49217681 34.60780130
236 1 1 -0.000646946164615 4.41266451 11.03982986 34.60780130
237 1 1 -0.00067539855998 2.94177634 13.58748290 34.60780130
238 1 1 -0.000742545004582 4.41266451 16.13513595 34.60780130
239 1 1 -0.000770511527995 2.94177634 18.68278899 34.60780130
240 1 1 -0.000560775652454 4.41266451 0.84921768 34.60780130
241 1 1 0.0007765573471 0.00000000 20.38122435 25.00000000
242 1 1 0.000825319192578 1.47088817 22.92887739 25.00000000
243 1 1 0.000850727792357 0.00000000 25.47653044 25.00000000
244 1 1 0.000883002953214 1.47088817 28.02418348 25.00000000
245 1 1 0.000880411732658 0.00000000 30.57183653 25.00000000
246 1 1 0.000882999453722 1.47088817 33.11948957 25.00000000
247 1 1 0.000850722217155 0.00000000 35.66714262 25.00000000
248 1 1 0.000825311542322 1.47088817 38.21479566 25.00000000
249 1 1 0.000802776356766 2.94177634 20.38122435 25.00000000
250 1 1 0.000892000834725 4.41266451 22.92887739 25.00000000
251 1 1 0.000888688126549 2.94177634 25.47653044 25.00000000
252 1 1 0.000969973628898 4.41266451 28.02418348 25.00000000
253 1 1 0.000923718362029 2.94177634 30.57183653 25.00000000
254 1 1 0.000969966133459 4.41266451 33.11948957 25.00000000
255 1 1 0.000888679462601 2.94177634 35.66714262 25.00000000
256 1 1 0.00089198562471 4.41266451 38.21479566 25.00000000
257 1 1 0.00088634279869 5.88355268 20.38122435 25.00000000
258 1 1 0.00104171932263 7.35444085 22.92887739 25.00000000
259 1 1 0.0010134216222 5.88355268 25.47653044 25.00000000
260 1 1 0.0011728280057 7.35444085 28.02418348 25.00000000
261 1 1 0.00106791154283 5.88355268 30.57183653 25.00000000
262 1 1 0.00117281002414 7.35444085 33.11948957 25.00000000
263 1 1 0.00101340112397 5.88355268 35.66714262 25.00000000
264 1 1 0.00104168402826 7.35444085 38.21479566 25.00000000
265 1 1 0.00104318949579 8.82532903 20.38122435 25.00000000
266 1 1 0.00131491675477 10.29621720 22.92887739 25.00000000
267 1 1 0.00126422872513 8.82532903 25.47653044 25.00000000
268 1 1 0.00157241678277 10.29621720 28.02418348 25.00000000
269 1 1 0.00136700103052 8.82532903 30.57183653 25.00000000
270 1 1 0.00157238075774 10.29621720 33.11948957 25.00000000
271 1 1 0.0012641822946 8.82532903 35.66714262 25.00000000
272 1 1 0.00131484491879 10.29621720 38.21479566 25.00000000
273 1 1 0.00130435135234 11.76710537 20.38122435 25.00000000
274 1 1 0.00179702863167 13.23799354 22.92887739 25.00000000
275 1 1 0.00173707341405 11.76710537 25.47653044 25.00000000
276 1 1 0.0023768308713 13.23799354 28.02418348 25.00000000
277 1 1 0.00196468001358 11.76710537 30.57183653 25.00000000
278 1 1 0.00237677902039 13.23799354 33.11948957 25.00000000
279 1 1 0.00173698875072 11.76710537 35.66714262 25.00000000
280 1 1 0.00179691746132 13.23799354 38.21479566 25.00000000
281 1 1 0.00172185474365 14.70888171 20.38122435 25.00000000
282 1 1 0.00265150232125 16.17976988 22.92887739 25.00000000
283 1 1 0.00265692636233 14.70888171 25.47653044 25.00000000
284 1 1 0.00410540756195 16.17976988 28.02418348 25.00000000
285 1 1 0.00324053937263 14.70888171 30.57183653 25.00000000
286 1 1 0.00410537042079 16.17976988 33.11948957 25.00000000
287 1 1 0.00265682041531 14.70888171 35.66714262 25.00000000
288 1 1 0.0026513961469 16.17976988 38.21479566 25.00000000
289 1 1 0.000214135368074 1.47088817 21.23044203 27.40195032
290 1 1 0.000231335333759 2.94177634 23.77809508 27.40195032
291 1 1 0.000232882323046 1.47088817 26.32574812 27.40195032
292 1 1 0.000245830473819 2.94177634 28.87340116 27.40195032
293 1 1 0.000238350961435 1.47088817 31.42105421 27.40195032
294 1 1 0.000242730163365 2.94177634 33.96870725 27.40195032
295 1 1 0.000227750466301 1.47088817 36.51636030 27.40195032
296 1 1 0.000223728382882 2.94177634 39.06401334 27.40195032
297 1 1 0.000229026647394 4.41266451 21.23044203 27.40195032
298 1 1 0.000259688964663 5.88355268 23.77809508 27.40195032
299 1 1 0.000253654948417 4.41266451 26.32574812 27.40195032
300 1 1 0.000281456810066 5.88355268 28.87340116 27.40195032
301 1 1 0.000261036015626 4.41266451 31.42105421 27.40195032
302 1 1 0.000276719166344 5.88355268 33.96870725 27.40195032
303 1 1 0.000246808801356 4.41266451 36.51636030 27.40195032
304 1 1 0.000248630778206 5.88355268 39.06401334 27.40195032
305 1 1 0.000261450724914 7.35444085 21.23044203 27.40195032
306 1 1 0.000314609153154 8.82532903 23.77809508 27.40195032
307 1 1 0.000300903852163 7.35444085 26.32574812 27.40195032
308 1 1 0.000354125124494 8.82532903 28.87340116 27.40195032
309 1 1 0.000313396253527 7.35444085 31.42105421 27.40195032
310 1 1 0.000345243102013 8.82532903 33.96870725 27.40195032
311 1 1 0.000289608104278 7.35444085 36.51636030 27.40195032
312 1 1 0.000295742992538 8.82532903 39.06401334 27.40195032
313 1 1 0.000317783126176 10.29621720 21.23044203 27.40195032
314 1 1 0.000414178011095 11.76710537 23.77809508 27.40195032
315 1 1 0.000391610108391 10.29621720 26.32574812 27.40195032
316 1 1 0.000501159840351 11.76710537 28.87340116 27.40195032
317 1 1 0.000417479097222 10.29621720 31.42105421 27.40195032
318 1 1 0.000480490607437 11.76710537 33.96870725 27.40195032
319 1 1 0.000369343653873 10.29621720 36.51636030 27.40195032
320 1 1 0.000377023019553 11.76710537 39.06401334 27.40195032
321 1 1 0.000411902419708 13.23799354 21.23044203 27.40195032
322 1 1 0.000604313133664 14.70888171 23.77809508 27.40195032
323 1 1 0.000574811493308 13.23799354 26.32574812 27.40195032
324 1 1 0.000835269552013 14.70888171 28.87340116 27.40195032
325 1 1 0.00064156600804 13.23799354 31.42105421 27.40195032
326 1 1 0.000776287383274 14.70888171 33.96870725 27.40195032
327 1 1 0.000521521785218 13.23799354 36.51636030 27.40195032
328 1 1 0.000519697576529 14.70888171 39.06401334 27.40195032
329 1 1 0.000571571202802 16.17976988 21.23044203 27.40195032
330 1 1 0.000222530101998 0.00000000 23.77809508 27.40195032
331 1 1 0.000980767225514 16.17976988 26.32574812 27.40195032
332 1 1 0.000234979010819 0.00000000 28.87340116 27.40195032
333 1 1 0.00118048302107 16.17976988 31.42105421 27.40195032
334 1 1 0.000232332828177 0.00000000 33.96870725 27.40195032
335 1 1 0.00083397199826 16.17976988 36.51636030 27.40195032
336 1 1 0.000215922761238 0.00000000 39.06401334 27.40195032
337 1 1 2.48475182598e-07 2.94177634 22.07965971 29.80390065
338 1 1 2.74638717636e-07 4.41266451 24.62731276 29.80390065
339 1 1 2.72383622369e-07 2.94177634 27.17496580 29.80390065
340 1 1 2.95735070891e-07 4.41266451 29.72261885 29.80390065
341 1 1 2.79776456748e-07 2.94177634 32.27027189 29.80390065
342 1 1 2.91795159893e-07 4.41266451 34.81792493 29.80390065
343 1 1 2.65896446599e-07 2.94177634 37.36557798 29.80390065
344 1 1 2.64584483544e-07 4.41266451 39.91323102 29.80390065
345 1 1 2.73765723024e-07 5.88355268 22.07965971 29.80390065
346 1 1 3.18423202913e-07 7.35444085 24.62731276 29.80390065
347 1 1 3.10974380939e-07 5.88355268 27.17496580 29.80390065
348 1 1 3.62684678681e-07 7.35444085 29.72261885 29.80390065
349 1 1 3.24707869705e-07 5.88355268 32.27027189 29.80390065
350 1 1 3.60081015377e-07 7.35444085 34.81792493 29.80390065
351 1 1 3.03867393275e-07 5.88355268 37.36557798 29.80390065
352 1 1 3.11031945975e-07 7.35444085 39.91323102 29.80390065
353 1 1 3.15933079402e-07 8.82532903 22.07965971 29.80390065
354 1 1 3.945343175e-07 10.29621720 24.62731276 29.80390065
355 1 1 3.93327151104e-07 8.82532903 27.17496580 29.80390065
356 1 1 5.18825455091e-07 10.29621720 29.72261885 29.80390065
357 1 1 4.33341614059e-07 8.82532903 32.27027189 29.80390065
358 1 1 5.28357634534e-07 10.29621720 34.81792493 29.80390065
359 1 1 3.97815956436e-07 8.82532903 37.36557798 29.80390065
360 1 1 4.14491535362e-07 10.29621720 39.91323102 29.80390065
361 1 1 3.82442583794e-07 11.76710537 22.07965971 29.80390065
362 1 1 5.46956807121e-07 13.23799354 24.62731276 29.80390065
363 1 1 5.74017328741e-07 11.76710537 27.17496580 29.80390065
364 1 1 8.92758594026e-07 13.23799354 29.72261885 29.80390065
365 1 1 6.91232644659e-07 11.76710537 32.27027189 29.80390065
366 1 1 9.1899458789e-07 13.23799354 34.81792493 29.80390065
367 1 1 6.21670118846e-07 11.76710537 37.36557798 29.80390065
368 1 1 6.19108220445e-07 13.23799354 39.91323102 29.80390065
369 1 1 5.44890390753e-07 14.70888171 22.07965971 29.80390065
370 1 1 9.75713836397e-07 16.17976988 24.62731276 29.80390065
371 1 1 1.00819322395e-06 14.70888171 27.17496580 29.80390065
372 1 1 1.70991995429e-06 16.17976988 29.72261885 29.80390065
373 1 1 1.257908241e-06 14.70888171 32.27027189 29.80390065
374 1 1 1.64139888285e-06 16.17976988 34.81792493 29.80390065
375 1 1 1.06285079953e-06 14.70888171 37.36557798 29.80390065
376 1 1 9.15420556255e-07 16.17976988 39.91323102 29.80390065
377 1 1 2.40117761743e-07 0.00000000 22.07965971 29.80390065
378 1 1 2.54172430053e-07 1.47088817 24.62731276 29.80390065
379 1 1 2.60767298495e-07 0.00000000 27.17496580 29.80390065
380 1 1 2.69251359659e-07 1.47088817 29.72261885 29.80390065
381 1 1 2.67088713163e-07 0.00000000 32.27027189 29.80390065
382 1 1 2.66211842908e-07 1.47088817 34.81792493 29.80390065
383 1 1 2.55260243933e-07 0.00000000 37.36557798 29.80390065
384 1 1 2.46089504287e-07 1.47088817 39.91323102 29.80390065
385 1 1 -0.000237067569911 4.41266451 22.92887739 32.20585097
386 1 1 -0.000267708954375 5.88355268 25.47653044 32.20585097
387 1 1 -0.000257021529065 4.41266451 28.02418348 32.20585097
388 1 1 -0.000281430508124 5.88355268 30.57183653 32.20585097
389 1 1 -0.000257023274136 4.41266451 33.11948957 32.20585097
390 1 1 -0.000267711538193 5.88355268 35.66714262 32.20585097
391 1 1 -0.000237068895776 4.41266451 38.21479566 32.20585097
392 1 1 -0.000235407109608 5.88355268 20.38122435 32.20585097
393 1 1 -0.000274530669076 7.35444085 22.92887739 32.20585097
394 1 1 -0.000329619986192 8.82532903 25.47653044 32.20585097
395 1 1 -0.000307258419284 7.35444085 28.02418348 32.20585097
396 1 1 -0.000355050349018 8.82532903 30.57183653 32.20585097
397 1 1 -0.000307261504026 7.35444085 33.11948957 32.20585097
398 1 1 -0.000329615142385 8.82532903 35.66714262 32.20585097
399 1 1 -0.000274530665579 7.35444085 38.21479566 32.20585097
400 1 1 -0.000274659120692 8.82532903 20.38122435 32.20585097
401 1 1 -0.000341941775186 10.29621720 22.92887739 32.20585097
402 1 1 -0.000447232470847 11.76710537 25.47653044 32.20585097
403 1 1 -0.000405889063306 10.29621720 28.02418348 32.20585097
404 1 1 -0.000505299882503 11.76710537 30.57183653 32.20585097
405 1 1 -0.000405888047625 10.29621720 33.11948957 32.20585097
406 1 1 -0.000447183235225 11.76710537 35.66714262 32.20585097
407 1 1 -0.00034191707419 10.29621720 38.21479566 32.20585097
408 1 1 -0.000339139582021 11.76710537 20.38122435 32.20585097
409 1 1 -0.000462421002094 13.23799354 22.92887739 32.20585097
410 1 1 -0.000689632637406 14.70888171 25.47653044 32.20585097
411 1 1 -0.000613663607189 13.23799354 28.02418348 32.20585097
412 1 1 -0.000851507981336 14.70888171 30.57183653 32.20585097
413 1 1 -0.000613650048074 13.23799354 33.11948957 32.20585097
414 1 1 -0.000689503948097 14.70888171 35.66714262 32.20585097
415 1 1 -0.00046232480752 13.23799354 38.21479566 32.20585097
416 1 1 -0.000443191185054 14.70888171 20.38122435 32.20585097
417 1 1 -0.000688190553475 16.17976988 22.92887739 32.20585097
418 1 1 -0.000226803084266 0.00000000 25.47653044 32.20585097
419 1 1 -0.00110008972312 16.17976988 28.02418348 32.20585097
420 1 1 -0.000234534227934 0.00000000 30.57183653 32.20585097
421 1 1 -0.00110007333633 16.17976988 33.11948957 32.20585097
422 1 1 -0.000226802860282 0.00000000 35.66714262 32.20585097
423 1 1 -0.000688061172894 16.17976988 38.21479566 32.20585097
424 1 1 -0.000207425772709 0.00000000 20.38122435 32.20585097
425 1 1 -0.000220130068286 1.47088817 22.92887739 32.20585097
426 1 1 -0.000236435453602 2.94177634 25.47653044 32.20585097
427 1 1 -0.000235139217849 1.47088817 28.02418348 32.20585097
428 1 1 -0.00024547260572 2.94177634 30.57183653 32.20585097
429 1 1 -0.000235139593068 1.47088817 33.11948957 32.20585097
430 1 1 -0.000236436264733 2.94177634 35.66714262 32.20585097
431 1 1 -0.000220129619541 1.47088817 38.21479566 32.20585097
432 1 1 -0.000214153705815 2.94177634 20.38122435 32.20585097
433 1 1 -0.000976981276276 5.88355268 23.77809508 34.60780130
434 1 1 -0.0011415934658 7.35444085 26.32574812 34.60780130
435 1 1 -0.00106283042082 5.88355268 28.87340116 34.60780130
436 1 1 -0.00119160504769 7.35444085 31.42105421 34.60780130
437 1 1 -0.00104410631615 5.88355268 33.96870725 34.60780130
438 1 1 -0.0010965693515 7.35444085 36.51636030 34.60780130
439 1 1 -0.000933698170015 5.88355268 39.06401334 34.60780130
440 1 1 -0.000984922434318 7.35444085 21.23044203 34.60780130
441 1 1 -0.00119763872452 8.82532903 23.77809508 34.60780130
442 1 1 -0.00150750548547 10.29621720 26.32574812 34.60780130
443 1 1 -0.00135640199642 8.82532903 28.87340116 34.60780130
444 1 1 -0.00161068684576 10.29621720 31.42105421 34.60780130
445 1 1 -0.00132071687796 8.82532903 33.96870725 34.60780130
446 1 1 -0.00141833108134 10.29621720 36.51636030 34.60780130
447 1 1 -0.00112212406239 8.82532903 39.06401334 34.60780130
448 1 1 -0.00121130373464 10.29621720 21.23044203 34.60780130
449 1 1 -0.00159795498171 11.76710537 23.77809508 34.60780130
450 1 1 -0.00221998892282 13.23799354 26.32574812 34.60780130
451 1 1 -0.00193905939218 11.76710537 28.87340116 34.60780130
452 1 1 -0.00246969436353 13.23799354 31.42105421 34.60780130
453 1 1 -0.00185873311279 11.76710537 33.96870725 34.60780130
454 1 1 -0.00201697096944 13.23799354 36.51636030 34.60780130
455 1 1 -0.00144972981959 11.76710537 39.06401334 34.60780130
456 1 1 -0.00158941859699 13.23799354 21.23044203 34.60780130
457 1 1 -0.00233049650302 14.70888171 23.77809508 34.60780130
458 1 1 -0.00367807202545 16.17976988 26.32574812 34.60780130
459 1 1 -0.00316931864484 14.70888171 28.87340116 34.60780130
460 1 1 -0.00436482834907 16.17976988 31.42105421 34.60780130
461 1 1 -0.00295871704635 14.70888171 33.96870725 34.60780130
462 1 1 -0.00316320447391 16.17976988 36.51636030 34.60780130
463 1 1 -0.00201013274274 14.70888171 39.06401334 34.60780130
464 1 1 -0.00220784650601 16.17976988 21.23044203 34.60780130
465 1 1 -0.000830512787357 0.00000000 23.77809508 34.60780130
466 1 1 -0.000870274021597 1.47088817 26.32574812 34.60780130
467 1 1 -0.000878054816942 0.00000000 28.87340116 34.60780130
468 1 1 -0.000891234449436 1.47088817 31.42105421 34.60780130
469 1 1 -0.000867941303433 0.00000000 33.96870725 34.60780130
470 1 1 -0.000850642494571 1.47088817 36.51636030 34.60780130
471 1 1 -0.000805339214108 0.00000000 39.06401334 34.60780130
472 1 1 -0.000798661043249 1.47088817 21.23044203 34.60780130
473 1 1 -0.000864925464218 2.94177634 23.77809508 34.60780130
474 1 1 -0.00095223003427 4.41266451 26.32574812 34.60780130
475 1 1 -0.000920782607632 2.94177634 28.87340116 34.60780130
476 1 1 -0.000981051915837 4.41266451 31.42105421 34.60780130
477 1 1 -0.000908820290924 2.94177634 33.96870725 34.60780130
478 1 1 -0.000925606826839 4.41266451 36.51636030 34.60780130
479 1 1 -0.000835736663397 2.94177634 39.06401334 34.60780130
480 1 1 -0.000856730517305 4.41266451 21.23044203 34.60780130
481 1 1 0.000776550640938 0.00000000 40.76244870 25.00000000
482 1 1 0.000737650260772 1.47088817 43.31010174 25.00000000
483 1 1 0.000689291543471 0.00000000 45.85775479 25.00000000
484 1 1 0.000652270279058 1.47088817 48.40540783 25.00000000
485 1 1 0.000615274586222 0.00000000 50.95306088 25.00000000
486 1 1 0.000589342998428 1.47088817 53.50071392 25.00000000
487 1 1 0.000567987063843 0.00000000 56.04836697 25.00000000
488 1 1 0.000556889856465 1.47088817 58.59602001 25.00000000
489 1 1 0.000802766827893 2.94177634 40.76244870 25.00000000
490 1 1 0.000778936454908 4.41266451 43.31010174 25.00000000
491 1 1 0.00070448375482 2.94177634 45.85775479 25.00000000
492 1 1 0.000674605830558 4.41266451 48.40540783 25.00000000
493 1 1 0.000623318096467 2.94177634 50.95306088 25.00000000
494 1 1 0.000601067975223 4.41266451 53.50071392 25.00000000
495 1 1 0.000572457823255 2.94177634 56.04836697 25.00000000
496 1 1 0.000564187480411 4.41266451 58.59602001 25.00000000
497 1 1 0.000886322728564 5.88355268 40.76244870 25.00000000
498 1 1 0.000866991892983 7.35444085 43.31010174 25.00000000
499 1 1 0.000751359606869 5.88355268 45.85775479 25.00000000
500 1 1 0.000720132836546 7.35444085 48.40540783 25.00000000
501 1 1 0.000647483545976 5.88355268 50.95306088 25.00000000
502 1 1 0.000624162407448 7.35444085 53.50071392 25.00000000
503 1 1 0.000585633948642 5.88355268 56.04836697 25.00000000
504 1 1 0.000578256238324 7.35444085 58.59602001 25.00000000
505 1 1 0.00104314743968 8.82532903 40.76244870 25.00000000
506 1 1 0.00101287282234 10.29621720 43.31010174 25.00000000
507 1 1 0.00083351915466 8.82532903 45.85775479 25.00000000
508 1 1 0.00078990417758 10.29621720 48.40540783 25.00000000
509 1 1 0.000687651725578 8.82532903 50.95306088 25.00000000
510 1 1 0.000657651170114 10.29621720 53.50071392 25.00000000
511 1 1 0.000606736365868 8.82532903 56.04836697 25.00000000
512 1 1 0.000597974772661 10.29621720 58.59602001 25.00000000
513 1 1 0.00130427966866 11.76710537 40.76244870 25.00000000
514 1 1 0.00123263403846 13.23799354 43.31010174 25.00000000
515 1 1 0.000955706745449 11.76710537 45.85775479 25.00000000
516 1 1 0.000883627419545 13.23799354 48.40540783 25.00000000
517 1 1 0.000742851220843 11.76710537 50.95306088 25.00000000
518 1 1 0.000699445224273 13.23799354 53.50071392 25.00000000
519 1 1 0.000634251888613 11.76710537 56.04836697 25.00000000
520 1 1 0.000621530730184 13.23799354 58.59602001 25.00000000
521 1 1 0.00172177010323 14.70888171 40.76244870 25.00000000
522 1 1 0.00154242705176 16.17976988 43.31010174 25.00000000
523 1 1 0.00112085528621 14.70888171 45.85775479 25.00000000
524 1 1 0.000996955567605 16.17976988 48.40540783 25.00000000
525 1 1 0.000810082516727 14.70888171 50.95306088 25.00000000
526 1 1 0.000745758187384 16.17976988 53.50071392 25.00000000
527 1 1 0.000665697509612 14.70888171 56.04836697 25.00000000
528 1 1 0.000646380920771 16.17976988 58.59602001 25.00000000
529 1 1 0.000206340022063 1.47088817 41.61166638 27.40195032
530 1 1 0.000197963797604 2.94177634 44.15931943 27.40195032
531 1 1 0.000182827312327 1.47088817 46.70697247 27.40195032
532 1 1 0.000174459706419 2.94177634 49.25462551 27.40195032
533 1 1 0.000163812850113 1.47088817 51.80227856 27.40195032
534 1 1 0.000158121327671 2.94177634 54.34993160 27.40195032
535 1 1 0.000152392460719 1.47088817 56.89758465 27.40195032
536 1 1 0.000150567359793 2.94177634 59.44523769 27.40195032
537 1 1 0.000219077595206 4.41266451 41.61166638 27.40195032
538 1 1 0.000212881756212 5.88355268 44.15931943 27.40195032
539 1 1 0.000190056235405 4.41266451 46.70697247 27.40195032
540 1 1 0.000182379907106 5.88355268 49.25462551 27.40195032
541 1 1 0.000167620363589 4.41266451 51.80227856 27.40195032
542 1 1 0.000162298420928 5.88355268 54.34993160 27.40195032
543 1 1 0.000154572768344 4.41266451 56.89758465 27.40195032
544 1 1 0.000153316709624 5.88355268 59.44523769 27.40195032
545 1 1 0.000246382319487 7.35444085 41.61166638 27.40195032
546 1 1 0.000239271109877 8.82532903 44.15931943 27.40195032
547 1 1 0.000204908624447 7.35444085 46.70697247 27.40195032
548 1 1 0.00019568773445 8.82532903 49.25462551 27.40195032
549 1 1 0.000175181658208 7.35444085 51.80227856 27.40195032
550 1 1 0.000169049338039 8.82532903 54.34993160 27.40195032
551 1 1 0.000158795893519 7.35444085 56.89758465 27.40195032
552 1 1 0.000157657467833 8.82532903 59.44523769 27.40195032
553 1 1 0.000292276920153 10.29621720 41.61166638 27.40195032
554 1 1 0.00027922127034 11.76710537 44.15931943 27.40195032
555 1 1 0.000227956051986 10.29621720 46.70697247 27.40195032
556 1 1 0.000214243040163 11.76710537 49.25462551 27.40195032
557 1 1 0.000186283680399 10.29621720 51.80227856 27.40195032
558 1 1 0.000177961504754 11.76710537 54.34993160 27.40195032
559 1 1 0.000164758835752 10.29621720 56.89758465 27.40195032
560 1 1 0.000163205020385 11.76710537 59.44523769 27.40195032
561 1 1 0.000364286929567 13.23799354 41.61166638 27.40195032
562 1 1 0.000335240634315 14.70888171 44.15931943 27.40195032
563 1 1 0.000259490444204 13.23799354 46.70697247 27.40195032
564 1 1 0.000237248758332 14.70888171 49.25462551 27.40195032
565 1 1 0.000200352496185 13.23799354 51.80227856 27.40195032
566 1 1 0.000188293099881 14.70888171 54.34993160 27.40195032
567 1 1 0.000171949140637 13.23799354 56.89758465 27.40195032
568 1 1 0.000169394717353 14.70888171 59.44523769 27.40195032
569 1 1 0.000475082678482 16.17976988 41.61166638 27.40195032
570 1 1 0.000193150751836 0.00000000 44.15931943 27.40195032
571 1 1 0.000298732816604 16.17976988 46.70697247 27.40195032
572 1 1 0.00017183883357 0.00000000 49.25462551 27.40195032
573 1 1 0.000216205089376 16.17976988 51.80227856 27.40195032
574 1 1 0.000156710783707 0.00000000 54.34993160 27.40195032
575 1 1 0.000179612968028 16.17976988 56.89758465 27.40195032
576 1 1 0.000149627545493 0.00000000 59.44523769 27.40195032
577 1 1 2.3753917788e-07 2.94177634 42.46088406 29.80390065
578 1 1 2.28631692759e-07 4.41266451 45.00853711 29.80390065
579 1 1 2.07328486625e-07 2.94177634 47.55619015 29.80390065
580 1 1 1.97968809238e-07 4.41266451 50.10384320 29.80390065
581 1 1 1.83939384051e-07 2.94177634 52.65149624 29.80390065
582 1 1 1.77884627389e-07 4.41266451 55.19914928 29.80390065
583 1 1 1.70855980641e-07 2.94177634 57.74680233 29.80390065
584 1 1 1.69656721882e-07 4.41266451 60.29445537 29.80390065
585 1 1 2.60080691386e-07 5.88355268 42.46088406 29.80390065
586 1 1 2.51131498827e-07 7.35444085 45.00853711 29.80390065
587 1 1 2.19002307652e-07 5.88355268 47.55619015 29.80390065
588 1 1 2.09000175974e-07 7.35444085 50.10384320 29.80390065
589 1 1 1.89922845278e-07 5.88355268 52.65149624 29.80390065
590 1 1 1.83614855658e-07 7.35444085 55.19914928 29.80390065
591 1 1 1.74312516733e-07 5.88355268 57.74680233 29.80390065
592 1 1 1.73655400298e-07 7.35444085 60.29445537 29.80390065
593 1 1 3.06070691298e-07 8.82532903 42.46088406 29.80390065
594 1 1 2.8899010442e-07 10.29621720 45.00853711 29.80390065
595 1 1 2.38754996438e-07 8.82532903 47.55619015 29.80390065
596 1 1 2.25065253226e-07 10.29621720 50.10384320 29.80390065
597 1 1 1.99492436436e-07 8.82532903 52.65149624 29.80390065
598 1 1 1.91638382465e-07 10.29621720 55.19914928 29.80390065
599 1 1 1.79755335999e-07 8.82532903 57.74680233 29.80390065
600 1 1 1.79227261684e-07 10.29621720 60.29445537 29.80390065
601 1 1 3.90619752165e-07 11.76710537 42.46088406 29.80390065
602 1 1 3.45799992357e-07 13.23799354 45.00853711 29.80390065
603 1 1 2.67054518945e-07 11.76710537 47.55619015 29.80390065
604 1 1 2.45468228511e-07 13.23799354 50.10384320 29.80390065
605 1 1 2.1197353606e-07 11.76710537 52.65149624 29.80390065
606 1 1 2.012073443e-07 13.23799354 55.19914928 29.80390065
607 1 1 1.86673439284e-07 11.76710537 57.74680233 29.80390065
608 1 1 1.85827857004e-07 13.23799354 60.29445537 29.80390065
609 1 1 5.20688578252e-07 14.70888171 42.46088406 29.80390065
610 1 1 4.2079530997e-07 16.17976988 45.00853711 29.80390065
611 1 1 3.03692238249e-07 14.70888171 47.55619015 29.80390065
612 1 1 2.68760924176e-07 16.17976988 50.10384320 29.80390065
613 1 1 2.26326180531e-07 14.70888171 52.65149624 29.80390065
614 1 1 2.11298365969e-07 16.17976988 55.19914928 29.80390065
615 1 1 1.94334062511e-07 14.70888171 57.74680233 29.80390065
616 1 1 1.92721048203e-07 16.17976988 60.29445537 29.80390065
617 1 1 2.30630282145e-07 0.00000000 42.46088406 29.80390065
618 1 1 2.18038163171e-07 1.47088817 45.00853711 29.80390065
619 1 1 2.03452979784e-07 0.00000000 47.55619015 29.80390065
620 1 1 1.92360092928e-07 1.47088817 50.10384320 29.80390065
621 1 1 1.81907614127e-07 0.00000000 52.65149624 29.80390065
622 1 1 1.74913276442e-07 1.47088817 55.19914928 29.80390065
623 1 1 1.69673500605e-07 0.00000000 57.74680233 29.80390065
624 1 1 1.67575772446e-07 1.47088817 60.29445537 29.80390065
625 1 1 -0.000207846377282 4.41266451 43.31010174 32.20585097
626 1 1 -0.000200590671895 5.88355268 45.85775479 32.20585097
627 1 1 -0.00018060226375 4.41266451 48.40540783 32.20585097
628 1 1 -0.0001734619591 5.88355268 50.95306088 32.20585097
629 1 1 -0.000161274906036 4.41266451 53.50071392 32.20585097
630 1 1 -0.000157203956679 5.88355268 56.04836697 32.20585097
631 1 1 -0.000151551251583 4.41266451 58.59602001 32.20585097
632 1 1 -0.000235408929753 5.88355268 40.76244870 32.20585097
633 1 1 -0.000230298541268 7.35444085 43.31010174 32.20585097
634 1 1 -0.000221620477952 8.82532903 45.85775479 32.20585097
635 1 1 -0.000192412400324 7.35444085 48.40540783 32.20585097
636 1 1 -0.000183923578421 8.82532903 50.95306088 32.20585097
637 1 1 -0.000167329071507 7.35444085 53.50071392 32.20585097
638 1 1 -0.000162751985777 8.82532903 56.04836697 32.20585097
639 1 1 -0.000155261284082 7.35444085 58.59602001 32.20585097
640 1 1 -0.000274657137868 8.82532903 40.76244870 32.20585097
641 1 1 -0.000266902928468 10.29621720 43.31010174 32.20585097
642 1 1 -0.0002524458942 11.76710537 45.85775479 32.20585097
643 1 1 -0.000210366148952 10.29621720 48.40540783 32.20585097
644 1 1 -0.000198215503882 11.76710537 50.95306088 32.20585097
645 1 1 -0.000176086638575 10.29621720 53.50071392 32.20585097
646 1 1 -0.000169974603608 11.76710537 56.04836697 32.20585097
647 1 1 -0.000160457196026 10.29621720 58.59602001 32.20585097
648 1 1 -0.000339115344573 11.76710537 40.76244870 32.20585097
649 1 1 -0.000321251648167 13.23799354 43.31010174 32.20585097
650 1 1 -0.000293496802262 14.70888171 45.85775479 32.20585097
651 1 1 -0.000234201755679 13.23799354 48.40540783 32.20585097
652 1 1 -0.00021547897867 14.70888171 50.95306088 32.20585097
653 1 1 -0.000186974783737 13.23799354 53.50071392 32.20585097
654 1 1 -0.000178210904446 14.70888171 56.04836697 32.20585097
655 1 1 -0.000166657951374 13.23799354 58.59602001 32.20585097
656 1 1 -0.000443142142445 14.70888171 40.76244870 32.20585097
657 1 1 -0.000397938025226 16.17976988 43.31010174 32.20585097
658 1 1 -0.00018453092339 0.00000000 45.85775479 32.20585097
659 1 1 -0.000262648959747 16.17976988 48.40540783 32.20585097
660 1 1 -0.000165041043224 0.00000000 50.95306088 32.20585097
661 1 1 -0.00019897978988 16.17976988 53.50071392 32.20585097
662 1 1 -0.000152559147145 0.00000000 56.04836697 32.20585097
663 1 1 -0.000173191528044 16.17976988 58.59602001 32.20585097
664 1 1 -0.000207425020071 0.00000000 40.76244870 32.20585097
665 1 1 -0.00019721158206 1.47088817 43.31010174 32.20585097
666 1 1 -0.00018847509257 2.94177634 45.85775479 32.20585097
667 1 1 -0.000174783240181 1.47088817 48.40540783 32.20585097
668 1 1 -0.000167146390425 2.94177634 50.95306088 32.20585097
669 1 1 -0.000158197184947 1.47088817 53.50071392 32.20585097
670 1 1 -0.000153736318763 2.94177634 56.04836697 32.20585097
671 1 1 -0.000149625890871 1.47088817 58.59602001 32.20585097
672 1 1 -0.000214153814219 2.94177634 40.76244870 32.20585097
673 1 1 -0.000795083107434 5.88355268 44.15931943 34.60780130
674 1 1 -0.000764747112054 7.35444085 46.70697247 34.60780130
675 1 1 -0.00067841972691 5.88355268 49.25462551 34.60780130
676 1 1 -0.000651140146412 7.35444085 51.80227856 34.60780130
677 1 1 -0.000602253650098 5.88355268 54.34993160 34.60780130
678 1 1 -0.000589013559464 7.35444085 56.89758465 34.60780130
679 1 1 -0.000568308911885 5.88355268 59.44523769 34.60780130
680 1 1 -0.000925727714804 7.35444085 41.61166638 34.60780130
681 1 1 -0.000898470152478 8.82532903 44.15931943 34.60780130
682 1 1 -0.000854593534745 10.29621720 46.70697247 34.60780130
683 1 1 -0.00072952215688 8.82532903 49.25462551 34.60780130
684 1 1 -0.000693574359578 10.29621720 51.80227856 34.60780130
685 1 1 -0.000627876818498 8.82532903 54.34993160 34.60780130
686 1 1 -0.000611579554307 10.29621720 56.89758465 34.60780130
687 1 1 -0.000584690963199 8.82532903 59.44523769 34.60780130
688 1 1 -0.0011091007323 10.29621720 41.61166638 34.60780130
689 1 1 -0.00105752704217 11.76710537 44.15931943 34.60780130
690 1 1 -0.000979297753064 13.23799354 46.70697247 34.60780130
691 1 1 -0.000801379764399 11.76710537 49.25462551 34.60780130
692 1 1 -0.00074766067026 13.23799354 51.80227856 34.60780130
693 1 1 -0.000661786395396 11.76710537 54.34993160 34.60780130
694 1 1 -0.000638831067493 13.23799354 56.89758465 34.60780130
695 1 1 -0.000605643875131 11.76710537 59.44523769 34.60780130
696 1 1 -0.00139935422506 13.23799354 41.61166638 34.60780130
697 1 1 -0.00128316551524 14.70888171 44.15931943 34.60780130
698 1 1 -0.00113651738226 16.17976988 46.70697247 34.60780130
699 1 1 -0.000891474409203 14.70888171 49.25462551 34.60780130
700 1 1 -0.000809061225582 16.17976988 51.80227856 34.60780130
701 1 1 -0.000701233457684 14.70888171 54.34993160 34.60780130
702 1 1 -0.000667931473534 16.17976988 56.89758465 34.60780130
703 1 1 -0.000629044240843 14.70888171 59.44523769 34.60780130
704 1 1 -0.0018384605139 16.17976988 41.61166638 34.60780130
705 1 1 -0.000718823364833 0.00000000 44.15931943 34.60780130
706 1 1 -0.000679757186082 1.47088817 46.70697247 34.60780130
707 1 1 -0.000638169735693 0.00000000 49.25462551 34.60780130
708 1 1 -0.000607877522134 1.47088817 51.80227856 34.60780130
709 1 1 -0.000581081200469 0.00000000 54.34993160 34.60780130
710 1 1 -0.000564811447006 1.47088817 56.89758465 34.60780130
711 1 1 -0.000554394809197 0.00000000 59.44523769 34.60780130
712 1 1 -0.000768985942969 1.47088817 41.61166638 34.60780130
713 1 1 -0.000737343220702 2.94177634 44.15931943 34.60780130
714 1 1 -0.00070746878979 4.41266451 46.70697247 34.60780130
715 1 1 -0.000648160309418 2.94177634 49.25462551 34.60780130
716 1 1 -0.00062234748283 4.41266451 51.80227856 34.60780130
717 1 1 -0.000586423200363 2.94177634 54.34993160 34.60780130
718 1 1 -0.000573048624016 4.41266451 56.89758465 34.60780130
719 1 1 -0.000557938654112 2.94177634 59.44523769 34.60780130
720 1 1 -0.0008184377669 4.41266451 41.61166638 34.60780130
721 1 1 0.000645838969666 17.65065805 0.00000000 25.00000000
722 1 1 0.000669382202313 19.12154622 2.54765304 25.00000000
723 1 1 0.00069749551248 17.65065805 5.09530609 25.00000000
724 1 1 0.000790773657038 19.12154622 7.64295913 25.00000000
725 1 1 0.000882903531444 17.65065805 10.19061218 25.00000000
726 1 1 0.00111783282937 19.12154622 12.73826522 25.00000000
727 1 1 0.00132345910231 17.65065805 15.28591827 25.00000000
728 1 1 0.00193883242398 19.12154622 17.83357131 25.00000000
729 1 1 0.000664575274942 20.59243439 0.00000000 25.00000000
730 1 1 0.000687196443868 22.06332256 2.54765304 25.00000000
731 1 1 0.000725196571829 20.59243439 5.09530609 25.00000000
732 1 1 0.000827138948363 22.06332256 7.64295913 25.00000000
733 1 1 0.000950632991369 20.59243439 10.19061218 25.00000000
734 1 1 0.00122417858097 22.06332256 12.73826522 25.00000000
735 1 1 0.00153821712863 20.59243439 15.28591827 25.00000000
736 1 1 0.00235623902198 22.06332256 17.83357131 25.00000000
737 1 1 0.000677184308096 23.53421073 0.00000000 25.00000000
738 1 1 0.000696945602854 25.00509890 2.54765304 25.00000000
739 1 1 0.000744212119676 23.53421073 5.09530609 25.00000000
740 1 1 0.000847619595281 25.00509890 7.64295913 25.00000000
741 1 1 0.000999616879392 23.53421073 10.19061218 25.00000000
742 1 1 0.00128784922241 25.00509890 12.73826522 25.00000000
743 1 1 0.00171200070524 23.53421073 15.28591827 25.00000000
744 1 1 0.00264190990481 25.00509890 17.83357131 25.00000000
745 1 1 0.000681635749013 26.47598708 0.00000000 25.00000000
746 1 1 0.000696945602782 27.94687525 2.54765304 25.00000000
747 1 1 0.000750998561402 26.47598708 5.09530609 25.00000000
748 1 1 0.000847619595174 27.94687525 7.64295913 25.00000000
749 1 1 0.0010176160339 26.47598708 10.19061218 25.00000000
750 1 1 0.00128784922217 27.94687525 12.73826522 25.00000000
751 1 1 0.00178018377528 26.47598708 15.28591827 25.00000000
752 1 1 0.00264190990397 27.94687525 17.83357131 25.00000000
753 1 1 0.00067718430798 29.41776342 0.00000000 25.00000000
754 1 1 0.000687196443727 30.88865159 2.54765304 25.00000000
755 1 1 0.000744212119533 29.41776342 5.09530609 25.00000000
756 1 1 0.000827138948144 30.88865159 7.64295913 25.00000000
757 1 1 0.000999616879129 29.41776342 10.19061218 25.00000000
758 1 1 0.00122417858046 30.88865159 12.73826522 25.00000000
759 1 1 0.0017120007045 29.41776342 15.28591827 25.00000000
760 1 1 0.00235623902018 30.88865159 17.83357131 25.00000000
761 1 1 0.000664575274816 32.35953976 0.00000000 25.00000000
762 1 1 0.0006693822022 33.83042793 2.54765304 25.00000000
763 1 1 0.000725196571666 32.35953976 5.09530609 25.00000000
764 1 1 0.000790773656839 33.83042793 7.64295913 25.00000000
765 1 1 0.000950632991042 32.35953976 10.19061218 25.00000000
766 1 1 0.00111783282887 33.83042793 12.73826522 25.00000000
767 1 1 0.00153821712767 32.35953976 15.28591827 25.00000000
768 1 1 0.00193883242225 33.83042793 17.83357131 25.00000000
769 1 1 0.000177079648734 19.12154622 0.84921768 27.40195032
770 1 1 0.000185853987904 20.59243439 3.39687073 27.40195032
771 1 1 0.000197077720648 19.12154622 5.94452377 27.40195032
772 1 1 0.000227025059923 20.59243439 8.49217681 27.40195032
773 1 1 0.000258717186356 19.12154622 11.03982986 27.40195032
774 1 1 0.000333858993068 20.59243439 13.58748290 27.40195032
775 1 1 0.000408339630411 19.12154622 16.13513595 27.40195032
776 1 1 0.000636184216721 20.59243439 18.68278899 27.40195032
777 1 1 0.00018136005411 22.06332256 0.84921768 27.40195032
778 1 1 0.000189877103637 23.53421073 3.39687073 27.40195032
779 1 1 0.000204165097458 22.06332256 5.94452377 27.40195032
780 1 1 0.000235835647057 23.53421073 8.49217681 27.40195032
781 1 1 0.000276859388876 22.06332256 11.03982986 27.40195032
782 1 1 0.000361226485834 23.53421073 13.58748290 27.40195032
783 1 1 0.000473450678488 22.06332256 16.13513595 27.40195032
784 1 1 0.000772125653016 23.53421073 18.68278899 27.40195032
785 1 1 0.000183692594165 25.00509890 0.84921768 27.40195032
786 1 1 0.00019130363029 26.47598708 3.39687073 27.40195032
787 1 1 0.000208099666219 25.00509890 5.94452377 27.40195032
788 1 1 0.000239025833708 26.47598708 8.49217681 27.40195032
789 1 1 0.00028740672601 25.00509890 11.03982986 27.40195032
790 1 1 0.000371710302821 26.47598708 13.58748290 27.40195032
791 1 1 0.000516515631922 25.00509890 16.13513595 27.40195032
792 1 1 0.000831103327577 26.47598708 18.68278899 27.40195032
793 1 1 0.000183692594126 27.94687525 0.84921768 27.40195032
794 1 1 0.000189877103567 29.41776342 3.39687073 27.40195032
795 1 1 0.000208099666171 27.94687525 5.94452377 27.40195032
796 1 1 0.000235835646956 29.41776342 8.49217681 27.40195032
797 1 1 0.000287406725929 27.94687525 11.03982986 27.40195032
798 1 1 0.000361226485621 29.41776342 13.58748290 27.40195032
799 1 1 0.000516515631706 27.94687525 16.13513595 27.40195032
800 1 1 0.000772125652275 29.41776342 18.68278899 27.40195032
801 1 1 0.000181360054039 30.88865159 0.84921768 27.40195032
802 1 1 0.000185853987838 32.35953976 3.39687073 27.40195032
803 1 1 0.000204165097369 30.88865159 5.94452377 27.40195032
804 1 1 0.000227025059822 32.35953976 8.49217681 27.40195032
805 1 1 0.000276859388717 30.88865159 11.03982986 27.40195032
806 1 1 0.000333858992839 32.35953976 13.58748290 27.40195032
807 1 1 0.000473450678054 30.88865159 16.13513595 27.40195032
808 1 1 0.000636184215914 32.35953976 18.68278899 27.40195032
809 1 1 0.000177079648693 33.83042793 0.84921768 27.40195032
810 1 1 0.000179923722402 17.65065805 3.39687073 27.40195032
811 1 1 0.000197077720591 33.83042793 5.94452377 27.40195032
812 1 1 0.000214517134707 17.65065805 8.49217681 27.40195032
813 1 1 0.000258717186238 33.83042793 11.03982986 27.40195032
814 1 1 0.000298475252655 17.65065805 13.58748290 27.40195032
815 1 1 0.000408339630065 33.83042793 16.13513595 27.40195032
816 1 1 0.000494814843205 17.65065805 18.68278899 27.40195032
817 1 1 2.04102805678e-07 20.59243439 1.69843536 29.80390065
818 1 1 2.18781040208e-07 22.06332256 4.24608841 29.80390065
819 1 1 2.37859758036e-07 20.59243439 6.79374145 29.80390065
820 1 1 2.85820977769e-07 22.06332256 9.34139450 29.80390065
821 1 1 3.43613255954e-07 20.59243439 11.88904754 29.80390065
822 1 1 5.1795345208e-07 22.06332256 14.43670058 29.80390065
823 1 1 6.82888577883e-07 20.59243439 16.98435363 29.80390065
824 1 1 1.25310019355e-06 22.06332256 19.53200667 29.80390065
825 1 1 2.08343003053e-07 23.53421073 1.69843536 29.80390065
826 1 1 2.22722384022e-07 25.00509890 4.24608841 29.80390065
827 1 1 2.46795341362e-07 23.53421073 6.79374145 29.80390065
828 1 1 2.99419687105e-07 25.00509890 9.34139450 29.80390065
829 1 1 3.86200458185e-07 23.53421073 11.88904754 29.80390065
830 1 1 6.14273081871e-07 25.00509890 14.43670058 29.80390065
831 1 1 9.12664780296e-07 23.53421073 16.98435363 29.80390065
832 1 1 1.63783060599e-06 25.00509890 19.53200667 29.80390065
833 1 1 2.09844672867e-07 26.47598708 1.69843536 29.80390065
834 1 1 2.22722384094e-07 27.94687525 4.24608841 29.80390065
835 1 1 2.50174103095e-07 26.47598708 6.79374145 29.80390065
836 1 1 2.99419687351e-07 27.94687525 9.34139450 29.80390065
837 1 1 4.06912086651e-07 26.47598708 11.88904754 29.80390065
838 1 1 6.14273082647e-07 27.94687525 14.43670058 29.80390065
839 1 1 1.05841476985e-06 26.47598708 16.98435363 29.80390065
840 1 1 1.63783060771e-06 27.94687525 19.53200667 29.80390065
841 1 1 2.08343002964e-07 29.41776342 1.69843536 29.80390065
842 1 1 2.18781040198e-07 30.88865159 4.24608841 29.80390065
843 1 1 2.46795340923e-07 29.41776342 6.79374145 29.80390065
844 1 1 2.85820977764e-07 30.88865159 9.34139450 29.80390065
845 1 1 3.86200456616e-07 29.41776342 11.88904754 29.80390065
846 1 1 5.17953451859e-07 30.88865159 14.43670058 29.80390065
847 1 1 9.12664774203e-07 29.41776342 16.98435363 29.80390065
848 1 1 1.25310019263e-06 30.88865159 19.53200667 29.80390065
849 1 1 2.04102805731e-07 32.35953976 1.69843536 29.80390065
850 1 1 2.11716369472e-07 33.83042793 4.24608841 29.80390065
851 1 1 2.37859758423e-07 32.35953976 6.79374145 29.80390065
852 1 1 2.65945447775e-07 33.83042793 9.34139450 29.80390065
853 1 1 3.43613257288e-07 32.35953976 11.88904754 29.80390065
854 1 1 4.19623811307e-07 33.83042793 14.43670058 29.80390065
855 1 1 6.82888582877e-07 32.35953976 16.98435363 29.80390065
856 1 1 8.86971778205e-07 33.83042793 19.53200667 29.80390065
857 1 1 1.97841298632e-07 17.65065805 1.69843536 29.80390065
858 1 1 2.11716369703e-07 19.12154622 4.24608841 29.80390065
859 1 1 2.25727271524e-07 17.65065805 6.79374145 29.80390065
860 1 1 2.65945448473e-07 19.12154622 9.34139450 29.80390065
861 1 1 3.02795591529e-07 17.65065805 11.88904754 29.80390065
862 1 1 4.19623813716e-07 19.12154622 14.43670058 29.80390065
863 1 1 5.08643963376e-07 17.65065805 16.98435363 29.80390065
864 1 1 8.86971787334e-07 19.12154622 19.53200667 29.80390065
865 1 1 -0.000183904391283 22.06332256 2.54765304 32.20585097
866 1 1 -0.000198680175917 23.53421073 5.09530609 32.20585097
867 1 1 -0.000219915603599 22.06332256 7.64295913 32.20585097
868 1 1 -0.000263375123445 23.53421073 10.19061218 32.20585097
869 1 1 -0.000318999211137 22.06332256 12.73826522 32.20585097
870 1 1 -0.000440541112446 23.53421073 15.28591827 32.20585097
871 1 1 -0.000608187267082 22.06332256 17.83357131 32.20585097
872 1 1 -0.000181313793374 23.53421073 0.00000000 32.20585097
873 1 1 -0.000186459619932 25.00509890 2.54765304 32.20585097
874 1 1 -0.000200442462456 26.47598708 5.09530609 32.20585097
875 1 1 -0.000225151949073 25.00509890 7.64295913 32.20585097
876 1 1 -0.000267876096395 26.47598708 10.19061218 32.20585097
877 1 1 -0.000334744859467 25.00509890 12.73826522 32.20585097
878 1 1 -0.000457873222786 26.47598708 15.28591827 32.20585097
879 1 1 -0.000685535185386 25.00509890 17.83357131 32.20585097
880 1 1 -0.000182483551459 26.47598708 0.00000000 32.20585097
881 1 1 -0.000186459619891 27.94687525 2.54765304 32.20585097
882 1 1 -0.000198680175841 29.41776342 5.09530609 32.20585097
883 1 1 -0.000225151949017 27.94687525 7.64295913 32.20585097
884 1 1 -0.000263375123322 29.41776342 10.19061218 32.20585097
885 1 1 -0.00033474485936 27.94687525 12.73826522 32.20585097
886 1 1 -0.000440541112143 29.41776342 15.28591827 32.20585097
887 1 1 -0.000685535185046 27.94687525 17.83357131 32.20585097
888 1 1 -0.000181313793309 29.41776342 0.00000000 32.20585097
889 1 1 -0.000183904391209 30.88865159 2.54765304 32.20585097
890 1 1 -0.000193736173423 32.35953976 5.09530609 32.20585097
891 1 1 -0.000219915603496 30.88865159 7.64295913 32.20585097
892 1 1 -0.000251090744676 32.35953976 10.19061218 32.20585097
893 1 1 -0.000318999210929 30.88865159 12.73826522 32.20585097
894 1 1 -0.000396816050336 32.35953976 15.28591827 32.20585097
895 1 1 -0.000608187266411 30.88865159 17.83357131 32.20585097
896 1 1 -0.000177999236362 32.35953976 0.00000000 32.20585097
897 1 1 -0.000179231696756 33.83042793 2.54765304 32.20585097
898 1 1 -0.000186518272467 17.65065805 5.09530609 32.20585097
899 1 1 -0.000210586274205 33.83042793 7.64295913 32.20585097
900 1 1 -0.000234004872949 17.65065805 10.19061218 32.20585097
901 1 1 -0.000292690182436 33.83042793 12.73826522 32.20585097
902 1 1 -0.000343501141743 17.65065805 15.28591827 32.20585097
903 1 1 -0.000498432616268 33.83042793 17.83357131 32.20585097
904 1 1 -0.000173070932875 17.65065805 0.00000000 32.20585097
905 1 1 -0.000179231696799 19.12154622 2.54765304 32.20585097
906 1 1 -0.000193736173496 20.59243439 5.09530609 32.20585097
907 1 1 -0.000210586274274 19.12154622 7.64295913 32.20585097
908 1 1 -0.000251090744804 20.59243439 10.19061218 32.20585097
909 1 1 -0.000292690182596 19.12154622 12.73826522 32.20585097
910 1 1 -0.000396816050671 20.59243439 15.28591827 32.20585097
911 1 1 -0.000498432616801 19.12154622 17.83357131 32.20585097
912 1 1 -0.000177999236422 20.59243439 0.00000000 32.20585097
913 1 1 -0.000706881462484 23.53421073 3.39687073 34.60780130
914 1 1 -0.000777159911239 25.00509890 5.94452377 34.60780130
915 1 1 -0.000885617246977 23.53421073 8.49217681 34.60780130
916 1 1 -0.00109086604756 25.00509890 11.03982986 34.60780130
917 1 1 -0.00138791079203 23.53421073 13.58748290 34.60780130
918 1 1 -0.00199823707048 25.00509890 16.13513595 34.60780130
919 1 1 -0.00294314531426 23.53421073 18.68278899 34.60780130
920 1 1 -0.000683141096141 25.00509890 0.84921768 34.60780130
921 1 1 -0.000712313175251 26.47598708 3.39687073 34.60780130
922 1 1 -0.00077715991115 27.94687525 5.94452377 34.60780130
923 1 1 -0.000898134171754 26.47598708 8.49217681 34.60780130
924 1 1 -0.00109086604739 27.94687525 11.03982986 34.60780130
925 1 1 -0.00142984264643 26.47598708 13.58748290 34.60780130
926 1 1 -0.00199823706997 27.94687525 16.13513595 34.60780130
927 1 1 -0.0031524780349 26.47598708 18.68278899 34.60780130
928 1 1 -0.000683141096073 27.94687525 0.84921768 34.60780130
929 1 1 -0.000706881462358 29.41776342 3.39687073 34.60780130
930 1 1 -0.000762014572836 30.88865159 5.94452377 34.60780130
931 1 1 -0.000885617246773 29.41776342 8.49217681 34.60780130
932 1 1 -0.00104869980563 30.88865159 11.03982986 34.60780130
933 1 1 -0.00138791079153 29.41776342 13.58748290 34.60780130
934 1 1 -0.00183236408392 30.88865159 16.13513595 34.60780130
935 1 1 -0.00294314531236 29.41776342 18.68278899 34.60780130
936 1 1 -0.000674304057336 30.88865159 0.84921768 34.60780130
937 1 1 -0.000691574188977 32.35953976 3.39687073 34.60780130
938 1 1 -0.000734795658567 33.83042793 5.94452377 34.60780130
939 1 1 -0.000851138592798 32.35953976 8.49217681 34.60780130
940 1 1 -0.000976418235537 33.83042793 11.03982986 34.60780130
941 1 1 -0.00127800477354 32.35953976 13.58748290 34.60780130
942 1 1 -0.00157642107402 33.83042793 16.13513595 34.60780130
943 1 1 -0.00244954521019 32.35953976 18.68278899 34.60780130
944 1 1 -0.000658095865238 33.83042793 0.84921768 34.60780130
945 1 1 -0.00066903990386 17.65065805 3.39687073 34.60780130
946 1 1 -0.000734795658724 19.12154622 5.94452377 34.60780130
947 1 1 -0.000802434573725 17.65065805 8.49217681 34.60780130
948 1 1 -0.000976418235897 19.12154622 11.03982986 34.60780130
949 1 1 -0.00113555684979 17.65065805 13.58748290 34.60780130
950 1 1 -0.00157642107513 19.12154622 16.13513595 34.60780130
951 1 1 -0.00191528156375 17.65065805 18.68278899 34.60780130
952 1 1 -0.000658095865343 19.12154622 0.84921768 34.60780130
953 1 1 -0.000691574189118 20.59243439 3.39687073 34.60780130
954 1 1 -0.000762014573016 22.06332256 5.94452377 34.60780130
955 1 1 -0.000851138593047 20.59243439 8.49217681 34.60780130
956 1 1 -0.001048699806 22.06332256 11.03982986 34.60780130
957 1 1 -0.00127800477418 20.59243439 13.58748290 34.60780130
958 1 1 -0.00183236408505 22.06332256 16.13513595 34.60780130
959 1 1 -0.00244954521256 20.59243439 18.68278899 34.60780130
960 1 1 -0.00067430405747 22.06332256 0.84921768 34.60780130
961 1 1 0.00236080146221 17.65065805 20.38122435 25.00000000
962 1 1 0.00409794504186 19.12154622 22.92887739 25.00000000
963 1 1 0.00448820355569 17.65065805 25.47653044 25.00000000
964 1 1 0.00783045291879 19.12154622 28.02418348 25.00000000
965 1 1 0.0061225333477 17.65065805 30.57183653 25.00000000
966 1 1 0.00783048341793 19.12154622 33.11948957 25.00000000
967 1 1 0.00448814767699 17.65065805 35.66714262 25.00000000
968 1 1 0.004097907067 19.12154622 38.21479566 25.00000000
969 1 1 0.00322605835859 20.59243439 20.38122435 25.00000000
970 1 1 0.00611521612126 22.06332256 22.92887739 25.00000000
971 1 1 0.00782795569336 20.59243439 25.47653044 25.00000000
972 1 1 0.0146140158006 22.06332256 28.02418348 25.00000000
973 1 1 0.0122607060376 20.59243439 30.57183653 25.00000000
974 1 1 0.0146140980604 22.06332256 33.11948957 25.00000000
975 1 1 0.00782798523973 20.59243439 35.66714262 25.00000000
976 1 1 0.00611521543049 22.06332256 38.21479566 25.00000000
977 1 1 0.00409377439688 23.53421073 20.38122435 25.00000000
978 1 1 0.00782471554702 25.00509890 22.92887739 25.00000000
979 1 1 0.0122576964082 23.53421073 25.47653044 25.00000000
980 1 1 0.0218283874493 25.00509890 28.02418348 25.00000000
981 1 1 0.0218291062964 23.53421073 30.57183653 25.00000000
982 1 1 0.0218283888026 25.00509890 33.11948957 25.00000000
983 1 1 0.0122576959167 23.53421073 35.66714262 25.00000000
984 1 1 0.00782468484794 25.00509890 38.21479566 25.00000000
985 1 1 0.00448011867695 26.47598708 20.38122435 25.00000000
986 1 1 0.00782471554272 27.94687525 22.92887739 25.00000000
987 1 1 0.0146120181185 26.47598708 25.47653044 25.00000000
988 1 1 0.0218283874316 27.94687525 28.02418348 25.00000000
989 1 1 0.0274722994304 26.47598708 30.57183653 25.00000000
990 1 1 0.0218283887849 27.94687525 33.11948957 25.00000000
991 1 1 0.0146119363189 26.47598708 35.66714262 25.00000000
992 1 1 0.00782468484365 27.94687525 38.21479566 25.00000000
993 1 1 0.00409377439367 29.41776342 20.38122435 25.00000000
994 1 1 0.0061152161128 30.88865159 22.92887739 25.00000000
995 1 1 0.0122576963924 29.41776342 25.47653044 25.00000000
996 1 1 0.0146140157709 30.88865159 28.02418348 25.00000000
997 1 1 0.0218291062613 29.41776342 30.57183653 25.00000000
998 1 1 0.0146140980306 30.88865159 33.11948957 25.00000000
999 1 1 0.0122576959009 29.41776342 35.66714262 25.00000000
1000 1 1 0.00611521542202 30.88865159 38.21479566 25.00000000
1001 1 1 0.00322605835473 32.35953976 20.38122435 25.00000000
1002 1 1 0.00409794503505 33.83042793 22.92887739 25.00000000
1003 1 1 0.00782795567768 32.35953976 25.47653044 25.00000000
1004 1 1 0.00783045289979 33.83042793 28.02418348 25.00000000
1005 1 1 0.0122607060073 32.35953976 30.57183653 25.00000000
1006 1 1 0.00783048339894 33.83042793 33.11948957 25.00000000
1007 1 1 0.00782798522405 32.35953976 35.66714262 25.00000000
1008 1 1 0.00409790706018 33.83042793 38.21479566 25.00000000
1009 1 1 0.000831910704932 19.12154622 21.23044203 27.40195032
1010 1 1 0.00163657617567 20.59243439 23.77809508 27.40195032
1011 1 1 0.00185458449737 19.12154622 26.32574812 27.40195032
1012 1 1 0.00333189062112 20.59243439 28.87340116 27.40195032
1013 1 1 0.00244022950059 19.12154622 31.42105421 27.40195032
1014 1 1 0.00283701651662 20.59243439 33.96870725 27.40195032
1015 1 1 0.00145682573713 19.12154622 36.51636030 27.40195032
1016 1 1 0.00117788843427 20.59243439 39.06401334 27.40195032
1017 1 1 0.00117752745842 22.06332256 21.23044203 27.40195032
1018 1 1 0.00243880364662 23.53421073 23.77809508 27.40195032
1019 1 1 0.00333139973251 22.06332256 26.32574812 27.40195032
1020 1 1 0.00576442102084 23.53421073 28.87340116 27.40195032
1021 1 1 0.00474290693123 22.06332256 31.42105421 27.40195032
1022 1 1 0.00474257187488 23.53421073 33.96870725 27.40195032
1023 1 1 0.002439089615 22.06332256 36.51636030 27.40195032
1024 1 1 0.00163591490138 23.53421073 39.06401334 27.40195032
1025 1 1 0.00145546234149 25.00509890 21.23044203 27.40195032
1026 1 1 0.00283603400425 26.47598708 23.77809508 27.40195032
1027 1 1 0.00474238834284 25.00509890 26.32574812 27.40195032
1028 1 1 0.00710641183476 26.47598708 28.87340116 27.40195032
1029 1 1 0.00710647478382 25.00509890 31.42105421 27.40195032
1030 1 1 0.0057641681692 26.47598708 33.96870725 27.40195032
1031 1 1 0.00333092363552 25.00509890 36.51636030 27.40195032
1032 1 1 0.00185306807978 26.47598708 39.06401334 27.40195032
1033 1 1 0.00145546234056 27.94687525 21.23044203 27.40195032
1034 1 1 0.00243880364327 29.41776342 23.77809508 27.40195032
1035 1 1 0.004742388339 27.94687525 26.32574812 27.40195032
1036 1 1 0.00576442101135 29.41776342 28.87340116 27.40195032
1037 1 1 0.00710647477757 27.94687525 31.42105421 27.40195032
1038 1 1 0.00474257186739 29.41776342 33.96870725 27.40195032
1039 1 1 0.00333092363299 27.94687525 36.51636030 27.40195032
1040 1 1 0.00163591489933 29.41776342 39.06401334 27.40195032
1041 1 1 0.0011775274566 30.88865159 21.23044203 27.40195032
1042 1 1 0.0016365761722 32.35953976 23.77809508 27.40195032
1043 1 1 0.0033313997255 30.88865159 26.32574812 27.40195032
1044 1 1 0.00333189061227 32.35953976 28.87340116 27.40195032
1045 1 1 0.0047429069204 30.88865159 31.42105421 27.40195032
1046 1 1 0.00283701650941 32.35953976 33.96870725 27.40195032
1047 1 1 0.00243908961025 30.88865159 36.51636030 27.40195032
1048 1 1 0.00117788843208 32.35953976 39.06401334 27.40195032
1049 1 1 0.000831910703533 33.83042793 21.23044203 27.40195032
1050 1 1 0.000979627495977 17.65065805 23.77809508 27.40195032
1051 1 1 0.00185458449261 33.83042793 26.32574812 27.40195032
1052 1 1 0.00163810647006 17.65065805 28.87340116 27.40195032
1053 1 1 0.00244022949365 33.83042793 31.42105421 27.40195032
1054 1 1 0.00145770866233 17.65065805 33.96870725 27.40195032
1055 1 1 0.00145682573376 33.83042793 36.51636030 27.40195032
1056 1 1 0.000773727849303 17.65065805 39.06401334 27.40195032
1057 1 1 1.70679568282e-06 20.59243439 22.07965971 29.80390065
1058 1 1 2.80242265378e-06 22.06332256 24.62731276 29.80390065
1059 1 1 2.77571698859e-06 20.59243439 27.17496580 29.80390065
1060 1 1 -3.09382948181e-06 22.06332256 29.72261885 29.80390065
1061 1 1 2.27686128595e-06 20.59243439 32.27027189 29.80390065
1062 1 1 2.27630871405e-06 22.06332256 34.81792493 29.80390065
1063 1 1 2.27362716264e-06 20.59243439 37.36557798 29.80390065
1064 1 1 1.70672286222e-06 22.06332256 39.91323102 29.80390065
1065 1 1 2.27267208262e-06 23.53421073 22.07965971 29.80390065
1066 1 1 2.27557986788e-06 25.00509890 24.62731276 29.80390065
1067 1 1 -3.09401458531e-06 23.53421073 27.17496580 29.80390065
1068 1 1 -3.72575421744e-05 25.00509890 29.72261885 29.80390065
1069 1 1 -1.30042323021e-05 23.53421073 32.27027189 29.80390065
1070 1 1 -3.09426487422e-06 25.00509890 34.81792493 29.80390065
1071 1 1 2.80226889748e-06 23.53421073 37.36557798 29.80390065
1072 1 1 1.95668607337e-06 25.00509890 39.91323102 29.80390065
1073 1 1 2.55008655546e-06 26.47598708 22.07965971 29.80390065
1074 1 1 2.27557987552e-06 27.94687525 24.62731276 29.80390065
1075 1 1 -1.3004808326e-05 26.47598708 27.17496580 29.80390065
1076 1 1 -3.72575420505e-05 27.94687525 29.72261885 29.80390065
1077 1 1 -3.7257718751e-05 26.47598708 32.27027189 29.80390065
1078 1 1 -3.0942648553e-06 27.94687525 34.81792493 29.80390065
1079 1 1 2.77461765209e-06 26.47598708 37.36557798 29.80390065
1080 1 1 1.95668607054e-06 27.94687525 39.91323102 29.80390065
1081 1 1 2.27267207138e-06 29.41776342 22.07965971 29.80390065
1082 1 1 2.80242265683e-06 30.88865159 24.62731276 29.80390065
1083 1 1 -3.09401454544e-06 29.41776342 27.17496580 29.80390065
1084 1 1 -3.0938294236e-06 30.88865159 29.72261885 29.80390065
1085 1 1 -1.30042322027e-05 29.41776342 32.27027189 29.80390065
1086 1 1 2.27630872217e-06 30.88865159 34.81792493 29.80390065
1087 1 1 2.80226890874e-06 29.41776342 37.36557798 29.80390065
1088 1 1 1.70672286035e-06 30.88865159 39.91323102 29.80390065
1089 1 1 1.70679569668e-06 32.35953976 22.07965971 29.80390065
1090 1 1 1.95788349911e-06 33.83042793 24.62731276 29.80390065
1091 1 1 2.77571700414e-06 32.35953976 27.17496580 29.80390065
1092 1 1 2.80390429227e-06 33.83042793 29.72261885 29.80390065
1093 1 1 2.27686128641e-06 32.35953976 32.27027189 29.80390065
1094 1 1 2.55199028856e-06 33.83042793 34.81792493 29.80390065
1095 1 1 2.27362714442e-06 32.35953976 37.36557798 29.80390065
1096 1 1 1.25422988704e-06 33.83042793 39.91323102 29.80390065
1097 1 1 1.00520476075e-06 17.65065805 22.07965971 29.80390065
1098 1 1 1.95788351596e-06 19.12154622 24.62731276 29.80390065
1099 1 1 1.95899685419e-06 17.65065805 27.17496580 29.80390065
1100 1 1 2.80390429906e-06 19.12154622 29.72261885 29.80390065
1101 1 1 2.27536912422e-06 17.65065805 32.27027189 29.80390065
1102 1 1 2.55199027945e-06 19.12154622 34.81792493 29.80390065
1103 1 1 1.64015234685e-06 17.65065805 37.36557798 29.80390065
1104 1 1 1.25422987762e-06 19.12154622 39.91323102 29.80390065
1105 1 1 -0.00169452423171 22.06332256 22.92887739 32.20585097
1106 1 1 -0.00350226324937 23.53421073 25.47653044 32.20585097
1107 1 1 -0.00416613794435 22.06332256 28.02418348 32.20585097
1108 1 1 -0.00609791733707 23.53421073 30.57183653 32.20585097
1109 1 1 -0.00416617125902 22.06332256 33.11948957 32.20585097
1110 1 1 -0.00350226185125 23.53421073 35.66714262 32.20585097
1111 1 1 -0.00169452231711 22.06332256 38.21479566 32.20585097
1112 1 1 -0.00109698487849 23.53421073 20.38122435 32.20585097
1113 1 1 -0.00220479865433 25.00509890 22.92887739 32.20585097
1114 1 1 -0.00416561580085 26.47598708 25.47653044 32.20585097
1115 1 1 -0.00609772747924 25.00509890 28.02418348 32.20585097
1116 1 1 -0.00750574227957 26.47598708 30.57183653 32.20585097
1117 1 1 -0.00609773194876 25.00509890 33.11948957 32.20585097
1118 1 1 -0.0041655842651 26.47598708 35.66714262 32.20585097
1119 1 1 -0.00220478147867 25.00509890 38.21479566 32.20585097
1120 1 1 -0.00121011270692 26.47598708 20.38122435 32.20585097
1121 1 1 -0.00220479865277 27.94687525 22.92887739 32.20585097
1122 1 1 -0.00350226324415 29.41776342 25.47653044 32.20585097
1123 1 1 -0.0060977274741 27.94687525 28.02418348 32.20585097
1124 1 1 -0.00609791732705 29.41776342 30.57183653 32.20585097
1125 1 1 -0.00609773194364 27.94687525 33.11948957 32.20585097
1126 1 1 -0.00350226184603 29.41776342 35.66714262 32.20585097
1127 1 1 -0.00220478147711 27.94687525 38.21479566 32.20585097
1128 1 1 -0.00109698487727 29.41776342 20.38122435 32.20585097
1129 1 1 -0.00169452422872 30.88865159 22.92887739 32.20585097
1130 1 1 -0.00220565617786 32.35953976 25.47653044 32.20585097
1131 1 1 -0.00416613793513 30.88865159 28.02418348 32.20585097
1132 1 1 -0.0035030608188 32.35953976 30.57183653 32.20585097
1133 1 1 -0.00416617124981 30.88865159 33.11948957 32.20585097
1134 1 1 -0.00220567017864 32.35953976 35.66714262 32.20585097
1135 1 1 -0.00169452231411 30.88865159 38.21479566 32.20585097
1136 1 1 -0.000847655662806 32.35953976 20.38122435 32.20585097
1137 1 1 -0.001098104916 33.83042793 22.92887739 32.20585097
1138 1 1 -0.00121235720684 17.65065805 25.47653044 32.20585097
1139 1 1 -0.00220631918187 33.83042793 28.02418348 32.20585097
1140 1 1 -0.00169647118289 17.65065805 30.57183653 32.20585097
1141 1 1 -0.00220633618524 33.83042793 33.11948957 32.20585097
1142 1 1 -0.00121225255721 17.65065805 35.66714262 32.20585097
1143 1 1 -0.00109808596263 33.83042793 38.21479566 32.20585097
1144 1 1 -0.000609403075023 17.65065805 20.38122435 32.20585097
1145 1 1 -0.00109810491821 19.12154622 22.92887739 32.20585097
1146 1 1 -0.00220565618307 20.59243439 25.47653044 32.20585097
1147 1 1 -0.00220631918794 19.12154622 28.02418348 32.20585097
1148 1 1 -0.00350306082823 20.59243439 30.57183653 32.20585097
1149 1 1 -0.00220633619131 19.12154622 33.11948957 32.20585097
1150 1 1 -0.00220567018383 20.59243439 35.66714262 32.20585097
1151 1 1 -0.00109808596485 19.12154622 38.21479566 32.20585097
1152 1 1 -0.000847655664138 20.59243439 20.38122435 32.20585097
1153 1 1 -0.0085863144908 23.53421073 23.77809508 34.60780130
1154 1 1 -0.016615955208 25.00509890 26.32574812 34.60780130
1155 1 1 -0.0203758203884 23.53421073 28.87340116 34.60780130
1156 1 1 -0.02548781786 25.00509890 31.42105421 34.60780130
1157 1 1 -0.0166166358923 23.53421073 33.96870725 34.60780130
1158 1 1 -0.0116218747864 25.00509890 36.51636030 34.60780130
1159 1 1 -0.00589821877258 23.53421073 39.06401334 34.60780130
1160 1 1 -0.00529223064386 25.00509890 21.23044203 34.60780130
1161 1 1 -0.0099286809486 26.47598708 23.77809508 34.60780130
1162 1 1 -0.0166159551958 27.94687525 26.32574812 34.60780130
1163 1 1 -0.0254875837603 26.47598708 28.87340116 34.60780130
1164 1 1 -0.0254878178382 27.94687525 31.42105421 34.60780130
1165 1 1 -0.0203748987479 26.47598708 33.96870725 34.60780130
1166 1 1 -0.0116218747789 27.94687525 36.51636030 34.60780130
1167 1 1 -0.00662448635608 26.47598708 39.06401334 34.60780130
1168 1 1 -0.00529223064142 27.94687525 21.23044203 34.60780130
1169 1 1 -0.00858631448124 29.41776342 23.77809508 34.60780130
1170 1 1 -0.0116236573112 30.88865159 26.32574812 34.60780130
1171 1 1 -0.0203758203565 29.41776342 28.87340116 34.60780130
1172 1 1 -0.0166178769248 30.88865159 31.42105421 34.60780130
1173 1 1 -0.0166166358682 29.41776342 33.96870725 34.60780130
1174 1 1 -0.00858738277787 30.88865159 36.51636030 34.60780130
1175 1 1 -0.00589821876702 29.41776342 39.06401334 34.60780130
1176 1 1 -0.00435377265263 30.88865159 21.23044203 34.60780130
1177 1 1 -0.00590069414508 32.35953976 23.77809508 34.60780130
1178 1 1 -0.00663016151963 33.83042793 26.32574812 34.60780130
1179 1 1 -0.0116254805211 32.35953976 28.87340116 34.60780130
1180 1 1 -0.00859163894745 33.83042793 31.42105421 34.60780130
1181 1 1 -0.0099323550435 32.35953976 33.96870725 34.60780130
1182 1 1 -0.00529733057374 33.83042793 36.51636030 34.60780130
1183 1 1 -0.00435512185959 32.35953976 39.06401334 34.60780130
1184 1 1 -0.00315674568851 33.83042793 21.23044203 34.60780130
1185 1 1 -0.00367380529599 17.65065805 23.77809508 34.60780130
1186 1 1 -0.00663016153436 19.12154622 26.32574812 34.60780130
1187 1 1 -0.00590641271481 17.65065805 28.87340116 34.60780130
1188 1 1 -0.00859163896927 19.12154622 31.42105421 34.60780130
1189 1 1 -0.00530063490464 17.65065805 33.96870725 34.60780130
1190 1 1 -0.00529733058409 19.12154622 36.51636030 34.60780130
1191 1 1 -0.00294913101828 17.65065805 39.06401334 34.60780130
1192 1 1 -0.00315674569286 19.12154622 21.23044203 34.60780130
1193 1 1 -0.00590069415531 20.59243439 23.77809508 34.60780130
1194 1 1 -0.0116236573327 22.06332256 26.32574812 34.60780130
1195 1 1 -0.011625480549 20.59243439 28.87340116 34.60780130
1196 1 1 -0.0166178769604 22.06332256 31.42105421 34.60780130
1197 1 1 -0.00993235506575 20.59243439 33.96870725 34.60780130
1198 1 1 -0.00858738279179 22.06332256 36.51636030 34.60780130
1199 1 1 -0.00435512186593 20.59243439 39.06401334 34.60780130
1200 1 1 -0.00435377265765 22.06332256 21.23044203 34.60780130
1201 1 1 0.00236074936615 17.65065805 40.76244870 25.00000000
1202 1 1 0.00193883235439 19.12154622 43.31010174 25.00000000
1203 1 1 0.00132345877531 17.65065805 45.85775479 25.00000000
1204 1 1 0.00111785018926 19.12154622 48.40540783 25.00000000
1205 1 1 0.000882910214818 17.65065805 50.95306088 25.00000000
1206 1 1 0.000790780584369 19.12154622 53.50071392 25.00000000
1207 1 1 0.000697497639009 17.65065805 56.04836697 25.00000000
1208 1 1 0.000669383400253 19.12154622 58.59602001 25.00000000
1209 1 1 0.0032260583125 20.59243439 40.76244870 25.00000000
1210 1 1 0.00235629096656 22.06332256 43.31010174 25.00000000
1211 1 1 0.00153825279185 20.59243439 45.85775479 25.00000000
1212 1 1 0.00122422414464 22.06332256 48.40540783 25.00000000
1213 1 1 0.000950652377324 20.59243439 50.95306088 25.00000000
1214 1 1 0.000827152351893 22.06332256 53.50071392 25.00000000
1215 1 1 0.00072520107371 20.59243439 56.04836697 25.00000000
1216 1 1 0.000687198476503 22.06332256 58.59602001 25.00000000
1217 1 1 0.00409381187722 23.53421073 40.76244870 25.00000000
1218 1 1 0.00264201566872 25.00509890 43.31010174 25.00000000
1219 1 1 0.00171208476474 23.53421073 45.85775479 25.00000000
1220 1 1 0.00128792005222 25.00509890 48.40540783 25.00000000
1221 1 1 0.000999650939954 23.53421073 50.95306088 25.00000000
1222 1 1 0.000847638073559 25.00509890 53.50071392 25.00000000
1223 1 1 0.000744219016254 23.53421073 56.04836697 25.00000000
1224 1 1 0.000696948230299 25.00509890 58.59602001 25.00000000
1225 1 1 0.00448017440268 26.47598708 40.76244870 25.00000000
1226 1 1 0.00264201566789 27.94687525 43.31010174 25.00000000
1227 1 1 0.00178029417048 26.47598708 45.85775479 25.00000000
1228 1 1 0.00128792005199 27.94687525 48.40540783 25.00000000
1229 1 1 0.00101765701246 26.47598708 50.95306088 25.00000000
1230 1 1 0.000847638073452 27.94687525 53.50071392 25.00000000
1231 1 1 0.000751006503938 26.47598708 56.04836697 25.00000000
1232 1 1 0.000696948230226 27.94687525 58.59602001 25.00000000
1233 1 1 0.00409381187401 29.41776342 40.76244870 25.00000000
1234 1 1 0.00235629096475 30.88865159 43.31010174 25.00000000
1235 1 1 0.00171208476399 29.41776342 45.85775479 25.00000000
1236 1 1 0.00122422414413 30.88865159 48.40540783 25.00000000
1237 1 1 0.000999650939691 29.41776342 50.95306088 25.00000000
1238 1 1 0.000827152351674 30.88865159 53.50071392 25.00000000
1239 1 1 0.000744219016111 29.41776342 56.04836697 25.00000000
1240 1 1 0.000687198476362 30.88865159 58.59602001 25.00000000
1241 1 1 0.00322605830864 32.35953976 40.76244870 25.00000000
1242 1 1 0.00193883235266 33.83042793 43.31010174 25.00000000
1243 1 1 0.00153825279089 32.35953976 45.85775479 25.00000000
1244 1 1 0.00111785018875 33.83042793 48.40540783 25.00000000
1245 1 1 0.000950652376997 32.35953976 50.95306088 25.00000000
1246 1 1 0.00079078058417 33.83042793 53.50071392 25.00000000
1247 1 1 0.000725201073548 32.35953976 56.04836697 25.00000000
1248 1 1 0.00066938340014 33.83042793 58.59602001 25.00000000
1249 1 1 0.000636577337509 19.12154622 41.61166638 27.40195032
1250 1 1 0.000494032096031 20.59243439 44.15931943 27.40195032
1251 1 1 0.000342412950987 19.12154622 46.70697247 27.40195032
1252 1 1 0.000286989727481 20.59243439 49.25462551 27.40195032
1253 1 1 0.000231877465529 19.12154622 51.80227856 27.40195032
1254 1 1 0.000208253190684 20.59243439 54.34993160 27.40195032
1255 1 1 0.000186778235867 19.12154622 56.89758465 27.40195032
1256 1 1 0.000180691028226 20.59243439 59.44523769 27.40195032
1257 1 1 0.0008311367373 22.06332256 41.61166638 27.40195032
1258 1 1 0.000569454555188 23.53421073 44.15931943 27.40195032
1259 1 1 0.000382840425764 22.06332256 46.70697247 27.40195032
1260 1 1 0.000304966656573 23.53421073 49.25462551 27.40195032
1261 1 1 0.000244732610005 22.06332256 51.80227856 27.40195032
1262 1 1 0.000214743183543 23.53421073 54.34993160 27.40195032
1263 1 1 0.000192374435109 22.06332256 56.89758465 27.40195032
1264 1 1 0.00018419185754 23.53421073 59.44523769 27.40195032
1265 1 1 0.000977701491714 25.00509890 41.61166638 27.40195032
1266 1 1 0.000600660459757 26.47598708 44.15931943 27.40195032
1267 1 1 0.000408087815423 25.00509890 46.70697247 27.40195032
1268 1 1 0.000311670387632 26.47598708 49.25462551 27.40195032
1269 1 1 0.000252052913047 25.00509890 51.80227856 27.40195032
1270 1 1 0.00021707234426 26.47598708 54.34993160 27.40195032
1271 1 1 0.000195454335466 25.00509890 56.89758465 27.40195032
1272 1 1 0.000185428895887 26.47598708 59.44523769 27.40195032
1273 1 1 0.00097770149116 27.94687525 41.61166638 27.40195032
1274 1 1 0.000569454554727 29.41776342 44.15931943 27.40195032
1275 1 1 0.000408087815275 27.94687525 46.70697247 27.40195032
1276 1 1 0.000304966656416 29.41776342 49.25462551 27.40195032
1277 1 1 0.000252052912982 27.94687525 51.80227856 27.40195032
1278 1 1 0.000214743183458 29.41776342 54.34993160 27.40195032
1279 1 1 0.000195454335422 27.94687525 56.89758465 27.40195032
1280 1 1 0.000184191857474 29.41776342 59.44523769 27.40195032
1281 1 1 0.000831136736204 30.88865159 41.61166638 27.40195032
1282 1 1 0.000494032095518 32.35953976 44.15931943 27.40195032
1283 1 1 0.000382840425473 30.88865159 46.70697247 27.40195032
1284 1 1 0.000286989727313 32.35953976 49.25462551 27.40195032
1285 1 1 0.00024473260988 30.88865159 51.80227856 27.40195032
1286 1 1 0.0002082531906 32.35953976 54.34993160 27.40195032
1287 1 1 0.000192374435029 30.88865159 56.89758465 27.40195032
1288 1 1 0.000180691028165 32.35953976 59.44523769 27.40195032
1289 1 1 0.000636577336648 33.83042793 41.61166638 27.40195032
1290 1 1 0.000408704109721 17.65065805 44.15931943 27.40195032
1291 1 1 0.000342412950758 33.83042793 46.70697247 27.40195032
1292 1 1 0.000262712146014 17.65065805 49.25462551 27.40195032
1293 1 1 0.00023187746544 33.83042793 51.80227856 27.40195032
1294 1 1 0.000198894627746 17.65065805 54.34993160 27.40195032
1295 1 1 0.000186778235819 33.83042793 56.89758465 27.40195032
1296 1 1 0.000175497660856 17.65065805 59.44523769 27.40195032
1297 1 1 8.86782484268e-07 20.59243439 42.46088406 29.80390065
1298 1 1 5.66243407433e-07 22.06332256 45.00853711 29.80390065
1299 1 1 3.80747373649e-07 20.59243439 47.55619015 29.80390065
1300 1 1 3.04592356973e-07 22.06332256 50.10384320 29.80390065
1301 1 1 2.5305378756e-07 20.59243439 52.65149624 29.80390065
1302 1 1 2.27683616881e-07 22.06332256 55.19914928 29.80390065
1303 1 1 2.08165994205e-07 20.59243439 57.74680233 29.80390065
1304 1 1 2.0388511477e-07 22.06332256 60.29445537 29.80390065
1305 1 1 1.00369376268e-06 23.53421073 42.46088406 29.80390065
1306 1 1 5.41565255677e-07 25.00509890 45.00853711 29.80390065
1307 1 1 3.85766998819e-07 23.53421073 47.55619015 29.80390065
1308 1 1 3.07142013029e-07 25.00509890 50.10384320 29.80390065
1309 1 1 2.60191257042e-07 23.53421073 52.65149624 29.80390065
1310 1 1 2.31416512526e-07 25.00509890 55.19914928 29.80390065
1311 1 1 2.12408928603e-07 23.53421073 57.74680233 29.80390065
1312 1 1 2.06523069734e-07 25.00509890 60.29445537 29.80390065
1313 1 1 9.72770740437e-07 26.47598708 42.46088406 29.80390065
1314 1 1 5.41565254226e-07 27.94687525 45.00853711 29.80390065
1315 1 1 3.76863321176e-07 26.47598708 47.55619015 29.80390065
1316 1 1 3.07142012607e-07 27.94687525 50.10384320 29.80390065
1317 1 1 2.6226134137e-07 26.47598708 52.65149624 29.80390065
1318 1 1 2.31416512405e-07 27.94687525 55.19914928 29.80390065
1319 1 1 2.1390058222e-07 26.47598708 57.74680233 29.80390065
1320 1 1 2.06523069721e-07 27.94687525 60.29445537 29.80390065
1321 1 1 1.00369376994e-06 29.41776342 42.46088406 29.80390065
1322 1 1 5.66243406798e-07 30.88865159 45.00853711 29.80390065
1323 1 1 3.85767001006e-07 29.41776342 47.55619015 29.80390065
1324 1 1 3.04592356773e-07 30.88865159 50.10384320 29.80390065
1325 1 1 2.60191257634e-07 29.41776342 52.65149624 29.80390065
1326 1 1 2.27683616801e-07 30.88865159 55.19914928 29.80390065
1327 1 1 2.12408928756e-07 29.41776342 57.74680233 29.80390065
1328 1 1 2.03885114737e-07 30.88865159 60.29445537 29.80390065
1329 1 1 8.86782474307e-07 32.35953976 42.46088406 29.80390065
1330 1 1 5.08567382362e-07 33.83042793 45.00853711 29.80390065
1331 1 1 3.80747371013e-07 32.35953976 47.55619015 29.80390065
1332 1 1 2.90996639429e-07 33.83042793 50.10384320 29.80390065
1333 1 1 2.5305378678e-07 32.35953976 52.65149624 29.80390065
1334 1 1 2.20610052596e-07 33.83042793 55.19914928 29.80390065
1335 1 1 2.08165993963e-07 32.35953976 57.74680233 29.80390065
1336 1 1 1.99036500343e-07 33.83042793 60.29445537 29.80390065
1337 1 1 6.84117034857e-07 17.65065805 42.46088406 29.80390065
1338 1 1 5.08567379722e-07 19.12154622 45.00853711 29.80390065
1339 1 1 3.45898550719e-07 17.65065805 47.55619015 29.80390065
1340 1 1 2.90996638671e-07 19.12154622 50.10384320 29.80390065
1341 1 1 2.40904240176e-07 17.65065805 52.65149624 29.80390065
1342 1 1 2.2061005236e-07 19.12154622 55.19914928 29.80390065
1343 1 1 2.01830031639e-07 17.65065805 57.74680233 29.80390065
1344 1 1 1.99036500343e-07 19.12154622 60.29445537 29.80390065
1345 1 1 -0.000608202246594 22.06332256 43.31010174 32.20585097
1346 1 1 -0.000440589967236 23.53421073 45.85775479 32.20585097
1347 1 1 -0.00031900349772 22.06332256 48.40540783 32.20585097
1348 1 1 -0.000263374661972 23.53421073 50.95306088 32.20585097
1349 1 1 -0.00021991387232 22.06332256 53.50071392 32.20585097
1350 1 1 -0.000198679496419 23.53421073 56.04836697 32.20585097
1351 1 1 -0.000183904298629 22.06332256 58.59602001 32.20585097
1352 1 1 -0.00109700316589 23.53421073 40.76244870 32.20585097
1353 1 1 -0.000685664498404 25.00509890 43.31010174 32.20585097
1354 1 1 -0.0004579685236 26.47598708 45.85775479 32.20585097
1355 1 1 -0.000334768619366 25.00509890 48.40540783 32.20585097
1356 1 1 -0.000267877981761 26.47598708 50.95306088 32.20585097
1357 1 1 -0.000225150059592 25.00509890 53.50071392 32.20585097
1358 1 1 -0.000200441635383 26.47598708 56.04836697 32.20585097
1359 1 1 -0.000186459459008 25.00509890 58.59602001 32.20585097
1360 1 1 -0.00121021773565 26.47598708 40.76244870 32.20585097
1361 1 1 -0.000685664498065 27.94687525 43.31010174 32.20585097
1362 1 1 -0.000440589966931 29.41776342 45.85775479 32.20585097
1363 1 1 -0.000334768619259 27.94687525 48.40540783 32.20585097
1364 1 1 -0.000263374661849 29.41776342 50.95306088 32.20585097
1365 1 1 -0.000225150059537 27.94687525 53.50071392 32.20585097
1366 1 1 -0.000198679496343 29.41776342 56.04836697 32.20585097
1367 1 1 -0.000186459458967 27.94687525 58.59602001 32.20585097
1368 1 1 -0.00109700316467 29.41776342 40.76244870 32.20585097
1369 1 1 -0.000608202245917 30.88865159 43.31010174 32.20585097
1370 1 1 -0.000396817280543 32.35953976 45.85775479 32.20585097
1371 1 1 -0.00031900349751 30.88865159 48.40540783 32.20585097
1372 1 1 -0.000251087960286 32.35953976 50.95306088 32.20585097
1373 1 1 -0.000219913872217 30.88865159 53.50071392 32.20585097
1374 1 1 -0.000193735843151 32.35953976 56.04836697 32.20585097
1375 1 1 -0.000183904298555 30.88865159 58.59602001 32.20585097
1376 1 1 -0.00084765609928 32.35953976 40.76244870 32.20585097
1377 1 1 -0.000498433179147 33.83042793 43.31010174 32.20585097
1378 1 1 -0.000343500965888 17.65065805 45.85775479 32.20585097
1379 1 1 -0.00029268696664 33.83042793 48.40540783 32.20585097
1380 1 1 -0.00023400324975 17.65065805 50.95306088 32.20585097
1381 1 1 -0.000210585311795 33.83042793 53.50071392 32.20585097
1382 1 1 -0.00018651823969 17.65065805 56.04836697 32.20585097
1383 1 1 -0.000179231657397 33.83042793 58.59602001 32.20585097
1384 1 1 -0.000609389029648 17.65065805 40.76244870 32.20585097
1385 1 1 -0.000498433179683 19.12154622 43.31010174 32.20585097
1386 1 1 -0.000396817280874 20.59243439 45.85775479 32.20585097
1387 1 1 -0.000292686966801 19.12154622 48.40540783 32.20585097
1388 1 1 -0.000251087960413 20.59243439 50.95306088 32.20585097
1389 1 1 -0.000210585311865 19.12154622 53.50071392 32.20585097
1390 1 1 -0.000193735843223 20.59243439 56.04836697 32.20585097
1391 1 1 -0.000179231657441 19.12154622 58.59602001 32.20585097
1392 1 1 -0.0008476561006 20.59243439 40.76244870 32.20585097
1393 1 1 -0.00219993862103 23.53421073 44.15931943 34.60780130
1394 1 1 -0.00157515086266 25.00509890 46.70697247 34.60780130
1395 1 1 -0.00116147286609 23.53421073 49.25462551 34.60780130
1396 1 1 -0.000949655030898 25.00509890 51.80227856 34.60780130
1397 1 1 -0.000802996546358 23.53421073 54.34993160 34.60780130
1398 1 1 -0.000728283465145 25.00509890 56.89758465 34.60780130
1399 1 1 -0.000685084141088 23.53421073 59.44523769 34.60780130
1400 1 1 -0.0036666053705 25.00509890 41.61166638 34.60780130
1401 1 1 -0.00231683636537 26.47598708 44.15931943 34.60780130
1402 1 1 -0.00157515086232 27.94687525 46.70697247 34.60780130
1403 1 1 -0.0011884072304 26.47598708 49.25462551 34.60780130
1404 1 1 -0.000949655030767 27.94687525 51.80227856 34.60780130
1405 1 1 -0.000812014186192 26.47598708 54.34993160 34.60780130
1406 1 1 -0.000728283465068 27.94687525 56.89758465 34.60780130
1407 1 1 -0.0006897756533 26.47598708 59.44523769 34.60780130
1408 1 1 -0.0036666053691 27.94687525 41.61166638 34.60780130
1409 1 1 -0.00219993861987 29.41776342 44.15931943 34.60780130
1410 1 1 -0.00147463414327 30.88865159 46.70697247 34.60780130
1411 1 1 -0.00116147286573 29.41776342 49.25462551 34.60780130
1412 1 1 -0.000920763891555 30.88865159 51.80227856 34.60780130
1413 1 1 -0.000802996546192 29.41776342 54.34993160 34.60780130
1414 1 1 -0.000716527148886 30.88865159 56.89758465 34.60780130
1415 1 1 -0.00068508414097 29.41776342 59.44523769 34.60780130
1416 1 1 -0.00315385568857 30.88865159 41.61166638 34.60780130
1417 1 1 -0.00191235933757 32.35953976 44.15931943 34.60780130
1418 1 1 -0.00131245423129 33.83042793 46.70697247 34.60780130
1419 1 1 -0.00108933945971 32.35953976 49.25462551 34.60780130
1420 1 1 -0.000870244060273 33.83042793 51.80227856 34.60780130
1421 1 1 -0.00077791857206 32.35953976 54.34993160 34.60780130
1422 1 1 -0.000695194326674 33.83042793 56.89758465 34.60780130
1423 1 1 -0.000671812750851 32.35953976 59.44523769 34.60780130
1424 1 1 -0.0024510135355 33.83042793 41.61166638 34.60780130
1425 1 1 -0.00157778227683 17.65065805 44.15931943 34.60780130
1426 1 1 -0.00131245423203 19.12154622 46.70697247 34.60780130
1427 1 1 -0.000992342675577 17.65065805 49.25462551 34.60780130
1428 1 1 -0.000870244060536 19.12154622 51.80227856 34.60780130
1429 1 1 -0.000741881949778 17.65065805 54.34993160 34.60780130
1430 1 1 -0.000695194326803 19.12154622 56.89758465 34.60780130
1431 1 1 -0.000652140103062 17.65065805 59.44523769 34.60780130
1432 1 1 -0.00245101353824 19.12154622 41.61166638 34.60780130
1433 1 1 -0.00191235933905 20.59243439 44.15931943 34.60780130
1434 1 1 -0.00147463414402 22.06332256 46.70697247 34.60780130
1435 1 1 -0.00108933946016 20.59243439 49.25462551 34.60780130
1436 1 1 -0.000920763891833 22.06332256 51.80227856 34.60780130
1437 1 1 -0.000777918572257 20.59243439 54.34993160 34.60780130
1438 1 1 -0.000716527149042 22.06332256 56.89758465 34.60780130
1439 1 1 -0.00067181275098 20.59243439 59.44523769 34.60780130
1440 1 1 -0.00315385569155 22.06332256 41.61166638 34.60780130
1441 1 1 0.000645838969588 35.30131610 0.00000000 25.00000000
1442 1 1 0.000646380444087 36.77220427 2.54765304 25.00000000
1443 1 1 0.000697495512366 35.30131610 5.09530609 25.00000000
1444 1 1 0.000745756031902 36.77220427 7.64295913 25.00000000
1445 1 1 0.000882903531174 35.30131610 10.19061218 25.00000000
1446 1 1 0.000996955999791 36.77220427 12.73826522 25.00000000
1447 1 1 0.0013234591015 35.30131610 15.28591827 25.00000000
1448 1 1 0.00154246318926 36.77220427 17.83357131 25.00000000
1449 1 1 0.00062377323248 38.24309244 0.00000000 25.00000000
1450 1 1 0.000621530735986 39.71398061 2.54765304 25.00000000
1451 1 1 0.00066569699751 38.24309244 5.09530609 25.00000000
1452 1 1 0.000699445567208 39.71398061 7.64295913 25.00000000
1453 1 1 0.000810082897461 38.24309244 10.19061218 25.00000000
1454 1 1 0.000883634960561 39.71398061 12.73826522 25.00000000
1455 1 1 0.00112087344389 38.24309244 15.28591827 25.00000000
1456 1 1 0.00123268031989 39.71398061 17.83357131 25.00000000
1457 1 1 0.000601340709027 41.18486878 0.00000000 25.00000000
1458 1 1 0.000597975057875 42.65575695 2.54765304 25.00000000
1459 1 1 0.000634252250249 41.18486878 5.09530609 25.00000000
1460 1 1 0.000657652495481 42.65575695 7.64295913 25.00000000
1461 1 1 0.000742854177956 41.18486878 10.19061218 25.00000000
1462 1 1 0.000789912131695 42.65575695 12.73826522 25.00000000
1463 1 1 0.000955727008824 41.18486878 15.28591827 25.00000000
1464 1 1 0.00101290777798 42.65575695 17.83357131 25.00000000
1465 1 1 0.000581189947201 44.12664513 0.00000000 25.00000000
1466 1 1 0.000578256668977 45.59753330 2.54765304 25.00000000
1467 1 1 0.000606737137029 44.12664513 5.09530609 25.00000000
1468 1 1 0.00062416400208 45.59753330 7.64295913 25.00000000
1469 1 1 0.000687654974322 44.12664513 10.19061218 25.00000000
1470 1 1 0.00072013886156 45.59753330 12.73826522 25.00000000
1471 1 1 0.000833533735235 44.12664513 15.28591827 25.00000000
1472 1 1 0.000867011695412 45.59753330 17.83357131 25.00000000
1473 1 1 0.000565392877079 47.06842147 0.00000000 25.00000000
1474 1 1 0.000564187976492 48.53930964 2.54765304 25.00000000
1475 1 1 0.000585634889082 47.06842147 5.09530609 25.00000000
1476 1 1 0.000601069596633 48.53930964 7.64295913 25.00000000
1477 1 1 0.0006474864151 47.06842147 10.19061218 25.00000000
1478 1 1 0.000674610170617 48.53930964 12.73826522 25.00000000
1479 1 1 0.00075136835148 47.06842147 15.28591827 25.00000000
1480 1 1 0.000778946566735 48.53930964 17.83357131 25.00000000
1481 1 1 0.000555373899475 50.01019781 0.00000000 25.00000000
1482 1 1 0.000556890375104 51.48108598 2.54765304 25.00000000
1483 1 1 0.000572458821553 50.01019781 5.09530609 25.00000000
1484 1 1 0.000589344602865 51.48108598 7.64295913 25.00000000
1485 1 1 0.000623320639546 50.01019781 10.19061218 25.00000000
1486 1 1 0.000652273831179 51.48108598 12.73826522 25.00000000
1487 1 1 0.000704489259153 50.01019781 15.28591827 25.00000000
1488 1 1 0.000737656425697 51.48108598 17.83357131 25.00000000
1489 1 1 0.0001715178117 36.77220427 0.84921768 27.40195032
1490 1 1 0.000173012446452 38.24309244 3.39687073 27.40195032
1491 1 1 0.000188118744354 36.77220427 5.94452377 27.40195032
1492 1 1 0.000200619479386 38.24309244 8.49217681 27.40195032
1493 1 1 0.000237195468183 36.77220427 11.03982986 27.40195032
1494 1 1 0.000263059268728 38.24309244 13.58748290 27.40195032
1495 1 1 0.00034306598191 36.77220427 16.13513595 27.40195032
1496 1 1 0.000384841323005 38.24309244 18.68278899 27.40195032
1497 1 1 0.000165464707379 39.71398061 0.84921768 27.40195032
1498 1 1 0.000166066258158 41.18486878 3.39687073 27.40195032
1499 1 1 0.000178679789039 39.71398061 5.94452377 27.40195032
1500 1 1 0.000187348317799 41.18486878 8.49217681 27.40195032
1501 1 1 0.000216031314145 39.71398061 11.03982986 27.40195032
1502 1 1 0.00023233813386 41.18486878 13.58748290 27.40195032
1503 1 1 0.00028847300809 39.71398061 16.13513595 27.40195032
1504 1 1 0.000308360046241 41.18486878 18.68278899 27.40195032
1505 1 1 0.000159684061598 42.65575695 0.84921768 27.40195032
1506 1 1 0.000159894637587 44.12664513 3.39687073 27.40195032
1507 1 1 0.000169959407501 42.65575695 5.94452377 27.40195032
1508 1 1 0.00017611748281 44.12664513 8.49217681 27.40195032
1509 1 1 0.000197724920699 42.65575695 11.03982986 27.40195032
1510 1 1 0.000208331946792 44.12664513 13.58748290 27.40195032
1511 1 1 0.000246944006581 42.65575695 16.13513595 27.40195032
1512 1 1 0.000257215463558 44.12664513 18.68278899 27.40195032
1513 1 1 0.000154812989852 45.59753330 0.84921768 27.40195032
1514 1 1 0.000155100931463 47.06842147 3.39687073 27.40195032
1515 1 1 0.000162827803533 45.59753330 5.94452377 27.40195032
1516 1 1 0.000167746501231 47.06842147 8.49217681 27.40195032
1517 1 1 0.000183587858034 45.59753330 11.03982986 27.40195032
1518 1 1 0.000191509339114 47.06842147 13.58748290 27.40195032
1519 1 1 0.000217685619357 45.59753330 16.13513595 27.40195032
1520 1 1 0.000224685926227 47.06842147 18.68278899 27.40195032
1521 1 1 0.000151319624081 48.53930964 0.84921768 27.40195032
1522 1 1 0.000152080660167 50.01019781 3.39687073 27.40195032
1523 1 1 0.000157832423015 48.53930964 5.94452377 27.40195032
1524 1 1 0.000162627137097 50.01019781 8.49217681 27.40195032
1525 1 1 0.000174117379537 48.53930964 11.03982986 27.40195032
1526 1 1 0.000181651926476 50.01019781 13.58748290 27.40195032
1527 1 1 0.000199262353926 48.53930964 16.13513595 27.40195032
1528 1 1 0.000206672706571 50.01019781 18.68278899 27.40195032
1529 1 1 0.000149501668628 51.48108598 0.84921768 27.40195032
1530 1 1 0.000179923722376 35.30131610 3.39687073 27.40195032
1531 1 1 0.000155271505529 51.48108598 5.94452377 27.40195032
1532 1 1 0.000214517134653 35.30131610 8.49217681 27.40195032
1533 1 1 0.000169398131629 51.48108598 11.03982986 27.40195032
1534 1 1 0.000298475252506 35.30131610 13.58748290 27.40195032
1535 1 1 0.00019041274841 51.48108598 16.13513595 27.40195032
1536 1 1 0.000494814842676 35.30131610 18.68278899 27.40195032
1537 1 1 1.90536366279e-07 38.24309244 1.69843536 29.80390065
1538 1 1 1.93402273097e-07 39.71398061 4.24608841 29.80390065
1539 1 1 2.12486450933e-07 38.24309244 6.79374145 29.80390065
1540 1 1 2.25473889898e-07 39.71398061 9.34139450 29.80390065
1541 1 1 2.68278090548e-07 38.24309244 11.88904754 29.80390065
1542 1 1 2.9129184787e-07 39.71398061 14.43670058 29.80390065
1543 1 1 3.81868507028e-07 38.24309244 16.98435363 29.80390065
1544 1 1 3.88815210842e-07 39.71398061 19.53200667 29.80390065
1545 1 1 1.83199795836e-07 41.18486878 1.69843536 29.80390065
1546 1 1 1.84735466994e-07 42.65575695 4.24608841 29.80390065
1547 1 1 1.99859092104e-07 41.18486878 6.79374145 29.80390065
1548 1 1 2.08571586615e-07 42.65575695 9.34139450 29.80390065
1549 1 1 2.39970651029e-07 41.18486878 11.88904754 29.80390065
1550 1 1 2.5337966418e-07 42.65575695 14.43670058 29.80390065
1551 1 1 3.06663897015e-07 41.18486878 16.98435363 29.80390065
1552 1 1 3.12034380742e-07 42.65575695 19.53200667 29.80390065
1553 1 1 1.76695222046e-07 44.12664513 1.69843536 29.80390065
1554 1 1 1.77675710767e-07 45.59753330 4.24608841 29.80390065
1555 1 1 1.89177303586e-07 44.12664513 6.79374145 29.80390065
1556 1 1 1.95513443094e-07 45.59753330 9.34139450 29.80390065
1557 1 1 2.18206706646e-07 44.12664513 11.88904754 29.80390065
1558 1 1 2.27494833977e-07 45.59753330 14.43670058 29.80390065
1559 1 1 2.6326718272e-07 44.12664513 16.98435363 29.80390065
1560 1 1 2.69710722766e-07 45.59753330 19.53200667 29.80390065
1561 1 1 1.71654908553e-07 47.06842147 1.69843536 29.80390065
1562 1 1 1.72750694127e-07 48.53930964 4.24608841 29.80390065
1563 1 1 1.81240030973e-07 47.06842147 6.79374145 29.80390065
1564 1 1 1.86773095207e-07 48.53930964 9.34139450 29.80390065
1565 1 1 2.02949910838e-07 47.06842147 11.88904754 29.80390065
1566 1 1 2.10991160565e-07 48.53930964 14.43670058 29.80390065
1567 1 1 2.35629063048e-07 47.06842147 16.98435363 29.80390065
1568 1 1 2.42519482475e-07 48.53930964 19.53200667 29.80390065
1569 1 1 1.68484778967e-07 50.01019781 1.69843536 29.80390065
1570 1 1 1.70232520834e-07 51.48108598 4.24608841 29.80390065
1571 1 1 1.76403636466e-07 50.01019781 6.79374145 29.80390065
1572 1 1 1.82425443476e-07 51.48108598 9.34139450 29.80390065
1573 1 1 1.9397543601e-07 50.01019781 11.88904754 29.80390065
1574 1 1 2.02947523987e-07 51.48108598 14.43670058 29.80390065
1575 1 1 2.19541492794e-07 50.01019781 16.98435363 29.80390065
1576 1 1 2.28969680756e-07 51.48108598 19.53200667 29.80390065
1577 1 1 1.97841298605e-07 35.30131610 1.69843536 29.80390065
1578 1 1 2.02799572434e-07 36.77220427 4.24608841 29.80390065
1579 1 1 2.25727271459e-07 35.30131610 6.79374145 29.80390065
1580 1 1 2.45113661499e-07 36.77220427 9.34139450 29.80390065
1581 1 1 3.02795591313e-07 35.30131610 11.88904754 29.80390065
1582 1 1 3.4570919556e-07 36.77220427 14.43670058 29.80390065
1583 1 1 5.08643962343e-07 35.30131610 16.98435363 29.80390065
1584 1 1 5.67826714245e-07 36.77220427 19.53200667 29.80390065
1585 1 1 -0.000166658095117 39.71398061 2.54765304 32.20585097
1586 1 1 -0.000169974682003 41.18486878 5.09530609 32.20585097
1587 1 1 -0.000186974663283 39.71398061 7.64295913 32.20585097
1588 1 1 -0.000198215302287 41.18486878 10.19061218 32.20585097
1589 1 1 -0.000234200506127 39.71398061 12.73826522 32.20585097
1590 1 1 -0.000252443268331 41.18486878 15.28591827 32.20585097
1591 1 1 -0.000321256089365 39.71398061 17.83357131 32.20585097
1592 1 1 -0.0001613518623 41.18486878 0.00000000 32.20585097
1593 1 1 -0.000160457408894 42.65575695 2.54765304 32.20585097
1594 1 1 -0.000162752165092 44.12664513 5.09530609 32.20585097
1595 1 1 -0.000176086657496 42.65575695 7.64295913 32.20585097
1596 1 1 -0.000183923756733 44.12664513 10.19061218 32.20585097
1597 1 1 -0.000210365380234 42.65575695 12.73826522 32.20585097
1598 1 1 -0.000221618764394 44.12664513 15.28591827 32.20585097
1599 1 1 -0.00026690229153 42.65575695 17.83357131 32.20585097
1600 1 1 -0.000156038272975 44.12664513 0.00000000 32.20585097
1601 1 1 -0.000155261525932 45.59753330 2.54765304 32.20585097
1602 1 1 -0.000157204165978 47.06842147 5.09530609 32.20585097
1603 1 1 -0.000167329235744 45.59753330 7.64295913 32.20585097
1604 1 1 -0.000173462425479 47.06842147 10.19061218 32.20585097
1605 1 1 -0.000192412570561 45.59753330 12.73826522 32.20585097
1606 1 1 -0.000200590394707 47.06842147 15.28591827 32.20585097
1607 1 1 -0.000230296434023 45.59753330 17.83357131 32.20585097
1608 1 1 -0.000151869764491 47.06842147 0.00000000 32.20585097
1609 1 1 -0.000151551493942 48.53930964 2.54765304 32.20585097
1610 1 1 -0.000153736516061 50.01019781 5.09530609 32.20585097
1611 1 1 -0.000161275100207 48.53930964 7.64295913 32.20585097
1612 1 1 -0.000167146926064 50.01019781 10.19061218 32.20585097
1613 1 1 -0.000180603020904 48.53930964 12.73826522 32.20585097
1614 1 1 -0.000188475772928 50.01019781 15.28591827 32.20585097
1615 1 1 -0.000207845822843 48.53930964 17.83357131 32.20585097
1616 1 1 -0.000149224601357 50.01019781 0.00000000 32.20585097
1617 1 1 -0.000149626127268 51.48108598 2.54765304 32.20585097
1618 1 1 -0.000186518272435 35.30131610 5.09530609 32.20585097
1619 1 1 -0.000158197357451 51.48108598 7.64295913 32.20585097
1620 1 1 -0.000234004872876 35.30131610 10.19061218 32.20585097
1621 1 1 -0.000174784178642 51.48108598 12.73826522 32.20585097
1622 1 1 -0.000343501141524 35.30131610 15.28591827 32.20585097
1623 1 1 -0.000197212175936 51.48108598 17.83357131 32.20585097
1624 1 1 -0.000173070932853 35.30131610 0.00000000 32.20585097
1625 1 1 -0.000173191592565 36.77220427 2.54765304 32.20585097
1626 1 1 -0.000178210877724 38.24309244 5.09530609 32.20585097
1627 1 1 -0.000198979923215 36.77220427 7.64295913 32.20585097
1628 1 1 -0.000215479023945 38.24309244 10.19061218 32.20585097
1629 1 1 -0.000262649330162 36.77220427 12.73826522 32.20585097
1630 1 1 -0.000293494140895 38.24309244 15.28591827 32.20585097
1631 1 1 -0.000397939063423 36.77220427 17.83357131 32.20585097
1632 1 1 -0.000167262230632 38.24309244 0.00000000 32.20585097
1633 1 1 -0.000616507590643 41.18486878 3.39687073 34.60780130
1634 1 1 -0.00063133130091 42.65575695 5.94452377 34.60780130
1635 1 1 -0.000697668507517 41.18486878 8.49217681 34.60780130
1636 1 1 -0.000737452099829 42.65575695 11.03982986 34.60780130
1637 1 1 -0.000871943730072 41.18486878 13.58748290 34.60780130
1638 1 1 -0.000929023051178 42.65575695 16.13513595 34.60780130
1639 1 1 -0.00117416557367 41.18486878 18.68278899 34.60780130
1640 1 1 -0.000592334976011 42.65575695 0.84921768 34.60780130
1641 1 1 -0.000593161657228 44.12664513 3.39687073 34.60780130
1642 1 1 -0.000604274796411 45.59753330 5.94452377 34.60780130
1643 1 1 -0.000654745768063 44.12664513 8.49217681 34.60780130
1644 1 1 -0.000683131950627 45.59753330 11.03982986 34.60780130
1645 1 1 -0.000778162895975 44.12664513 13.58748290 34.60780130
1646 1 1 -0.00081399586463 45.59753330 16.13513595 34.60780130
1647 1 1 -0.000968992838647 44.12664513 18.68278899 34.60780130
1648 1 1 -0.000573951432863 45.59753330 0.84921768 34.60780130
1649 1 1 -0.000575047182511 47.06842147 3.39687073 34.60780130
1650 1 1 -0.00058535279051 48.53930964 5.94452377 34.60780130
1651 1 1 -0.000622876078936 47.06842147 8.49217681 34.60780130
1652 1 1 -0.000646946164443 48.53930964 11.03982986 34.60780130
1653 1 1 -0.000713194995304 47.06842147 13.58748290 34.60780130
1654 1 1 -0.000742545004316 48.53930964 16.13513595 34.60780130
1655 1 1 -0.000840592270357 47.06842147 18.68278899 34.60780130
1656 1 1 -0.00056077565235 48.53930964 0.84921768 34.60780130
1657 1 1 -0.000563642306929 50.01019781 3.39687073 34.60780130
1658 1 1 -0.000575660858336 51.48108598 5.94452377 34.60780130
1659 1 1 -0.000603430015874 50.01019781 8.49217681 34.60780130
1660 1 1 -0.000628967297003 51.48108598 11.03982986 34.60780130
1661 1 1 -0.000675398559828 50.01019781 13.58748290 34.60780130
1662 1 1 -0.000708496238257 51.48108598 16.13513595 34.60780130
1663 1 1 -0.000770511527765 50.01019781 18.68278899 34.60780130
1664 1 1 -0.000553921711163 51.48108598 0.84921768 34.60780130
1665 1 1 -0.000669039903767 35.30131610 3.39687073 34.60780130
1666 1 1 -0.000700500467335 36.77220427 5.94452377 34.60780130
1667 1 1 -0.000802434573529 35.30131610 8.49217681 34.60780130
1668 1 1 -0.00089128033536 36.77220427 11.03982986 34.60780130
1669 1 1 -0.00113555684924 35.30131610 13.58748290 34.60780130
1670 1 1 -0.00131489258728 36.77220427 16.13513595 34.60780130
1671 1 1 -0.00191528156189 35.30131610 18.68278899 34.60780130
1672 1 1 -0.000637051517623 36.77220427 0.84921768 34.60780130
1673 1 1 -0.00064281931633 38.24309244 3.39687073 34.60780130
1674 1 1 -0.000664493824753 39.71398061 5.94452377 34.60780130
1675 1 1 -0.000748669974517 38.24309244 8.49217681 34.60780130
1676 1 1 -0.000808395847441 39.71398061 11.03982986 34.60780130
1677 1 1 -0.000993634248334 38.24309244 13.58748290 34.60780130
1678 1 1 -0.00109487792717 39.71398061 16.13513595 34.60780130
1679 1 1 -0.00148211070711 38.24309244 18.68278899 34.60780130
1680 1 1 -0.000614168582481 39.71398061 0.84921768 34.60780130
1681 1 1 0.00236080145935 35.30131610 20.38122435 25.00000000
1682 1 1 0.00265150231729 36.77220427 22.92887739 25.00000000
1683 1 1 0.00448820354656 35.30131610 25.47653044 25.00000000
1684 1 1 0.00410540755311 36.77220427 28.02418348 25.00000000
1685 1 1 0.00612253333257 35.30131610 30.57183653 25.00000000
1686 1 1 0.00410537041195 36.77220427 33.11948957 25.00000000
1687 1 1 0.00448814766786 35.30131610 35.66714262 25.00000000
1688 1 1 0.00265139614294 36.77220427 38.21479566 25.00000000
1689 1 1 0.00172185474195 38.24309244 20.38122435 25.00000000
1690 1 1 0.00179702862965 39.71398061 22.92887739 25.00000000
1691 1 1 0.00265692635799 38.24309244 25.47653044 25.00000000
1692 1 1 0.00237683086756 39.71398061 28.02418348 25.00000000
1693 1 1 0.00324053936626 38.24309244 30.57183653 25.00000000
1694 1 1 0.00237677901665 39.71398061 33.11948957 25.00000000
1695 1 1 0.00265682041097 38.24309244 35.66714262 25.00000000
1696 1 1 0.00179691745931 39.71398061 38.21479566 25.00000000
1697 1 1 0.00130435135138 41.18486878 20.38122435 25.00000000
1698 1 1 0.0013149167537 42.65575695 22.92887739 25.00000000
1699 1 1 0.00173707341205 41.18486878 25.47653044 25.00000000
1700 1 1 0.00157241678107 42.65575695 28.02418348 25.00000000
1701 1 1 0.00196468001092 41.18486878 30.57183653 25.00000000
1702 1 1 0.00157238075604 42.65575695 33.11948957 25.00000000
1703 1 1 0.00173698874872 41.18486878 35.66714262 25.00000000
1704 1 1 0.00131484491772 42.65575695 38.21479566 25.00000000
1705 1 1 0.00104318949448 44.12664513 20.38122435 25.00000000
1706 1 1 0.00104171932193 45.59753330 22.92887739 25.00000000
1707 1 1 0.00126422872293 44.12664513 25.47653044 25.00000000
1708 1 1 0.00117282800474 45.59753330 28.02418348 25.00000000
1709 1 1 0.00136700102783 44.12664513 30.57183653 25.00000000
1710 1 1 0.00117281002318 45.59753330 33.11948957 25.00000000
1711 1 1 0.0012641822924 44.12664513 35.66714262 25.00000000
1712 1 1 0.00104168402756 45.59753330 38.21479566 25.00000000
1713 1 1 0.000886342798213 47.06842147 20.38122435 25.00000000
1714 1 1 0.00089200083427 48.53930964 22.92887739 25.00000000
1715 1 1 0.00101342162151 47.06842147 25.47653044 25.00000000
1716 1 1 0.000969973628326 48.53930964 28.02418348 25.00000000
1717 1 1 0.00106791154204 47.06842147 30.57183653 25.00000000
1718 1 1 0.000969966132887 48.53930964 33.11948957 25.00000000
1719 1 1 0.00101340112329 47.06842147 35.66714262 25.00000000
1720 1 1 0.000891985624256 48.53930964 38.21479566 25.00000000
1721 1 1 0.000802776356504 50.01019781 20.38122435 25.00000000
1722 1 1 0.000825319192423 51.48108598 22.92887739 25.00000000
1723 1 1 0.000888688126197 50.01019781 25.47653044 25.00000000
1724 1 1 0.000883002953025 51.48108598 28.02418348 25.00000000
1725 1 1 0.000923718361635 50.01019781 30.57183653 25.00000000
1726 1 1 0.000882999453533 51.48108598 33.11948957 25.00000000
1727 1 1 0.000888679462249 50.01019781 35.66714262 25.00000000
1728 1 1 0.000825311542167 51.48108598 38.21479566 25.00000000
1729 1 1 0.000571571202058 36.77220427 21.23044203 27.40195032
1730 1 1 0.000604313132807 38.24309244 23.77809508 27.40195032
1731 1 1 0.000980767223339 36.77220427 26.32574812 27.40195032
1732 1 1 0.000835269550308 38.24309244 28.87340116 27.40195032
1733 1 1 0.00118048301809 36.77220427 31.42105421 27.40195032
1734 1 1 0.000776287381802 38.24309244 33.96870725 27.40195032
1735 1 1 0.000833971996642 36.77220427 36.51636030 27.40195032
1736 1 1 0.000519697575934 38.24309244 39.06401334 27.40195032
1737 1 1 0.0004119024194 39.71398061 21.23044203 27.40195032
1738 1 1 0.000414178010772 41.18486878 23.77809508 27.40195032
1739 1 1 0.000574811492527 39.71398061 26.32574812 27.40195032
1740 1 1 0.000501159839782 41.18486878 28.87340116 27.40195032
1741 1 1 0.000641566007022 39.71398061 31.42105421 27.40195032
1742 1 1 0.000480490606931 41.18486878 33.96870725 27.40195032
1743 1 1 0.00052152178461 39.71398061 36.51636030 27.40195032
1744 1 1 0.000377023019315 41.18486878 39.06401334 27.40195032
1745 1 1 0.000317783126023 42.65575695 21.23044203 27.40195032
1746 1 1 0.000314609152718 44.12664513 23.77809508 27.40195032
1747 1 1 0.000391610108088 42.65575695 26.32574812 27.40195032
1748 1 1 0.000354125123891 44.12664513 28.87340116 27.40195032
1749 1 1 0.000417479096854 42.65575695 31.42105421 27.40195032
1750 1 1 0.000345243101449 44.12664513 33.96870725 27.40195032
1751 1 1 0.000369343653621 42.65575695 36.51636030 27.40195032
1752 1 1 0.000295742992171 44.12664513 39.06401334 27.40195032
1753 1 1 0.000261450724754 45.59753330 21.23044203 27.40195032
1754 1 1 0.000259688964474 47.06842147 23.77809508 27.40195032
1755 1 1 0.000300903851939 45.59753330 26.32574812 27.40195032
1756 1 1 0.000281456809841 47.06842147 28.87340116 27.40195032
1757 1 1 0.00031339625328 45.59753330 31.42105421 27.40195032
1758 1 1 0.000276719166127 47.06842147 33.96870725 27.40195032
1759 1 1 0.000289608104074 45.59753330 36.51636030 27.40195032
1760 1 1 0.000248630778034 47.06842147 39.06401334 27.40195032
1761 1 1 0.000229026647249 48.53930964 21.23044203 27.40195032
1762 1 1 0.000231335333642 50.01019781 23.77809508 27.40195032
1763 1 1 0.000253654948236 48.53930964 26.32574812 27.40195032
1764 1 1 0.000245830473684 50.01019781 28.87340116 27.40195032
1765 1 1 0.000261036015434 48.53930964 31.42105421 27.40195032
1766 1 1 0.000242730163234 50.01019781 33.96870725 27.40195032
1767 1 1 0.000246808801186 48.53930964 36.51636030 27.40195032
1768 1 1 0.000223728382773 50.01019781 39.06401334 27.40195032
1769 1 1 0.000214135368022 51.48108598 21.23044203 27.40195032
1770 1 1 0.000979627493976 35.30131610 23.77809508 27.40195032
1771 1 1 0.000232882322982 51.48108598 26.32574812 27.40195032
1772 1 1 0.00163810646557 35.30131610 28.87340116 27.40195032
1773 1 1 0.000238350961367 51.48108598 31.42105421 27.40195032
1774 1 1 0.00145770865856 35.30131610 33.96870725 27.40195032
1775 1 1 0.000227750466241 51.48108598 36.51636030 27.40195032
1776 1 1 0.000773727847989 35.30131610 39.06401334 27.40195032
1777 1 1 5.44890389396e-07 38.24309244 22.07965971 29.80390065
1778 1 1 5.46956806396e-07 39.71398061 24.62731276 29.80390065
1779 1 1 1.00819322163e-06 38.24309244 27.17496580 29.80390065
1780 1 1 8.92758592072e-07 39.71398061 29.72261885 29.80390065
1781 1 1 1.25790823796e-06 38.24309244 32.27027189 29.80390065
1782 1 1 9.18994585925e-07 39.71398061 34.81792493 29.80390065
1783 1 1 1.062850798e-06 38.24309244 37.36557798 29.80390065
1784 1 1 6.19108219444e-07 39.71398061 39.91323102 29.80390065
1785 1 1 3.8244258386e-07 41.18486878 22.07965971 29.80390065
1786 1 1 3.94534317029e-07 42.65575695 24.62731276 29.80390065
1787 1 1 5.74017328047e-07 41.18486878 27.17496580 29.80390065
1788 1 1 5.18825454284e-07 42.65575695 29.72261885 29.80390065
1789 1 1 6.91232643234e-07 41.18486878 32.27027189 29.80390065
1790 1 1 5.28357633796e-07 42.65575695 34.81792493 29.80390065
1791 1 1 6.21670117333e-07 41.18486878 37.36557798 29.80390065
1792 1 1 4.14491534998e-07 42.65575695 39.91323102 29.80390065
1793 1 1 3.15933079529e-07 44.12664513 22.07965971 29.80390065
1794 1 1 3.18423202687e-07 45.59753330 24.62731276 29.80390065
1795 1 1 3.93327150624e-07 44.12664513 27.17496580 29.80390065
1796 1 1 3.62684678394e-07 45.59753330 29.72261885 29.80390065
1797 1 1 4.33341612844e-07 44.12664513 32.27027189 29.80390065
1798 1 1 3.60081015096e-07 45.59753330 34.81792493 29.80390065
1799 1 1 3.97815955031e-07 44.12664513 37.36557798 29.80390065
1800 1 1 3.11031945811e-07 45.59753330 39.91323102 29.80390065
1801 1 1 2.7376572281e-07 47.06842147 22.07965971 29.80390065
1802 1 1 2.74638717524e-07 48.53930964 24.62731276 29.80390065
1803 1 1 3.10974380721e-07 47.06842147 27.17496580 29.80390065
1804 1 1 2.95735070754e-07 48.53930964 29.72261885 29.80390065
1805 1 1 3.24707869551e-07 47.06842147 32.27027189 29.80390065
1806 1 1 2.91795159765e-07 48.53930964 34.81792493 29.80390065
1807 1 1 3.03867393218e-07 47.06842147 37.36557798 29.80390065
1808 1 1 2.64584483451e-07 48.53930964 39.91323102 29.80390065
1809 1 1 2.48475182749e-07 50.01019781 22.07965971 29.80390065
1810 1 1 2.5417242983e-07 51.48108598 24.62731276 29.80390065
1811 1 1 2.72383622386e-07 50.01019781 27.17496580 29.80390065
1812 1 1 2.69251359574e-07 51.48108598 29.72261885 29.80390065
1813 1 1 2.79776456585e-07 50.01019781 32.27027189 29.80390065
1814 1 1 2.66211842988e-07 51.48108598 34.81792493 29.80390065
1815 1 1 2.65896446307e-07 50.01019781 37.36557798 29.80390065
1816 1 1 2.46089504461e-07 51.48108598 39.91323102 29.80390065
1817 1 1 1.00520475708e-06 35.30131610 22.07965971 29.80390065
1818 1 1 9.75713834655e-07 36.77220427 24.62731276 29.80390065
1819 1 1 1.95899685086e-06 35.30131610 27.17496580 29.80390065
1820 1 1 1.70991994972e-06 36.77220427 29.72261885 29.80390065
1821 1 1 2.27536911754e-06 35.30131610 32.27027189 29.80390065
1822 1 1 1.64139887941e-06 36.77220427 34.81792493 29.80390065
1823 1 1 1.64015234671e-06 35.30131610 37.36557798 29.80390065
1824 1 1 9.15420554635e-07 36.77220427 39.91323102 29.80390065
1825 1 1 -0.000462421001654 39.71398061 22.92887739 32.20585097
1826 1 1 -0.000447232470433 41.18486878 25.47653044 32.20585097
1827 1 1 -0.000613663606266 39.71398061 28.02418348 32.20585097
1828 1 1 -0.000505299881916 41.18486878 30.57183653 32.20585097
1829 1 1 -0.000613650047151 39.71398061 33.11948957 32.20585097
1830 1 1 -0.000447183234812 41.18486878 35.66714262 32.20585097
1831 1 1 -0.00046232480708 39.71398061 38.21479566 32.20585097
1832 1 1 -0.000339139581857 41.18486878 20.38122435 32.20585097
1833 1 1 -0.000341941774989 42.65575695 22.92887739 32.20585097
1834 1 1 -0.000329619985691 44.12664513 25.47653044 32.20585097
1835 1 1 -0.000405889062966 42.65575695 28.02418348 32.20585097
1836 1 1 -0.000355050348405 44.12664513 30.57183653 32.20585097
1837 1 1 -0.000405888047284 42.65575695 33.11948957 32.20585097
1838 1 1 -0.000329615141885 44.12664513 35.66714262 32.20585097
1839 1 1 -0.000341917073993 42.65575695 38.21479566 32.20585097
1840 1 1 -0.000274659120392 44.12664513 20.38122435 32.20585097
1841 1 1 -0.000274530668895 45.59753330 22.92887739 32.20585097
1842 1 1 -0.000267708954172 47.06842147 25.47653044 32.20585097
1843 1 1 -0.000307258419047 45.59753330 28.02418348 32.20585097
1844 1 1 -0.000281430507897 47.06842147 30.57183653 32.20585097
1845 1 1 -0.000307261503789 45.59753330 33.11948957 32.20585097
1846 1 1 -0.000267711537989 47.06842147 35.66714262 32.20585097
1847 1 1 -0.000274530665397 45.59753330 38.21479566 32.20585097
1848 1 1 -0.000235407109454 47.06842147 20.38122435 32.20585097
1849 1 1 -0.000237067569753 48.53930964 22.92887739 32.20585097
1850 1 1 -0.000236435453477 50.01019781 25.47653044 32.20585097
1851 1 1 -0.000257021528877 48.53930964 28.02418348 32.20585097
1852 1 1 -0.000245472605584 50.01019781 30.57183653 32.20585097
1853 1 1 -0.000257023273948 48.53930964 33.11948957 32.20585097
1854 1 1 -0.000236436264608 50.01019781 35.66714262 32.20585097
1855 1 1 -0.000237068895619 48.53930964 38.21479566 32.20585097
1856 1 1 -0.000214153705715 50.01019781 20.38122435 32.20585097
1857 1 1 -0.00022013006823 51.48108598 22.92887739 32.20585097
1858 1 1 -0.001212357204 35.30131610 25.47653044 32.20585097
1859 1 1 -0.000235139217783 51.48108598 28.02418348 32.20585097
1860 1 1 -0.00169647117815 35.30131610 30.57183653 32.20585097
1861 1 1 -0.000235139593002 51.48108598 33.11948957 32.20585097
1862 1 1 -0.00121225255435 35.30131610 35.66714262 32.20585097
1863 1 1 -0.000220129619484 51.48108598 38.21479566 32.20585097
1864 1 1 -0.000609403074192 35.30131610 20.38122435 32.20585097
1865 1 1 -0.000688190552357 36.77220427 22.92887739 32.20585097
1866 1 1 -0.000689632636248 38.24309244 25.47653044 32.20585097
1867 1 1 -0.00110008972045 36.77220427 28.02418348 32.20585097
1868 1 1 -0.000851507979556 38.24309244 30.57183653 32.20585097
1869 1 1 -0.00110007333366 36.77220427 33.11948957 32.20585097
1870 1 1 -0.000689503946939 38.24309244 35.66714262 32.20585097
1871 1 1 -0.000688061171776 36.77220427 38.21479566 32.20585097
1872 1 1 -0.000443191184661 38.24309244 20.38122435 32.20585097
1873 1 1 -0.00159795498008 41.18486878 23.77809508 34.60780130
1874 1 1 -0.00150750548394 42.65575695 26.32574812 34.60780130
1875 1 1 -0.0019390593896 41.18486878 28.87340116 34.60780130
1876 1 1 -0.00161068684396 42.65575695 31.42105421 34.60780130
1877 1 1 -0.00185873311045 41.18486878 33.96870725 34.60780130
1878 1 1 -0.00141833108003 42.65575695 36.51636030 34.60780130
1879 1 1 -0.00144972981832 41.18486878 39.06401334 34.60780130
1880 1 1 -0.00121130373378 42.65575695 21.23044203 34.60780130
1881 1 1 -0.00119763872261 44.12664513 23.77809508 34.60780130
1882 1 1 -0.00114159346491 45.59753330 26.32574812 34.60780130
1883 1 1 -0.00135640199379 44.12664513 28.87340116 34.60780130
1884 1 1 -0.00119160504669 45.59753330 31.42105421 34.60780130
1885 1 1 -0.00132071687551 44.12664513 33.96870725 34.60780130
1886 1 1 -0.0010965693507 45.59753330 36.51636030 34.60780130
1887 1 1 -0.00112212406079 44.12664513 39.06401334 34.60780130
1888 1 1 -0.000984922433716 45.59753330 21.23044203 34.60780130
1889 1 1 -0.000976981275657 47.06842147 23.77809508 34.60780130
1890 1 1 -0.000952230033728 48.53930964 26.32574812 34.60780130
1891 1 1 -0.00106283042005 47.06842147 28.87340116 34.60780130
1892 1 1 -0.00098105191525 48.53930964 31.42105421 34.60780130
1893 1 1 -0.00104410631541 47.06842147 33.96870725 34.60780130
1894 1 1 -0.000925606826337 48.53930964 36.51636030 34.60780130
1895 1 1 -0.000933698169467 47.06842147 39.06401334 34.60780130
1896 1 1 -0.000856730516901 48.53930964 21.23044203 34.60780130
1897 1 1 -0.000864925463893 50.01019781 23.77809508 34.60780130
1898 1 1 -0.000870274021416 51.48108598 26.32574812 34.60780130
1899 1 1 -0.000920782607243 50.01019781 28.87340116 34.60780130
1900 1 1 -0.000891234449242 51.48108598 31.42105421 34.60780130
1901 1 1 -0.00090882029055 50.01019781 33.96870725 34.60780130
1902 1 1 -0.000850642494402 51.48108598 36.51636030 34.60780130
1903 1 1 -0.000835736663103 50.01019781 39.06401334 34.60780130
1904 1 1 -0.00079866104311 51.48108598 21.23044203 34.60780130
1905 1 1 -0.00367380528951 35.30131610 23.77809508 34.60780130
1906 1 1 -0.00367807201817 36.77220427 26.32574812 34.60780130
1907 1 1 -0.00590641270052 35.30131610 28.87340116 34.60780130
1908 1 1 -0.00436482833926 36.77220427 31.42105421 34.60780130
1909 1 1 -0.00530063489264 35.30131610 33.96870725 34.60780130
1910 1 1 -0.00316320446838 36.77220427 36.51636030 34.60780130
1911 1 1 -0.00294913101391 35.30131610 39.06401334 34.60780130
1912 1 1 -0.00220784650328 36.77220427 21.23044203 34.60780130
1913 1 1 -0.00233049649971 38.24309244 23.77809508 34.60780130
1914 1 1 -0.00221998891959 39.71398061 26.32574812 34.60780130
1915 1 1 -0.00316931863875 38.24309244 28.87340116 34.60780130
1916 1 1 -0.00246969435949 39.71398061 31.42105421 34.60780130
1917 1 1 -0.00295871704101 38.24309244 33.96870725 34.60780130
1918 1 1 -0.00201697096682 39.71398061 36.51636030 34.60780130
1919 1 1 -0.00201013274032 38.24309244 39.06401334 34.60780130
1920 1 1 -0.00158941859549 39.71398061 21.23044203 34.60780130
1921 1 1 0.0023607493633 35.30131610 40.76244870 25.00000000
1922 1 1 0.00154242705052 36.77220427 43.31010174 25.00000000
1923 1 1 0.00132345877451 35.30131610 45.85775479 25.00000000
1924 1 1 0.000996955567215 36.77220427 48.40540783 25.00000000
1925 1 1 0.000882910214548 35.30131610 50.95306088 25.00000000
1926 1 1 0.000745758187251 36.77220427 53.50071392 25.00000000
1927 1 1 0.000697497638895 35.30131610 56.04836697 25.00000000
1928 1 1 0.000646380920714 36.77220427 58.59602001 25.00000000
1929 1 1 0.00172177010152 38.24309244 40.76244870 25.00000000
1930 1 1 0.00123263403769 39.71398061 43.31010174 25.00000000
1931 1 1 0.00112085528565 38.24309244 45.85775479 25.00000000
1932 1 1 0.000883627419289 39.71398061 48.40540783 25.00000000
1933 1 1 0.000810082516549 38.24309244 50.95306088 25.00000000
1934 1 1 0.000699445224204 39.71398061 53.50071392 25.00000000
1935 1 1 0.000665697509561 38.24309244 56.04836697 25.00000000
1936 1 1 0.000621530730176 39.71398061 58.59602001 25.00000000
1937 1 1 0.0013042796677 41.18486878 40.76244870 25.00000000
1938 1 1 0.00101287282183 42.65575695 43.31010174 25.00000000
1939 1 1 0.00095570674508 41.18486878 45.85775479 25.00000000
1940 1 1 0.000789904177376 42.65575695 48.40540783 25.00000000
1941 1 1 0.000742851220725 41.18486878 50.95306088 25.00000000
1942 1 1 0.000657651170041 42.65575695 53.50071392 25.00000000
1943 1 1 0.000634251888589 41.18486878 56.04836697 25.00000000
1944 1 1 0.000597974772636 42.65575695 58.59602001 25.00000000
1945 1 1 0.00104314743837 44.12664513 40.76244870 25.00000000
1946 1 1 0.000866991892562 45.59753330 43.31010174 25.00000000
1947 1 1 0.000833519154004 44.12664513 45.85775479 25.00000000
1948 1 1 0.000720132836313 45.59753330 48.40540783 25.00000000
1949 1 1 0.000687651725268 44.12664513 50.95306088 25.00000000
1950 1 1 0.000624162407312 45.59753330 53.50071392 25.00000000
1951 1 1 0.000606736365708 44.12664513 56.04836697 25.00000000
1952 1 1 0.000578256238228 45.59753330 58.59602001 25.00000000
1953 1 1 0.000886322728087 47.06842147 40.76244870 25.00000000
1954 1 1 0.0007789364546 48.53930964 43.31010174 25.00000000
1955 1 1 0.000751359606575 47.06842147 45.85775479 25.00000000
1956 1 1 0.00067460583036 48.53930964 48.40540783 25.00000000
1957 1 1 0.000647483545794 47.06842147 50.95306088 25.00000000
1958 1 1 0.000601067975089 48.53930964 53.50071392 25.00000000
1959 1 1 0.000585633948515 47.06842147 56.04836697 25.00000000
1960 1 1 0.000564187480304 48.53930964 58.59602001 25.00000000
1961 1 1 0.000802766827631 50.01019781 40.76244870 25.00000000
1962 1 1 0.000737650260663 51.48108598 43.31010174 25.00000000
1963 1 1 0.000704483754645 50.01019781 45.85775479 25.00000000
1964 1 1 0.000652270278985 51.48108598 48.40540783 25.00000000
1965 1 1 0.00062331809635 50.01019781 50.95306088 25.00000000
1966 1 1 0.000589342998377 51.48108598 53.50071392 25.00000000
1967 1 1 0.000572457823168 50.01019781 56.04836697 25.00000000
1968 1 1 0.000556889856423 51.48108598 58.59602001 25.00000000
1969 1 1 0.000475082678001 36.77220427 41.61166638 27.40195032
1970 1 1 0.00033524063415 38.24309244 44.15931943 27.40195032
1971 1 1 0.000298732816472 36.77220427 46.70697247 27.40195032
1972 1 1 0.000237248758296 38.24309244 49.25462551 27.40195032
1973 1 1 0.000216205089338 36.77220427 51.80227856 27.40195032
1974 1 1 0.000188293099885 38.24309244 54.34993160 27.40195032
1975 1 1 0.00017961296802 36.77220427 56.89758465 27.40195032
1976 1 1 0.000169394717369 38.24309244 59.44523769 27.40195032
1977 1 1 0.00036428692936 39.71398061 41.61166638 27.40195032
1978 1 1 0.000279221270269 41.18486878 44.15931943 27.40195032
1979 1 1 0.000259490444159 39.71398061 46.70697247 27.40195032
1980 1 1 0.00021424304016 41.18486878 49.25462551 27.40195032
1981 1 1 0.000200352496193 39.71398061 51.80227856 27.40195032
1982 1 1 0.000177961504775 41.18486878 54.34993160 27.40195032
1983 1 1 0.000171949140663 39.71398061 56.89758465 27.40195032
1984 1 1 0.000163205020414 41.18486878 59.44523769 27.40195032
1985 1 1 0.00029227692004 42.65575695 41.61166638 27.40195032
1986 1 1 0.000239271109681 44.12664513 44.15931943 27.40195032
1987 1 1 0.00022795605195 42.65575695 46.70697247 27.40195032
1988 1 1 0.000195687734354 44.12664513 49.25462551 27.40195032
1989 1 1 0.000186283680397 42.65575695 51.80227856 27.40195032
1990 1 1 0.000169049337991 44.12664513 54.34993160 27.40195032
1991 1 1 0.000164758835763 42.65575695 56.89758465 27.40195032
1992 1 1 0.000157657467803 44.12664513 59.44523769 27.40195032
1993 1 1 0.000246382319349 45.59753330 41.61166638 27.40195032
1994 1 1 0.00021288175609 47.06842147 44.15931943 27.40195032
1995 1 1 0.00020490862436 45.59753330 46.70697247 27.40195032
1996 1 1 0.00018237990702 47.06842147 49.25462551 27.40195032
1997 1 1 0.000175181658151 45.59753330 51.80227856 27.40195032
1998 1 1 0.000162298420863 47.06842147 54.34993160 27.40195032
1999 1 1 0.000158795893476 45.59753330 56.89758465 27.40195032
2000 1 1 0.000153316709568 47.06842147 59.44523769 27.40195032
2001 1 1 0.000219077595076 48.53930964 41.61166638 27.40195032
2002 1 1 0.000197963797522 50.01019781 44.15931943 27.40195032
2003 1 1 0.00019005623531 48.53930964 46.70697247 27.40195032
2004 1 1 0.000174459706358 50.01019781 49.25462551 27.40195032
2005 1 1 0.000167620363518 48.53930964 51.80227856 27.40195032
2006 1 1 0.000158121327623 50.01019781 54.34993160 27.40195032
2007 1 1 0.000154572768286 48.53930964 56.89758465 27.40195032
2008 1 1 0.000150567359751 50.01019781 59.44523769 27.40195032
2009 1 1 0.000206340022016 51.48108598 41.61166638 27.40195032
2010 1 1 0.000408704109385 35.30131610 44.15931943 27.40195032
2011 1 1 0.000182827312292 51.48108598 46.70697247 27.40195032
2012 1 1 0.00026271214591 35.30131610 49.25462551 27.40195032
2013 1 1 0.000163812850087 51.48108598 51.80227856 27.40195032
2014 1 1 0.000198894627705 35.30131610 54.34993160 27.40195032
2015 1 1 0.000152392460697 51.48108598 56.89758465 27.40195032
2016 1 1 0.000175497660833 35.30131610 59.44523769 27.40195032
2017 1 1 5.20688577991e-07 38.24309244 42.46088406 29.80390065
2018 1 1 3.45799992093e-07 39.71398061 45.00853711 29.80390065
2019 1 1 3.0369223841e-07 38.24309244 47.55619015 29.80390065
2020 1 1 2.45468228468e-07 39.71398061 50.10384320 29.80390065
2021 1 1 2.26326180693e-07 38.24309244 52.65149624 29.80390065
2022 1 1 2.01207344296e-07 39.71398061 55.19914928 29.80390065
2023 1 1 1.9433406258e-07 38.24309244 57.74680233 29.80390065
2024 1 1 1.85827857e-07 39.71398061 60.29445537 29.80390065
2025 1 1 3.9061975134e-07 41.18486878 42.46088406 29.80390065
2026 1 1 2.8899010441e-07 42.65575695 45.00853711 29.80390065
2027 1 1 2.67054518541e-07 41.18486878 47.55619015 29.80390065
2028 1 1 2.25065253272e-07 42.65575695 50.10384320 29.80390065
2029 1 1 2.11973535857e-07 41.18486878 52.65149624 29.80390065
2030 1 1 1.91638382488e-07 42.65575695 55.19914928 29.80390065
2031 1 1 1.86673439204e-07 41.18486878 57.74680233 29.80390065
2032 1 1 1.79227261672e-07 42.65575695 60.29445537 29.80390065
2033 1 1 3.06070690559e-07 44.12664513 42.46088406 29.80390065
2034 1 1 2.51131498769e-07 45.59753330 45.00853711 29.80390065
2035 1 1 2.38754996157e-07 44.12664513 47.55619015 29.80390065
2036 1 1 2.09000175944e-07 45.59753330 50.10384320 29.80390065
2037 1 1 1.99492436319e-07 44.12664513 52.65149624 29.80390065
2038 1 1 1.83614855639e-07 45.59753330 55.19914928 29.80390065
2039 1 1 1.79755335948e-07 44.12664513 57.74680233 29.80390065
2040 1 1 1.73655400289e-07 45.59753330 60.29445537 29.80390065
2041 1 1 2.60080691433e-07 47.06842147 42.46088406 29.80390065
2042 1 1 2.28631692699e-07 48.53930964 45.00853711 29.80390065
2043 1 1 2.19002307734e-07 47.06842147 47.55619015 29.80390065
2044 1 1 1.97968809196e-07 48.53930964 50.10384320 29.80390065
2045 1 1 1.89922845339e-07 47.06842147 52.65149624 29.80390065
2046 1 1 1.7788462736e-07 48.53930964 55.19914928 29.80390065
2047 1 1 1.74312516754e-07 47.06842147 57.74680233 29.80390065
2048 1 1 1.6965672186e-07 48.53930964 60.29445537 29.80390065
2049 1 1 2.37539177567e-07 50.01019781 42.46088406 29.80390065
2050 1 1 2.18038163342e-07 51.48108598 45.00853711 29.80390065
2051 1 1 2.07328486371e-07 50.01019781 47.55619015 29.80390065
2052 1 1 1.92360093047e-07 51.48108598 50.10384320 29.80390065
2053 1 1 1.83939383885e-07 50.01019781 52.65149624 29.80390065
2054 1 1 1.74913276499e-07 51.48108598 55.19914928 29.80390065
2055 1 1 1.70855980562e-07 50.01019781 57.74680233 29.80390065
2056 1 1 1.67575772441e-07 51.48108598 60.29445537 29.80390065
2057 1 1 6.84117034646e-07 35.30131610 42.46088406 29.80390065
2058 1 1 4.20795309229e-07 36.77220427 45.00853711 29.80390065
2059 1 1 3.45898550626e-07 35.30131610 47.55619015 29.80390065
2060 1 1 2.68760923889e-07 36.77220427 50.10384320 29.80390065
2061 1 1 2.40904240151e-07 35.30131610 52.65149624 29.80390065
2062 1 1 2.11298365852e-07 36.77220427 55.19914928 29.80390065
2063 1 1 2.01830031622e-07 35.30131610 57.74680233 29.80390065
2064 1 1 1.92721048182e-07 36.77220427 60.29445537 29.80390065
2065 1 1 -0.000321251648037 39.71398061 43.31010174 32.20585097
2066 1 1 -0.000252445894161 41.18486878 45.85775479 32.20585097
2067 1 1 -0.000234201755659 39.71398061 48.40540783 32.20585097
2068 1 1 -0.000198215503891 41.18486878 50.95306088 32.20585097
2069 1 1 -0.000186974783754 39.71398061 53.50071392 32.20585097
2070 1 1 -0.000169974603634 41.18486878 56.04836697 32.20585097
2071 1 1 -0.000166657951403 39.71398061 58.59602001 32.20585097
2072 1 1 -0.000339115344409 41.18486878 40.76244870 32.20585097
2073 1 1 -0.000266902928389 42.65575695 43.31010174 32.20585097
2074 1 1 -0.000221620477798 44.12664513 45.85775479 32.20585097
2075 1 1 -0.000210366148932 42.65575695 48.40540783 32.20585097
2076 1 1 -0.000183923578346 44.12664513 50.95306088 32.20585097
2077 1 1 -0.00017608663858 42.65575695 53.50071392 32.20585097
2078 1 1 -0.000162751985739 44.12664513 56.04836697 32.20585097
2079 1 1 -0.00016045719604 42.65575695 58.59602001 32.20585097
2080 1 1 -0.000274657137569 44.12664513 40.76244870 32.20585097
2081 1 1 -0.00023029854115 45.59753330 43.31010174 32.20585097
2082 1 1 -0.000200590671787 47.06842147 45.85775479 32.20585097
2083 1 1 -0.000192412400249 45.59753330 48.40540783 32.20585097
2084 1 1 -0.000173461959023 47.06842147 50.95306088 32.20585097
2085 1 1 -0.000167329071456 45.59753330 53.50071392 32.20585097
2086 1 1 -0.000157203956618 47.06842147 56.04836697 32.20585097
2087 1 1 -0.000155261284041 45.59753330 58.59602001 32.20585097
2088 1 1 -0.000235408929599 47.06842147 40.76244870 32.20585097
2089 1 1 -0.000207846377164 48.53930964 43.31010174 32.20585097
2090 1 1 -0.000188475092497 50.01019781 45.85775479 32.20585097
2091 1 1 -0.000180602263664 48.53930964 48.40540783 32.20585097
2092 1 1 -0.00016714639037 50.01019781 50.95306088 32.20585097
2093 1 1 -0.000161274905971 48.53930964 53.50071392 32.20585097
2094 1 1 -0.000153736318718 50.01019781 56.04836697 32.20585097
2095 1 1 -0.000151551251526 48.53930964 58.59602001 32.20585097
2096 1 1 -0.000214153814119 50.01019781 40.76244870 32.20585097
2097 1 1 -0.000197211582017 51.48108598 43.31010174 32.20585097
2098 1 1 -0.000343500965669 35.30131610 45.85775479 32.20585097
2099 1 1 -0.00017478324015 51.48108598 48.40540783 32.20585097
2100 1 1 -0.000234003249676 35.30131610 50.95306088 32.20585097
2101 1 1 -0.000158197184923 51.48108598 53.50071392 32.20585097
2102 1 1 -0.000186518239658 35.30131610 56.04836697 32.20585097
2103 1 1 -0.00014962589085 51.48108598 58.59602001 32.20585097
2104 1 1 -0.000609389028813 35.30131610 40.76244870 32.20585097
2105 1 1 -0.00039793802492 36.77220427 43.31010174 32.20585097
2106 1 1 -0.000293496802158 38.24309244 45.85775479 32.20585097
2107 1 1 -0.000262648959661 36.77220427 48.40540783 32.20585097
2108 1 1 -0.000215478978653 38.24309244 50.95306088 32.20585097
2109 1 1 -0.000198979789857 36.77220427 53.50071392 32.20585097
2110 1 1 -0.000178210904457 38.24309244 56.04836697 32.20585097
2111 1 1 -0.00017319152804 36.77220427 58.59602001 32.20585097
2112 1 1 -0.000443142142051 38.24309244 40.76244870 32.20585097
2113 1 1 -0.00105752704165 41.18486878 44.15931943 34.60780130
2114 1 1 -0.000854593534463 42.65575695 46.70697247 34.60780130
2115 1 1 -0.00080137976422 41.18486878 49.25462551 34.60780130
2116 1 1 -0.000693574359473 42.65575695 51.80227856 34.60780130
2117 1 1 -0.000661786395351 41.18486878 54.34993160 34.60780130
2118 1 1 -0.000611579554271 42.65575695 56.89758465 34.60780130
2119 1 1 -0.000605643875128 41.18486878 59.44523769 34.60780130
2120 1 1 -0.00110910073164 42.65575695 41.61166638 34.60780130
2121 1 1 -0.000898470151641 44.12664513 44.15931943 34.60780130
2122 1 1 -0.000764747111771 45.59753330 46.70697247 34.60780130
2123 1 1 -0.000729522156482 44.12664513 49.25462551 34.60780130
2124 1 1 -0.000651140146253 45.59753330 51.80227856 34.60780130
2125 1 1 -0.000627876818303 44.12664513 54.34993160 34.60780130
2126 1 1 -0.00058901355936 45.59753330 56.89758465 34.60780130
2127 1 1 -0.000584690963076 44.12664513 59.44523769 34.60780130
2128 1 1 -0.000925727714298 45.59753330 41.61166638 34.60780130
2129 1 1 -0.000795083107087 47.06842147 44.15931943 34.60780130
2130 1 1 -0.000707468789561 48.53930964 46.70697247 34.60780130
2131 1 1 -0.000678419726699 47.06842147 49.25462551 34.60780130
2132 1 1 -0.000622347482679 48.53930964 51.80227856 34.60780130
2133 1 1 -0.000602253649959 47.06842147 54.34993160 34.60780130
2134 1 1 -0.000573048623904 48.53930964 56.89758465 34.60780130
2135 1 1 -0.000568308911773 47.06842147 59.44523769 34.60780130
2136 1 1 -0.000818437766545 48.53930964 41.61166638 34.60780130
2137 1 1 -0.000737343220501 50.01019781 44.15931943 34.60780130
2138 1 1 -0.000679757185999 51.48108598 46.70697247 34.60780130
2139 1 1 -0.000648160309285 50.01019781 49.25462551 34.60780130
2140 1 1 -0.000607877522077 51.48108598 51.80227856 34.60780130
2141 1 1 -0.000586423200268 50.01019781 54.34993160 34.60780130
2142 1 1 -0.000564811446963 51.48108598 56.89758465 34.60780130
2143 1 1 -0.000557938654033 50.01019781 59.44523769 34.60780130
2144 1 1 -0.000768985942844 51.48108598 41.61166638 34.60780130
2145 1 1 -0.00157778227561 35.30131610 44.15931943 34.60780130
2146 1 1 -0.00113651738169 36.77220427 46.70697247 34.60780130
2147 1 1 -0.000992342675196 35.30131610 49.25462551 34.60780130
2148 1 1 -0.000809061225392 36.77220427 51.80227856 34.60780130
2149 1 1 -0.000741881949631 35.30131610 54.34993160 34.60780130
2150 1 1 -0.000667931473462 36.77220427 56.89758465 34.60780130
2151 1 1 -0.000652140102981 35.30131610 59.44523769 34.60780130
2152 1 1 -0.00183846051206 36.77220427 41.61166638 34.60780130
2153 1 1 -0.00128316551442 38.24309244 44.15931943 34.60780130
2154 1 1 -0.000979297752688 39.71398061 46.70697247 34.60780130
2155 1 1 -0.000891474408939 38.24309244 49.25462551 34.60780130
2156 1 1 -0.000747660670148 39.71398061 51.80227856 34.60780130
2157 1 1 -0.000701233457605 38.24309244 54.34993160 34.60780130
2158 1 1 -0.000638831067472 39.71398061 56.89758465 34.60780130
2159 1 1 -0.000629044240819 38.24309244 59.44523769 34.60780130
2160 1 1 -0.00139935422398 39.71398061 41.61166638 34.60780130
2161 2 2 1 26.47598707 30.57183653 40.60780130
2162 3 2 -1 26.47598707 30.57183653 19.00000000
