ITEM: TIMESTEP
0
ITEM: NUMBER OF ATOMS
2162
ITEM: BOX BOUNDS pp pp ff
0.0000000000000000e+00 5.2951974149999998e+01
0.0000000000000000e+00 6.1143673049999997e+01
0.0000000000000000e+00 6.0000000000000000e+01
ITEM: ATOMS id mol type q x y z
1 1 1 0.000582844673056 0.00000000 0.00000000 25.00000000
2 1 1 0.000588086745328 1.47088817 2.54765304 25.00000000
3 1 1 0.000599853746617 0.00000000 5.09530609 25.00000000
4 1 1 0.000622501818541 1.47088817 7.64295913 25.00000000
5 1 1 0.000650004174721 0.00000000 10.19061218 25.00000000
6 1 1 0.00068927074185 1.47088817 12.73826522 25.00000000
7 1 1 0.000728569332662 0.00000000 15.28591827 25.00000000
8 1 1 0.000780020884103 1.47088817 17.83357131 25.00000000
9 1 1 0.000586479404857 2.94177634 0.00000000 25.00000000
10 1 1 0.000595826789249 4.41266451 2.54765304 25.00000000
11 1 1 0.000604596566025 2.94177634 5.09530609 25.00000000
12 1 1 0.000634952226 4.41266451 7.64295913 25.00000000
13 1 1 0.000658556520411 2.94177634 10.19061218 25.00000000
14 1 1 0.000713099713087 4.41266451 12.73826522 25.00000000
15 1 1 0.000744819709002 2.94177634 15.28591827 25.00000000
16 1 1 0.000824367791998 4.41266451 17.83357131 25.00000000
17 1 1 0.000597105168961 5.88355268 0.00000000 25.00000000
18 1 1 0.000610749752721 7.35444085 2.54765304 25.00000000
19 1 1 0.00061857790052 5.88355268 5.09530609 25.00000000
20 1 1 0.000659501882711 7.35444085 7.64295913 25.00000000
21 1 1 0.000684285598693 5.88355268 10.19061218 25.00000000
22 1 1 0.000761800057667 7.35444085 12.73826522 25.00000000
23 1 1 0.000795066418549 5.88355268 15.28591827 25.00000000
24 1 1 0.000919007238985 7.35444085 17.83357131 25.00000000
25 1 1 0.000613859493139 8.82532903 0.00000000 25.00000000
26 1 1 0.000631670348397 10.29621720 2.54765304 25.00000000
27 1 1 0.000640983320874 8.82532903 5.09530609 25.00000000
28 1 1 0.000695166749033 10.29621720 7.64295913 25.00000000
29 1 1 0.000727159814472 8.82532903 10.19061218 25.00000000
30 1 1 0.000836628812642 10.29621720 12.73826522 25.00000000
31 1 1 0.000883288032176 8.82532903 15.28591827 25.00000000
32 1 1 0.00107495161942 10.29621720 17.83357131 25.00000000
33 1 1 0.000635233734802 11.76710537 0.00000000 25.00000000
34 1 1 0.000656673402594 13.23799354 2.54765304 25.00000000
35 1 1 0.000670228779768 11.76710537 5.09530609 25.00000000
36 1 1 0.000739780991637 13.23799354 7.64295913 25.00000000
37 1 1 0.000786244311038 11.76710537 10.19061218 25.00000000
38 1 1 0.000937131067034 13.23799354 12.73826522 25.00000000
39 1 1 0.00101411809106 11.76710537 15.28591827 25.00000000
40 1 1 0.0013063865423 13.23799354 17.83357131 25.00000000
41 1 1 0.000659033863492 14.70888171 0.00000000 25.00000000
42 1 1 0.000683067520299 16.17976988 2.54765304 25.00000000
43 1 1 0.000703700290706 14.70888171 5.09530609 25.00000000
44 1 1 0.000789326419791 16.17976988 7.64295913 25.00000000
45 1 1 0.00085832937555 14.70888171 10.19061218 25.00000000
46 1 1 0.0010580625705 16.17976988 12.73826522 25.00000000
47 1 1 0.00118914904538 14.70888171 15.28591827 25.00000000
48 1 1 0.00162684017769 16.17976988 17.83357131 25.00000000
49 1 1 9.31255574687e-05 1.47088817 0.84921768 27.40195032
50 1 1 9.46448639329e-05 2.94177634 3.39687073 27.40195032
51 1 1 9.65286881926e-05 1.47088817 5.94452377 27.40195032
52 1 1 0.000100836739293 2.94177634 8.49217681 27.40195032
53 1 1 0.000104816198409 1.47088817 11.03982986 27.40195032
54 1 1 0.000111943910875 2.94177634 13.58748290 27.40195032
55 1 1 0.000117070590315 1.47088817 16.13513595 27.40195032
56 1 1 0.000126493903806 2.94177634 18.68278899 27.40195032
57 1 1 9.41958847895e-05 4.41266451 0.84921768 27.40195032
58 1 1 9.64121138853e-05 5.88355268 3.39687073 27.40195032
59 1 1 9.80150058753e-05 4.41266451 5.94452377 27.40195032
60 1 1 0.000103785063959 5.88355268 8.49217681 27.40195032
61 1 1 0.000107521749485 4.41266451 11.03982986 27.40195032
62 1 1 0.000117599370445 5.88355268 13.58748290 27.40195032
63 1 1 0.00012214758946 4.41266451 16.13513595 27.40195032
64 1 1 0.000136718582176 5.88355268 18.68278899 27.40195032
65 1 1 9.62490437839e-05 7.35444085 0.84921768 27.40195032
66 1 1 9.92113694753e-05 8.82532903 3.39687073 27.40195032
67 1 1 0.000100911370838 7.35444085 5.94452377 27.40195032
68 1 1 0.000108611580946 8.82532903 8.49217681 27.40195032
69 1 1 0.000112964524053 7.35444085 11.03982986 27.40195032
70 1 1 0.000127215029076 8.82532903 13.58748290 27.40195032
71 1 1 0.000132628882847 7.35444085 16.13513595 27.40195032
72 1 1 0.000154238142606 8.82532903 18.68278899 27.40195032
73 1 1 9.91049079435e-05 10.29621720 0.84921768 27.40195032
74 1 1 0.00010280778288 11.76710537 3.39687073 27.40195032
75 1 1 0.000105043351755 10.29621720 5.94452377 27.40195032
76 1 1 0.000115091754395 11.76710537 8.49217681 27.40195032
77 1 1 0.00012108657974 10.29621720 11.03982986 27.40195032
78 1 1 0.000140593897739 11.76710537 13.58748290 27.40195032
79 1 1 0.000148604732994 10.29621720 16.13513595 27.40195032
80 1 1 0.000178341501518 11.76710537 18.68278899 27.40195032
81 1 1 0.000102485151229 13.23799354 0.84921768 27.40195032
82 1 1 0.000106849267577 14.70888171 3.39687073 27.40195032
83 1 1 0.000110095075714 13.23799354 5.94452377 27.40195032
84 1 1 0.000122727883641 14.70888171 8.49217681 27.40195032
85 1 1 0.000131486889774 13.23799354 11.03982986 27.40195032
86 1 1 0.000156657227958 14.70888171 13.58748290 27.40195032
87 1 1 0.000169077896488 13.23799354 16.13513595 27.40195032
88 1 1 0.000207742480435 14.70888171 18.68278899 27.40195032
89 1 1 0.000106016573939 16.17976988 0.84921768 27.40195032
90 1 1 9.40416578779e-05 0.00000000 3.39687073 27.40195032
91 1 1 0.000115561535341 16.17976988 5.94452377 27.40195032
92 1 1 9.98476876191e-05 0.00000000 8.49217681 27.40195032
93 1 1 0.000143152289797 16.17976988 11.03982986 27.40195032
94 1 1 0.000110091080665 0.00000000 13.58748290 27.40195032
95 1 1 0.000191951190976 16.17976988 16.13513595 27.40195032
96 1 1 0.000123186659154 0.00000000 18.68278899 27.40195032
97 1 1 4.4927332518e-08 2.94177634 1.69843536 29.80390065
98 1 1 4.51660616138e-08 4.41266451 4.24608841 29.80390065
99 1 1 4.52968883992e-08 2.94177634 6.79374145 29.80390065
100 1 1 4.60775266901e-08 4.41266451 9.34139450 29.80390065
101 1 1 4.6378191263e-08 2.94177634 11.88904754 29.80390065
102 1 1 4.74776341632e-08 4.41266451 14.43670058 29.80390065
103 1 1 4.82057352609e-08 2.94177634 16.98435363 29.80390065
104 1 1 4.96378997584e-08 4.41266451 19.53200667 29.80390065
105 1 1 4.54262814018e-08 5.88355268 1.69843536 29.80390065
106 1 1 4.59211065789e-08 7.35444085 4.24608841 29.80390065
107 1 1 4.59026793779e-08 5.88355268 6.79374145 29.80390065
108 1 1 4.70797103055e-08 7.35444085 9.34139450 29.80390065
109 1 1 4.71320781438e-08 5.88355268 11.88904754 29.80390065
110 1 1 4.84040534536e-08 7.35444085 14.43670058 29.80390065
111 1 1 4.8769419337e-08 5.88355268 16.98435363 29.80390065
112 1 1 4.30723601465e-08 7.35444085 19.53200667 29.80390065
113 1 1 4.62338610676e-08 8.82532903 1.69843536 29.80390065
114 1 1 4.71449725367e-08 10.29621720 4.24608841 29.80390065
115 1 1 4.70999568492e-08 8.82532903 6.79374145 29.80390065
116 1 1 4.88813536384e-08 10.29621720 9.34139450 29.80390065
117 1 1 4.85285079205e-08 8.82532903 11.88904754 29.80390065
118 1 1 4.73120472995e-08 10.29621720 14.43670058 29.80390065
119 1 1 4.4332447109e-08 8.82532903 16.98435363 29.80390065
120 1 1 7.68347707111e-09 10.29621720 19.53200667 29.80390065
121 1 1 4.7335175978e-08 11.76710537 1.69843536 29.80390065
122 1 1 4.89019000942e-08 13.23799354 4.24608841 29.80390065
123 1 1 4.90483789758e-08 11.76710537 6.79374145 29.80390065
124 1 1 5.10425522971e-08 13.23799354 9.34139450 29.80390065
125 1 1 4.95715244125e-08 11.76710537 11.88904754 29.80390065
126 1 1 4.10401105887e-08 13.23799354 14.43670058 29.80390065
127 1 1 2.63539287919e-08 11.76710537 16.98435363 29.80390065
128 1 1 -6.00802774742e-08 13.23799354 19.53200667 29.80390065
129 1 1 4.8688704822e-08 14.70888171 1.69843536 29.80390065
130 1 1 5.10386893724e-08 16.17976988 4.24608841 29.80390065
131 1 1 5.15415711676e-08 14.70888171 6.79374145 29.80390065
132 1 1 5.21841516837e-08 16.17976988 9.34139450 29.80390065
133 1 1 4.80065615924e-08 14.70888171 11.88904754 29.80390065
134 1 1 3.07165995389e-08 16.17976988 14.43670058 29.80390065
135 1 1 5.83775837998e-09 14.70888171 16.98435363 29.80390065
136 1 1 -4.1329991479e-08 16.17976988 19.53200667 29.80390065
137 1 1 4.4757346334e-08 0.00000000 1.69843536 29.80390065
138 1 1 4.48024644725e-08 1.47088817 4.24608841 29.80390065
139 1 1 4.51142153777e-08 0.00000000 6.79374145 29.80390065
140 1 1 4.56917886876e-08 1.47088817 9.34139450 29.80390065
141 1 1 4.61899962816e-08 0.00000000 11.88904754 29.80390065
142 1 1 4.68852197803e-08 1.47088817 14.43670058 29.80390065
143 1 1 4.77746715878e-08 0.00000000 16.98435363 29.80390065
144 1 1 4.92549738752e-08 1.47088817 19.53200667 29.80390065
145 1 1 -9.33513661475e-05 4.41266451 2.54765304 32.20585097
146 1 1 -9.66177407686e-05 5.88355268 5.09530609 32.20585097
147 1 1 -9.89782179621e-05 4.41266451 7.64295913 32.20585097
148 1 1 -0.000105971833239 5.88355268 10.19061218 32.20585097
149 1 1 -0.00011011058676 4.41266451 12.73826522 32.20585097
150 1 1 -0.000121527732032 5.88355268 15.28591827 32.20585097
151 1 1 -0.00012573488071 4.41266451 17.83357131 32.20585097
152 1 1 -9.35373935267e-05 5.88355268 0.00000000 32.20585097
153 1 1 -9.54995909595e-05 7.35444085 2.54765304 32.20585097
154 1 1 -9.98018912457e-05 8.82532903 5.09530609 32.20585097
155 1 1 -0.00010242937422 7.35444085 7.64295913 32.20585097
156 1 1 -0.000111916324442 8.82532903 10.19061218 32.20585097
157 1 1 -0.000116802872191 7.35444085 12.73826522 32.20585097
158 1 1 -0.000133255750938 8.82532903 15.28591827 32.20585097
159 1 1 -0.000138175057953 7.35444085 17.83357131 32.20585097
160 1 1 -9.59567425849e-05 8.82532903 0.00000000 32.20585097
161 1 1 -9.8500900401e-05 10.29621720 2.54765304 32.20585097
162 1 1 -0.000103942028036 11.76710537 5.09530609 32.20585097
163 1 1 -0.000107424118087 10.29621720 7.64295913 32.20585097
164 1 1 -0.000120022546869 11.76710537 10.19061218 32.20585097
165 1 1 -0.000126905328213 10.29621720 12.73826522 32.20585097
166 1 1 -0.000149561262313 11.76710537 15.28591827 32.20585097
167 1 1 -0.0001570357349 10.29621720 17.83357131 32.20585097
168 1 1 -9.90323143712e-05 11.76710537 0.00000000 32.20585097
169 1 1 -0.000102074135086 13.23799354 2.54765304 32.20585097
170 1 1 -0.000108660260134 14.70888171 5.09530609 32.20585097
171 1 1 -0.000113634225505 13.23799354 7.64295913 32.20585097
172 1 1 -0.000129696106015 14.70888171 10.19061218 32.20585097
173 1 1 -0.000139919553935 13.23799354 12.73826522 32.20585097
174 1 1 -0.000168961518635 14.70888171 15.28591827 32.20585097
175 1 1 -0.000180974538459 13.23799354 17.83357131 32.20585097
176 1 1 -0.000102444170237 14.70888171 0.00000000 32.20585097
177 1 1 -0.000105832223164 16.17976988 2.54765304 32.20585097
178 1 1 -9.39470368567e-05 0.00000000 5.09530609 32.20585097
179 1 1 -0.000120462695645 16.17976988 7.64295913 32.20585097
180 1 1 -0.000101197512418 0.00000000 10.19061218 32.20585097
181 1 1 -0.000154482060262 16.17976988 12.73826522 32.20585097
182 1 1 -0.000112442649304 0.00000000 15.28591827 32.20585097
183 1 1 -0.000208595780801 16.17976988 17.83357131 32.20585097
184 1 1 -9.14716649753e-05 0.00000000 0.00000000 32.20585097
185 1 1 -9.22344911165e-05 1.47088817 2.54765304 32.20585097
186 1 1 -9.46244570831e-05 2.94177634 5.09530609 32.20585097
187 1 1 -9.72238240092e-05 1.47088817 7.64295913 32.20585097
188 1 1 -0.000102389821494 2.94177634 10.19061218 32.20585097
189 1 1 -0.000106818727231 1.47088817 12.73826522 32.20585097
190 1 1 -0.000114674388886 2.94177634 15.28591827 32.20585097
191 1 1 -0.000119720807368 1.47088817 17.83357131 32.20585097
192 1 1 -9.19987736076e-05 2.94177634 0.00000000 32.20585097
193 1 1 -0.000607640283981 5.88355268 3.39687073 34.60780130
194 1 1 -0.000638678030167 7.35444085 5.94452377 34.60780130
195 1 1 -0.000658440602793 5.88355268 8.49217681 34.60780130
196 1 1 -0.000722645970461 7.35444085 11.03982986 34.60780130
197 1 1 -0.000754667119509 5.88355268 13.58748290 34.60780130
198 1 1 -0.000862653499677 7.35444085 16.13513595 34.60780130
199 1 1 -0.00089096442182 5.88355268 18.68278899 34.60780130
200 1 1 -0.000606476881737 7.35444085 0.84921768 34.60780130
201 1 1 -0.000626870240877 8.82532903 3.39687073 34.60780130
202 1 1 -0.000667454129395 10.29621720 5.94452377 34.60780130
203 1 1 -0.000692397866288 8.82532903 8.49217681 34.60780130
204 1 1 -0.000780813516433 10.29621720 11.03982986 34.60780130
205 1 1 -0.00082437088344 8.82532903 13.58748290 34.60780130
206 1 1 -0.000986053497489 10.29621720 16.13513595 34.60780130
207 1 1 -0.00102865253163 8.82532903 18.68278899 34.60780130
208 1 1 -0.000625985939456 10.29621720 0.84921768 34.60780130
209 1 1 -0.000651666660484 11.76710537 3.39687073 34.60780130
210 1 1 -0.000702782604007 13.23799354 5.94452377 34.60780130
211 1 1 -0.000738246320838 11.76710537 8.49217681 34.60780130
212 1 1 -0.000856932617035 13.23799354 11.03982986 34.60780130
213 1 1 -0.000925036801976 11.76710537 13.58748290 34.60780130
214 1 1 -0.00116235255615 13.23799354 16.13513595 34.60780130
215 1 1 -0.00124583860591 11.76710537 18.68278899 34.60780130
216 1 1 -0.000649160960667 13.23799354 0.84921768 34.60780130
217 1 1 -0.000679635703933 14.70888171 3.39687073 34.60780130
218 1 1 -0.000741213393898 16.17976988 5.94452377 34.60780130
219 1 1 -0.000792855880235 14.70888171 8.49217681 34.60780130
220 1 1 -0.000945800381223 16.17976988 11.03982986 34.60780130
221 1 1 -0.00105505684832 14.70888171 13.58748290 34.60780130
222 1 1 -0.00139260785202 16.17976988 16.13513595 34.60780130
223 1 1 -0.00156559599737 14.70888171 18.68278899 34.60780130
224 1 1 -0.000673458031671 16.17976988 0.84921768 34.60780130
225 1 1 -0.000591411865613 0.00000000 3.39687073 34.60780130
226 1 1 -0.000608286036687 1.47088817 5.94452377 34.60780130
227 1 1 -0.000630830420783 0.00000000 8.49217681 34.60780130
228 1 1 -0.000664857963284 1.47088817 11.03982986 34.60780130
229 1 1 -0.000701019696471 0.00000000 13.58748290 34.60780130
230 1 1 -0.000749369943808 1.47088817 16.13513595 34.60780130
231 1 1 -0.000791662566786 0.00000000 18.68278899 34.60780130
232 1 1 -0.000585222799586 1.47088817 0.84921768 34.60780130
233 1 1 -0.000595536222851 2.94177634 3.39687073 34.60780130
234 1 1 -0.000618576192708 4.41266451 5.94452377 34.60780130
235 1 1 -0.00063775854721 2.94177634 8.49217681 34.60780130
236 1 1 -0.000684010561168 4.41266451 11.03982986 34.60780130
237 1 1 -0.00071422606029 2.94177634 13.58748290 34.60780130
238 1 1 -0.000785883172641 4.41266451 16.13513595 34.60780130
239 1 1 -0.00081556570814 2.94177634 18.68278899 34.60780130
240 1 1 -0.00059249561021 4.41266451 0.84921768 34.60780130
241 1 1 0.000821377667336 0.00000000 20.38122435 25.00000000
242 1 1 0.000873441944835 1.47088817 22.92887739 25.00000000
243 1 1 0.000900457032449 0.00000000 25.47653044 25.00000000
244 1 1 0.000935045056435 1.47088817 28.02418348 25.00000000
245 1 1 0.000932155890681 0.00000000 30.57183653 25.00000000
246 1 1 0.000935042988221 1.47088817 33.11948957 25.00000000
247 1 1 0.000900453734066 0.00000000 35.66714262 25.00000000
248 1 1 0.00087343672899 1.47088817 38.21479566 25.00000000
249 1 1 0.000849598144073 2.94177634 20.38122435 25.00000000
250 1 1 0.000945284877394 4.41266451 22.92887739 25.00000000
251 1 1 0.000941415015891 2.94177634 25.47653044 25.00000000
252 1 1 0.00102868133982 4.41266451 28.02418348 25.00000000
253 1 1 0.000978886462436 2.94177634 30.57183653 25.00000000
254 1 1 0.00102867410193 4.41266451 33.11948957 25.00000000
255 1 1 0.000941408312994 2.94177634 35.66714262 25.00000000
256 1 1 0.000945270316461 4.41266451 38.21479566 25.00000000
257 1 1 0.000939501831772 5.88355268 20.38122435 25.00000000
258 1 1 0.00110548974888 7.35444085 22.92887739 25.00000000
259 1 1 0.00107527785973 5.88355268 25.47653044 25.00000000
260 1 1 0.00124421048927 7.35444085 28.02418348 25.00000000
261 1 1 0.00113327470102 5.88355268 30.57183653 25.00000000
262 1 1 0.00124418446992 7.35444085 33.11948957 25.00000000
263 1 1 0.00107525289457 5.88355268 35.66714262 25.00000000
264 1 1 0.00110544016813 7.35444085 38.21479566 25.00000000
265 1 1 0.00110708408073 8.82532903 20.38122435 25.00000000
266 1 1 0.00139235236882 10.29621720 22.92887739 25.00000000
267 1 1 0.00133981811814 8.82532903 25.47653044 25.00000000
268 1 1 0.00165857506632 10.29621720 28.02418348 25.00000000
269 1 1 0.00144685865398 8.82532903 30.57183653 25.00000000
270 1 1 0.00165850898149 10.29621720 33.11948957 25.00000000
271 1 1 0.00133974051922 8.82532903 35.66714262 25.00000000
272 1 1 0.00139222285323 10.29621720 38.21479566 25.00000000
273 1 1 0.00138115689774 11.76710537 20.38122435 25.00000000
274 1 1 0.00188859990965 13.23799354 22.92887739 25.00000000
275 1 1 0.00182733949866 11.76710537 25.47653044 25.00000000
276 1 1 0.00249027784916 13.23799354 28.02418348 25.00000000
277 1 1 0.00206177856323 11.76710537 30.57183653 25.00000000
278 1 1 0.00249016989258 13.23799354 33.11948957 25.00000000
279 1 1 0.00182716967208 11.76710537 35.66714262 25.00000000
280 1 1 0.00188836968823 13.23799354 38.21479566 25.00000000
281 1 1 0.00181121720245 14.70888171 20.38122435 25.00000000
282 1 1 0.00278078552822 16.17976988 22.92887739 25.00000000
283 1 1 0.00278652984425 14.70888171 25.47653044 25.00000000
284 1 1 0.00439718679247 16.17976988 28.02418348 25.00000000
285 1 1 0.00342034766523 14.70888171 30.57183653 25.00000000
286 1 1 0.00439710731368 16.17976988 33.11948957 25.00000000
287 1 1 0.00278629696865 14.70888171 35.66714262 25.00000000
288 1 1 0.00278055244098 16.17976988 38.21479566 25.00000000
289 1 1 0.000130854030469 1.47088817 21.23044203 27.40195032
290 1 1 0.00014074460349 2.94177634 23.77809508 27.40195032
291 1 1 0.000141707971851 1.47088817 26.32574812 27.40195032
292 1 1 0.000149029000535 2.94177634 28.87340116 27.40195032
293 1 1 0.000144864359108 1.47088817 31.42105421 27.40195032
294 1 1 0.0001472643787 2.94177634 33.96870725 27.40195032
295 1 1 0.000138742846285 1.47088817 36.51636030 27.40195032
296 1 1 0.000136365275235 2.94177634 39.06401334 27.40195032
297 1 1 0.000139313484652 4.41266451 21.23044203 27.40195032
298 1 1 0.000156152484306 5.88355268 23.77809508 27.40195032
299 1 1 0.000153183955731 4.41266451 26.32574812 27.40195032
300 1 1 0.000167570025788 5.88355268 28.87340116 27.40195032
301 1 1 0.000157244739366 4.41266451 31.42105421 27.40195032
302 1 1 0.000165129529855 5.88355268 33.96870725 27.40195032
303 1 1 0.00014936857884 4.41266451 36.51636030 27.40195032
304 1 1 0.000150128520144 5.88355268 39.06401334 27.40195032
305 1 1 0.000156750206704 7.35444085 21.23044203 27.40195032
306 1 1 0.000182065419868 8.82532903 23.77809508 27.40195032
307 1 1 0.000176472295945 7.35444085 26.32574812 27.40195032
308 1 1 0.000198556811818 8.82532903 28.87340116 27.40195032
309 1 1 0.000182235765891 7.35444085 31.42105421 27.40195032
310 1 1 0.000195002877993 8.82532903 33.96870725 27.40195032
311 1 1 0.000171039839358 7.35444085 36.51636030 27.40195032
312 1 1 0.000173437906493 8.82532903 39.06401334 27.40195032
313 1 1 0.000182875260878 10.29621720 21.23044203 27.40195032
314 1 1 0.000219067348686 11.76710537 23.77809508 27.40195032
315 1 1 0.000211792343145 10.29621720 26.32574812 27.40195032
316 1 1 0.000249206648892 11.76710537 28.87340116 27.40195032
317 1 1 0.000220913604836 10.29621720 31.42105421 27.40195032
318 1 1 0.000242010808906 11.76710537 33.96870725 27.40195032
319 1 1 0.000203615163759 10.29621720 36.51636030 27.40195032
320 1 1 0.000205837398738 11.76710537 39.06401334 27.40195032
321 1 1 0.000217704897204 13.23799354 21.23044203 27.40195032
322 1 1 0.000287184639891 14.70888171 23.77809508 27.40195032
323 1 1 0.000275882629996 13.23799354 26.32574812 27.40195032
324 1 1 0.00039582678585 14.70888171 28.87340116 27.40195032
325 1 1 0.000302739345295 13.23799354 31.42105421 27.40195032
326 1 1 0.000365281953138 14.70888171 33.96870725 27.40195032
327 1 1 0.000256156342186 13.23799354 36.51636030 27.40195032
328 1 1 0.000255061505108 14.70888171 39.06401334 27.40195032
329 1 1 0.000273936028622 16.17976988 21.23044203 27.40195032
330 1 1 0.000135733819912 0.00000000 23.77809508 27.40195032
331 1 1 0.000479774212157 16.17976988 26.32574812 27.40195032
332 1 1 0.000142946401112 0.00000000 28.87340116 27.40195032
333 1 1 0.000610592634983 16.17976988 31.42105421 27.40195032
334 1 1 0.000141415418134 0.00000000 33.96870725 27.40195032
335 1 1 0.000395503799065 16.17976988 36.51636030 27.40195032
336 1 1 0.000131903227355 0.00000000 39.06401334 27.40195032
337 1 1 5.09324295641e-08 2.94177634 22.07965971 29.80390065
338 1 1 5.03633499173e-08 4.41266451 24.62731276 29.80390065
339 1 1 5.43625886486e-08 2.94177634 27.17496580 29.80390065
340 1 1 5.28238264613e-08 4.41266451 29.72261885 29.80390065
341 1 1 5.85613087961e-08 2.94177634 32.27027189 29.80390065
342 1 1 5.69898967231e-08 4.41266451 34.81792493 29.80390065
343 1 1 6.15577225374e-08 2.94177634 37.36557798 29.80390065
344 1 1 6.03961746165e-08 4.41266451 39.91323102 29.80390065
345 1 1 4.58535188024e-08 5.88355268 22.07965971 29.80390065
346 1 1 2.82535271848e-08 7.35444085 24.62731276 29.80390065
347 1 1 4.44147207504e-08 5.88355268 27.17496580 29.80390065
348 1 1 3.41217627314e-08 7.35444085 29.72261885 29.80390065
349 1 1 4.71926045437e-08 5.88355268 32.27027189 29.80390065
350 1 1 4.72128799306e-08 7.35444085 34.81792493 29.80390065
351 1 1 5.65531337274e-08 5.88355268 37.36557798 29.80390065
352 1 1 5.84022274545e-08 7.35444085 39.91323102 29.80390065
353 1 1 8.26282707324e-09 8.82532903 22.07965971 29.80390065
354 1 1 -5.92432125504e-08 10.29621720 24.62731276 29.80390065
355 1 1 8.01063569505e-09 8.82532903 27.17496580 29.80390065
356 1 1 2.06643810467e-08 10.29621720 29.72261885 29.80390065
357 1 1 3.13861102918e-08 8.82532903 32.27027189 29.80390065
358 1 1 8.57914468387e-08 10.29621720 34.81792493 29.80390065
359 1 1 6.75600144075e-08 8.82532903 37.36557798 29.80390065
360 1 1 8.43329107771e-08 10.29621720 39.91323102 29.80390065
361 1 1 -1.09953928434e-07 11.76710537 22.07965971 29.80390065
362 1 1 -2.24847851013e-07 13.23799354 24.62731276 29.80390065
363 1 1 -4.0255264804e-08 11.76710537 27.17496580 29.80390065
364 1 1 1.7912722255e-07 13.23799354 29.72261885 29.80390065
365 1 1 9.53631793214e-08 11.76710537 32.27027189 29.80390065
366 1 1 3.64212737948e-07 13.23799354 34.81792493 29.80390065
367 1 1 2.0102526335e-07 11.76710537 37.36557798 29.80390065
368 1 1 2.00657338823e-07 13.23799354 39.91323102 29.80390065
369 1 1 -2.25044681479e-07 14.70888171 22.07965971 29.80390065
370 1 1 -7.26637790231e-08 16.17976988 24.62731276 29.80390065
371 1 1 1.36845052916e-07 14.70888171 27.17496580 29.80390065
372 1 1 9.66637423374e-07 16.17976988 29.72261885 29.80390065
373 1 1 5.03415997265e-07 14.70888171 32.27027189 29.80390065
374 1 1 1.09175469531e-06 16.17976988 34.81792493 29.80390065
375 1 1 6.09101295522e-07 14.70888171 37.36557798 29.80390065
376 1 1 3.639455926e-07 16.17976988 39.91323102 29.80390065
377 1 1 5.07702077303e-08 0.00000000 22.07965971 29.80390065
378 1 1 5.28351659617e-08 1.47088817 24.62731276 29.80390065
379 1 1 5.54802216594e-08 0.00000000 27.17496580 29.80390065
380 1 1 5.797129329e-08 1.47088817 29.72261885 29.80390065
381 1 1 6.07657454066e-08 0.00000000 32.27027189 29.80390065
382 1 1 6.19466112428e-08 1.47088817 34.81792493 29.80390065
383 1 1 6.27530200128e-08 0.00000000 37.36557798 29.80390065
384 1 1 6.17461337884e-08 1.47088817 39.91323102 29.80390065
385 1 1 -0.000142264024878 4.41266451 22.92887739 32.20585097
386 1 1 -0.00015850410302 5.88355268 25.47653044 32.20585097
387 1 1 -0.000153246179235 4.41266451 28.02418348 32.20585097
388 1 1 -0.000165498186077 5.88355268 30.57183653 32.20585097
389 1 1 -0.000153250226897 4.41266451 33.11948957 32.20585097
390 1 1 -0.000158514283943 5.88355268 35.66714262 32.20585097
391 1 1 -0.000142267564654 4.41266451 38.21479566 32.20585097
392 1 1 -0.00014115989434 5.88355268 20.38122435 32.20585097
393 1 1 -0.000161514473528 7.35444085 22.92887739 32.20585097
394 1 1 -0.000185907534458 8.82532903 25.47653044 32.20585097
395 1 1 -0.000177060131658 7.35444085 28.02418348 32.20585097
396 1 1 -0.000195963520881 8.82532903 30.57183653 32.20585097
397 1 1 -0.000177074208238 7.35444085 33.11948957 32.20585097
398 1 1 -0.000185918776587 8.82532903 35.66714262 32.20585097
399 1 1 -0.000161525857728 7.35444085 38.21479566 32.20585097
400 1 1 -0.000161166164694 8.82532903 20.38122435 32.20585097
401 1 1 -0.000190155803296 10.29621720 22.92887739 32.20585097
402 1 1 -0.000226562523071 11.76710537 25.47653044 32.20585097
403 1 1 -0.000213302850284 10.29621720 28.02418348 32.20585097
404 1 1 -0.000246047352827 11.76710537 30.57183653 32.20585097
405 1 1 -0.000213324064375 10.29621720 33.11948957 32.20585097
406 1 1 -0.000226496465438 11.76710537 35.66714262 32.20585097
407 1 1 -0.00019013430973 10.29621720 38.21479566 32.20585097
408 1 1 -0.000188500794904 11.76710537 20.38122435 32.20585097
409 1 1 -0.000231138023929 13.23799354 22.92887739 32.20585097
410 1 1 -0.000317882636866 14.70888171 25.47653044 32.20585097
411 1 1 -0.000285730565248 13.23799354 28.02418348 32.20585097
412 1 1 -0.000397455321144 14.70888171 30.57183653 32.20585097
413 1 1 -0.000285741602721 13.23799354 33.11948957 32.20585097
414 1 1 -0.000317640333864 14.70888171 35.66714262 32.20585097
415 1 1 -0.000230970542499 13.23799354 38.21479566 32.20585097
416 1 1 -0.000224165937616 14.70888171 20.38122435 32.20585097
417 1 1 -0.000317024078559 16.17976988 22.92887739 32.20585097
418 1 1 -0.000136692214488 0.00000000 25.47653044 32.20585097
419 1 1 -0.00054759062951 16.17976988 28.02418348 32.20585097
420 1 1 -0.00014111125117 0.00000000 30.57183653 32.20585097
421 1 1 -0.000547600351268 16.17976988 33.11948957 32.20585097
422 1 1 -0.000136690396247 0.00000000 35.66714262 32.20585097
423 1 1 -0.000316780617285 16.17976988 38.21479566 32.20585097
424 1 1 -0.00012559113699 0.00000000 20.38122435 32.20585097
425 1 1 -0.000132858151593 1.47088817 22.92887739 32.20585097
426 1 1 -0.000142065628236 2.94177634 25.47653044 32.20585097
427 1 1 -0.000141426371303 1.47088817 28.02418348 32.20585097
428 1 1 -0.000147148391386 2.94177634 30.57183653 32.20585097
429 1 1 -0.000141426186939 1.47088817 33.11948957 32.20585097
430 1 1 -0.000142066485724 2.94177634 35.66714262 32.20585097
431 1 1 -0.000132856100128 1.47088817 38.21479566 32.20585097
432 1 1 -0.000129398785889 2.94177634 20.38122435 32.20585097
433 1 1 -0.00103691960125 5.88355268 23.77809508 34.60780130
434 1 1 -0.00121188852221 7.35444085 26.32574812 34.60780130
435 1 1 -0.00112844298118 5.88355268 28.87340116 34.60780130
436 1 1 -0.00126463499698 7.35444085 31.42105421 34.60780130
437 1 1 -0.00110851615918 5.88355268 33.96870725 34.60780130
438 1 1 -0.00116426829067 7.35444085 36.51636030 34.60780130
439 1 1 -0.00099065127092 5.88355268 39.06401334 34.60780130
440 1 1 -0.00104554635646 7.35444085 21.23044203 34.60780130
441 1 1 -0.00127072724593 8.82532903 23.77809508 34.60780130
442 1 1 -0.00159251613271 10.29621720 26.32574812 34.60780130
443 1 1 -0.00143661347074 8.82532903 28.87340116 34.60780130
444 1 1 -0.00169892899585 10.29621720 31.42105421 34.60780130
445 1 1 -0.00139948190359 8.82532903 33.96870725 34.60780130
446 1 1 -0.00150041298215 10.29621720 36.51636030 34.60780130
447 1 1 -0.0011912368742 8.82532903 39.06401334 34.60780130
448 1 1 -0.00128487867539 10.29621720 21.23044203 34.60780130
449 1 1 -0.00168519926425 11.76710537 23.77809508 34.60780130
450 1 1 -0.00232730900666 13.23799354 26.32574812 34.60780130
451 1 1 -0.0020364779814 11.76710537 28.87340116 34.60780130
452 1 1 -0.00258976707382 13.23799354 31.42105421 34.60780130
453 1 1 -0.00195363221775 11.76710537 33.96870725 34.60780130
454 1 1 -0.00211649585366 13.23799354 36.51636030 34.60780130
455 1 1 -0.0015325458786 11.76710537 39.06401334 34.60780130
456 1 1 -0.00167615026816 13.23799354 21.23044203 34.60780130
457 1 1 -0.00244260583022 14.70888171 23.77809508 34.60780130
458 1 1 -0.00391137489981 16.17976988 26.32574812 34.60780130
459 1 1 -0.00334394334684 14.70888171 28.87340116 34.60780130
460 1 1 -0.0047018139107 16.17976988 31.42105421 34.60780130
461 1 1 -0.00311353988761 14.70888171 33.96870725 34.60780130
462 1 1 -0.00333705634252 16.17976988 36.51636030 34.60780130
463 1 1 -0.00210924816432 14.70888171 39.06401334 34.60780130
464 1 1 -0.00231444070813 16.17976988 21.23044203 34.60780130
465 1 1 -0.000879320466411 0.00000000 23.77809508 34.60780130
466 1 1 -0.000921897927824 1.47088817 26.32574812 34.60780130
467 1 1 -0.000930094877206 0.00000000 28.87340116 34.60780130
468 1 1 -0.00094430670128 1.47088817 31.42105421 34.60780130
469 1 1 -0.000919286357092 0.00000000 33.96870725 34.60780130
470 1 1 -0.000900915939006 1.47088817 36.51636030 34.60780130
471 1 1 -0.00085246080329 0.00000000 39.06401334 34.60780130
472 1 1 -0.000845422681552 1.47088817 21.23044203 34.60780130
473 1 1 -0.00091645674335 2.94177634 23.77809508 34.60780130
474 1 1 -0.00101021325997 4.41266451 26.32574812 34.60780130
475 1 1 -0.000976226326966 2.94177634 28.87340116 34.60780130
476 1 1 -0.0010410371582 4.41266451 31.42105421 34.60780130
477 1 1 -0.000963421984321 2.94177634 33.96870725 34.60780130
478 1 1 -0.000981723060756 4.41266451 36.51636030 34.60780130
479 1 1 -0.00088523819313 2.94177634 39.06401334 34.60780130
480 1 1 -0.000907992193919 4.41266451 21.23044203 34.60780130
481 1 1 0.00082137285634 0.00000000 40.76244870 25.00000000
482 1 1 0.00078001602404 1.47088817 43.31010174 25.00000000
483 1 1 0.000728565054758 0.00000000 45.85775479 25.00000000
484 1 1 0.000689267078602 1.47088817 48.40540783 25.00000000
485 1 1 0.00065000133188 0.00000000 50.95306088 25.00000000
486 1 1 0.000622499891941 1.47088817 53.50071392 25.00000000
487 1 1 0.000599852542006 0.00000000 56.04836697 25.00000000
488 1 1 0.000588086147012 1.47088817 58.59602001 25.00000000
489 1 1 0.00084959081558 2.94177634 40.76244870 25.00000000
490 1 1 0.000824359706015 4.41266451 43.31010174 25.00000000
491 1 1 0.000744815207845 2.94177634 45.85775479 25.00000000
492 1 1 0.000713096143381 4.41266451 48.40540783 25.00000000
493 1 1 0.000658553792503 2.94177634 50.95306088 25.00000000
494 1 1 0.000634950423052 4.41266451 53.50071392 25.00000000
495 1 1 0.000604595379376 2.94177634 56.04836697 25.00000000
496 1 1 0.000595826208369 4.41266451 58.59602001 25.00000000
497 1 1 0.000939480415302 5.88355268 40.76244870 25.00000000
498 1 1 0.000918986133312 7.35444085 43.31010174 25.00000000
499 1 1 0.000795059724624 5.88355268 45.85775479 25.00000000
500 1 1 0.000761795850669 7.35444085 48.40540783 25.00000000
501 1 1 0.000684283161694 5.88355268 50.95306088 25.00000000
502 1 1 0.000659500392915 7.35444085 53.50071392 25.00000000
503 1 1 0.000618576817695 5.88355268 56.04836697 25.00000000
504 1 1 0.000610749252289 7.35444085 58.59602001 25.00000000
505 1 1 0.00110702210859 8.82532903 40.76244870 25.00000000
506 1 1 0.00107490244509 10.29621720 43.31010174 25.00000000
507 1 1 0.000883274125304 8.82532903 45.85775479 25.00000000
508 1 1 0.000836622622868 10.29621720 48.40540783 25.00000000
509 1 1 0.000727157652808 8.82532903 50.95306088 25.00000000
510 1 1 0.000695165740553 10.29621720 53.50071392 25.00000000
511 1 1 0.000640982505211 8.82532903 56.04836697 25.00000000
512 1 1 0.000631670026385 10.29621720 58.59602001 25.00000000
513 1 1 0.00138102753597 11.76710537 40.76244870 25.00000000
514 1 1 0.00130630912407 13.23799354 43.31010174 25.00000000
515 1 1 0.00101409343453 11.76710537 45.85775479 25.00000000
516 1 1 0.000937123765668 13.23799354 48.40540783 25.00000000
517 1 1 0.000786242391148 11.76710537 50.95306088 25.00000000
518 1 1 0.000739780604942 13.23799354 53.50071392 25.00000000
519 1 1 0.000670228373596 11.76710537 56.04836697 25.00000000
520 1 1 0.000656673326777 13.23799354 58.59602001 25.00000000
521 1 1 0.00181104738378 14.70888171 40.76244870 25.00000000
522 1 1 0.00162677397723 16.17976988 43.31010174 25.00000000
523 1 1 0.00118912288863 14.70888171 45.85775479 25.00000000
524 1 1 0.00105806210565 16.17976988 48.40540783 25.00000000
525 1 1 0.000858328951462 14.70888171 50.95306088 25.00000000
526 1 1 0.000789327439146 16.17976988 53.50071392 25.00000000
527 1 1 0.000703700374677 14.70888171 56.04836697 25.00000000
528 1 1 0.000683067703811 16.17976988 58.59602001 25.00000000
529 1 1 0.000126330963356 1.47088817 41.61166638 27.40195032
530 1 1 0.000121436930242 2.94177634 44.15931943 27.40195032
531 1 1 0.000112654629653 1.47088817 46.70697247 27.40195032
532 1 1 0.000107751773259 2.94177634 49.25462551 27.40195032
533 1 1 0.000101546178052 1.47088817 51.80227856 27.40195032
534 1 1 9.8195473067e-05 2.94177634 54.34993160 27.40195032
535 1 1 9.48320494731e-05 1.47088817 56.89758465 27.40195032
536 1 1 9.37534155068e-05 2.94177634 59.44523769 27.40195032
537 1 1 0.000133607234855 4.41266451 41.61166638 27.40195032
538 1 1 0.000129959904255 5.88355268 44.15931943 27.40195032
539 1 1 0.000116799717108 4.41266451 46.70697247 27.40195032
540 1 1 0.000112296997714 5.88355268 49.25462551 27.40195032
541 1 1 0.000103734391554 4.41266451 51.80227856 27.40195032
542 1 1 0.000100612098029 5.88355268 54.34993160 27.40195032
543 1 1 9.61052314501e-05 4.41266451 56.89758465 27.40195032
544 1 1 9.53689897983e-05 5.88355268 59.44523769 27.40195032
545 1 1 0.000148657594408 7.35444085 41.61166638 27.40195032
546 1 1 0.000144590657824 8.82532903 44.15931943 27.40195032
547 1 1 0.000125302938925 7.35444085 46.70697247 27.40195032
548 1 1 0.000119940373039 8.82532903 49.25462551 27.40195032
549 1 1 0.000108086326686 7.35444085 51.80227856 27.40195032
550 1 1 0.000104516515827 8.82532903 54.34993160 27.40195032
551 1 1 9.85673734602e-05 7.35444085 56.89758465 27.40195032
552 1 1 9.79142143286e-05 8.82532903 59.44523769 27.40195032
553 1 1 0.000171374756866 10.29621720 41.61166638 27.40195032
554 1 1 0.000164865698568 11.76710537 44.15931943 27.40195032
555 1 1 0.000138238851098 10.29621720 46.70697247 27.40195032
556 1 1 0.00013049772757 11.76710537 49.25462551 27.40195032
557 1 1 0.000114484410358 10.29621720 51.80227856 27.40195032
558 1 1 0.000109671754343 11.76710537 54.34993160 27.40195032
559 1 1 0.000102037494576 10.29621720 56.89758465 27.40195032
560 1 1 0.000101158803062 11.76710537 59.44523769 27.40195032
561 1 1 0.000200592350038 13.23799354 41.61166638 27.40195032
562 1 1 0.000189032251074 14.70888171 44.15931943 27.40195032
563 1 1 0.000154914346993 13.23799354 46.70697247 27.40195032
564 1 1 0.000143187155051 14.70888171 49.25462551 27.40195032
565 1 1 0.000122572031076 13.23799354 51.80227856 27.40195032
566 1 1 0.000115647086634 14.70888171 54.34993160 27.40195032
567 1 1 0.000106216054161 13.23799354 56.89758465 27.40195032
568 1 1 0.000104770445633 14.70888171 59.44523769 27.40195032
569 1 1 0.000238766365683 16.17976988 41.61166638 27.40195032
570 1 1 0.000118673820065 0.00000000 44.15931943 27.40195032
571 1 1 0.000173504330118 16.17976988 46.70697247 27.40195032
572 1 1 0.000106251121297 0.00000000 49.25462551 27.40195032
573 1 1 0.000131584286371 16.17976988 51.80227856 27.40195032
574 1 1 9.73790215167e-05 0.00000000 54.34993160 27.40195032
575 1 1 0.000110666391436 16.17976988 56.89758465 27.40195032
576 1 1 9.32004778803e-05 0.00000000 59.44523769 27.40195032
577 1 1 5.99124438809e-08 2.94177634 42.46088406 29.80390065
578 1 1 5.7983325362e-08 4.41266451 45.00853711 29.80390065
579 1 1 5.45167333182e-08 2.94177634 47.55619015 29.80390065
580 1 1 5.22655985048e-08 4.41266451 50.10384320 29.80390065
581 1 1 4.90661007352e-08 2.94177634 52.65149624 29.80390065
582 1 1 4.74666402431e-08 4.41266451 55.19914928 29.80390065
583 1 1 4.59840142764e-08 2.94177634 57.74680233 29.80390065
584 1 1 4.54750245888e-08 4.41266451 60.29445537 29.80390065
585 1 1 5.90274776436e-08 5.88355268 42.46088406 29.80390065
586 1 1 5.76217653699e-08 7.35444085 45.00853711 29.80390065
587 1 1 5.60653468162e-08 5.88355268 47.55619015 29.80390065
588 1 1 5.38422430316e-08 7.35444085 50.10384320 29.80390065
589 1 1 5.00818020672e-08 5.88355268 52.65149624 29.80390065
590 1 1 4.82807047091e-08 7.35444085 55.19914928 29.80390065
591 1 1 4.64737483648e-08 5.88355268 57.74680233 29.80390065
592 1 1 4.60723094264e-08 7.35444085 60.29445537 29.80390065
593 1 1 5.73815241691e-08 8.82532903 42.46088406 29.80390065
594 1 1 5.36977579739e-08 10.29621720 45.00853711 29.80390065
595 1 1 5.62835869542e-08 8.82532903 47.55619015 29.80390065
596 1 1 5.45383042776e-08 10.29621720 50.10384320 29.80390065
597 1 1 5.13472824226e-08 8.82532903 52.65149624 29.80390065
598 1 1 4.92021027121e-08 10.29621720 55.19914928 29.80390065
599 1 1 4.71965103437e-08 8.82532903 57.74680233 29.80390065
600 1 1 4.68740695472e-08 10.29621720 60.29445537 29.80390065
601 1 1 6.61933672548e-08 11.76710537 42.46088406 29.80390065
602 1 1 4.46460191082e-08 13.23799354 45.00853711 29.80390065
603 1 1 5.25996129093e-08 11.76710537 47.55619015 29.80390065
604 1 1 5.28907500805e-08 13.23799354 50.10384320 29.80390065
605 1 1 5.21114998093e-08 11.76710537 52.65149624 29.80390065
606 1 1 4.98261677476e-08 13.23799354 55.19914928 29.80390065
607 1 1 4.79729084433e-08 11.76710537 57.74680233 29.80390065
608 1 1 4.77719620426e-08 13.23799354 60.29445537 29.80390065
609 1 1 8.44721449623e-08 14.70888171 42.46088406 29.80390065
610 1 1 2.90933340537e-08 16.17976988 45.00853711 29.80390065
611 1 1 4.36649241616e-08 14.70888171 47.55619015 29.80390065
612 1 1 4.87278679059e-08 16.17976988 50.10384320 29.80390065
613 1 1 5.17458303259e-08 14.70888171 52.65149624 29.80390065
614 1 1 4.99221468345e-08 16.17976988 55.19914928 29.80390065
615 1 1 4.85870672587e-08 14.70888171 57.74680233 29.80390065
616 1 1 4.86471135569e-08 16.17976988 60.29445537 29.80390065
617 1 1 5.95942711379e-08 0.00000000 42.46088406 29.80390065
618 1 1 5.6924613934e-08 1.47088817 45.00853711 29.80390065
619 1 1 5.37369441697e-08 0.00000000 47.55619015 29.80390065
620 1 1 5.11542644773e-08 1.47088817 50.10384320 29.80390065
621 1 1 4.86952934189e-08 0.00000000 52.65149624 29.80390065
622 1 1 4.70176389588e-08 1.47088817 55.19914928 29.80390065
623 1 1 4.58135613431e-08 0.00000000 57.74680233 29.80390065
624 1 1 4.51575937164e-08 1.47088817 60.29445537 29.80390065
625 1 1 -0.000125735381761 4.41266451 43.31010174 32.20585097
626 1 1 -0.000121527521136 5.88355268 45.85775479 32.20585097
627 1 1 -0.000110109019238 4.41266451 48.40540783 32.20585097
628 1 1 -0.000105970893168 5.88355268 50.95306088 32.20585097
629 1 1 -9.89781753983e-05 4.41266451 53.50071392 32.20585097
630 1 1 -9.66175806849e-05 5.88355268 56.04836697 32.20585097
631 1 1 -9.33510583502e-05 4.41266451 58.59602001 32.20585097
632 1 1 -0.000141166134883 5.88355268 40.76244870 32.20585097
633 1 1 -0.000138181718921 7.35444085 43.31010174 32.20585097
634 1 1 -0.000133259858877 8.82532903 45.85775479 32.20585097
635 1 1 -0.000116801677936 7.35444085 48.40540783 32.20585097
636 1 1 -0.000111915377928 8.82532903 50.95306088 32.20585097
637 1 1 -0.000102429124876 7.35444085 53.50071392 32.20585097
638 1 1 -9.98016806239e-05 8.82532903 56.04836697 32.20585097
639 1 1 -9.54992692698e-05 7.35444085 58.59602001 32.20585097
640 1 1 -0.000161176433344 8.82532903 40.76244870 32.20585097
641 1 1 -0.000157048120376 10.29621720 43.31010174 32.20585097
642 1 1 -0.000149571412525 11.76710537 45.85775479 32.20585097
643 1 1 -0.000126906215003 10.29621720 48.40540783 32.20585097
644 1 1 -0.000120022361803 11.76710537 50.95306088 32.20585097
645 1 1 -0.000107423912038 10.29621720 53.50071392 32.20585097
646 1 1 -0.000103941954156 11.76710537 56.04836697 32.20585097
647 1 1 -9.8500585186e-05 10.29621720 58.59602001 32.20585097
648 1 1 -0.000188480084117 11.76710537 40.76244870 32.20585097
649 1 1 -0.000180986428965 13.23799354 43.31010174 32.20585097
650 1 1 -0.000168974835682 14.70888171 45.85775479 32.20585097
651 1 1 -0.000139922757637 13.23799354 48.40540783 32.20585097
652 1 1 -0.000129696097731 14.70888171 50.95306088 32.20585097
653 1 1 -0.000113634495296 13.23799354 53.50071392 32.20585097
654 1 1 -0.000108660629819 14.70888171 56.04836697 32.20585097
655 1 1 -0.000102073942944 13.23799354 58.59602001 32.20585097
656 1 1 -0.000224100255527 14.70888171 40.76244870 32.20585097
657 1 1 -0.000208616976138 16.17976988 43.31010174 32.20585097
658 1 1 -0.000112441176706 0.00000000 45.85775479 32.20585097
659 1 1 -0.000154481478764 16.17976988 48.40540783 32.20585097
660 1 1 -0.000101197171242 0.00000000 50.95306088 32.20585097
661 1 1 -0.000120463143855 16.17976988 53.50071392 32.20585097
662 1 1 -9.39469534803e-05 0.00000000 56.04836697 32.20585097
663 1 1 -0.000105832326236 16.17976988 58.59602001 32.20585097
664 1 1 -0.000125588859723 0.00000000 40.76244870 32.20585097
665 1 1 -0.000119719281873 1.47088817 43.31010174 32.20585097
666 1 1 -0.000114672908158 2.94177634 45.85775479 32.20585097
667 1 1 -0.000106817523261 1.47088817 48.40540783 32.20585097
668 1 1 -0.000102389277323 2.94177634 50.95306088 32.20585097
669 1 1 -9.72239394655e-05 1.47088817 53.50071392 32.20585097
670 1 1 -9.46243559752e-05 2.94177634 56.04836697 32.20585097
671 1 1 -9.22341853764e-05 1.47088817 58.59602001 32.20585097
672 1 1 -0.000129398243257 2.94177634 40.76244870 32.20585097
673 1 1 -0.000842227031131 5.88355268 44.15931943 34.60780130
674 1 1 -0.000809895893605 7.35444085 46.70697247 34.60780130
675 1 1 -0.000717566187534 5.88355268 49.25462551 34.60780130
676 1 1 -0.000688536589628 7.35444085 51.80227856 34.60780130
677 1 1 -0.000636526301867 5.88355268 54.34993160 34.60780130
678 1 1 -0.00062246695762 7.35444085 56.89758465 34.60780130
679 1 1 -0.000600489323907 5.88355268 59.44523769 34.60780130
680 1 1 -0.00098231684073 7.35444085 41.61166638 34.60780130
681 1 1 -0.000953286152204 8.82532903 44.15931943 34.60780130
682 1 1 -0.000906384304159 10.29621720 46.70697247 34.60780130
683 1 1 -0.000772274382349 8.82532903 49.25462551 34.60780130
684 1 1 -0.000733860750649 10.29621720 51.80227856 34.60780130
685 1 1 -0.000663778790866 8.82532903 54.34993160 34.60780130
686 1 1 -0.000646437404657 10.29621720 56.89758465 34.60780130
687 1 1 -0.000617874572055 8.82532903 59.44523769 34.60780130
688 1 1 -0.00117742762908 10.29621720 41.61166638 34.60780130
689 1 1 -0.00112286723133 11.76710537 44.15931943 34.60780130
690 1 1 -0.00103978141316 13.23799354 46.70697247 34.60780130
691 1 1 -0.000849380823811 11.76710537 49.25462551 34.60780130
692 1 1 -0.000791783923777 13.23799354 51.80227856 34.60780130
693 1 1 -0.000699909394099 11.76710537 54.34993160 34.60780130
694 1 1 -0.000675412644322 13.23799354 56.89758465 34.60780130
695 1 1 -0.000640115273036 11.76710537 59.44523769 34.60780130
696 1 1 -0.00148029526663 13.23799354 41.61166638 34.60780130
697 1 1 -0.00135967053609 14.70888171 44.15931943 34.60780130
698 1 1 -0.00120622522442 16.17976988 46.70697247 34.60780130
699 1 1 -0.000946004414904 14.70888171 49.25462551 34.60780130
700 1 1 -0.000857641646782 16.17976988 51.80227856 34.60780130
701 1 1 -0.00074203082637 14.70888171 54.34993160 34.60780130
702 1 1 -0.000706392487287 16.17976988 56.89758465 34.60780130
703 1 1 -0.000664963348651 14.70888171 59.44523769 34.60780130
704 1 1 -0.00193214551721 16.17976988 41.61166638 34.60780130
705 1 1 -0.000760319880701 0.00000000 44.15931943 34.60780130
706 1 1 -0.000718809580117 1.47088817 46.70697247 34.60780130
707 1 1 -0.000674620710323 0.00000000 49.25462551 34.60780130
708 1 1 -0.000642471808652 1.47088817 51.80227856 34.60780130
709 1 1 -0.00061403622347 0.00000000 54.34993160 34.60780130
710 1 1 -0.000596775669938 1.47088817 56.89758465 34.60780130
711 1 1 -0.0005857244452 0.00000000 59.44523769 34.60780130
712 1 1 -0.000813777390792 1.47088817 41.61166638 34.60780130
713 1 1 -0.00078018564151 2.94177634 44.15931943 34.60780130
714 1 1 -0.000748456506215 4.41266451 46.70697247 34.60780130
715 1 1 -0.000685265913563 2.94177634 49.25462551 34.60780130
716 1 1 -0.000657861797905 4.41266451 51.80227856 34.60780130
717 1 1 -0.000619708490465 2.94177634 54.34993160 34.60780130
718 1 1 -0.000605518160986 4.41266451 56.89758465 34.60780130
719 1 1 -0.000589484923928 2.94177634 59.44523769 34.60780130
720 1 1 -0.000867005957673 4.41266451 41.61166638 34.60780130
721 1 1 0.000682453150826 17.65065805 0.00000000 25.00000000
722 1 1 0.00070751789159 19.12154622 2.54765304 25.00000000
723 1 1 0.000737603107951 17.65065805 5.09530609 25.00000000
724 1 1 0.000837554289957 19.12154622 7.64295913 25.00000000
725 1 1 0.00093636172214 17.65065805 10.19061218 25.00000000
726 1 1 0.00118592512139 19.12154622 12.73826522 25.00000000
727 1 1 0.00140072288055 17.65065805 15.28591827 25.00000000
728 1 1 0.00203439932092 19.12154622 17.83357131 25.00000000
729 1 1 0.000702346988103 20.59243439 0.00000000 25.00000000
730 1 1 0.000726467816525 22.06332256 2.54765304 25.00000000
731 1 1 0.00076717886139 20.59243439 5.09530609 25.00000000
732 1 1 0.000876525757113 22.06332256 7.64295913 25.00000000
733 1 1 0.00100872626163 20.59243439 10.19061218 25.00000000
734 1 1 0.00129735854537 22.06332256 12.73826522 25.00000000
735 1 1 0.00162231784444 20.59243439 15.28591827 25.00000000
736 1 1 0.00246841721292 22.06332256 17.83357131 25.00000000
737 1 1 0.000715739922981 23.53421073 0.00000000 25.00000000
738 1 1 0.000736843774037 25.00509890 2.54765304 25.00000000
739 1 1 0.000787500704712 23.53421073 5.09530609 25.00000000
740 1 1 0.000898468442628 25.00509890 7.64295913 25.00000000
741 1 1 0.00106086724669 23.53421073 10.19061218 25.00000000
742 1 1 0.00136362887358 25.00509890 12.73826522 25.00000000
743 1 1 0.00180070429711 23.53421073 15.28591827 25.00000000
744 1 1 0.00277050916344 25.00509890 17.83357131 25.00000000
745 1 1 0.000720469129047 26.47598708 0.00000000 25.00000000
746 1 1 0.000736843773933 27.94687525 2.54765304 25.00000000
747 1 1 0.000794756654318 26.47598708 5.09530609 25.00000000
748 1 1 0.000898468442483 27.94687525 7.64295913 25.00000000
749 1 1 0.00107997798943 26.47598708 10.19061218 25.00000000
750 1 1 0.00136362887329 27.94687525 12.73826522 25.00000000
751 1 1 0.0018706501513 26.47598708 15.28591827 25.00000000
752 1 1 0.00277050916244 27.94687525 17.83357131 25.00000000
753 1 1 0.000715739922811 29.41776342 0.00000000 25.00000000
754 1 1 0.000726467816322 30.88865159 2.54765304 25.00000000
755 1 1 0.000787500704511 29.41776342 5.09530609 25.00000000
756 1 1 0.000876525756821 30.88865159 7.64295913 25.00000000
757 1 1 0.00106086724636 29.41776342 10.19061218 25.00000000
758 1 1 0.00129735854476 30.88865159 12.73826522 25.00000000
759 1 1 0.00180070429624 29.41776342 15.28591827 25.00000000
760 1 1 0.00246841721085 30.88865159 17.83357131 25.00000000
761 1 1 0.000702346987917 32.35953976 0.00000000 25.00000000
762 1 1 0.000707517891421 33.83042793 2.54765304 25.00000000
763 1 1 0.000767178861163 32.35953976 5.09530609 25.00000000
764 1 1 0.000837554289695 33.83042793 7.64295913 25.00000000
765 1 1 0.00100872626122 32.35953976 10.19061218 25.00000000
766 1 1 0.00118592512081 33.83042793 12.73826522 25.00000000
767 1 1 0.00162231784337 32.35953976 15.28591827 25.00000000
768 1 1 0.00203439931906 33.83042793 17.83357131 25.00000000
769 1 1 0.00010925590994 19.12154622 0.84921768 27.40195032
770 1 1 0.000114312231969 20.59243439 3.39687073 27.40195032
771 1 1 0.000120742378445 19.12154622 5.94452377 27.40195032
772 1 1 0.000137662659361 20.59243439 8.49217681 27.40195032
773 1 1 0.000154440672015 19.12154622 11.03982986 27.40195032
774 1 1 0.000188194023899 20.59243439 13.58748290 27.40195032
775 1 1 0.000215434374878 19.12154622 16.13513595 27.40195032
776 1 1 0.000299497998219 20.59243439 18.68278899 27.40195032
777 1 1 0.000111746303397 22.06332256 0.84921768 27.40195032
778 1 1 0.000116648827954 23.53421073 3.39687073 27.40195032
779 1 1 0.000124829265384 22.06332256 5.94452377 27.40195032
780 1 1 0.000142517095007 23.53421073 8.49217681 27.40195032
781 1 1 0.000163435212711 22.06332256 11.03982986 27.40195032
782 1 1 0.000198741958172 23.53421073 13.58748290 27.40195032
783 1 1 0.000237776903085 22.06332256 16.13513595 27.40195032
784 1 1 0.00036276990611 23.53421073 18.68278899 27.40195032
785 1 1 0.00011310268155 25.00509890 0.84921768 27.40195032
786 1 1 0.000117477157938 26.47598708 3.39687073 27.40195032
787 1 1 0.000127091403485 25.00509890 5.94452377 27.40195032
788 1 1 0.000144254714675 26.47598708 8.49217681 27.40195032
789 1 1 0.000168442217038 25.00509890 11.03982986 27.40195032
790 1 1 0.000202636309518 26.47598708 13.58748290 27.40195032
791 1 1 0.000253136829823 25.00509890 16.13513595 27.40195032
792 1 1 0.00039376854192 26.47598708 18.68278899 27.40195032
793 1 1 0.000113102681489 27.94687525 0.84921768 27.40195032
794 1 1 0.000116648827847 29.41776342 3.39687073 27.40195032
795 1 1 0.000127091403415 27.94687525 5.94452377 27.40195032
796 1 1 0.00014251709487 29.41776342 8.49217681 27.40195032
797 1 1 0.000168442216936 27.94687525 11.03982986 27.40195032
798 1 1 0.000198741957941 29.41776342 13.58748290 27.40195032
799 1 1 0.000253136829603 27.94687525 16.13513595 27.40195032
800 1 1 0.00036276990539 29.41776342 18.68278899 27.40195032
801 1 1 0.000111746303281 30.88865159 0.84921768 27.40195032
802 1 1 0.000114312231859 32.35953976 3.39687073 27.40195032
803 1 1 0.000124829265252 30.88865159 5.94452377 27.40195032
804 1 1 0.000137662659223 32.35953976 8.49217681 27.40195032
805 1 1 0.000163435212522 30.88865159 11.03982986 27.40195032
806 1 1 0.000188194023681 32.35953976 13.58748290 27.40195032
807 1 1 0.000237776902687 30.88865159 16.13513595 27.40195032
808 1 1 0.000299497997591 32.35953976 18.68278899 27.40195032
809 1 1 0.000109255909855 33.83042793 0.84921768 27.40195032
810 1 1 0.000110866758351 17.65065805 3.39687073 27.40195032
811 1 1 0.000120742378349 33.83042793 5.94452377 27.40195032
812 1 1 0.000130648466655 17.65065805 8.49217681 27.40195032
813 1 1 0.000154440671884 33.83042793 11.03982986 27.40195032
814 1 1 0.000173347288923 17.65065805 13.58748290 27.40195032
815 1 1 0.000215434374637 33.83042793 16.13513595 27.40195032
816 1 1 0.000245396684056 17.65065805 18.68278899 27.40195032
817 1 1 5.14420173361e-08 20.59243439 1.69843536 29.80390065
818 1 1 5.44999815199e-08 22.06332256 4.24608841 29.80390065
819 1 1 5.51102857166e-08 20.59243439 6.79374145 29.80390065
820 1 1 5.24205264121e-08 22.06332256 9.34139450 29.80390065
821 1 1 4.3724618014e-08 20.59243439 11.88904754 29.80390065
822 1 1 8.33229843163e-08 22.06332256 14.43670058 29.80390065
823 1 1 9.33986266803e-08 20.59243439 16.98435363 29.80390065
824 1 1 5.02600446146e-07 22.06332256 19.53200667 29.80390065
825 1 1 5.2305822986e-08 23.53421073 1.69843536 29.80390065
826 1 1 5.5161488575e-08 25.00509890 4.24608841 29.80390065
827 1 1 5.57117121276e-08 23.53421073 6.79374145 29.80390065
828 1 1 5.53213307339e-08 25.00509890 9.34139450 29.80390065
829 1 1 6.47317760215e-08 23.53421073 11.88904754 29.80390065
830 1 1 1.98888413626e-07 25.00509890 14.43670058 29.80390065
831 1 1 3.62715674299e-07 23.53421073 16.98435363 29.80390065
832 1 1 1.09147837028e-06 25.00509890 19.53200667 29.80390065
833 1 1 5.26028465298e-08 26.47598708 1.69843536 29.80390065
834 1 1 5.51614779071e-08 27.94687525 4.24608841 29.80390065
835 1 1 5.5920713187e-08 26.47598708 6.79374145 29.80390065
836 1 1 5.53213203277e-08 27.94687525 9.34139450 29.80390065
837 1 1 8.21354917158e-08 26.47598708 11.88904754 29.80390065
838 1 1 1.98888404179e-07 27.94687525 14.43670058 29.80390065
839 1 1 6.07700943505e-07 26.47598708 16.98435363 29.80390065
840 1 1 1.09147836257e-06 27.94687525 19.53200667 29.80390065
841 1 1 5.23058016598e-08 29.41776342 1.69843536 29.80390065
842 1 1 5.44999506483e-08 30.88865159 4.24608841 29.80390065
843 1 1 5.57116902385e-08 29.41776342 6.79374145 29.80390065
844 1 1 5.24204957385e-08 30.88865159 9.34139450 29.80390065
845 1 1 6.47317522296e-08 29.41776342 11.88904754 29.80390065
846 1 1 8.33229537682e-08 30.88865159 14.43670058 29.80390065
847 1 1 3.62715640907e-07 29.41776342 16.98435363 29.80390065
848 1 1 5.02600414614e-07 30.88865159 19.53200667 29.80390065
849 1 1 5.14419777249e-08 32.35953976 1.69843536 29.80390065
850 1 1 5.3074611834e-08 33.83042793 4.24608841 29.80390065
851 1 1 5.51102466036e-08 32.35953976 6.79374145 29.80390065
852 1 1 5.17225172309e-08 33.83042793 9.34139450 29.80390065
853 1 1 4.37245803553e-08 32.35953976 11.88904754 29.80390065
854 1 1 2.83713578684e-08 33.83042793 14.43670058 29.80390065
855 1 1 9.33985960132e-08 32.35953976 16.98435363 29.80390065
856 1 1 1.77887690864e-07 33.83042793 19.53200667 29.80390065
857 1 1 5.01473960389e-08 17.65065805 1.69843536 29.80390065
858 1 1 5.3074659473e-08 19.12154622 4.24608841 29.80390065
859 1 1 5.37884675313e-08 17.65065805 6.79374145 29.80390065
860 1 1 5.17225655196e-08 19.12154622 9.34139450 29.80390065
861 1 1 4.29178236944e-08 17.65065805 11.88904754 29.80390065
862 1 1 2.83714087018e-08 19.12154622 14.43670058 29.80390065
863 1 1 1.83747388411e-08 17.65065805 16.98435363 29.80390065
864 1 1 1.77887755324e-07 19.12154622 19.53200667 29.80390065
865 1 1 -0.000111985343058 22.06332256 2.54765304 32.20585097
866 1 1 -0.000120371067448 23.53421073 5.09530609 32.20585097
867 1 1 -0.000132228932161 22.06332256 7.64295913 32.20585097
868 1 1 -0.000154941526398 23.53421073 10.19061218 32.20585097
869 1 1 -0.000179637090665 22.06332256 12.73826522 32.20585097
870 1 1 -0.000222544254419 23.53421073 15.28591827 32.20585097
871 1 1 -0.000282485626581 22.06332256 17.83357131 32.20585097
872 1 1 -0.000110528962416 23.53421073 0.00000000 32.20585097
873 1 1 -0.000113452041843 25.00509890 2.54765304 32.20585097
874 1 1 -0.000121376948782 26.47598708 5.09530609 32.20585097
875 1 1 -0.000135126279614 25.00509890 7.64295913 32.20585097
876 1 1 -0.000157153005534 26.47598708 10.19061218 32.20585097
877 1 1 -0.00018587359724 25.00509890 12.73826522 32.20585097
878 1 1 -0.000228314511838 26.47598708 15.28591827 32.20585097
879 1 1 -0.000315268805023 25.00509890 17.83357131 32.20585097
880 1 1 -0.000111200865456 26.47598708 0.00000000 32.20585097
881 1 1 -0.000113452041801 27.94687525 2.54765304 32.20585097
882 1 1 -0.000120371067375 29.41776342 5.09530609 32.20585097
883 1 1 -0.000135126279556 27.94687525 7.64295913 32.20585097
884 1 1 -0.000154941526282 29.41776342 10.19061218 32.20585097
885 1 1 -0.000185873597136 27.94687525 12.73826522 32.20585097
886 1 1 -0.000222544254155 29.41776342 15.28591827 32.20585097
887 1 1 -0.000315268804701 27.94687525 17.83357131 32.20585097
888 1 1 -0.000110528962354 29.41776342 0.00000000 32.20585097
889 1 1 -0.000111985342999 30.88865159 2.54765304 32.20585097
890 1 1 -0.000117546302635 32.35953976 5.09530609 32.20585097
891 1 1 -0.000132228932075 30.88865159 7.64295913 32.20585097
892 1 1 -0.000148753159116 32.35953976 10.19061218 32.20585097
893 1 1 -0.000179637090499 30.88865159 12.73826522 32.20585097
894 1 1 -0.000207943886631 32.35953976 15.28591827 32.20585097
895 1 1 -0.00028248562605 30.88865159 17.83357131 32.20585097
896 1 1 -0.000108624363646 32.35953976 0.00000000 32.20585097
897 1 1 -0.00010930243797 33.83042793 2.54765304 32.20585097
898 1 1 -0.000113417031057 17.65065805 5.09530609 32.20585097
899 1 1 -0.000127016486014 33.83042793 7.64295913 32.20585097
900 1 1 -0.000139797285189 17.65065805 10.19061218 32.20585097
901 1 1 -0.000168488886362 33.83042793 12.73826522 32.20585097
902 1 1 -0.000189140291541 17.65065805 15.28591827 32.20585097
903 1 1 -0.000241967423948 33.83042793 17.83357131 32.20585097
904 1 1 -0.000105789980042 17.65065805 0.00000000 32.20585097
905 1 1 -0.000109302437965 19.12154622 2.54765304 32.20585097
906 1 1 -0.000117546302675 20.59243439 5.09530609 32.20585097
907 1 1 -0.000127016486027 19.12154622 7.64295913 32.20585097
908 1 1 -0.000148753159197 20.59243439 10.19061218 32.20585097
909 1 1 -0.000168488886422 19.12154622 12.73826522 32.20585097
910 1 1 -0.000207943886841 20.59243439 15.28591827 32.20585097
911 1 1 -0.000241967424199 19.12154622 17.83357131 32.20585097
912 1 1 -0.000108624363675 20.59243439 0.00000000 32.20585097
913 1 1 -0.000747854195639 23.53421073 3.39687073 34.60780130
914 1 1 -0.000823234660779 25.00509890 5.94452377 34.60780130
915 1 1 -0.000939670979165 23.53421073 8.49217681 34.60780130
916 1 1 -0.00115810699046 25.00509890 11.03982986 34.60780130
917 1 1 -0.00146817380312 23.53421073 13.58748290 34.60780130
918 1 1 -0.0020966478877 25.00509890 16.13513595 34.60780130
919 1 1 -0.00309704213331 23.53421073 18.68278899 34.60780130
920 1 1 -0.000722432243049 25.00509890 0.84921768 34.60780130
921 1 1 -0.000753646608757 26.47598708 3.39687073 34.60780130
922 1 1 -0.000823234660675 27.94687525 5.94452377 34.60780130
923 1 1 -0.000953070078131 26.47598708 8.49217681 34.60780130
924 1 1 -0.00115810699026 27.94687525 11.03982986 34.60780130
925 1 1 -0.00151147487468 26.47598708 13.58748290 34.60780130
926 1 1 -0.0020966478871 27.94687525 16.13513595 34.60780130
927 1 1 -0.00332569390494 26.47598708 18.68278899 34.60780130
928 1 1 -0.000722432242968 27.94687525 0.84921768 34.60780130
929 1 1 -0.000747854195494 29.41776342 3.39687073 34.60780130
930 1 1 -0.000807013732828 30.88865159 5.94452377 34.60780130
931 1 1 -0.000939670978931 29.41776342 8.49217681 34.60780130
932 1 1 -0.00111351854782 30.88865159 11.03982986 34.60780130
933 1 1 -0.00146817380256 29.41776342 13.58748290 34.60780130
934 1 1 -0.00192568895274 30.88865159 16.13513595 34.60780130
935 1 1 -0.00309704213107 29.41776342 18.68278899 34.60780130
936 1 1 -0.000713037725101 30.88865159 0.84921768 34.60780130
937 1 1 -0.000731537373971 32.35953976 3.39687073 34.60780130
938 1 1 -0.000777879305002 33.83042793 5.94452377 34.60780130
939 1 1 -0.000902731940331 32.35953976 8.49217681 34.60780130
940 1 1 -0.00103673485853 33.83042793 11.03982986 34.60780130
941 1 1 -0.00135420563761 32.35953976 13.58748290 34.60780130
942 1 1 -0.00166261023012 33.83042793 16.13513595 34.60780130
943 1 1 -0.00256841655174 32.35953976 18.68278899 34.60780130
944 1 1 -0.000695812706727 33.83042793 0.84921768 34.60780130
945 1 1 -0.000707535773286 17.65065805 3.39687073 34.60780130
946 1 1 -0.000777879305138 19.12154622 5.94452377 34.60780130
947 1 1 -0.000850506162648 17.65065805 8.49217681 34.60780130
948 1 1 -0.00103673485888 19.12154622 11.03982986 34.60780130
949 1 1 -0.0012052086885 17.65065805 13.58748290 34.60780130
950 1 1 -0.00166261023125 19.12154622 16.13513595 34.60780130
951 1 1 -0.00201127756093 17.65065805 18.68278899 34.60780130
952 1 1 -0.000695812706807 19.12154622 0.84921768 34.60780130
953 1 1 -0.000731537374107 20.59243439 3.39687073 34.60780130
954 1 1 -0.000807013733023 22.06332256 5.94452377 34.60780130
955 1 1 -0.000902731940585 20.59243439 8.49217681 34.60780130
956 1 1 -0.00111351854823 22.06332256 11.03982986 34.60780130
957 1 1 -0.00135420563828 20.59243439 13.58748290 34.60780130
958 1 1 -0.00192568895398 22.06332256 16.13513595 34.60780130
959 1 1 -0.00256841655433 20.59243439 18.68278899 34.60780130
960 1 1 -0.000713037725243 22.06332256 0.84921768 34.60780130
961 1 1 0.00247330044577 17.65065805 20.38122435 25.00000000
962 1 1 0.00438928489084 19.12154622 22.92887739 25.00000000
963 1 1 0.00484300418247 17.65065805 25.47653044 25.00000000
964 1 1 0.00899306646217 19.12154622 28.02418348 25.00000000
965 1 1 0.00682220627843 17.65065805 30.57183653 25.00000000
966 1 1 0.00899314967865 19.12154622 33.11948957 25.00000000
967 1 1 0.00484288208254 17.65065805 35.66714262 25.00000000
968 1 1 0.00438920455639 19.12154622 38.21479566 25.00000000
969 1 1 0.00340501326031 20.59243439 20.38122435 25.00000000
970 1 1 0.00681445854501 22.06332256 22.92887739 25.00000000
971 1 1 0.00899042100102 20.59243439 25.47653044 25.00000000
972 1 1 0.0182250922359 22.06332256 28.02418348 25.00000000
973 1 1 0.0149417399238 20.59243439 30.57183653 25.00000000
974 1 1 0.0182253024712 22.06332256 33.11948957 25.00000000
975 1 1 0.00899050298044 20.59243439 35.66714262 25.00000000
976 1 1 0.00681445773612 22.06332256 38.21479566 25.00000000
977 1 1 0.00438483064781 23.53421073 20.38122435 25.00000000
978 1 1 0.00898704374023 25.00509890 22.92887739 25.00000000
979 1 1 0.0149385485796 23.53421073 25.47653044 25.00000000
980 1 1 0.0286034225645 25.00509890 28.02418348 25.00000000
981 1 1 0.0286041855359 23.53421073 30.57183653 25.00000000
982 1 1 0.0286034245413 25.00509890 33.11948957 25.00000000
983 1 1 0.014938547747 23.53421073 35.66714262 25.00000000
984 1 1 0.00898696024307 25.00509890 38.21479566 25.00000000
985 1 1 0.00483438392197 26.47598708 20.38122435 25.00000000
986 1 1 0.0089870437344 27.94687525 22.92887739 25.00000000
987 1 1 0.0182231013618 26.47598708 25.47653044 25.00000000
988 1 1 0.0286034225382 27.94687525 28.02418348 25.00000000
989 1 1 0.036931495575 26.47598708 30.57183653 25.00000000
990 1 1 0.028603424515 27.94687525 33.11948957 25.00000000
991 1 1 0.0182228915341 26.47598708 35.66714262 25.00000000
992 1 1 0.00898696023724 27.94687525 38.21479566 25.00000000
993 1 1 0.00438483064381 29.41776342 20.38122435 25.00000000
994 1 1 0.00681445853404 30.88865159 22.92887739 25.00000000
995 1 1 0.0149385485572 29.41776342 25.47653044 25.00000000
996 1 1 0.0182250921932 30.88865159 28.02418348 25.00000000
997 1 1 0.0286041854838 29.41776342 30.57183653 25.00000000
998 1 1 0.0182253024286 30.88865159 33.11948957 25.00000000
999 1 1 0.0149385477246 29.41776342 35.66714262 25.00000000
1000 1 1 0.00681445772514 30.88865159 38.21479566 25.00000000
1001 1 1 0.00340501325583 32.35953976 20.38122435 25.00000000
1002 1 1 0.00438928488275 33.83042793 22.92887739 25.00000000
1003 1 1 0.00899042098021 32.35953976 25.47653044 25.00000000
1004 1 1 0.00899306643717 33.83042793 28.02418348 25.00000000
1005 1 1 0.0149417398814 32.35953976 30.57183653 25.00000000
1006 1 1 0.00899314965366 33.83042793 33.11948957 25.00000000
1007 1 1 0.00899050295963 32.35953976 35.66714262 25.00000000
1008 1 1 0.0043892045483 33.83042793 38.21479566 25.00000000
1009 1 1 0.000393802492627 19.12154622 21.23044203 27.40195032
1010 1 1 0.000963873260417 20.59243439 23.77809508 27.40195032
1011 1 1 0.00115245135108 19.12154622 26.32574812 27.40195032
1012 1 1 0.00263914462876 20.59243439 28.87340116 27.40195032
1013 1 1 0.00170489297168 19.12154622 31.42105421 27.40195032
1014 1 1 0.00210943061262 20.59243439 33.96870725 27.40195032
1015 1 1 0.000817362911096 19.12154622 36.51636030 27.40195032
1016 1 1 0.000609025894052 20.59243439 39.06401334 27.40195032
1017 1 1 0.000608807257248 22.06332256 21.23044203 27.40195032
1018 1 1 0.00170402790537 23.53421073 23.77809508 27.40195032
1019 1 1 0.00263884138299 22.06332256 26.32574812 27.40195032
1020 1 1 0.00551104342426 23.53421073 28.87340116 27.40195032
1021 1 1 0.00426133898142 22.06332256 31.42105421 27.40195032
1022 1 1 0.00426112942849 23.53421073 33.96870725 27.40195032
1023 1 1 0.00170420080025 22.06332256 36.51636030 27.40195032
1024 1 1 0.000963473211513 23.53421073 39.06401334 27.40195032
1025 1 1 0.000816538173173 25.00509890 21.23044203 27.40195032
1026 1 1 0.00210883719412 26.47598708 23.77809508 27.40195032
1027 1 1 0.00426101655288 25.00509890 26.32574812 27.40195032
1028 1 1 0.0072197351169 26.47598708 28.87340116 27.40195032
1029 1 1 0.00721977295442 25.00509890 31.42105421 27.40195032
1030 1 1 0.00551088403874 26.47598708 33.96870725 27.40195032
1031 1 1 0.00263855600486 25.00509890 36.51636030 27.40195032
1032 1 1 0.00115153527296 26.47598708 39.06401334 27.40195032
1033 1 1 0.000816538172157 27.94687525 21.23044203 27.40195032
1034 1 1 0.00170402790143 29.41776342 23.77809508 27.40195032
1035 1 1 0.00426101654785 27.94687525 26.32574812 27.40195032
1036 1 1 0.00551104341159 29.41776342 28.87340116 27.40195032
1037 1 1 0.0072197729458 27.94687525 31.42105421 27.40195032
1038 1 1 0.00426112941875 29.41776342 33.96870725 27.40195032
1039 1 1 0.0026385560017 27.94687525 36.51636030 27.40195032
1040 1 1 0.000963473209281 29.41776342 39.06401334 27.40195032
1041 1 1 0.000608807255455 30.88865159 21.23044203 27.40195032
1042 1 1 0.000963873256973 32.35953976 23.77809508 27.40195032
1043 1 1 0.00263884137451 30.88865159 26.32574812 27.40195032
1044 1 1 0.0026391446183 32.35953976 28.87340116 27.40195032
1045 1 1 0.00426133896752 30.88865159 31.42105421 27.40195032
1046 1 1 0.00210943060439 32.35953976 33.96870725 27.40195032
1047 1 1 0.00170420079484 30.88865159 36.51636030 27.40195032
1048 1 1 0.000609025892055 32.35953976 39.06401334 27.40195032
1049 1 1 0.000393802491601 33.83042793 21.23044203 27.40195032
1050 1 1 0.000479087625231 17.65065805 23.77809508 27.40195032
1051 1 1 0.0011524513464 33.83042793 26.32574812 27.40195032
1052 1 1 0.000964799383246 17.65065805 28.87340116 27.40195032
1053 1 1 0.00170489296428 33.83042793 31.42105421 27.40195032
1054 1 1 0.00081789564033 17.65065805 33.96870725 27.40195032
1055 1 1 0.000817362908046 33.83042793 36.51636030 27.40195032
1056 1 1 0.000363741296734 17.65065805 39.06401334 27.40195032
1057 1 1 9.65693654595e-07 20.59243439 22.07965971 29.80390065
1058 1 1 2.36767604749e-06 22.06332256 24.62731276 29.80390065
1059 1 1 2.31516516866e-06 20.59243439 27.17496580 29.80390065
1060 1 1 -7.08289717953e-06 22.06332256 29.72261885 29.80390065
1061 1 1 1.40519996285e-06 20.59243439 32.27027189 29.80390065
1062 1 1 1.40461221113e-06 22.06332256 34.81792493 29.80390065
1063 1 1 1.63503756476e-06 20.59243439 37.36557798 29.80390065
1064 1 1 9.6618928599e-07 22.06332256 39.91323102 29.80390065
1065 1 1 1.63468576805e-06 23.53421073 22.07965971 29.80390065
1066 1 1 1.40426238572e-06 25.00509890 24.62731276 29.80390065
1067 1 1 -7.08338556653e-06 23.53421073 27.17496580 29.80390065
1068 1 1 -6.1654596524e-05 25.00509890 29.72261885 29.80390065
1069 1 1 -2.29400217186e-05 23.53421073 32.27027189 29.80390065
1070 1 1 -7.08400906578e-06 25.00509890 34.81792493 29.80390065
1071 1 1 2.36844764711e-06 23.53421073 37.36557798 29.80390065
1072 1 1 1.18138385521e-06 25.00509890 39.91323102 29.80390065
1073 1 1 2.06520455318e-06 26.47598708 22.07965971 29.80390065
1074 1 1 1.40426238865e-06 27.94687525 24.62731276 29.80390065
1075 1 1 -2.29406203972e-05 26.47598708 27.17496580 29.80390065
1076 1 1 -6.16545963398e-05 27.94687525 29.72261885 29.80390065
1077 1 1 -6.16555585966e-05 26.47598708 32.27027189 29.80390065
1078 1 1 -7.08400904834e-06 27.94687525 34.81792493 29.80390065
1079 1 1 2.31523730575e-06 26.47598708 37.36557798 29.80390065
1080 1 1 1.1813838384e-06 27.94687525 39.91323102 29.80390065
1081 1 1 1.63468572218e-06 29.41776342 22.07965971 29.80390065
1082 1 1 2.36767602381e-06 30.88865159 24.62731276 29.80390065
1083 1 1 -7.08338552539e-06 29.41776342 27.17496580 29.80390065
1084 1 1 -7.08289712194e-06 30.88865159 29.72261885 29.80390065
1085 1 1 -2.29400215861e-05 29.41776342 32.27027189 29.80390065
1086 1 1 1.40461219192e-06 30.88865159 34.81792493 29.80390065
1087 1 1 2.36844764982e-06 29.41776342 37.36557798 29.80390065
1088 1 1 9.66189250442e-07 30.88865159 39.91323102 29.80390065
1089 1 1 9.65693644446e-07 32.35953976 22.07965971 29.80390065
1090 1 1 1.1805679665e-06 33.83042793 24.62731276 29.80390065
1091 1 1 2.3151651608e-06 32.35953976 27.17496580 29.80390065
1092 1 1 2.36906317818e-06 33.83042793 29.72261885 29.80390065
1093 1 1 1.40519991683e-06 32.35953976 32.27027189 29.80390065
1094 1 1 2.06518742849e-06 33.83042793 34.81792493 29.80390065
1095 1 1 1.63503748863e-06 32.35953976 37.36557798 29.80390065
1096 1 1 5.03079340494e-07 33.83042793 39.91323102 29.80390065
1097 1 1 1.36306839548e-07 17.65065805 22.07965971 29.80390065
1098 1 1 1.18056804861e-06 19.12154622 24.62731276 29.80390065
1099 1 1 1.18117344788e-06 17.65065805 27.17496580 29.80390065
1100 1 1 2.3690632394e-06 19.12154622 29.72261885 29.80390065
1101 1 1 1.63523375117e-06 17.65065805 32.27027189 29.80390065
1102 1 1 2.06518745222e-06 19.12154622 34.81792493 29.80390065
1103 1 1 1.0918979566e-06 17.65065805 37.36557798 29.80390065
1104 1 1 5.03079366731e-07 19.12154622 39.91323102 29.80390065
1105 1 1 -0.00100192581723 22.06332256 22.92887739 32.20585097
1106 1 1 -0.00280851484914 23.53421073 25.47653044 32.20585097
1107 1 1 -0.00355811822037 22.06332256 28.02418348 32.20585097
1108 1 1 -0.00588910412473 23.53421073 30.57183653 32.20585097
1109 1 1 -0.00355821359279 22.06332256 33.11948957 32.20585097
1110 1 1 -0.00280851169527 23.53421073 35.66714262 32.20585097
1111 1 1 -0.00100192224913 22.06332256 38.21479566 32.20585097
1112 1 1 -0.000545751768954 23.53421073 20.38122435 32.20585097
1113 1 1 -0.00146328183285 25.00509890 22.92887739 32.20585097
1114 1 1 -0.00355787952848 26.47598708 25.47653044 32.20585097
1115 1 1 -0.00588899260486 25.00509890 28.02418348 32.20585097
1116 1 1 -0.0076801256951 26.47598708 30.57183653 32.20585097
1117 1 1 -0.00588900177343 25.00509890 33.11948957 32.20585097
1118 1 1 -0.00355778724704 26.47598708 35.66714262 32.20585097
1119 1 1 -0.00146320418896 25.00509890 38.21479566 32.20585097
1120 1 1 -0.000623225291824 26.47598708 20.38122435 32.20585097
1121 1 1 -0.00146328183104 27.94687525 22.92887739 32.20585097
1122 1 1 -0.00280851484269 29.41776342 25.47653044 32.20585097
1123 1 1 -0.00588899259795 27.94687525 28.02418348 32.20585097
1124 1 1 -0.00588910411139 29.41776342 30.57183653 32.20585097
1125 1 1 -0.00588900176655 27.94687525 33.11948957 32.20585097
1126 1 1 -0.00280851168882 29.41776342 35.66714262 32.20585097
1127 1 1 -0.00146320418715 27.94687525 38.21479566 32.20585097
1128 1 1 -0.000545751767754 29.41776342 20.38122435 32.20585097
1129 1 1 -0.00100192581413 30.88865159 22.92887739 32.20585097
1130 1 1 -0.00146373329204 32.35953976 25.47653044 32.20585097
1131 1 1 -0.00355811820888 30.88865159 28.02418348 32.20585097
1132 1 1 -0.00280898886402 32.35953976 30.57183653 32.20585097
1133 1 1 -0.00355821358133 30.88865159 33.11948957 32.20585097
1134 1 1 -0.00146380466169 32.35953976 35.66714262 32.20585097
1135 1 1 -0.00100192224601 30.88865159 38.21479566 32.20585097
1136 1 1 -0.000395157178676 32.35953976 20.38122435 32.20585097
1137 1 1 -0.000546406780143 33.83042793 22.92887739 32.20585097
1138 1 1 -0.000624700570104 17.65065805 25.47653044 32.20585097
1139 1 1 -0.00146412789137 33.83042793 28.02418348 32.20585097
1140 1 1 -0.00100308921239 17.65065805 30.57183653 32.20585097
1141 1 1 -0.00146420520672 33.83042793 33.11948957 32.20585097
1142 1 1 -0.000624508512976 17.65065805 35.66714262 32.20585097
1143 1 1 -0.000546411900042 33.83042793 38.21479566 32.20585097
1144 1 1 -0.000283195990368 17.65065805 20.38122435 32.20585097
1145 1 1 -0.000546406781842 19.12154622 22.92887739 32.20585097
1146 1 1 -0.00146373329757 20.59243439 25.47653044 32.20585097
1147 1 1 -0.00146412789755 19.12154622 28.02418348 32.20585097
1148 1 1 -0.00280898887516 20.59243439 30.57183653 32.20585097
1149 1 1 -0.00146420521289 19.12154622 33.11948957 32.20585097
1150 1 1 -0.0014638046672 20.59243439 35.66714262 32.20585097
1151 1 1 -0.000546411901757 19.12154622 38.21479566 32.20585097
1152 1 1 -0.000395157179708 20.59243439 20.38122435 32.20585097
1153 1 1 -0.00998918170341 23.53421073 23.77809508 34.60780130
1154 1 1 -0.0210831903414 25.00509890 26.32574812 34.60780130
1155 1 1 -0.0265082787336 23.53421073 28.87340116 34.60780130
1156 1 1 -0.0340191283335 25.00509890 31.42105421 34.60780130
1157 1 1 -0.0210839115052 23.53421073 33.96870725 34.60780130
1158 1 1 -0.014075621094 25.00509890 36.51636030 34.60780130
1159 1 1 -0.00655036136507 23.53421073 39.06401334 34.60780130
1160 1 1 -0.00580794873572 25.00509890 21.23044203 34.60780130
1161 1 1 -0.0117750524978 26.47598708 23.77809508 34.60780130
1162 1 1 -0.0210831903236 27.94687525 26.32574812 34.60780130
1163 1 1 -0.0340188804029 26.47598708 28.87340116 34.60780130
1164 1 1 -0.0340191283007 27.94687525 31.42105421 34.60780130
1165 1 1 -0.0265073105502 26.47598708 33.96870725 34.60780130
1166 1 1 -0.0140756210835 27.94687525 36.51636030 34.60780130
1167 1 1 -0.00745797641812 26.47598708 39.06401334 34.60780130
1168 1 1 -0.00580794873259 27.94687525 21.23044203 34.60780130
1169 1 1 -0.00998918169039 29.41776342 23.77809508 34.60780130
1170 1 1 -0.014077506569 30.88865159 26.32574812 34.60780130
1171 1 1 -0.0265082786864 29.41776342 28.87340116 34.60780130
1172 1 1 -0.0210852277771 30.88865159 31.42105421 34.60780130
1173 1 1 -0.0210839114702 29.41776342 33.96870725 34.60780130
1174 1 1 -0.00999031079706 30.88865159 36.51636030 34.60780130
1175 1 1 -0.00655036135785 29.41776342 39.06401334 34.60780130
1176 1 1 -0.00469010159328 30.88865159 21.23044203 34.60780130
1177 1 1 -0.0065529856176 32.35953976 23.77809508 34.60780130
1178 1 1 -0.00746398869763 33.83042793 26.32574812 34.60780130
1179 1 1 -0.0140794390762 32.35953976 28.87340116 34.60780130
1180 1 1 -0.00999482011681 33.83042793 31.42105421 34.60780130
1181 1 1 -0.0117789418254 32.35953976 33.96870725 34.60780130
1182 1 1 -0.00581335081196 33.83042793 36.51636030 34.60780130
1183 1 1 -0.0046915301097 32.35953976 39.06401334 34.60780130
1184 1 1 -0.00333062194225 33.83042793 21.23044203 34.60780130
1185 1 1 -0.00390685498299 17.65065805 23.77809508 34.60780130
1186 1 1 -0.0074639887165 19.12154622 26.32574812 34.60780130
1187 1 1 -0.00655904166783 17.65065805 28.87340116 34.60780130
1188 1 1 -0.00999482014584 19.12154622 31.42105421 34.60780130
1189 1 1 -0.00581685215121 17.65065805 33.96870725 34.60780130
1190 1 1 -0.00581335082472 19.12154622 36.51636030 34.60780130
1191 1 1 -0.0031033817011 17.65065805 39.06401334 34.60780130
1192 1 1 -0.00333062194712 19.12154622 21.23044203 34.60780130
1193 1 1 -0.00655298563058 20.59243439 23.77809508 34.60780130
1194 1 1 -0.0140775065992 22.06332256 26.32574812 34.60780130
1195 1 1 -0.0140794391152 20.59243439 28.87340116 34.60780130
1196 1 1 -0.0210852278287 22.06332256 31.42105421 34.60780130
1197 1 1 -0.0117789418559 20.59243439 33.96870725 34.60780130
1198 1 1 -0.0099903108159 22.06332256 36.51636030 34.60780130
1199 1 1 -0.00469153011736 20.59243439 39.06401334 34.60780130
1200 1 1 -0.00469010159944 22.06332256 21.23044203 34.60780130
1201 1 1 0.00247319224369 17.65065805 40.76244870 25.00000000
1202 1 1 0.00203439919695 19.12154622 43.31010174 25.00000000
1203 1 1 0.00140072253334 17.65065805 45.85775479 25.00000000
1204 1 1 0.00118595042374 19.12154622 48.40540783 25.00000000
1205 1 1 0.000936368080888 17.65065805 50.95306088 25.00000000
1206 1 1 0.00083755932889 19.12154622 53.50071392 25.00000000
1207 1 1 0.00073760398348 17.65065805 56.04836697 25.00000000
1208 1 1 0.000707518375362 19.12154622 58.59602001 25.00000000
1209 1 1 0.00340501319527 20.59243439 40.76244870 25.00000000
1210 1 1 0.00246852516575 22.06332256 43.31010174 25.00000000
1211 1 1 0.00162238350578 20.59243439 45.85775479 25.00000000
1212 1 1 0.00129743517291 22.06332256 48.40540783 25.00000000
1213 1 1 0.00100874994508 20.59243439 50.95306088 25.00000000
1214 1 1 0.000876538313197 22.06332256 53.50071392 25.00000000
1215 1 1 0.000767181303422 20.59243439 56.04836697 25.00000000
1216 1 1 0.000726468692251 22.06332256 58.59602001 25.00000000
1217 1 1 0.00438491047284 23.53421073 40.76244870 25.00000000
1218 1 1 0.00277074178198 25.00509890 43.31010174 25.00000000
1219 1 1 0.00180087347733 23.53421073 45.85775479 25.00000000
1220 1 1 0.00136375730209 25.00509890 48.40540783 25.00000000
1221 1 1 0.00106091539495 23.53421073 50.95306088 25.00000000
1222 1 1 0.000898487975803 25.00509890 53.50071392 25.00000000
1223 1 1 0.000787505208029 23.53421073 56.04836697 25.00000000
1224 1 1 0.000736844981951 25.00509890 58.59602001 25.00000000
1225 1 1 0.00483450585845 26.47598708 40.76244870 25.00000000
1226 1 1 0.00277074178097 27.94687525 43.31010174 25.00000000
1227 1 1 0.00187087957324 26.47598708 45.85775479 25.00000000
1228 1 1 0.0013637573018 27.94687525 48.40540783 25.00000000
1229 1 1 0.00108003871083 26.47598708 50.95306088 25.00000000
1230 1 1 0.000898487975659 27.94687525 53.50071392 25.00000000
1231 1 1 0.000794762181604 26.47598708 56.04836697 25.00000000
1232 1 1 0.000736844981846 27.94687525 58.59602001 25.00000000
1233 1 1 0.00438491046883 29.41776342 40.76244870 25.00000000
1234 1 1 0.00246852516368 30.88865159 43.31010174 25.00000000
1235 1 1 0.00180087347646 29.41776342 45.85775479 25.00000000
1236 1 1 0.0012974351723 30.88865159 48.40540783 25.00000000
1237 1 1 0.00106091539461 29.41776342 50.95306088 25.00000000
1238 1 1 0.000876538312905 30.88865159 53.50071392 25.00000000
1239 1 1 0.000787505207829 29.41776342 56.04836697 25.00000000
1240 1 1 0.000726468692048 30.88865159 58.59602001 25.00000000
1241 1 1 0.00340501319079 32.35953976 40.76244870 25.00000000
1242 1 1 0.00203439919509 33.83042793 43.31010174 25.00000000
1243 1 1 0.00162238350472 32.35953976 45.85775479 25.00000000
1244 1 1 0.00118595042315 33.83042793 48.40540783 25.00000000
1245 1 1 0.00100874994467 32.35953976 50.95306088 25.00000000
1246 1 1 0.000837559328629 33.83042793 53.50071392 25.00000000
1247 1 1 0.000767181303195 32.35953976 56.04836697 25.00000000
1248 1 1 0.000707518375193 33.83042793 58.59602001 25.00000000
1249 1 1 0.000299736642592 19.12154622 41.61166638 27.40195032
1250 1 1 0.000244921506229 20.59243439 44.15931943 27.40195032
1251 1 1 0.000191554621445 19.12154622 46.70697247 27.40195032
1252 1 1 0.000168177015413 20.59243439 49.25462551 27.40195032
1253 1 1 0.00014030392304 19.12154622 51.80227856 27.40195032
1254 1 1 0.000127142324529 20.59243439 54.34993160 27.40195032
1255 1 1 0.000114825439996 19.12154622 56.89758465 27.40195032
1256 1 1 0.000111346529158 20.59243439 59.44523769 27.40195032
1257 1 1 0.000393332776612 22.06332256 41.61166638 27.40195032
1258 1 1 0.000272653378422 23.53421073 44.15931943 27.40195032
1259 1 1 0.000206530354316 22.06332256 46.70697247 27.40195032
1260 1 1 0.000176291924681 23.53421073 49.25462551 27.40195032
1261 1 1 0.000147262869739 22.06332256 51.80227856 27.40195032
1262 1 1 0.000130849003689 23.53421073 54.34993160 27.40195032
1263 1 1 0.000118072316582 22.06332256 56.89758465 27.40195032
1264 1 1 0.000113382054553 23.53421073 59.44523769 27.40195032
1265 1 1 0.000477921575975 25.00509890 41.61166638 27.40195032
1266 1 1 0.000284977055009 26.47598708 44.15931943 27.40195032
1267 1 1 0.000215400840613 25.00509890 46.70697247 27.40195032
1268 1 1 0.000179199539332 26.47598708 49.25462551 27.40195032
1269 1 1 0.000151134484338 25.00509890 51.80227856 27.40195032
1270 1 1 0.000132173795782 26.47598708 54.34993160 27.40195032
1271 1 1 0.000119858441429 25.00509890 56.89758465 27.40195032
1272 1 1 0.00011410114662 26.47598708 59.44523769 27.40195032
1273 1 1 0.000477921575402 27.94687525 41.61166638 27.40195032
1274 1 1 0.000272653377978 29.41776342 44.15931943 27.40195032
1275 1 1 0.000215400840454 27.94687525 46.70697247 27.40195032
1276 1 1 0.000176291924496 29.41776342 49.25462551 27.40195032
1277 1 1 0.000151134484251 27.94687525 51.80227856 27.40195032
1278 1 1 0.000130849003566 29.41776342 54.34993160 27.40195032
1279 1 1 0.000119858441364 27.94687525 56.89758465 27.40195032
1280 1 1 0.00011338205445 29.41776342 59.44523769 27.40195032
1281 1 1 0.000393332775613 30.88865159 41.61166638 27.40195032
1282 1 1 0.000244921505819 32.35953976 44.15931943 27.40195032
1283 1 1 0.000206530354031 30.88865159 46.70697247 27.40195032
1284 1 1 0.000168177015229 32.35953976 49.25462551 27.40195032
1285 1 1 0.000147262869576 30.88865159 51.80227856 27.40195032
1286 1 1 0.000127142324403 32.35953976 54.34993160 27.40195032
1287 1 1 0.000118072316459 30.88865159 56.89758465 27.40195032
1288 1 1 0.000111346529051 32.35953976 59.44523769 27.40195032
1289 1 1 0.000299736642018 33.83042793 41.61166638 27.40195032
1290 1 1 0.000215655635191 17.65065805 44.15931943 27.40195032
1291 1 1 0.000191554621261 33.83042793 46.70697247 27.40195032
1292 1 1 0.000156444024496 17.65065805 49.25462551 27.40195032
1293 1 1 0.000140303922925 33.83042793 51.80227856 27.40195032
1294 1 1 0.000121765932429 17.65065805 54.34993160 27.40195032
1295 1 1 0.000114825439906 33.83042793 56.89758465 27.40195032
1296 1 1 0.000108325091591 17.65065805 59.44523769 27.40195032
1297 1 1 1.77811471815e-07 20.59243439 42.46088406 29.80390065
1298 1 1 -4.16577893512e-08 22.06332256 45.00853711 29.80390065
1299 1 1 6.16791400754e-09 20.59243439 47.55619015 29.80390065
1300 1 1 2.66741753581e-08 22.06332256 50.10384320 29.80390065
1301 1 1 4.80125961524e-08 20.59243439 52.65149624 29.80390065
1302 1 1 4.94142686094e-08 22.06332256 55.19914928 29.80390065
1303 1 1 4.91554976131e-08 20.59243439 57.74680233 29.80390065
1304 1 1 4.99699967281e-08 22.06332256 60.29445537 29.80390065
1305 1 1 1.36067288468e-07 23.53421073 42.46088406 29.80390065
1306 1 1 -2.25650568673e-07 25.00509890 45.00853711 29.80390065
1307 1 1 -6.02762521218e-08 23.53421073 47.55619015 29.80390065
1308 1 1 7.4260600754e-09 25.00509890 50.10384320 29.80390065
1309 1 1 4.45882667755e-08 23.53421073 52.65149624 29.80390065
1310 1 1 4.92243528148e-08 25.00509890 55.19914928 29.80390065
1311 1 1 4.93127182449e-08 23.53421073 57.74680233 29.80390065
1312 1 1 5.02812639481e-08 25.00509890 60.29445537 29.80390065
1313 1 1 -7.28852896243e-08 26.47598708 42.46088406 29.80390065
1314 1 1 -2.25650582188e-07 27.94687525 45.00853711 29.80390065
1315 1 1 -1.10534139229e-07 26.47598708 47.55619015 29.80390065
1316 1 1 7.42604863459e-09 27.94687525 50.10384320 29.80390065
1317 1 1 4.26172252824e-08 26.47598708 52.65149624 29.80390065
1318 1 1 4.92243418488e-08 27.94687525 55.19914928 29.80390065
1319 1 1 4.9383254129e-08 26.47598708 57.74680233 29.80390065
1320 1 1 5.02812531486e-08 27.94687525 60.29445537 29.80390065
1321 1 1 1.36067282455e-07 29.41776342 42.46088406 29.80390065
1322 1 1 -4.16578219776e-08 30.88865159 45.00853711 29.80390065
1323 1 1 -6.02762693173e-08 29.41776342 47.55619015 29.80390065
1324 1 1 2.66741439327e-08 30.88865159 50.10384320 29.80390065
1325 1 1 4.45882465755e-08 29.41776342 52.65149624 29.80390065
1326 1 1 4.94142375075e-08 30.88865159 55.19914928 29.80390065
1327 1 1 4.93126973228e-08 29.41776342 57.74680233 29.80390065
1328 1 1 4.9969965762e-08 30.88865159 60.29445537 29.80390065
1329 1 1 1.77811413818e-07 32.35953976 42.46088406 29.80390065
1330 1 1 1.86630559984e-08 33.83042793 45.00853711 29.80390065
1331 1 1 6.16787059073e-09 32.35953976 47.55619015 29.80390065
1332 1 1 4.17128049632e-08 33.83042793 50.10384320 29.80390065
1333 1 1 4.80125553898e-08 32.35953976 52.65149624 29.80390065
1334 1 1 4.96861354593e-08 33.83042793 55.19914928 29.80390065
1335 1 1 4.91554575585e-08 32.35953976 57.74680233 29.80390065
1336 1 1 4.9402942597e-08 33.83042793 60.29445537 29.80390065
1337 1 1 9.40385766466e-08 17.65065805 42.46088406 29.80390065
1338 1 1 1.86630982942e-08 19.12154622 45.00853711 29.80390065
1339 1 1 3.13839449956e-08 17.65065805 47.55619015 29.80390065
1340 1 1 4.17128508924e-08 19.12154622 50.10384320 29.80390065
1341 1 1 5.03588455972e-08 17.65065805 52.65149624 29.80390065
1342 1 1 4.96861823205e-08 19.12154622 55.19914928 29.80390065
1343 1 1 4.89485330717e-08 17.65065805 57.74680233 29.80390065
1344 1 1 4.94029898686e-08 19.12154622 60.29445537 29.80390065
1345 1 1 -0.000282477117371 22.06332256 43.31010174 32.20585097
1346 1 1 -0.000222609673992 23.53421073 45.85775479 32.20585097
1347 1 1 -0.000179625030319 22.06332256 48.40540783 32.20585097
1348 1 1 -0.00015492961717 23.53421073 50.95306088 32.20585097
1349 1 1 -0.00013222501879 22.06332256 53.50071392 32.20585097
1350 1 1 -0.000120371016323 23.53421073 56.04836697 32.20585097
1351 1 1 -0.000111985969039 22.06332256 58.59602001 32.20585097
1352 1 1 -0.000545745737655 23.53421073 40.76244870 32.20585097
1353 1 1 -0.000315512245749 25.00509890 43.31010174 32.20585097
1354 1 1 -0.000228480482677 26.47598708 45.85775479 32.20585097
1355 1 1 -0.000185893604611 25.00509890 48.40540783 32.20585097
1356 1 1 -0.000157142803644 26.47598708 50.95306088 32.20585097
1357 1 1 -0.000135120306113 25.00509890 53.50071392 32.20585097
1358 1 1 -0.000121376492689 26.47598708 56.04836697 32.20585097
1359 1 1 -0.00011345268013 25.00509890 58.59602001 32.20585097
1360 1 1 -0.000623418260254 26.47598708 40.76244870 32.20585097
1361 1 1 -0.00031551224543 27.94687525 43.31010174 32.20585097
1362 1 1 -0.000222609673726 29.41776342 45.85775479 32.20585097
1363 1 1 -0.000185893604507 27.94687525 48.40540783 32.20585097
1364 1 1 -0.000154929617054 29.41776342 50.95306088 32.20585097
1365 1 1 -0.000135120306055 27.94687525 53.50071392 32.20585097
1366 1 1 -0.00012037101625 29.41776342 56.04836697 32.20585097
1367 1 1 -0.000113452680088 27.94687525 58.59602001 32.20585097
1368 1 1 -0.000545745736447 29.41776342 40.76244870 32.20585097
1369 1 1 -0.000282477116828 30.88865159 43.31010174 32.20585097
1370 1 1 -0.000207923074834 32.35953976 45.85775479 32.20585097
1371 1 1 -0.00017962503015 30.88865159 48.40540783 32.20585097
1372 1 1 -0.000148742875523 32.35953976 50.95306088 32.20585097
1373 1 1 -0.000132225018703 30.88865159 53.50071392 32.20585097
1374 1 1 -0.000117546947675 32.35953976 56.04836697 32.20585097
1375 1 1 -0.000111985968979 30.88865159 58.59602001 32.20585097
1376 1 1 -0.000395158133056 32.35953976 40.76244870 32.20585097
1377 1 1 -0.000241968446682 33.83042793 43.31010174 32.20585097
1378 1 1 -0.000189140014451 17.65065805 45.85775479 32.20585097
1379 1 1 -0.00016847470502 33.83042793 48.40540783 32.20585097
1380 1 1 -0.00013979357546 17.65065805 50.95306088 32.20585097
1381 1 1 -0.000127015441383 33.83042793 53.50071392 32.20585097
1382 1 1 -0.000113417832926 17.65065805 56.04836697 32.20585097
1383 1 1 -0.000109302882567 33.83042793 58.59602001 32.20585097
1384 1 1 -0.000283206288624 17.65065805 40.76244870 32.20585097
1385 1 1 -0.000241968446938 19.12154622 43.31010174 32.20585097
1386 1 1 -0.000207923075036 20.59243439 45.85775479 32.20585097
1387 1 1 -0.000168474705081 19.12154622 48.40540783 32.20585097
1388 1 1 -0.000148742875603 20.59243439 50.95306088 32.20585097
1389 1 1 -0.000127015441396 19.12154622 53.50071392 32.20585097
1390 1 1 -0.000117546947715 20.59243439 56.04836697 32.20585097
1391 1 1 -0.000109302882563 19.12154622 58.59602001 32.20585097
1392 1 1 -0.000395158134062 20.59243439 40.76244870 32.20585097
1393 1 1 -0.00230606559194 23.53421073 44.15931943 34.60780130
1394 1 1 -0.00166103553172 25.00509890 46.70697247 34.60780130
1395 1 1 -0.00123239301908 23.53421073 49.25462551 34.60780130
1396 1 1 -0.00100816187131 25.00509890 51.80227856 34.60780130
1397 1 1 -0.000851004818258 23.53421073 54.34993160 34.60780130
1398 1 1 -0.000770774269403 25.00509890 56.89758465 34.60780130
1399 1 1 -0.000724529464503 23.53421073 59.44523769 34.60780130
1400 1 1 -0.00389922910579 25.00509890 41.61166638 34.60780130
1401 1 1 -0.00242813534726 26.47598708 44.15931943 34.60780130
1402 1 1 -0.00166103553133 27.94687525 46.70697247 34.60780130
1403 1 1 -0.00126061586922 26.47598708 49.25462551 34.60780130
1404 1 1 -0.00100816187115 27.94687525 51.80227856 34.60780130
1405 1 1 -0.000860671369912 26.47598708 54.34993160 34.60780130
1406 1 1 -0.000770774269311 27.94687525 56.89758465 34.60780130
1407 1 1 -0.000729520699477 26.47598708 59.44523769 34.60780130
1408 1 1 -0.00389922910408 27.94687525 41.61166638 34.60780130
1409 1 1 -0.00230606559062 29.41776342 44.15931943 34.60780130
1410 1 1 -0.00155767764406 30.88865159 46.70697247 34.60780130
1411 1 1 -0.00123239301868 29.41776342 49.25462551 34.60780130
1412 1 1 -0.000977308219742 30.88865159 51.80227856 34.60780130
1413 1 1 -0.000851004818067 29.41776342 54.34993160 34.60780130
1414 1 1 -0.000758219671259 30.88865159 56.89758465 34.60780130
1415 1 1 -0.000724529464368 29.41776342 59.44523769 34.60780130
1416 1 1 -0.00332756194707 30.88865159 41.61166638 34.60780130
1417 1 1 -0.00200818349172 32.35953976 44.15931943 34.60780130
1418 1 1 -0.00139002595787 33.83042793 46.70697247 34.60780130
1419 1 1 -0.00115648831171 32.35953976 49.25462551 34.60780130
1420 1 1 -0.000923242773421 33.83042793 51.80227856 34.60780130
1421 1 1 -0.000824125076822 32.35953976 54.34993160 34.60780130
1422 1 1 -0.000735454234452 33.83042793 56.89758465 34.60780130
1423 1 1 -0.000710414233195 32.35953976 59.44523769 34.60780130
1424 1 1 -0.00256997215635 33.83042793 41.61166638 34.60780130
1425 1 1 -0.00166405179866 17.65065805 44.15931943 34.60780130
1426 1 1 -0.00139002595862 19.12154622 46.70697247 34.60780130
1427 1 1 -0.00105369052168 17.65065805 49.25462551 34.60780130
1428 1 1 -0.000923242773671 19.12154622 51.80227856 34.60780130
1429 1 1 -0.000785520244271 17.65065805 54.34993160 34.60780130
1430 1 1 -0.000735454234559 19.12154622 56.89758465 34.60780130
1431 1 1 -0.00068950114363 17.65065805 59.44523769 34.60780130
1432 1 1 -0.00256997215927 19.12154622 41.61166638 34.60780130
1433 1 1 -0.00200818349329 20.59243439 44.15931943 34.60780130
1434 1 1 -0.00155767764486 22.06332256 46.70697247 34.60780130
1435 1 1 -0.00115648831218 20.59243439 49.25462551 34.60780130
1436 1 1 -0.000977308220046 22.06332256 51.80227856 34.60780130
1437 1 1 -0.000824125077019 20.59243439 54.34993160 34.60780130
1438 1 1 -0.000758219671426 22.06332256 56.89758465 34.60780130
1439 1 1 -0.000710414233318 20.59243439 59.44523769 34.60780130
1440 1 1 -0.00332756195055 22.06332256 41.61166638 34.60780130
1441 1 1 0.000682453150699 35.30131610 0.00000000 25.00000000
1442 1 1 0.000683067520198 36.77220427 2.54765304 25.00000000
1443 1 1 0.000737603107785 35.30131610 5.09530609 25.00000000
1444 1 1 0.00078932641961 36.77220427 7.64295913 25.00000000
1445 1 1 0.000936361721811 35.30131610 10.19061218 25.00000000
1446 1 1 0.00105806257006 36.77220427 12.73826522 25.00000000
1447 1 1 0.00140072287968 35.30131610 15.28591827 25.00000000
1448 1 1 0.00162684017641 36.77220427 17.83357131 25.00000000
1449 1 1 0.000659033863435 38.24309244 0.00000000 25.00000000
1450 1 1 0.000656673402557 39.71398061 2.54765304 25.00000000
1451 1 1 0.000703700290618 38.24309244 5.09530609 25.00000000
1452 1 1 0.000739780991537 39.71398061 7.64295913 25.00000000
1453 1 1 0.000858329375331 38.24309244 10.19061218 25.00000000
1454 1 1 0.000937131066743 39.71398061 12.73826522 25.00000000
1455 1 1 0.00118914904478 38.24309244 15.28591827 25.00000000
1456 1 1 0.00130638654151 39.71398061 17.83357131 25.00000000
1457 1 1 0.000635233734775 41.18486878 0.00000000 25.00000000
1458 1 1 0.000631670348337 42.65575695 2.54765304 25.00000000
1459 1 1 0.000670228779717 41.18486878 5.09530609 25.00000000
1460 1 1 0.000695166748925 42.65575695 7.64295913 25.00000000
1461 1 1 0.00078624431089 41.18486878 10.19061218 25.00000000
1462 1 1 0.000836628812397 42.65575695 12.73826522 25.00000000
1463 1 1 0.00101411809066 41.18486878 15.28591827 25.00000000
1464 1 1 0.00107495161887 42.65575695 17.83357131 25.00000000
1465 1 1 0.000613859492969 44.12664513 0.00000000 25.00000000
1466 1 1 0.000610749752563 45.59753330 2.54765304 25.00000000
1467 1 1 0.000640983320661 44.12664513 5.09530609 25.00000000
1468 1 1 0.000659501882511 45.59753330 7.64295913 25.00000000
1469 1 1 0.000727159814098 44.12664513 10.19061218 25.00000000
1470 1 1 0.000761800057361 45.59753330 12.73826522 25.00000000
1471 1 1 0.000883288031435 44.12664513 15.28591827 25.00000000
1472 1 1 0.000919007238475 45.59753330 17.83357131 25.00000000
1473 1 1 0.000597105168787 47.06842147 0.00000000 25.00000000
1474 1 1 0.000595826789086 48.53930964 2.54765304 25.00000000
1475 1 1 0.000618577900328 47.06842147 5.09530609 25.00000000
1476 1 1 0.000634952225806 48.53930964 7.64295913 25.00000000
1477 1 1 0.000684285598439 47.06842147 10.19061218 25.00000000
1478 1 1 0.000713099712821 48.53930964 12.73826522 25.00000000
1479 1 1 0.000795066418168 47.06842147 15.28591827 25.00000000
1480 1 1 0.000824367791606 48.53930964 17.83357131 25.00000000
1481 1 1 0.000586479404739 50.01019781 0.00000000 25.00000000
1482 1 1 0.000588086745266 51.48108598 2.54765304 25.00000000
1483 1 1 0.000604596565897 50.01019781 5.09530609 25.00000000
1484 1 1 0.000622501818469 51.48108598 7.64295913 25.00000000
1485 1 1 0.000658556520249 50.01019781 10.19061218 25.00000000
1486 1 1 0.000689270741753 51.48108598 12.73826522 25.00000000
1487 1 1 0.000744819708773 50.01019781 15.28591827 25.00000000
1488 1 1 0.000780020883964 51.48108598 17.83357131 25.00000000
1489 1 1 0.000106016573895 36.77220427 0.84921768 27.40195032
1490 1 1 0.000106849267556 38.24309244 3.39687073 27.40195032
1491 1 1 0.000115561535291 36.77220427 5.94452377 27.40195032
1492 1 1 0.000122727883613 38.24309244 8.49217681 27.40195032
1493 1 1 0.00014315228973 36.77220427 11.03982986 27.40195032
1494 1 1 0.000156657227918 38.24309244 13.58748290 27.40195032
1495 1 1 0.000191951190874 36.77220427 16.13513595 27.40195032
1496 1 1 0.000207742480369 38.24309244 18.68278899 27.40195032
1497 1 1 0.000102485151225 39.71398061 0.84921768 27.40195032
1498 1 1 0.000102807782878 41.18486878 3.39687073 27.40195032
1499 1 1 0.00011009507571 39.71398061 5.94452377 27.40195032
1500 1 1 0.000115091754391 41.18486878 8.49217681 27.40195032
1501 1 1 0.000131486889765 39.71398061 11.03982986 27.40195032
1502 1 1 0.000140593897732 41.18486878 13.58748290 27.40195032
1503 1 1 0.000169077896474 39.71398061 16.13513595 27.40195032
1504 1 1 0.000178341501513 41.18486878 18.68278899 27.40195032
1505 1 1 9.91049079212e-05 42.65575695 0.84921768 27.40195032
1506 1 1 9.92113694075e-05 44.12664513 3.39687073 27.40195032
1507 1 1 0.000105043351732 42.65575695 5.94452377 27.40195032
1508 1 1 0.000108611580866 44.12664513 8.49217681 27.40195032
1509 1 1 0.000121086579714 42.65575695 11.03982986 27.40195032
1510 1 1 0.000127215028967 44.12664513 13.58748290 27.40195032
1511 1 1 0.000148604732962 42.65575695 16.13513595 27.40195032
1512 1 1 0.000154238142454 44.12664513 18.68278899 27.40195032
1513 1 1 9.62490436943e-05 45.59753330 0.84921768 27.40195032
1514 1 1 9.64121137778e-05 47.06842147 3.39687073 27.40195032
1515 1 1 0.000100911370744 45.59753330 5.94452377 27.40195032
1516 1 1 0.000103785063843 47.06842147 8.49217681 27.40195032
1517 1 1 0.000112964523948 45.59753330 11.03982986 27.40195032
1518 1 1 0.000117599370309 47.06842147 13.58748290 27.40195032
1519 1 1 0.000132628882722 45.59753330 16.13513595 27.40195032
1520 1 1 0.000136718582012 47.06842147 18.68278899 27.40195032
1521 1 1 9.4195884691e-05 48.53930964 0.84921768 27.40195032
1522 1 1 9.46448638602e-05 50.01019781 3.39687073 27.40195032
1523 1 1 9.80150057717e-05 48.53930964 5.94452377 27.40195032
1524 1 1 0.000100836739214 50.01019781 8.49217681 27.40195032
1525 1 1 0.000107521749368 48.53930964 11.03982986 27.40195032
1526 1 1 0.000111943910782 50.01019781 13.58748290 27.40195032
1527 1 1 0.000122147589319 48.53930964 16.13513595 27.40195032
1528 1 1 0.000126493903693 50.01019781 18.68278899 27.40195032
1529 1 1 9.31255574336e-05 51.48108598 0.84921768 27.40195032
1530 1 1 0.000110866758283 35.30131610 3.39687073 27.40195032
1531 1 1 9.65286881555e-05 51.48108598 5.94452377 27.40195032
1532 1 1 0.000130648466572 35.30131610 8.49217681 27.40195032
1533 1 1 0.000104816198367 51.48108598 11.03982986 27.40195032
1534 1 1 0.000173347288802 35.30131610 13.58748290 27.40195032
1535 1 1 0.000117070590264 51.48108598 16.13513595 27.40195032
1536 1 1 0.000245396683774 35.30131610 18.68278899 27.40195032
1537 1 1 4.86886440445e-08 38.24309244 1.69843536 29.80390065
1538 1 1 4.89018384328e-08 39.71398061 4.24608841 29.80390065
1539 1 1 5.15415102354e-08 38.24309244 6.79374145 29.80390065
1540 1 1 5.10424906444e-08 39.71398061 9.34139450 29.80390065
1541 1 1 4.80065005658e-08 38.24309244 11.88904754 29.80390065
1542 1 1 4.10400490692e-08 39.71398061 14.43670058 29.80390065
1543 1 1 5.83769726282e-09 38.24309244 16.98435363 29.80390065
1544 1 1 -6.00803388152e-08 39.71398061 19.53200667 29.80390065
1545 1 1 4.73351153181e-08 41.18486878 1.69843536 29.80390065
1546 1 1 4.71449145478e-08 42.65575695 4.24608841 29.80390065
1547 1 1 4.90483185007e-08 41.18486878 6.79374145 29.80390065
1548 1 1 4.88812956e-08 42.65575695 9.34139450 29.80390065
1549 1 1 4.95714641518e-08 41.18486878 11.88904754 29.80390065
1550 1 1 4.73119892662e-08 42.65575695 14.43670058 29.80390065
1551 1 1 2.63538689692e-08 41.18486878 16.98435363 29.80390065
1552 1 1 7.68341923056e-09 42.65575695 19.53200667 29.80390065
1553 1 1 4.62338076304e-08 44.12664513 1.69843536 29.80390065
1554 1 1 4.5921059265e-08 45.59753330 4.24608841 29.80390065
1555 1 1 4.70999034694e-08 44.12664513 6.79374145 29.80390065
1556 1 1 4.70796630049e-08 45.59753330 9.34139450 29.80390065
1557 1 1 4.85284546558e-08 44.12664513 11.88904754 29.80390065
1558 1 1 4.84040061573e-08 45.59753330 14.43670058 29.80390065
1559 1 1 4.43323941409e-08 44.12664513 16.98435363 29.80390065
1560 1 1 4.30723128496e-08 45.59753330 19.53200667 29.80390065
1561 1 1 4.54262416362e-08 47.06842147 1.69843536 29.80390065
1562 1 1 4.51660306987e-08 48.53930964 4.24608841 29.80390065
1563 1 1 4.59026395379e-08 47.06842147 6.79374145 29.80390065
1564 1 1 4.60774957932e-08 48.53930964 9.34139450 29.80390065
1565 1 1 4.71320382352e-08 47.06842147 11.88904754 29.80390065
1566 1 1 4.74776032702e-08 48.53930964 14.43670058 29.80390065
1567 1 1 4.87693794023e-08 47.06842147 16.98435363 29.80390065
1568 1 1 4.96378688629e-08 48.53930964 19.53200667 29.80390065
1569 1 1 4.49273114361e-08 50.01019781 1.69843536 29.80390065
1570 1 1 4.48024536347e-08 51.48108598 4.24608841 29.80390065
1571 1 1 4.52968673957e-08 50.01019781 6.79374145 29.80390065
1572 1 1 4.56917777397e-08 51.48108598 9.34139450 29.80390065
1573 1 1 4.63781703854e-08 50.01019781 11.88904754 29.80390065
1574 1 1 4.68852087192e-08 51.48108598 14.43670058 29.80390065
1575 1 1 4.820571447e-08 50.01019781 16.98435363 29.80390065
1576 1 1 4.92549627494e-08 51.48108598 19.53200667 29.80390065
1577 1 1 5.01473425745e-08 35.30131610 1.69843536 29.80390065
1578 1 1 5.10386315702e-08 36.77220427 4.24608841 29.80390065
1579 1 1 5.37884140647e-08 35.30131610 6.79374145 29.80390065
1580 1 1 5.21840940296e-08 36.77220427 9.34139450 29.80390065
1581 1 1 4.29177702599e-08 35.30131610 11.88904754 29.80390065
1582 1 1 3.07165421832e-08 36.77220427 14.43670058 29.80390065
1583 1 1 1.83746846136e-08 35.30131610 16.98435363 29.80390065
1584 1 1 -4.13300495806e-08 36.77220427 19.53200667 29.80390065
1585 1 1 -0.000102074135201 39.71398061 2.54765304 32.20585097
1586 1 1 -0.000103942028151 41.18486878 5.09530609 32.20585097
1587 1 1 -0.000113634225618 39.71398061 7.64295913 32.20585097
1588 1 1 -0.000120022546982 41.18486878 10.19061218 32.20585097
1589 1 1 -0.000139919554043 39.71398061 12.73826522 32.20585097
1590 1 1 -0.000149561262424 41.18486878 15.28591827 32.20585097
1591 1 1 -0.000180974538565 39.71398061 17.83357131 32.20585097
1592 1 1 -9.90323144863e-05 41.18486878 0.00000000 32.20585097
1593 1 1 -9.85009004908e-05 42.65575695 2.54765304 32.20585097
1594 1 1 -9.98018912783e-05 44.12664513 5.09530609 32.20585097
1595 1 1 -0.000107424118176 42.65575695 7.64295913 32.20585097
1596 1 1 -0.000111916324457 44.12664513 10.19061218 32.20585097
1597 1 1 -0.000126905328297 42.65575695 12.73826522 32.20585097
1598 1 1 -0.000133255750919 44.12664513 15.28591827 32.20585097
1599 1 1 -0.000157035734982 42.65575695 17.83357131 32.20585097
1600 1 1 -9.5956742622e-05 44.12664513 0.00000000 32.20585097
1601 1 1 -9.54995909595e-05 45.59753330 2.54765304 32.20585097
1602 1 1 -9.66177407347e-05 47.06842147 5.09530609 32.20585097
1603 1 1 -0.000102429374214 45.59753330 7.64295913 32.20585097
1604 1 1 -0.000105971833192 47.06842147 10.19061218 32.20585097
1605 1 1 -0.00011680287217 45.59753330 12.73826522 32.20585097
1606 1 1 -0.000121527731963 47.06842147 15.28591827 32.20585097
1607 1 1 -0.000138175057911 45.59753330 17.83357131 32.20585097
1608 1 1 -9.35373934966e-05 47.06842147 0.00000000 32.20585097
1609 1 1 -9.33513661072e-05 48.53930964 2.54765304 32.20585097
1610 1 1 -9.46244570492e-05 50.01019781 5.09530609 32.20585097
1611 1 1 -9.89782179141e-05 48.53930964 7.64295913 32.20585097
1612 1 1 -0.000102389821451 50.01019781 10.19061218 32.20585097
1613 1 1 -0.000110110586695 48.53930964 12.73826522 32.20585097
1614 1 1 -0.000114674388827 50.01019781 15.28591827 32.20585097
1615 1 1 -0.00012573488062 48.53930964 17.83357131 32.20585097
1616 1 1 -9.19987735765e-05 50.01019781 0.00000000 32.20585097
1617 1 1 -9.22344911017e-05 51.48108598 2.54765304 32.20585097
1618 1 1 -0.000113417031089 35.30131610 5.09530609 32.20585097
1619 1 1 -9.72238239916e-05 51.48108598 7.64295913 32.20585097
1620 1 1 -0.0001397972852 35.30131610 10.19061218 32.20585097
1621 1 1 -0.000106818727207 51.48108598 12.73826522 32.20585097
1622 1 1 -0.000189140291502 35.30131610 15.28591827 32.20585097
1623 1 1 -0.000119720807335 51.48108598 17.83357131 32.20585097
1624 1 1 -0.000105789980079 35.30131610 0.00000000 32.20585097
1625 1 1 -0.00010583222323 36.77220427 2.54765304 32.20585097
1626 1 1 -0.000108660260229 38.24309244 5.09530609 32.20585097
1627 1 1 -0.000120462695702 36.77220427 7.64295913 32.20585097
1628 1 1 -0.000129696106102 38.24309244 10.19061218 32.20585097
1629 1 1 -0.000154482060299 36.77220427 12.73826522 32.20585097
1630 1 1 -0.000168961518708 38.24309244 15.28591827 32.20585097
1631 1 1 -0.000208595780785 36.77220427 17.83357131 32.20585097
1632 1 1 -0.000102444170334 38.24309244 0.00000000 32.20585097
1633 1 1 -0.000651666660548 41.18486878 3.39687073 34.60780130
1634 1 1 -0.000667454129407 42.65575695 5.94452377 34.60780130
1635 1 1 -0.000738246320835 41.18486878 8.49217681 34.60780130
1636 1 1 -0.000780813516344 42.65575695 11.03982986 34.60780130
1637 1 1 -0.000925036801784 41.18486878 13.58748290 34.60780130
1638 1 1 -0.000986053497159 42.65575695 16.13513595 34.60780130
1639 1 1 -0.00124583860528 41.18486878 18.68278899 34.60780130
1640 1 1 -0.000625985939498 42.65575695 0.84921768 34.60780130
1641 1 1 -0.000626870240779 44.12664513 3.39687073 34.60780130
1642 1 1 -0.000638678030069 45.59753330 5.94452377 34.60780130
1643 1 1 -0.000692397866076 44.12664513 8.49217681 34.60780130
1644 1 1 -0.000722645970281 45.59753330 11.03982986 34.60780130
1645 1 1 -0.000824370882941 44.12664513 13.58748290 34.60780130
1646 1 1 -0.000862653499329 45.59753330 16.13513595 34.60780130
1647 1 1 -0.00102865253057 44.12664513 18.68278899 34.60780130
1648 1 1 -0.000606476881665 45.59753330 0.84921768 34.60780130
1649 1 1 -0.000607640283868 47.06842147 3.39687073 34.60780130
1650 1 1 -0.000618576192581 48.53930964 5.94452377 34.60780130
1651 1 1 -0.000658440602635 47.06842147 8.49217681 34.60780130
1652 1 1 -0.000684010560984 48.53930964 11.03982986 34.60780130
1653 1 1 -0.000754667119249 47.06842147 13.58748290 34.60780130
1654 1 1 -0.00078588317235 48.53930964 16.13513595 34.60780130
1655 1 1 -0.000890964421381 47.06842147 18.68278899 34.60780130
1656 1 1 -0.000592495610103 48.53930964 0.84921768 34.60780130
1657 1 1 -0.000595536222765 50.01019781 3.39687073 34.60780130
1658 1 1 -0.000608286036637 51.48108598 5.94452377 34.60780130
1659 1 1 -0.000637758547098 50.01019781 8.49217681 34.60780130
1660 1 1 -0.000664857963215 51.48108598 11.03982986 34.60780130
1661 1 1 -0.000714226060123 50.01019781 13.58748290 34.60780130
1662 1 1 -0.000749369943703 51.48108598 16.13513595 34.60780130
1663 1 1 -0.000815565707883 50.01019781 18.68278899 34.60780130
1664 1 1 -0.000585222799544 51.48108598 0.84921768 34.60780130
1665 1 1 -0.000707535773233 35.30131610 3.39687073 34.60780130
1666 1 1 -0.000741213393855 36.77220427 5.94452377 34.60780130
1667 1 1 -0.000850506162486 35.30131610 8.49217681 34.60780130
1668 1 1 -0.000945800380999 36.77220427 11.03982986 34.60780130
1669 1 1 -0.00120520868798 35.30131610 13.58748290 34.60780130
1670 1 1 -0.00139260785124 36.77220427 16.13513595 34.60780130
1671 1 1 -0.00201127755906 35.30131610 18.68278899 34.60780130
1672 1 1 -0.000673458031676 36.77220427 0.84921768 34.60780130
1673 1 1 -0.000679635703966 38.24309244 3.39687073 34.60780130
1674 1 1 -0.000702782604041 39.71398061 5.94452377 34.60780130
1675 1 1 -0.000792855880179 38.24309244 8.49217681 34.60780130
1676 1 1 -0.000856932616934 39.71398061 11.03982986 34.60780130
1677 1 1 -0.001055056848 38.24309244 13.58748290 34.60780130
1678 1 1 -0.00116235255568 39.71398061 16.13513595 34.60780130
1679 1 1 -0.00156559599626 38.24309244 18.68278899 34.60780130
1680 1 1 -0.00064916096074 39.71398061 0.84921768 34.60780130
1681 1 1 0.00247330044271 35.30131610 20.38122435 25.00000000
1682 1 1 0.00278078552398 36.77220427 22.92887739 25.00000000
1683 1 1 0.00484300417159 35.30131610 25.47653044 25.00000000
1684 1 1 0.0043971867822 36.77220427 28.02418348 25.00000000
1685 1 1 0.00682220625939 35.30131610 30.57183653 25.00000000
1686 1 1 0.00439710730342 36.77220427 33.11948957 25.00000000
1687 1 1 0.00484288207166 35.30131610 35.66714262 25.00000000
1688 1 1 0.00278055243675 36.77220427 38.21479566 25.00000000
1689 1 1 0.00181121720073 38.24309244 20.38122435 25.00000000
1690 1 1 0.00188859990763 39.71398061 22.92887739 25.00000000
1691 1 1 0.00278652983967 38.24309244 25.47653044 25.00000000
1692 1 1 0.00249027784531 39.71398061 28.02418348 25.00000000
1693 1 1 0.00342034765826 38.24309244 30.57183653 25.00000000
1694 1 1 0.00249016988873 39.71398061 33.11948957 25.00000000
1695 1 1 0.00278629696407 38.24309244 35.66714262 25.00000000
1696 1 1 0.00188836968621 39.71398061 38.21479566 25.00000000
1697 1 1 0.00138115689676 41.18486878 20.38122435 25.00000000
1698 1 1 0.00139235236772 42.65575695 22.92887739 25.00000000
1699 1 1 0.00182733949666 41.18486878 25.47653044 25.00000000
1700 1 1 0.00165857506461 42.65575695 28.02418348 25.00000000
1701 1 1 0.00206177856056 41.18486878 30.57183653 25.00000000
1702 1 1 0.00165850897978 42.65575695 33.11948957 25.00000000
1703 1 1 0.00182716967009 41.18486878 35.66714262 25.00000000
1704 1 1 0.00139222285213 42.65575695 38.21479566 25.00000000
1705 1 1 0.00110708407931 44.12664513 20.38122435 25.00000000
1706 1 1 0.00110548974807 45.59753330 22.92887739 25.00000000
1707 1 1 0.00133981811583 44.12664513 25.47653044 25.00000000
1708 1 1 0.0012442104882 45.59753330 28.02418348 25.00000000
1709 1 1 0.0014468586512 44.12664513 30.57183653 25.00000000
1710 1 1 0.00124418446885 45.59753330 33.11948957 25.00000000
1711 1 1 0.00133974051692 44.12664513 35.66714262 25.00000000
1712 1 1 0.00110544016732 45.59753330 38.21479566 25.00000000
1713 1 1 0.000939501831189 47.06842147 20.38122435 25.00000000
1714 1 1 0.000945284876836 48.53930964 22.92887739 25.00000000
1715 1 1 0.00107527785892 47.06842147 25.47653044 25.00000000
1716 1 1 0.00102868133913 48.53930964 28.02418348 25.00000000
1717 1 1 0.00113327470011 47.06842147 30.57183653 25.00000000
1718 1 1 0.00102867410125 48.53930964 33.11948957 25.00000000
1719 1 1 0.00107525289376 47.06842147 35.66714262 25.00000000
1720 1 1 0.000945270315903 48.53930964 38.21479566 25.00000000
1721 1 1 0.000849598143745 50.01019781 20.38122435 25.00000000
1722 1 1 0.000873441944643 51.48108598 22.92887739 25.00000000
1723 1 1 0.000941415015459 50.01019781 25.47653044 25.00000000
1724 1 1 0.000935045056204 51.48108598 28.02418348 25.00000000
1725 1 1 0.000978886461958 50.01019781 30.57183653 25.00000000
1726 1 1 0.000935042987989 51.48108598 33.11948957 25.00000000
1727 1 1 0.000941408312562 50.01019781 35.66714262 25.00000000
1728 1 1 0.000873436728798 51.48108598 38.21479566 25.00000000
1729 1 1 0.000273936028292 36.77220427 21.23044203 27.40195032
1730 1 1 0.000287184639586 38.24309244 23.77809508 27.40195032
1731 1 1 0.000479774210715 36.77220427 26.32574812 27.40195032
1732 1 1 0.000395826784961 38.24309244 28.87340116 27.40195032
1733 1 1 0.000610592632755 36.77220427 31.42105421 27.40195032
1734 1 1 0.000365281952427 38.24309244 33.96870725 27.40195032
1735 1 1 0.000395503798108 36.77220427 36.51636030 27.40195032
1736 1 1 0.000255061504934 38.24309244 39.06401334 27.40195032
1737 1 1 0.000217704897172 39.71398061 21.23044203 27.40195032
1738 1 1 0.000219067348672 41.18486878 23.77809508 27.40195032
1739 1 1 0.000275882629802 39.71398061 26.32574812 27.40195032
1740 1 1 0.00024920664882 41.18486878 28.87340116 27.40195032
1741 1 1 0.000302739344976 39.71398061 31.42105421 27.40195032
1742 1 1 0.000242010808853 41.18486878 33.96870725 27.40195032
1743 1 1 0.000256156342066 39.71398061 36.51636030 27.40195032
1744 1 1 0.000205837398732 41.18486878 39.06401334 27.40195032
1745 1 1 0.000182875260847 42.65575695 21.23044203 27.40195032
1746 1 1 0.000182065419681 44.12664513 23.77809508 27.40195032
1747 1 1 0.000211792343114 42.65575695 26.32574812 27.40195032
1748 1 1 0.000198556811612 44.12664513 28.87340116 27.40195032
1749 1 1 0.000220913604799 42.65575695 31.42105421 27.40195032
1750 1 1 0.000195002877791 44.12664513 33.96870725 27.40195032
1751 1 1 0.00020361516373 42.65575695 36.51636030 27.40195032
1752 1 1 0.000173437906315 44.12664513 39.06401334 27.40195032
1753 1 1 0.000156750206557 45.59753330 21.23044203 27.40195032
1754 1 1 0.000156152484115 47.06842147 23.77809508 27.40195032
1755 1 1 0.000176472295785 45.59753330 26.32574812 27.40195032
1756 1 1 0.000167570025582 47.06842147 28.87340116 27.40195032
1757 1 1 0.000182235765728 45.59753330 31.42105421 27.40195032
1758 1 1 0.000165129529652 47.06842147 33.96870725 27.40195032
1759 1 1 0.000171039839201 45.59753330 36.51636030 27.40195032
1760 1 1 0.000150128519961 47.06842147 39.06401334 27.40195032
1761 1 1 0.000139313484482 48.53930964 21.23044203 27.40195032
1762 1 1 0.000140744603355 50.01019781 23.77809508 27.40195032
1763 1 1 0.000153183955538 48.53930964 26.32574812 27.40195032
1764 1 1 0.000149029000386 50.01019781 28.87340116 27.40195032
1765 1 1 0.000157244739166 48.53930964 31.42105421 27.40195032
1766 1 1 0.000147264378554 50.01019781 33.96870725 27.40195032
1767 1 1 0.000149368578653 48.53930964 36.51636030 27.40195032
1768 1 1 0.000136365275106 50.01019781 39.06401334 27.40195032
1769 1 1 0.000130854030407 51.48108598 21.23044203 27.40195032
1770 1 1 0.000479087623802 35.30131610 23.77809508 27.40195032
1771 1 1 0.000141707971779 51.48108598 26.32574812 27.40195032
1772 1 1 0.000964799379198 35.30131610 28.87340116 27.40195032
1773 1 1 0.000144864359033 51.48108598 31.42105421 27.40195032
1774 1 1 0.000817895637096 35.30131610 33.96870725 27.40195032
1775 1 1 0.000138742846216 51.48108598 36.51636030 27.40195032
1776 1 1 0.000363741295915 35.30131610 39.06401334 27.40195032
1777 1 1 -2.25044742959e-07 38.24309244 22.07965971 29.80390065
1778 1 1 -2.24847911984e-07 39.71398061 24.62731276 29.80390065
1779 1 1 1.36844990573e-07 38.24309244 27.17496580 29.80390065
1780 1 1 1.79127159753e-07 39.71398061 29.72261885 29.80390065
1781 1 1 5.03415933478e-07 38.24309244 32.27027189 29.80390065
1782 1 1 3.6421267456e-07 39.71398061 34.81792493 29.80390065
1783 1 1 6.09101233234e-07 38.24309244 37.36557798 29.80390065
1784 1 1 2.00657276283e-07 39.71398061 39.91323102 29.80390065
1785 1 1 -1.09953987807e-07 41.18486878 22.07965971 29.80390065
1786 1 1 -5.92432700362e-08 42.65575695 24.62731276 29.80390065
1787 1 1 -4.02553248968e-08 41.18486878 27.17496580 29.80390065
1788 1 1 2.06643232967e-08 42.65575695 29.72261885 29.80390065
1789 1 1 9.53631180919e-08 41.18486878 32.27027189 29.80390065
1790 1 1 8.57913889087e-08 42.65575695 34.81792493 29.80390065
1791 1 1 2.01025201123e-07 41.18486878 37.36557798 29.80390065
1792 1 1 8.43328529412e-08 42.65575695 39.91323102 29.80390065
1793 1 1 8.26277492714e-09 44.12664513 22.07965971 29.80390065
1794 1 1 2.82534800023e-08 45.59753330 24.62731276 29.80390065
1795 1 1 8.01058321139e-09 44.12664513 27.17496580 29.80390065
1796 1 1 3.41217156312e-08 45.59753330 29.72261885 29.80390065
1797 1 1 3.13860569038e-08 44.12664513 32.27027189 29.80390065
1798 1 1 4.72128327876e-08 45.59753330 34.81792493 29.80390065
1799 1 1 6.75599601261e-08 44.12664513 37.36557798 29.80390065
1800 1 1 5.84021802695e-08 45.59753330 39.91323102 29.80390065
1801 1 1 4.5853478938e-08 47.06842147 22.07965971 29.80390065
1802 1 1 5.0363319033e-08 48.53930964 24.62731276 29.80390065
1803 1 1 4.44146810224e-08 47.06842147 27.17496580 29.80390065
1804 1 1 5.28237956022e-08 48.53930964 29.72261885 29.80390065
1805 1 1 4.71925650214e-08 47.06842147 32.27027189 29.80390065
1806 1 1 5.69898658633e-08 48.53930964 34.81792493 29.80390065
1807 1 1 5.65530942743e-08 47.06842147 37.36557798 29.80390065
1808 1 1 6.03961437203e-08 48.53930964 39.91323102 29.80390065
1809 1 1 5.09324087537e-08 50.01019781 22.07965971 29.80390065
1810 1 1 5.28351549184e-08 51.48108598 24.62731276 29.80390065
1811 1 1 5.43625676744e-08 50.01019781 27.17496580 29.80390065
1812 1 1 5.79712824942e-08 51.48108598 29.72261885 29.80390065
1813 1 1 5.85612875662e-08 50.01019781 32.27027189 29.80390065
1814 1 1 6.19466007213e-08 51.48108598 34.81792493 29.80390065
1815 1 1 6.15577010748e-08 50.01019781 37.36557798 29.80390065
1816 1 1 6.1746123401e-08 51.48108598 39.91323102 29.80390065
1817 1 1 1.3630678043e-07 35.30131610 22.07965971 29.80390065
1818 1 1 -7.26638382753e-08 36.77220427 24.62731276 29.80390065
1819 1 1 1.18117339155e-06 35.30131610 27.17496580 29.80390065
1820 1 1 9.66637359359e-07 36.77220427 29.72261885 29.80390065
1821 1 1 1.63523368641e-06 35.30131610 32.27027189 29.80390065
1822 1 1 1.09175463348e-06 36.77220427 34.81792493 29.80390065
1823 1 1 1.09189790519e-06 35.30131610 37.36557798 29.80390065
1824 1 1 3.63945532823e-07 36.77220427 39.91323102 29.80390065
1825 1 1 -0.000231138023991 39.71398061 22.92887739 32.20585097
1826 1 1 -0.000226562523165 41.18486878 25.47653044 32.20585097
1827 1 1 -0.000285730565109 39.71398061 28.02418348 32.20585097
1828 1 1 -0.000246047352875 41.18486878 30.57183653 32.20585097
1829 1 1 -0.000285741602583 39.71398061 33.11948957 32.20585097
1830 1 1 -0.000226496465533 41.18486878 35.66714262 32.20585097
1831 1 1 -0.000230970542563 39.71398061 38.21479566 32.20585097
1832 1 1 -0.000188500795021 41.18486878 20.38122435 32.20585097
1833 1 1 -0.000190155803384 42.65575695 22.92887739 32.20585097
1834 1 1 -0.000185907534373 44.12664513 25.47653044 32.20585097
1835 1 1 -0.000213302850368 42.65575695 28.02418348 32.20585097
1836 1 1 -0.000195963520785 44.12664513 30.57183653 32.20585097
1837 1 1 -0.000213324064459 42.65575695 33.11948957 32.20585097
1838 1 1 -0.000185918776502 44.12664513 35.66714262 32.20585097
1839 1 1 -0.000190134309818 42.65575695 38.21479566 32.20585097
1840 1 1 -0.000161166164635 44.12664513 20.38122435 32.20585097
1841 1 1 -0.000161514473467 45.59753330 22.92887739 32.20585097
1842 1 1 -0.000158504102898 47.06842147 25.47653044 32.20585097
1843 1 1 -0.000177060131588 45.59753330 28.02418348 32.20585097
1844 1 1 -0.000165498185947 47.06842147 30.57183653 32.20585097
1845 1 1 -0.000177074208168 45.59753330 33.11948957 32.20585097
1846 1 1 -0.000158514283821 47.06842147 35.66714262 32.20585097
1847 1 1 -0.000161525857667 45.59753330 38.21479566 32.20585097
1848 1 1 -0.000141159894243 47.06842147 20.38122435 32.20585097
1849 1 1 -0.000142264024759 48.53930964 22.92887739 32.20585097
1850 1 1 -0.000142065628136 50.01019781 25.47653044 32.20585097
1851 1 1 -0.000153246179097 48.53930964 28.02418348 32.20585097
1852 1 1 -0.000147148391277 50.01019781 30.57183653 32.20585097
1853 1 1 -0.000153250226759 48.53930964 33.11948957 32.20585097
1854 1 1 -0.000142066485623 50.01019781 35.66714262 32.20585097
1855 1 1 -0.000142267564535 48.53930964 38.21479566 32.20585097
1856 1 1 -0.000129398785808 50.01019781 20.38122435 32.20585097
1857 1 1 -0.000132858151548 51.48108598 22.92887739 32.20585097
1858 1 1 -0.000624700567965 35.30131610 25.47653044 32.20585097
1859 1 1 -0.000141426371251 51.48108598 28.02418348 32.20585097
1860 1 1 -0.00100308920818 35.30131610 30.57183653 32.20585097
1861 1 1 -0.000141426186887 51.48108598 33.11948957 32.20585097
1862 1 1 -0.000624508510829 35.30131610 35.66714262 32.20585097
1863 1 1 -0.000132856100083 51.48108598 38.21479566 32.20585097
1864 1 1 -0.000283195990018 35.30131610 20.38122435 32.20585097
1865 1 1 -0.000317024078109 36.77220427 22.92887739 32.20585097
1866 1 1 -0.000317882636502 38.24309244 25.47653044 32.20585097
1867 1 1 -0.000547590627725 36.77220427 28.02418348 32.20585097
1868 1 1 -0.000397455320325 38.24309244 30.57183653 32.20585097
1869 1 1 -0.000547600349488 36.77220427 33.11948957 32.20585097
1870 1 1 -0.0003176403335 38.24309244 35.66714262 32.20585097
1871 1 1 -0.000316780616833 36.77220427 38.21479566 32.20585097
1872 1 1 -0.000224165937638 38.24309244 20.38122435 32.20585097
1873 1 1 -0.00168519926273 41.18486878 23.77809508 34.60780130
1874 1 1 -0.00159251613126 42.65575695 26.32574812 34.60780130
1875 1 1 -0.00203647797891 41.18486878 28.87340116 34.60780130
1876 1 1 -0.00169892899414 42.65575695 31.42105421 34.60780130
1877 1 1 -0.00195363221551 41.18486878 33.96870725 34.60780130
1878 1 1 -0.00150041298091 42.65575695 36.51636030 34.60780130
1879 1 1 -0.00153254587743 41.18486878 39.06401334 34.60780130
1880 1 1 -0.0012848786746 42.65575695 21.23044203 34.60780130
1881 1 1 -0.001270727244 44.12664513 23.77809508 34.60780130
1882 1 1 -0.00121188852129 45.59753330 26.32574812 34.60780130
1883 1 1 -0.0014366134681 44.12664513 28.87340116 34.60780130
1884 1 1 -0.00126463499595 45.59753330 31.42105421 34.60780130
1885 1 1 -0.00139948190112 44.12664513 33.96870725 34.60780130
1886 1 1 -0.00116426828984 45.59753330 36.51636030 34.60780130
1887 1 1 -0.00119123687257 44.12664513 39.06401334 34.60780130
1888 1 1 -0.00104554635583 45.59753330 21.23044203 34.60780130
1889 1 1 -0.00103691960058 47.06842147 23.77809508 34.60780130
1890 1 1 -0.00101021325937 48.53930964 26.32574812 34.60780130
1891 1 1 -0.00112844298034 47.06842147 28.87340116 34.60780130
1892 1 1 -0.00104103715755 48.53930964 31.42105421 34.60780130
1893 1 1 -0.00110851615838 47.06842147 33.96870725 34.60780130
1894 1 1 -0.000981723060198 48.53930964 36.51636030 34.60780130
1895 1 1 -0.000990651270328 47.06842147 39.06401334 34.60780130
1896 1 1 -0.000907992193471 48.53930964 21.23044203 34.60780130
1897 1 1 -0.000916456742986 50.01019781 23.77809508 34.60780130
1898 1 1 -0.00092189792762 51.48108598 26.32574812 34.60780130
1899 1 1 -0.000976226326529 50.01019781 28.87340116 34.60780130
1900 1 1 -0.00094430670106 51.48108598 31.42105421 34.60780130
1901 1 1 -0.0009634219839 50.01019781 33.96870725 34.60780130
1902 1 1 -0.000900915938815 51.48108598 36.51636030 34.60780130
1903 1 1 -0.0008852381928 50.01019781 39.06401334 34.60780130
1904 1 1 -0.000845422681396 51.48108598 21.23044203 34.60780130
1905 1 1 -0.00390685497562 35.30131610 23.77809508 34.60780130
1906 1 1 -0.00391137489163 36.77220427 26.32574812 34.60780130
1907 1 1 -0.00655904165004 35.30131610 28.87340116 34.60780130
1908 1 1 -0.00470181389926 36.77220427 31.42105421 34.60780130
1909 1 1 -0.00581685213656 35.30131610 33.96870725 34.60780130
1910 1 1 -0.00333705633651 36.77220427 36.51636030 34.60780130
1911 1 1 -0.00310338169635 35.30131610 39.06401334 34.60780130
1912 1 1 -0.00231444070537 36.77220427 21.23044203 34.60780130
1913 1 1 -0.00244260582689 38.24309244 23.77809508 34.60780130
1914 1 1 -0.00232730900347 39.71398061 26.32574812 34.60780130
1915 1 1 -0.00334394334028 38.24309244 28.87340116 34.60780130
1916 1 1 -0.00258976706972 39.71398061 31.42105421 34.60780130
1917 1 1 -0.00311353988195 38.24309244 33.96870725 34.60780130
1918 1 1 -0.00211649585112 39.71398061 36.51636030 34.60780130
1919 1 1 -0.00210924816196 38.24309244 39.06401334 34.60780130
1920 1 1 -0.00167615026676 39.71398061 21.23044203 34.60780130
1921 1 1 0.00247319224063 35.30131610 40.76244870 25.00000000
1922 1 1 0.00162677397595 36.77220427 43.31010174 25.00000000
1923 1 1 0.00140072253247 35.30131610 45.85775479 25.00000000
1924 1 1 0.00105806210521 36.77220427 48.40540783 25.00000000
1925 1 1 0.000936368080559 35.30131610 50.95306088 25.00000000
1926 1 1 0.000789327438965 36.77220427 53.50071392 25.00000000
1927 1 1 0.000737603983314 35.30131610 56.04836697 25.00000000
1928 1 1 0.00068306770371 36.77220427 58.59602001 25.00000000
1929 1 1 0.00181104738206 38.24309244 40.76244870 25.00000000
1930 1 1 0.00130630912328 39.71398061 43.31010174 25.00000000
1931 1 1 0.00118912288803 38.24309244 45.85775479 25.00000000
1932 1 1 0.000937123765377 39.71398061 48.40540783 25.00000000
1933 1 1 0.000858328951243 38.24309244 50.95306088 25.00000000
1934 1 1 0.000739780604843 39.71398061 53.50071392 25.00000000
1935 1 1 0.000703700374589 38.24309244 56.04836697 25.00000000
1936 1 1 0.00065667332674 39.71398061 58.59602001 25.00000000
1937 1 1 0.00138102753499 41.18486878 40.76244870 25.00000000
1938 1 1 0.00107490244454 42.65575695 43.31010174 25.00000000
1939 1 1 0.00101409343413 41.18486878 45.85775479 25.00000000
1940 1 1 0.000836622622623 42.65575695 48.40540783 25.00000000
1941 1 1 0.000786242390999 41.18486878 50.95306088 25.00000000
1942 1 1 0.000695165740445 42.65575695 53.50071392 25.00000000
1943 1 1 0.000670228373545 41.18486878 56.04836697 25.00000000
1944 1 1 0.000631670026325 42.65575695 58.59602001 25.00000000
1945 1 1 0.00110702210717 44.12664513 40.76244870 25.00000000
1946 1 1 0.000918986132801 45.59753330 43.31010174 25.00000000
1947 1 1 0.000883274124563 44.12664513 45.85775479 25.00000000
1948 1 1 0.000761795850363 45.59753330 48.40540783 25.00000000
1949 1 1 0.000727157652435 44.12664513 50.95306088 25.00000000
1950 1 1 0.000659500392715 45.59753330 53.50071392 25.00000000
1951 1 1 0.000640982504998 44.12664513 56.04836697 25.00000000
1952 1 1 0.000610749252131 45.59753330 58.59602001 25.00000000
1953 1 1 0.000939480414719 47.06842147 40.76244870 25.00000000
1954 1 1 0.000824359705623 48.53930964 43.31010174 25.00000000
1955 1 1 0.000795059724243 47.06842147 45.85775479 25.00000000
1956 1 1 0.000713096143114 48.53930964 48.40540783 25.00000000
1957 1 1 0.00068428316144 47.06842147 50.95306088 25.00000000
1958 1 1 0.000634950422857 48.53930964 53.50071392 25.00000000
1959 1 1 0.000618576817503 47.06842147 56.04836697 25.00000000
1960 1 1 0.000595826208206 48.53930964 58.59602001 25.00000000
1961 1 1 0.000849590815252 50.01019781 40.76244870 25.00000000
1962 1 1 0.000780016023901 51.48108598 43.31010174 25.00000000
1963 1 1 0.000744815207616 50.01019781 45.85775479 25.00000000
1964 1 1 0.000689267078505 51.48108598 48.40540783 25.00000000
1965 1 1 0.000658553792341 50.01019781 50.95306088 25.00000000
1966 1 1 0.000622499891868 51.48108598 53.50071392 25.00000000
1967 1 1 0.000604595379249 50.01019781 56.04836697 25.00000000
1968 1 1 0.000588086146951 51.48108598 58.59602001 25.00000000
1969 1 1 0.000238766365486 36.77220427 41.61166638 27.40195032
1970 1 1 0.000189032251023 38.24309244 44.15931943 27.40195032
1971 1 1 0.000173504330031 36.77220427 46.70697247 27.40195032
1972 1 1 0.000143187155016 38.24309244 49.25462551 27.40195032
1973 1 1 0.000131584286311 36.77220427 51.80227856 27.40195032
1974 1 1 0.00011564708661 38.24309244 54.34993160 27.40195032
1975 1 1 0.000110666391389 36.77220427 56.89758465 27.40195032
1976 1 1 0.000104770445612 38.24309244 59.44523769 27.40195032
1977 1 1 0.000200592350019 39.71398061 41.61166638 27.40195032
1978 1 1 0.000164865698561 41.18486878 44.15931943 27.40195032
1979 1 1 0.00015491434698 39.71398061 46.70697247 27.40195032
1980 1 1 0.000130497727565 41.18486878 49.25462551 27.40195032
1981 1 1 0.000122572031069 39.71398061 51.80227856 27.40195032
1982 1 1 0.00010967175434 41.18486878 54.34993160 27.40195032
1983 1 1 0.000106216054157 39.71398061 56.89758465 27.40195032
1984 1 1 0.000101158803059 41.18486878 59.44523769 27.40195032
1985 1 1 0.000171374756835 42.65575695 41.61166638 27.40195032
1986 1 1 0.000144590657686 44.12664513 44.15931943 27.40195032
1987 1 1 0.000138238851068 42.65575695 46.70697247 27.40195032
1988 1 1 0.000119940372942 44.12664513 49.25462551 27.40195032
1989 1 1 0.000114484410333 42.65575695 51.80227856 27.40195032
1990 1 1 0.000104516515752 44.12664513 54.34993160 27.40195032
1991 1 1 0.000102037494553 42.65575695 56.89758465 27.40195032
1992 1 1 9.79142142623e-05 44.12664513 59.44523769 27.40195032
1993 1 1 0.000148657594267 45.59753330 41.61166638 27.40195032
1994 1 1 0.000129959904101 47.06842147 44.15931943 27.40195032
1995 1 1 0.000125302938808 45.59753330 46.70697247 27.40195032
1996 1 1 0.000112296997585 47.06842147 49.25462551 27.40195032
1997 1 1 0.000108086326585 45.59753330 51.80227856 27.40195032
1998 1 1 0.000100612097917 47.06842147 54.34993160 27.40195032
1999 1 1 9.85673733686e-05 45.59753330 56.89758465 27.40195032
2000 1 1 9.53689896921e-05 47.06842147 59.44523769 27.40195032
2001 1 1 0.000133607234695 48.53930964 41.61166638 27.40195032
2002 1 1 0.000121436930136 50.01019781 44.15931943 27.40195032
2003 1 1 0.000116799716977 48.53930964 46.70697247 27.40195032
2004 1 1 0.000107751773171 50.01019781 49.25462551 27.40195032
2005 1 1 0.000103734391442 48.53930964 51.80227856 27.40195032
2006 1 1 9.81954729902e-05 50.01019781 54.34993160 27.40195032
2007 1 1 9.61052313491e-05 48.53930964 56.89758465 27.40195032
2008 1 1 9.37534154349e-05 50.01019781 59.44523769 27.40195032
2009 1 1 0.000126330963298 51.48108598 41.61166638 27.40195032
2010 1 1 0.000215655635003 35.30131610 44.15931943 27.40195032
2011 1 1 0.000112654629606 51.48108598 46.70697247 27.40195032
2012 1 1 0.000156444024392 35.30131610 49.25462551 27.40195032
2013 1 1 0.000101546178012 51.48108598 51.80227856 27.40195032
2014 1 1 0.000121765932353 35.30131610 54.34993160 27.40195032
2015 1 1 9.4832049437e-05 51.48108598 56.89758465 27.40195032
2016 1 1 0.000108325091525 35.30131610 59.44523769 27.40195032
2017 1 1 8.44720842911e-08 38.24309244 42.46088406 29.80390065
2018 1 1 4.4645957507e-08 39.71398061 45.00853711 29.80390065
2019 1 1 4.36648639381e-08 38.24309244 47.55619015 29.80390065
2020 1 1 5.28906885534e-08 39.71398061 50.10384320 29.80390065
2021 1 1 5.17457699129e-08 38.24309244 52.65149624 29.80390065
2022 1 1 4.98261061445e-08 39.71398061 55.19914928 29.80390065
2023 1 1 4.85870066439e-08 38.24309244 57.74680233 29.80390065
2024 1 1 4.77719004021e-08 39.71398061 60.29445537 29.80390065
2025 1 1 6.61933057682e-08 41.18486878 42.46088406 29.80390065
2026 1 1 5.36977003896e-08 42.65575695 45.00853711 29.80390065
2027 1 1 5.25995518002e-08 41.18486878 47.55619015 29.80390065
2028 1 1 5.45382465516e-08 42.65575695 50.10384320 29.80390065
2029 1 1 5.21114388453e-08 41.18486878 52.65149624 29.80390065
2030 1 1 4.92020448574e-08 42.65575695 55.19914928 29.80390065
2031 1 1 4.79728476266e-08 41.18486878 57.74680233 29.80390065
2032 1 1 4.68740116132e-08 42.65575695 60.29445537 29.80390065
2033 1 1 5.73814703668e-08 44.12664513 42.46088406 29.80390065
2034 1 1 5.76217181464e-08 45.59753330 45.00853711 29.80390065
2035 1 1 5.62835334058e-08 44.12664513 47.55619015 29.80390065
2036 1 1 5.3842195725e-08 45.59753330 50.10384320 29.80390065
2037 1 1 5.13472289171e-08 44.12664513 52.65149624 29.80390065
2038 1 1 4.82806573791e-08 45.59753330 55.19914928 29.80390065
2039 1 1 4.71964568731e-08 44.12664513 57.74680233 29.80390065
2040 1 1 4.60722620991e-08 45.59753330 60.29445537 29.80390065
2041 1 1 5.90274382042e-08 47.06842147 42.46088406 29.80390065
2042 1 1 5.79832944215e-08 48.53930964 45.00853711 29.80390065
2043 1 1 5.60653073074e-08 47.06842147 47.55619015 29.80390065
2044 1 1 5.22655675427e-08 48.53930964 50.10384320 29.80390065
2045 1 1 5.00817624706e-08 47.06842147 52.65149624 29.80390065
2046 1 1 4.74666092947e-08 48.53930964 55.19914928 29.80390065
2047 1 1 4.6473708684e-08 47.06842147 57.74680233 29.80390065
2048 1 1 4.54749936532e-08 48.53930964 60.29445537 29.80390065
2049 1 1 5.99124223312e-08 50.01019781 42.46088406 29.80390065
2050 1 1 5.69246035204e-08 51.48108598 45.00853711 29.80390065
2051 1 1 5.45167118168e-08 50.01019781 47.55619015 29.80390065
2052 1 1 5.11542539594e-08 51.48108598 50.10384320 29.80390065
2053 1 1 4.90660793552e-08 50.01019781 52.65149624 29.80390065
2054 1 1 4.7017628328e-08 51.48108598 55.19914928 29.80390065
2055 1 1 4.59839930231e-08 50.01019781 57.74680233 29.80390065
2056 1 1 4.51575829823e-08 51.48108598 60.29445537 29.80390065
2057 1 1 9.40385231655e-08 35.30131610 42.46088406 29.80390065
2058 1 1 2.90932752715e-08 36.77220427 45.00853711 29.80390065
2059 1 1 3.13838915481e-08 35.30131610 47.55619015 29.80390065
2060 1 1 4.87278096295e-08 36.77220427 50.10384320 29.80390065
2061 1 1 5.03587921651e-08 35.30131610 52.65149624 29.80390065
2062 1 1 4.99220887103e-08 36.77220427 55.19914928 29.80390065
2063 1 1 4.89484796152e-08 35.30131610 57.74680233 29.80390065
2064 1 1 4.86470555664e-08 36.77220427 60.29445537 29.80390065
2065 1 1 -0.000180986429072 39.71398061 43.31010174 32.20585097
2066 1 1 -0.000149571412637 41.18486878 45.85775479 32.20585097
2067 1 1 -0.000139922757745 39.71398061 48.40540783 32.20585097
2068 1 1 -0.000120022361917 41.18486878 50.95306088 32.20585097
2069 1 1 -0.00011363449541 39.71398061 53.50071392 32.20585097
2070 1 1 -0.000103941954272 41.18486878 56.04836697 32.20585097
2071 1 1 -0.00010207394306 39.71398061 58.59602001 32.20585097
2072 1 1 -0.000188480084235 41.18486878 40.76244870 32.20585097
2073 1 1 -0.000157048120458 42.65575695 43.31010174 32.20585097
2074 1 1 -0.000133259858858 44.12664513 45.85775479 32.20585097
2075 1 1 -0.000126906215087 42.65575695 48.40540783 32.20585097
2076 1 1 -0.000111915377944 44.12664513 50.95306088 32.20585097
2077 1 1 -0.000107423912127 42.65575695 53.50071392 32.20585097
2078 1 1 -9.98016806565e-05 44.12664513 56.04836697 32.20585097
2079 1 1 -9.85005852758e-05 42.65575695 58.59602001 32.20585097
2080 1 1 -0.000161176433286 44.12664513 40.76244870 32.20585097
2081 1 1 -0.000138181718879 45.59753330 43.31010174 32.20585097
2082 1 1 -0.000121527521067 47.06842147 45.85775479 32.20585097
2083 1 1 -0.000116801677916 45.59753330 48.40540783 32.20585097
2084 1 1 -0.000105970893122 47.06842147 50.95306088 32.20585097
2085 1 1 -0.000102429124869 45.59753330 53.50071392 32.20585097
2086 1 1 -9.6617580651e-05 47.06842147 56.04836697 32.20585097
2087 1 1 -9.54992692698e-05 45.59753330 58.59602001 32.20585097
2088 1 1 -0.000141166134785 47.06842147 40.76244870 32.20585097
2089 1 1 -0.00012573538167 48.53930964 43.31010174 32.20585097
2090 1 1 -0.000114672908099 50.01019781 45.85775479 32.20585097
2091 1 1 -0.000110109019173 48.53930964 48.40540783 32.20585097
2092 1 1 -0.00010238927728 50.01019781 50.95306088 32.20585097
2093 1 1 -9.89781753502e-05 48.53930964 53.50071392 32.20585097
2094 1 1 -9.46243559414e-05 50.01019781 56.04836697 32.20585097
2095 1 1 -9.33510583099e-05 48.53930964 58.59602001 32.20585097
2096 1 1 -0.000129398243177 50.01019781 40.76244870 32.20585097
2097 1 1 -0.000119719281839 51.48108598 43.31010174 32.20585097
2098 1 1 -0.000189140014411 35.30131610 45.85775479 32.20585097
2099 1 1 -0.000106817523237 51.48108598 48.40540783 32.20585097
2100 1 1 -0.00013979357547 35.30131610 50.95306088 32.20585097
2101 1 1 -9.72239394478e-05 51.48108598 53.50071392 32.20585097
2102 1 1 -0.000113417832958 35.30131610 56.04836697 32.20585097
2103 1 1 -9.22341853616e-05 51.48108598 58.59602001 32.20585097
2104 1 1 -0.000283206288265 35.30131610 40.76244870 32.20585097
2105 1 1 -0.000208616976122 36.77220427 43.31010174 32.20585097
2106 1 1 -0.000168974835755 38.24309244 45.85775479 32.20585097
2107 1 1 -0.0001544814788 36.77220427 48.40540783 32.20585097
2108 1 1 -0.000129696097817 38.24309244 50.95306088 32.20585097
2109 1 1 -0.000120463143913 36.77220427 53.50071392 32.20585097
2110 1 1 -0.000108660629913 38.24309244 56.04836697 32.20585097
2111 1 1 -0.000105832326302 36.77220427 58.59602001 32.20585097
2112 1 1 -0.000224100255549 38.24309244 40.76244870 32.20585097
2113 1 1 -0.00112286723088 41.18486878 44.15931943 34.60780130
2114 1 1 -0.00090638430393 42.65575695 46.70697247 34.60780130
2115 1 1 -0.000849380823703 41.18486878 49.25462551 34.60780130
2116 1 1 -0.000733860750605 42.65575695 51.80227856 34.60780130
2117 1 1 -0.000699909394128 41.18486878 54.34993160 34.60780130
2118 1 1 -0.000646437404685 42.65575695 56.89758465 34.60780130
2119 1 1 -0.000640115273109 41.18486878 59.44523769 34.60780130
2120 1 1 -0.00117742762846 42.65575695 41.61166638 34.60780130
2121 1 1 -0.000953286151362 44.12664513 44.15931943 34.60780130
2122 1 1 -0.000809895893325 45.59753330 46.70697247 34.60780130
2123 1 1 -0.000772274381972 44.12664513 49.25462551 34.60780130
2124 1 1 -0.000688536589483 45.59753330 51.80227856 34.60780130
2125 1 1 -0.000663778790707 44.12664513 54.34993160 34.60780130
2126 1 1 -0.000622466957535 45.59753330 56.89758465 34.60780130
2127 1 1 -0.000617874571972 44.12664513 59.44523769 34.60780130
2128 1 1 -0.00098231684021 45.59753330 41.61166638 34.60780130
2129 1 1 -0.00084222703076 47.06842147 44.15931943 34.60780130
2130 1 1 -0.000748456505966 48.53930964 46.70697247 34.60780130
2131 1 1 -0.000717566187315 47.06842147 49.25462551 34.60780130
2132 1 1 -0.000657861797745 48.53930964 51.80227856 34.60780130
2133 1 1 -0.000636526301729 47.06842147 54.34993160 34.60780130
2134 1 1 -0.000605518160869 48.53930964 56.89758465 34.60780130
2135 1 1 -0.0006004893238 47.06842147 59.44523769 34.60780130
2136 1 1 -0.000867005957281 48.53930964 41.61166638 34.60780130
2137 1 1 -0.000780185641286 50.01019781 44.15931943 34.60780130
2138 1 1 -0.000718809580026 51.48108598 46.70697247 34.60780130
2139 1 1 -0.000685265913418 50.01019781 49.25462551 34.60780130
2140 1 1 -0.000642471808591 51.48108598 51.80227856 34.60780130
2141 1 1 -0.000619708490365 50.01019781 54.34993160 34.60780130
2142 1 1 -0.000596775669893 51.48108598 56.89758465 34.60780130
2143 1 1 -0.000589484923845 50.01019781 59.44523769 34.60780130
2144 1 1 -0.000813777390653 51.48108598 41.61166638 34.60780130
2145 1 1 -0.00166405179746 35.30131610 44.15931943 34.60780130
2146 1 1 -0.0012062252239 36.77220427 46.70697247 34.60780130
2147 1 1 -0.00105369052132 35.30131610 49.25462551 34.60780130
2148 1 1 -0.000857641646642 36.77220427 51.80227856 34.60780130
2149 1 1 -0.000785520244161 35.30131610 54.34993160 34.60780130
2150 1 1 -0.00070639248727 36.77220427 56.89758465 34.60780130
2151 1 1 -0.000689501143589 35.30131610 59.44523769 34.60780130
2152 1 1 -0.0019321455154 36.77220427 41.61166638 34.60780130
2153 1 1 -0.00135967053535 38.24309244 44.15931943 34.60780130
2154 1 1 -0.00103978141285 39.71398061 46.70697247 34.60780130
2155 1 1 -0.000946004414701 38.24309244 49.25462551 34.60780130
2156 1 1 -0.000791783923737 39.71398061 51.80227856 34.60780130
2157 1 1 -0.000742030826357 38.24309244 54.34993160 34.60780130
2158 1 1 -0.000675412644377 39.71398061 56.89758465 34.60780130
2159 1 1 -0.000664963348695 38.24309244 59.44523769 34.60780130
2160 1 1 -0.00148029526563 39.71398061 41.61166638 34.60780130
2161 2 2 1 26.47598707 30.57183653 40.60780130
2162 3 2 -1 26.47598707 30.57183653 19.00000000
