LAMMPS (2 Sep 2026)
OMP_NUM_THREADS environment is not set. Defaulting to 1 thread.
  using 1 OpenMP thread(s) per MPI task
# 180 SPC-FQ molecules, lateral box of the Au(111) slab, 0.98 g/cc; settings of the stable v_mine variant
units        metal
atom_style   full
boundary     p p p
read_data    water180.data
Reading data file ...
  orthogonal box = (0 0 0) to (17.650658 20.381224 14.97)
  1 by 1 by 1 MPI processor grid
  reading atoms ...
  528 atoms
  reading velocities ...
  528 velocities
Finding 1-2 1-3 1-4 neighbors ...
  special bond factors lj:    0        0        0       
  special bond factors coul:  0        0        0       
     0 = max # of 1-2 neighbors
     0 = max # of 1-3 neighbors
     0 = max # of 1-4 neighbors
     1 = max # of special neighbors
  special bonds CPU = 0.000 seconds
  read_data CPU = 0.003 seconds
group        fq type 1 2
528 atoms in group fq
pair_style   hybrid/overlay lj/cut 12.0 coul/long 12.0 coul/shield/intra 12.0 all cbrt
pair_coeff   1 1 lj/cut 0.01275 3.144
pair_coeff   1 2 lj/cut 0.0 1.0
pair_coeff   2 2 lj/cut 0.0 1.0
pair_coeff   * * coul/long
pair_coeff   * * coul/shield/intra 1.11
kspace_style pppm/samqeq 1.0e-6
kspace_modify gewald 0.35 mesh 24 28 20
Updated KSpace settings:
  KSpace computation is turned:    ON
  Use MPI collective operations:   OFF
  Use MPI non-blocking operations: OFF
  Gewald manually set to:          0.35
neighbor     2.0 bin
neigh_modify every 1 delay 0 check yes
fix          chg fq qeq/sam 1 0.0 12.0 1.0e-7 spcfq_expt.param
fix_modify   chg shield cbrt
samqeq: lr-solve shielding = cbrt J_shield (param 4th col = gamma); routed through compute_H + add_fixed_charge_field + the legacy gas path (calc_Hval)
velocity     all create 298 4928459 mom yes rot yes
variable     aq atom abs(q)
compute      qmax fq reduce max v_aq
thermo_style custom step temp pe c_qmax
thermo       500
timestep     0.00025
fix          integ all rigid/nvt/small molecule temp 298 298 0.02
Fix rigid/nvt/small setup ...
  create bodies CPU = 0.000 seconds
  176 rigid bodies with 528 atoms
  1.0000026 = max distance from body owner to body atom
run          2000

CITE-CITE-CITE-CITE-CITE-CITE-CITE-CITE-CITE-CITE-CITE-CITE-CITE

Your simulation uses code contributions which should be cited:

- fix acks2/reaxff command: https://doi.org/10.1137/18M1224684

@Article{O'Hearn2020,
 author = {K. A. {O'Hearn} and A. Alperen and H. M. Aktulga},
 title = {Fast Solvers for Charge Distribution Models on Shared Memory Platforms},
 journal = {SIAM J.\ Sci.\ Comput.},
 year =    2020,
 volume =  42,
 number =  1,
 pages =   {1--22}
}

CITE-CITE-CITE-CITE-CITE-CITE-CITE-CITE-CITE-CITE-CITE-CITE-CITE

PPPM initialization ...
  using 12-bit tables for long-range coulomb
WARNING: For better accuracy use 'pair_modify table 0' (src/kspace.cpp:368)
  G vector (1/distance) = 0.35
  grid = 24 30 20
  stencil order = 5
  estimated absolute RMS force accuracy = 2.9295974e-05
  estimated relative force accuracy = 2.0344928e-06
  using double precision FFTW3
  3d grid and FFT values/proc = 30969 14400
Generated 0 of 1 mixed pair_coeff terms from geometric mixing rule
samqeq: E_self = sum(chi q + 1/2 eta qs^2) INCLUDED in pe/etotal (fix_modify chg energy yes; eselfref qs = q - q0) -- pe + E_self is the energy the forces integrate
Neighbor list info ...
  update: every = 1 steps, delay = 0 steps, check = yes
  max neighbors/atom: 2000, page size: 100000
  master list distance cutoff = 14
  ghost atom cutoff = 14
  binsize = 7, bins = 3 3 3
  5 neighbor lists, perpetual/occasional/extra = 5 0 0
  (1) pair lj/cut, perpetual, half/full from (5)
      attributes: half, newton on
      pair build: halffull/newton
      stencil: none
      bin: none
  (2) pair coul/long, perpetual, copy from (1)
      attributes: half, newton on
      pair build: copy
      stencil: none
      bin: none
  (3) pair coul/shield/intra, perpetual, copy from (1)
      attributes: half, newton on
      pair build: copy
      stencil: none
      bin: none
  (4) fix qeq/sam, perpetual, half/full from (5)
      attributes: half, newton off
      pair build: halffull/newtoff
      stencil: none
      bin: none
  (5) fix qeq/sam, perpetual
      attributes: full, newton on
      pair build: full/bin
      stencil: full/bin/3d
      bin: standard
samqeq: recip_self ACTIVE at run start (step 0): not yet calibrated -- measured at the first solve by the K=16 deterministic-probe route
samqeq: calibrated grid reciprocal self-term recip_self=0.39461 +/- 0.00014 (raw, K=16 deterministic probes) = 5.6823 eV/e (subtracted so the QEq diagonal stays = eta)
samqeq SOLVER-DIAG step 0: CG 20 iters (=20 matvecs), resid/b=4.40e-08
Per MPI rank memory allocation (min/avg/max) = 45.16 | 45.16 | 45.16 Mbytes
   Step          Temp          PotEng         c_qmax    
         0   302.15092     -208.41515      1.4620707    
samqeq SOLVER-DIAG step 200: CG 20 iters (=20 matvecs), resid/b=4.11e-08
samqeq SOLVER-DIAG step 400: CG 20 iters (=20 matvecs), resid/b=4.60e-08
       500   281.70357     -207.25003      1.5623104    
samqeq SOLVER-DIAG step 600: CG 20 iters (=20 matvecs), resid/b=7.81e-08
samqeq SOLVER-DIAG step 800: CG 20 iters (=20 matvecs), resid/b=4.02e-08
samqeq SOLVER-DIAG step 1000: CG 20 iters (=20 matvecs), resid/b=6.48e-08
      1000   288.42664     -207.82141      1.4622956    
samqeq SOLVER-DIAG step 1200: CG 20 iters (=20 matvecs), resid/b=5.33e-08
samqeq SOLVER-DIAG step 1400: CG 20 iters (=20 matvecs), resid/b=6.69e-08
      1500   273.5648      -207.38684      1.4039368    
samqeq SOLVER-DIAG step 1600: CG 20 iters (=20 matvecs), resid/b=5.86e-08
samqeq SOLVER-DIAG step 1800: CG 20 iters (=20 matvecs), resid/b=4.25e-08
samqeq SOLVER-DIAG step 2000: CG 19 iters (=19 matvecs), resid/b=9.46e-08
      2000   300.14318     -208.37802      1.4198226    
Loop time of 57.732 on 1 procs for 2000 steps with 528 atoms

Performance: 0.748 ns/day, 32.073 hours/ns, 34.643 timesteps/s, 18.291 katom-step/s
100.0% CPU use with 1 MPI tasks x 1 OpenMP threads

MPI task timing breakdown:
Section |  min time  |  avg time  |  max time  |%varavg| %total
---------------------------------------------------------------
Pair    | 15.098     | 15.098     | 15.098     |   0.0 | 26.15
Bond    | 0.00044256 | 0.00044256 | 0.00044256 |   0.0 |  0.00
Kspace  | 1.1825     | 1.1825     | 1.1825     |   0.0 |  2.05
Neigh   | 0.16485    | 0.16485    | 0.16485    |   0.0 |  0.29
Comm    | 0.063392   | 0.063392   | 0.063392   |   0.0 |  0.11
Output  | 0.00012604 | 0.00012604 | 0.00012604 |   0.0 |  0.00
Modify  | 41.208     | 41.208     | 41.208     |   0.0 | 71.38
Other   |            | 0.015      |            |       |  0.03

Nlocal:            528 ave         528 max         528 min
Histogram: 1 0 0 0 0 0 0 0 0 0
Nghost:           8793 ave        8793 max        8793 min
Histogram: 1 0 0 0 0 0 0 0 0 0
Neighs:         297145 ave      297145 max      297145 min
Histogram: 1 0 0 0 0 0 0 0 0 0
FullNghs:       594290 ave      594290 max      594290 min
Histogram: 1 0 0 0 0 0 0 0 0 0

Total # of neighbors = 594290
Ave neighs/atom = 1125.5492
Ave special neighs/atom = 0
Neighbor list builds = 17
Dangerous builds = 0
unfix        integ
timestep     0.001
fix          integ all rigid/nvt/small molecule temp 298 298 0.1
Fix rigid/nvt/small setup ...
  create bodies CPU = 0.000 seconds
  176 rigid bodies with 528 atoms
  1.0000026 = max distance from body owner to body atom
run          3000
PPPM initialization ...
  using 12-bit tables for long-range coulomb
WARNING: For better accuracy use 'pair_modify table 0' (src/kspace.cpp:368)
  G vector (1/distance) = 0.35
  grid = 24 30 20
  stencil order = 5
  estimated absolute RMS force accuracy = 2.9091374e-05
  estimated relative force accuracy = 2.0202841e-06
  using double precision FFTW3
  3d grid and FFT values/proc = 30969 14400
Generated 0 of 1 mixed pair_coeff terms from geometric mixing rule
samqeq: E_self = sum(chi q + 1/2 eta qs^2) INCLUDED in pe/etotal (fix_modify chg energy yes; eselfref qs = q - q0) -- pe + E_self is the energy the forces integrate
samqeq: recip_self ACTIVE at run start (step 2000): 0.39461 raw = 5.6823 eV/e, K=16 deterministic-probe route, calibration #1 at step 0 on the 24x30x20 mesh; first at this mesh 0.39461 (step 0), drift +0.000%
samqeq: setup solve SKIPPED at run-boundary step 2000 (2nd+ run / restart): the setup forces use the STORED atom->q (the first in-loop step re-solves) -- use `reset_timestep 0` before the run to force a solve
Per MPI rank memory allocation (min/avg/max) = 45.25 | 45.25 | 45.25 Mbytes
   Step          Temp          PotEng         c_qmax    
      2000   300.14318     -208.37802      1.4198226    
samqeq SOLVER-DIAG step 2200: CG 20 iters (=20 matvecs), resid/b=4.11e-08
samqeq SOLVER-DIAG step 2400: CG 20 iters (=20 matvecs), resid/b=5.00e-08
      2500   285.7202      -207.08169      1.489881     
samqeq SOLVER-DIAG step 2600: CG 20 iters (=20 matvecs), resid/b=4.01e-08
samqeq SOLVER-DIAG step 2800: CG 19 iters (=19 matvecs), resid/b=8.21e-08
samqeq SOLVER-DIAG step 3000: CG 20 iters (=20 matvecs), resid/b=5.80e-08
      3000   291.22797     -207.46901      1.4097674    
samqeq SOLVER-DIAG step 3200: CG 20 iters (=20 matvecs), resid/b=4.92e-08
samqeq SOLVER-DIAG step 3400: CG 20 iters (=20 matvecs), resid/b=4.79e-08
      3500   287.98087     -207.8286       1.4678278    
samqeq SOLVER-DIAG step 3600: CG 20 iters (=20 matvecs), resid/b=5.16e-08
samqeq SOLVER-DIAG step 3800: CG 20 iters (=20 matvecs), resid/b=5.16e-08
samqeq SOLVER-DIAG step 4000: CG 20 iters (=20 matvecs), resid/b=6.44e-08
      4000   296.40816     -207.6368       1.3947236    
samqeq SOLVER-DIAG step 4200: CG 20 iters (=20 matvecs), resid/b=3.69e-08
samqeq SOLVER-DIAG step 4400: CG 20 iters (=20 matvecs), resid/b=5.76e-08
      4500   282.55864     -207.53991      1.4286854    
samqeq SOLVER-DIAG step 4600: CG 20 iters (=20 matvecs), resid/b=4.05e-08
samqeq SOLVER-DIAG step 4800: CG 19 iters (=19 matvecs), resid/b=8.48e-08
samqeq SOLVER-DIAG step 5000: CG 20 iters (=20 matvecs), resid/b=4.57e-08
      5000   286.42672     -207.06142      1.4096644    
Loop time of 89.7159 on 1 procs for 3000 steps with 528 atoms

Performance: 2.889 ns/day, 8.307 hours/ns, 33.439 timesteps/s, 17.656 katom-step/s
100.0% CPU use with 1 MPI tasks x 1 OpenMP threads

MPI task timing breakdown:
Section |  min time  |  avg time  |  max time  |%varavg| %total
---------------------------------------------------------------
Pair    | 22.843     | 22.843     | 22.843     |   0.0 | 25.46
Bond    | 0.00063236 | 0.00063236 | 0.00063236 |   0.0 |  0.00
Kspace  | 1.8881     | 1.8881     | 1.8881     |   0.0 |  2.10
Neigh   | 1.1009     | 1.1009     | 1.1009     |   0.0 |  1.23
Comm    | 0.1025     | 0.1025     | 0.1025     |   0.0 |  0.11
Output  | 0.00019633 | 0.00019633 | 0.00019633 |   0.0 |  0.00
Modify  | 63.756     | 63.756     | 63.756     |   0.0 | 71.06
Other   |            | 0.02422    |            |       |  0.03

Nlocal:            528 ave         528 max         528 min
Histogram: 1 0 0 0 0 0 0 0 0 0
Nghost:           8835 ave        8835 max        8835 min
Histogram: 1 0 0 0 0 0 0 0 0 0
Neighs:         297106 ave      297106 max      297106 min
Histogram: 1 0 0 0 0 0 0 0 0 0
FullNghs:       594212 ave      594212 max      594212 min
Histogram: 1 0 0 0 0 0 0 0 0 0

Total # of neighbors = 594212
Ave neighs/atom = 1125.4015
Ave special neighs/atom = 0
Neighbor list builds = 113
Dangerous builds = 0
Total wall time: 0:02:27
