ITEM: TIMESTEP
0
ITEM: NUMBER OF ATOMS
240
ITEM: BOX BOUNDS pp pp ff
0.0000000000000000e+00 1.7650658050000001e+01
0.0000000000000000e+00 2.0381224350000000e+01
0.0000000000000000e+00 6.0000000000000000e+01
ITEM: ATOMS id type q
1 1 -0.0700524483068
2 1 -0.07005168829
3 1 -0.0700514300071
4 1 -0.0700519039929
5 1 -0.0700524492462
6 1 -0.0700516888925
7 1 -0.0700514298378
8 1 -0.0700519032293
9 1 -0.0700524497952
10 1 -0.070051690313
11 1 -0.0700514314955
12 1 -0.0700519060159
13 1 -0.0700524507346
14 1 -0.0700516909155
15 1 -0.0700514313262
16 1 -0.0700519052523
17 1 -0.0700524518229
18 1 -0.0700516918004
19 1 -0.0700514335231
20 1 -0.0700519075033
21 1 -0.0700524527623
22 1 -0.0700516924029
23 1 -0.0700514333538
24 1 -0.0700519067397
25 1 -0.0700524523661
26 1 -0.0700516912546
27 1 -0.0700514340664
28 1 -0.0700519069575
29 1 -0.0700524533055
30 1 -0.0700516918571
31 1 -0.070051433897
32 1 -0.0700519061939
33 1 -0.0700524508768
34 1 -0.0700516892263
35 1 -0.0700514325771
36 1 -0.0700519049292
37 1 -0.0700524518162
38 1 -0.0700516898288
39 1 -0.0700514324078
40 1 -0.0700519041656
41 1 -0.0700524488545
42 1 -0.0700516877398
43 1 -0.0700514305548
44 1 -0.0700519034427
45 1 -0.0700524497939
46 1 -0.0700516883423
47 1 -0.0700514303855
48 1 -0.0700519026791
49 1 0.075668804292
50 1 0.0756693963831
51 1 0.0756689325395
52 1 0.075668655845
53 1 0.0756688037883
54 1 0.0756693961839
55 1 0.075668932761
56 1 0.0756686563625
57 1 0.0756688033044
58 1 0.0756693953839
59 1 0.0756689315519
60 1 0.0756686548458
61 1 0.0756688028007
62 1 0.0756693951847
63 1 0.0756689317734
64 1 0.0756686553633
65 1 0.075668802561
66 1 0.0756693951089
67 1 0.0756689308085
68 1 0.0756686545708
69 1 0.0756688020573
70 1 0.0756693949097
71 1 0.07566893103
72 1 0.0756686550883
73 1 0.0756688028392
74 1 0.0756693958547
75 1 0.0756689310868
76 1 0.0756686553166
77 1 0.0756688023356
78 1 0.0756693956555
79 1 0.0756689313083
80 1 0.0756686558341
81 1 0.0756688038393
82 1 0.0756693968414
83 1 0.0756689320868
84 1 0.0756686563033
85 1 0.0756688033356
86 1 0.0756693966422
87 1 0.0756689323083
88 1 0.0756686568208
89 1 0.075668804543
90 1 0.0756693970892
91 1 0.0756689327906
92 1 0.0756686565511
93 1 0.0756688040394
94 1 0.07566939689
95 1 0.0756689330121
96 1 0.0756686570687
97 1 -0.00669964202565
98 1 -0.0066995914947
99 1 -0.00669973901385
100 1 -0.00669977441064
101 1 -0.00669964206677
102 1 -0.0066995914564
103 1 -0.00669973896479
104 1 -0.00669977442341
105 1 -0.00669964121128
106 1 -0.00669959089545
107 1 -0.00669973819948
108 1 -0.00669977381139
109 1 -0.0066996412524
110 1 -0.00669959085714
111 1 -0.00669973815041
112 1 -0.00669977382416
113 1 -0.00669964098988
114 1 -0.00669959111332
115 1 -0.00669973797807
116 1 -0.00669977402925
117 1 -0.006699641031
118 1 -0.00669959107501
119 1 -0.00669973792901
120 1 -0.00669977404203
121 1 -0.00669964158654
122 1 -0.00669959192674
123 1 -0.00669973857474
124 1 -0.00669977484268
125 1 -0.00669964162767
126 1 -0.00669959188843
127 1 -0.00669973852568
128 1 -0.00669977485546
129 1 -0.00669964239888
130 1 -0.006699592521
131 1 -0.00669973938708
132 1 -0.00669977543693
133 1 -0.00669964244
134 1 -0.0066995924827
135 1 -0.00669973933801
136 1 -0.00669977544971
137 1 -0.00669964261732
138 1 -0.0066995923061
139 1 -0.00669973960552
140 1 -0.00669977522202
141 1 -0.00669964265845
142 1 -0.00669959226779
143 1 -0.00669973955646
144 1 -0.0066997752348
145 1 -0.0654750154775
146 1 -0.0654749440306
147 1 -0.0654751709104
148 1 -0.0654755345534
149 1 -0.0654750151947
150 1 -0.0654749440092
151 1 -0.0654751712939
152 1 -0.0654755350634
153 1 -0.0654750136517
154 1 -0.0654749433593
155 1 -0.0654751690846
156 1 -0.0654755338821
157 1 -0.0654750133689
158 1 -0.0654749433379
159 1 -0.0654751694681
160 1 -0.0654755343921
161 1 -0.0654750143198
162 1 -0.0654749451827
163 1 -0.0654751697527
164 1 -0.0654755357055
165 1 -0.0654750140369
166 1 -0.0654749451613
167 1 -0.0654751701361
168 1 -0.0654755362155
169 1 -0.0654750168044
170 1 -0.0654749476632
171 1 -0.0654751722373
172 1 -0.065475538186
173 1 -0.0654750165216
174 1 -0.0654749476418
175 1 -0.0654751726208
176 1 -0.0654755386961
177 1 -0.0654750186071
178 1 -0.0654749483164
179 1 -0.06547517404
180 1 -0.0654755388392
181 1 -0.0654750183242
182 1 -0.065474948295
183 1 -0.0654751744234
184 1 -0.0654755393492
185 1 -0.0654750179572
186 1 -0.0654749465161
187 1 -0.0654751733901
188 1 -0.0654755370389
189 1 -0.0654750176743
190 1 -0.0654749464947
191 1 -0.0654751737735
192 1 -0.0654755375489
193 1 0.0665582902075
194 1 0.0665578117392
195 1 0.0665574083833
196 1 0.0665576095119
197 1 0.0665582905921
198 1 0.0665578114845
199 1 0.066557407586
200 1 0.0665576086915
201 1 0.0665582910755
202 1 0.0665578108737
203 1 0.0665574092513
204 1 0.0665576086465
205 1 0.0665582914601
206 1 0.0665578106191
207 1 0.066557408454
208 1 0.066557607826
209 1 0.0665582887146
210 1 0.0665578076643
211 1 0.0665574068904
212 1 0.0665576054371
213 1 0.0665582890991
214 1 0.0665578074096
215 1 0.066557406093
216 1 0.0665576046166
217 1 0.0665582855176
218 1 0.0665578053189
219 1 0.0665574036933
220 1 0.0665576030917
221 1 0.0665582859021
222 1 0.0665578050643
223 1 0.066557402896
224 1 0.0665576022712
225 1 0.0665582846539
226 1 0.06655780618
227 1 0.0665574028297
228 1 0.0665576039528
229 1 0.0665582850385
230 1 0.0665578059254
231 1 0.0665574020324
232 1 0.0665576031323
233 1 0.0665582869974
234 1 0.0665578093764
235 1 0.0665574051732
236 1 0.0665576071491
237 1 0.066558287382
238 1 0.0665578091217
239 1 0.0665574043759
240 1 0.0665576063287
