ITEM: TIMESTEP
0
ITEM: NUMBER OF ATOMS
2162
ITEM: BOX BOUNDS pp pp ff
0.0000000000000000e+00 5.2951974149999998e+01
0.0000000000000000e+00 6.1143673049999997e+01
0.0000000000000000e+00 6.0000000000000000e+01
ITEM: ATOMS id mol type q x y z
1 1 1 0.000789640324491 0.00000000 0.00000000 25.00000000
2 1 1 0.000796448407008 1.47088817 2.54765304 25.00000000
3 1 1 0.000811735501015 0.00000000 5.09530609 25.00000000
4 1 1 0.000841082057276 1.47088817 7.64295913 25.00000000
5 1 1 0.000876693779127 0.00000000 10.19061218 25.00000000
6 1 1 0.000927273991526 1.47088817 12.73826522 25.00000000
7 1 1 0.000977877220993 0.00000000 15.28591827 25.00000000
8 1 1 0.00104353866368 1.47088817 17.83357131 25.00000000
9 1 1 0.00079435295866 2.94177634 0.00000000 25.00000000
10 1 1 0.000806463132115 4.41266451 2.54765304 25.00000000
11 1 1 0.000817845182679 2.94177634 5.09530609 25.00000000
12 1 1 0.000857005844566 4.41266451 7.64295913 25.00000000
13 1 1 0.000887557962858 2.94177634 10.19061218 25.00000000
14 1 1 0.000957239251091 4.41266451 12.73826522 25.00000000
15 1 1 0.000998163069338 2.94177634 15.28591827 25.00000000
16 1 1 0.00109827622075 4.41266451 17.83357131 25.00000000
17 1 1 0.000808121813532 5.88355268 0.00000000 25.00000000
18 1 1 0.00082575050241 7.35444085 2.54765304 25.00000000
19 1 1 0.000835834189858 5.88355268 5.09530609 25.00000000
20 1 1 0.000888309354509 7.35444085 7.64295913 25.00000000
21 1 1 0.000920139523922 5.88355268 10.19061218 25.00000000
22 1 1 0.00101809294079 7.35444085 12.73826522 25.00000000
23 1 1 0.00106054529503 5.88355268 15.28591827 25.00000000
24 1 1 0.00121416738083 7.35444085 17.83357131 25.00000000
25 1 1 0.000829807496146 8.82532903 0.00000000 25.00000000
26 1 1 0.000852741108004 10.29621720 2.54765304 25.00000000
27 1 1 0.000864592128571 8.82532903 5.09530609 25.00000000
28 1 1 0.000933561015329 10.29621720 7.64295913 25.00000000
29 1 1 0.000974105589824 8.82532903 10.19061218 25.00000000
30 1 1 0.00111075523363 10.29621720 12.73826522 25.00000000
31 1 1 0.00116909303764 8.82532903 15.28591827 25.00000000
32 1 1 0.00140351380669 10.29621720 17.83357131 25.00000000
33 1 1 0.000857428640906 11.76710537 0.00000000 25.00000000
34 1 1 0.00088492178117 13.23799354 2.54765304 25.00000000
35 1 1 0.000901995309923 11.76710537 5.09530609 25.00000000
36 1 1 0.000989805422747 13.23799354 7.64295913 25.00000000
37 1 1 0.001047876242 11.76710537 10.19061218 25.00000000
38 1 1 0.00123405732779 13.23799354 12.73826522 25.00000000
39 1 1 0.00132859739953 11.76710537 15.28591827 25.00000000
40 1 1 0.00168249256176 13.23799354 17.83357131 25.00000000
41 1 1 0.000888125159751 14.70888171 0.00000000 25.00000000
42 1 1 0.000918799086172 16.17976988 2.54765304 25.00000000
43 1 1 0.000944613581009 14.70888171 5.09530609 25.00000000
44 1 1 0.00105183449762 16.17976988 7.64295913 25.00000000
45 1 1 0.00113710896776 14.70888171 10.19061218 25.00000000
46 1 1 0.00138131892723 16.17976988 12.73826522 25.00000000
47 1 1 0.00154046349653 14.70888171 15.28591827 25.00000000
48 1 1 0.00206373773097 16.17976988 17.83357131 25.00000000
49 1 1 0.000126315724095 1.47088817 0.84921768 27.40195032
50 1 1 0.000128303318409 2.94177634 3.39687073 27.40195032
51 1 1 0.000130770542203 1.47088817 5.94452377 27.40195032
52 1 1 0.000136397045575 2.94177634 8.49217681 27.40195032
53 1 1 0.000141600639565 1.47088817 11.03982986 27.40195032
54 1 1 0.000150845299435 2.94177634 13.58748290 27.40195032
55 1 1 0.000157531971634 1.47088817 16.13513595 27.40195032
56 1 1 0.00016957842808 2.94177634 18.68278899 27.40195032
57 1 1 0.000127714482898 4.41266451 0.84921768 27.40195032
58 1 1 0.000130609813981 5.88355268 3.39687073 27.40195032
59 1 1 0.000132705953621 4.41266451 5.94452377 27.40195032
60 1 1 0.000140210408543 5.88355268 8.49217681 27.40195032
61 1 1 0.00014507815717 4.41266451 11.03982986 27.40195032
62 1 1 0.000157997969636 5.88355268 13.58748290 27.40195032
63 1 1 0.000163898508728 4.41266451 16.13513595 27.40195032
64 1 1 0.000182263709373 5.88355268 18.68278899 27.40195032
65 1 1 0.000130397098756 7.35444085 0.84921768 27.40195032
66 1 1 0.00013425970306 8.82532903 3.39687073 27.40195032
67 1 1 0.000136469901094 7.35444085 5.94452377 27.40195032
68 1 1 0.000146413226278 8.82532903 8.49217681 27.40195032
69 1 1 0.00015201782295 7.35444085 11.03982986 27.40195032
70 1 1 0.000170049869447 8.82532903 13.58748290 27.40195032
71 1 1 0.000176967000022 7.35444085 16.13513595 27.40195032
72 1 1 0.000204489951436 8.82532903 18.68278899 27.40195032
73 1 1 0.000134126750854 10.29621720 0.84921768 27.40195032
74 1 1 0.000138940071011 11.76710537 3.39687073 27.40195032
75 1 1 0.000141818384989 10.29621720 5.94452377 27.40195032
76 1 1 0.000154668419566 11.76710537 8.49217681 27.40195032
77 1 1 0.000162269343994 10.29621720 11.03982986 27.40195032
78 1 1 0.000186867438905 11.76710537 13.58748290 27.40195032
79 1 1 0.000197157576881 10.29621720 16.13513595 27.40195032
80 1 1 0.000237844015049 11.76710537 18.68278899 27.40195032
81 1 1 0.000138537362087 13.23799354 0.84921768 27.40195032
82 1 1 0.000144184108557 14.70888171 3.39687073 27.40195032
83 1 1 0.000148319002081 13.23799354 5.94452377 27.40195032
84 1 1 0.000164317114832 14.70888171 8.49217681 27.40195032
85 1 1 0.000175329080329 13.23799354 11.03982986 27.40195032
86 1 1 0.000207715934724 14.70888171 13.58748290 27.40195032
87 1 1 0.000224674254569 13.23799354 16.13513595 27.40195032
88 1 1 0.000285454464422 14.70888171 18.68278899 27.40195032
89 1 1 0.000143139090427 16.17976988 0.84921768 27.40195032
90 1 1 0.00012751577615 0.00000000 3.39687073 27.40195032
91 1 1 0.000155305915784 16.17976988 5.94452377 27.40195032
92 1 1 0.000135113843483 0.00000000 8.49217681 27.40195032
93 1 1 0.00019010181328 16.17976988 11.03982986 27.40195032
94 1 1 0.000148484243132 0.00000000 13.58748290 27.40195032
95 1 1 0.000259313358081 16.17976988 16.13513595 27.40195032
96 1 1 0.000165469859168 0.00000000 18.68278899 27.40195032
97 1 1 1.00640077901e-07 2.94177634 1.69843536 29.80390065
98 1 1 1.02358211272e-07 4.41266451 4.24608841 29.80390065
99 1 1 1.03790360472e-07 2.94177634 6.79374145 29.80390065
100 1 1 1.08459471627e-07 4.41266451 9.34139450 29.80390065
101 1 1 1.11370058834e-07 2.94177634 11.88904754 29.80390065
102 1 1 1.18645215154e-07 4.41266451 14.43670058 29.80390065
103 1 1 1.22423806117e-07 2.94177634 16.98435363 29.80390065
104 1 1 1.31051923187e-07 4.41266451 19.53200667 29.80390065
105 1 1 1.02231712379e-07 5.88355268 1.69843536 29.80390065
106 1 1 1.04884450572e-07 7.35444085 4.24608841 29.80390065
107 1 1 1.06225615443e-07 5.88355268 6.79374145 29.80390065
108 1 1 1.1280416189e-07 7.35444085 9.34139450 29.80390065
109 1 1 1.15546126491e-07 5.88355268 11.88904754 29.80390065
110 1 1 1.24965771754e-07 7.35444085 14.43670058 29.80390065
111 1 1 1.27696133779e-07 5.88355268 16.98435363 29.80390065
112 1 1 1.35272429836e-07 7.35444085 19.53200667 29.80390065
113 1 1 1.0480184502e-07 8.82532903 1.69843536 29.80390065
114 1 1 1.0864095292e-07 10.29621720 4.24608841 29.80390065
115 1 1 1.10368076909e-07 8.82532903 6.79374145 29.80390065
116 1 1 1.19313550666e-07 10.29621720 9.34139450 29.80390065
117 1 1 1.2231639818e-07 8.82532903 11.88904754 29.80390065
118 1 1 1.33524539478e-07 10.29621720 14.43670058 29.80390065
119 1 1 1.34027070484e-07 8.82532903 16.98435363 29.80390065
120 1 1 1.39780550441e-07 10.29621720 19.53200667 29.80390065
121 1 1 1.08196528535e-07 11.76710537 1.69843536 29.80390065
122 1 1 1.13433883001e-07 13.23799354 4.24608841 29.80390065
123 1 1 1.1611836816e-07 11.76710537 6.79374145 29.80390065
124 1 1 1.27592870482e-07 13.23799354 9.34139450 29.80390065
125 1 1 1.31393534662e-07 11.76710537 11.88904754 29.80390065
126 1 1 1.47487610053e-07 13.23799354 14.43670058 29.80390065
127 1 1 1.45603993466e-07 11.76710537 16.98435363 29.80390065
128 1 1 1.7753846242e-07 13.23799354 19.53200667 29.80390065
129 1 1 1.12129860043e-07 14.70888171 1.69843536 29.80390065
130 1 1 1.18792610753e-07 16.17976988 4.24608841 29.80390065
131 1 1 1.2301972824e-07 14.70888171 6.79374145 29.80390065
132 1 1 1.37148815762e-07 16.17976988 9.34139450 29.80390065
133 1 1 1.43420026822e-07 14.70888171 11.88904754 29.80390065
134 1 1 1.76935240052e-07 16.17976988 14.43670058 29.80390065
135 1 1 1.87793200071e-07 14.70888171 16.98435363 29.80390065
136 1 1 3.39440628722e-07 16.17976988 19.53200667 29.80390065
137 1 1 1.00101878664e-07 0.00000000 1.69843536 29.80390065
138 1 1 1.01098840278e-07 1.47088817 4.24608841 29.80390065
139 1 1 1.02994098602e-07 0.00000000 6.79374145 29.80390065
140 1 1 1.06335543973e-07 1.47088817 9.34139450 29.80390065
141 1 1 1.09977493729e-07 0.00000000 11.88904754 29.80390065
142 1 1 1.15170046571e-07 1.47088817 14.43670058 29.80390065
143 1 1 1.20335614217e-07 0.00000000 16.98435363 29.80390065
144 1 1 1.27103838087e-07 1.47088817 19.53200667 29.80390065
145 1 1 -0.000126554398065 4.41266451 2.54765304 32.20585097
146 1 1 -0.000130819873986 5.88355268 5.09530609 32.20585097
147 1 1 -0.00013390488697 4.41266451 7.64295913 32.20585097
148 1 1 -0.000142971541885 5.88355268 10.19061218 32.20585097
149 1 1 -0.000148354127252 4.41266451 12.73826522 32.20585097
150 1 1 -0.000162902573469 5.88355268 15.28591827 32.20585097
151 1 1 -0.000168374035275 4.41266451 17.83357131 32.20585097
152 1 1 -0.000126796818996 5.88355268 0.00000000 32.20585097
153 1 1 -0.000129359925878 7.35444085 2.54765304 32.20585097
154 1 1 -0.000134960985346 8.82532903 5.09530609 32.20585097
155 1 1 -0.000138371066501 7.35444085 7.64295913 32.20585097
156 1 1 -0.000150549560755 8.82532903 10.19061218 32.20585097
157 1 1 -0.000156815650189 7.35444085 12.73826522 32.20585097
158 1 1 -0.000177564678237 8.82532903 15.28591827 32.20585097
159 1 1 -0.000183886508467 7.35444085 17.83357131 32.20585097
160 1 1 -0.000129958579328 8.82532903 0.00000000 32.20585097
161 1 1 -0.000133275950296 10.29621720 2.54765304 32.20585097
162 1 1 -0.000140325386207 11.76710537 5.09530609 32.20585097
163 1 1 -0.000144793157009 10.29621720 7.64295913 32.20585097
164 1 1 -0.000160785329732 11.76710537 10.19061218 32.20585097
165 1 1 -0.000169488677842 10.29621720 12.73826522 32.20585097
166 1 1 -0.000198400669362 11.76710537 15.28591827 32.20585097
167 1 1 -0.000208281916383 10.29621720 17.83357131 32.20585097
168 1 1 -0.000133975644601 11.76710537 0.00000000 32.20585097
169 1 1 -0.0001379304731 13.23799354 2.54765304 32.20585097
170 1 1 -0.000146407040332 14.70888171 5.09530609 32.20585097
171 1 1 -0.000152712437625 13.23799354 7.64295913 32.20585097
172 1 1 -0.000172950676911 14.70888171 10.19061218 32.20585097
173 1 1 -0.000185919426795 13.23799354 12.73826522 32.20585097
174 1 1 -0.000225019967145 14.70888171 15.28591827 32.20585097
175 1 1 -0.000242772600411 13.23799354 17.83357131 32.20585097
176 1 1 -0.000138427628281 14.70888171 0.00000000 32.20585097
177 1 1 -0.000142814023211 16.17976988 2.54765304 32.20585097
178 1 1 -0.000127338568019 0.00000000 5.09530609 32.20585097
179 1 1 -0.00016135559947 16.17976988 7.64295913 32.20585097
180 1 1 -0.000136824337942 0.00000000 10.19061218 32.20585097
181 1 1 -0.00020493175146 16.17976988 12.73826522 32.20585097
182 1 1 -0.0001514826017 0.00000000 15.28591827 32.20585097
183 1 1 -0.000289438446828 16.17976988 17.83357131 32.20585097
184 1 1 -0.000124096363238 0.00000000 0.00000000 32.20585097
185 1 1 -0.000125095204062 1.47088817 2.54765304 32.20585097
186 1 1 -0.000128222145445 2.94177634 5.09530609 32.20585097
187 1 1 -0.000131626122039 1.47088817 7.64295913 32.20585097
188 1 1 -0.000138364986272 2.94177634 10.19061218 32.20585097
189 1 1 -0.000144152999246 1.47088817 12.73826522 32.20585097
190 1 1 -0.000154303312449 2.94177634 15.28591827 32.20585097
191 1 1 -0.000160885643261 1.47088817 17.83357131 32.20585097
192 1 1 -0.000124785489314 2.94177634 0.00000000 32.20585097
193 1 1 -0.000822132989143 5.88355268 3.39687073 34.60780130
194 1 1 -0.000862076919136 7.35444085 5.94452377 34.60780130
195 1 1 -0.000887517467043 5.88355268 8.49217681 34.60780130
196 1 1 -0.000969156662462 7.35444085 11.03982986 34.60780130
197 1 1 -0.00101011339412 5.88355268 13.58748290 34.60780130
198 1 1 -0.0011449018689 7.35444085 16.13513595 34.60780130
199 1 1 -0.00118117728297 5.88355268 18.68278899 34.60780130
200 1 1 -0.000820652800284 7.35444085 0.84921768 34.60780130
201 1 1 -0.00084693739408 8.82532903 3.39687073 34.60780130
202 1 1 -0.000898858277477 10.29621720 5.94452377 34.60780130
203 1 1 -0.000930594361985 8.82532903 8.49217681 34.60780130
204 1 1 -0.00104182486136 10.29621720 11.03982986 34.60780130
205 1 1 -0.0010965523229 8.82532903 13.58748290 34.60780130
206 1 1 -0.00129563101506 10.29621720 16.13513595 34.60780130
207 1 1 -0.00134873853716 8.82532903 18.68278899 34.60780130
208 1 1 -0.000845890253397 10.29621720 0.84921768 34.60780130
209 1 1 -0.000878842166997 11.76710537 3.39687073 34.60780130
210 1 1 -0.000943798944191 13.23799354 5.94452377 34.60780130
211 1 1 -0.000988375601112 11.76710537 8.49217681 34.60780130
212 1 1 -0.00113606949785 13.23799354 11.03982986 34.60780130
213 1 1 -0.00122020216866 11.76710537 13.58748290 34.60780130
214 1 1 -0.00150933036504 13.23799354 16.13513595 34.60780130
215 1 1 -0.00161114904895 11.76710537 18.68278899 34.60780130
216 1 1 -0.000875814527648 13.23799354 0.84921768 34.60780130
217 1 1 -0.000914717535659 14.70888171 3.39687073 34.60780130
218 1 1 -0.000992421121362 16.17976988 5.94452377 34.60780130
219 1 1 -0.00105668269166 14.70888171 8.49217681 34.60780130
220 1 1 -0.00124520652092 16.17976988 11.03982986 34.60780130
221 1 1 -0.00137861851681 14.70888171 13.58748290 34.60780130
222 1 1 -0.0017863177285 16.17976988 16.13513595 34.60780130
223 1 1 -0.00199323483152 14.70888171 18.68278899 34.60780130
224 1 1 -0.000907121372257 16.17976988 0.84921768 34.60780130
225 1 1 -0.000801159891655 0.00000000 3.39687073 34.60780130
226 1 1 -0.000823061649303 1.47088817 5.94452377 34.60780130
227 1 1 -0.000852307867433 0.00000000 8.49217681 34.60780130
228 1 1 -0.000896264577761 1.47088817 11.03982986 34.60780130
229 1 1 -0.000942946955039 0.00000000 13.58748290 34.60780130
230 1 1 -0.00100489289038 1.47088817 16.13513595 34.60780130
231 1 1 -0.00105914659669 0.00000000 18.68278899 34.60780130
232 1 1 -0.000793110335283 1.47088817 0.84921768 34.60780130
233 1 1 -0.000806493490819 2.94177634 3.39687073 34.60780130
234 1 1 -0.00083629040866 4.41266451 5.94452377 34.60780130
235 1 1 -0.000861158504768 2.94177634 8.49217681 34.60780130
236 1 1 -0.000920507407941 4.41266451 11.03982986 34.60780130
237 1 1 -0.000959540922275 2.94177634 13.58748290 34.60780130
238 1 1 -0.00105025799159 4.41266451 16.13513595 34.60780130
239 1 1 -0.00108865407225 2.94177634 18.68278899 34.60780130
240 1 1 -0.000802540454769 4.41266451 0.84921768 34.60780130
241 1 1 0.00109646727862 0.00000000 20.38122435 25.00000000
242 1 1 0.00116215974811 1.47088817 22.92887739 25.00000000
243 1 1 0.0011967236548 0.00000000 25.47653044 25.00000000
244 1 1 0.0012398216915 1.47088817 28.02418348 25.00000000
245 1 1 0.00123671525739 0.00000000 30.57183653 25.00000000
246 1 1 0.00123981752343 1.47088817 33.11948957 25.00000000
247 1 1 0.00119671689965 0.00000000 35.66714262 25.00000000
248 1 1 0.00116215037467 1.47088817 38.21479566 25.00000000
249 1 1 0.00113110542848 2.94177634 20.38122435 25.00000000
250 1 1 0.00124958514723 4.41266451 22.92887739 25.00000000
251 1 1 0.00124645024768 2.94177634 25.47653044 25.00000000
252 1 1 0.00135301410384 4.41266451 28.02418348 25.00000000
253 1 1 0.00129325345833 2.94177634 30.57183653 25.00000000
254 1 1 0.00135300518375 4.41266451 33.11948957 25.00000000
255 1 1 0.00124643989171 2.94177634 35.66714262 25.00000000
256 1 1 0.00124956692554 4.41266451 38.21479566 25.00000000
257 1 1 0.00124081012769 5.88355268 20.38122435 25.00000000
258 1 1 0.00144334255691 7.35444085 22.92887739 25.00000000
259 1 1 0.00140825166013 5.88355268 25.47653044 25.00000000
260 1 1 0.00161238448171 7.35444085 28.02418348 25.00000000
261 1 1 0.00147935978135 5.88355268 30.57183653 25.00000000
262 1 1 0.00161236280648 7.35444085 33.11948957 25.00000000
263 1 1 0.0014082271546 5.88355268 35.66714262 25.00000000
264 1 1 0.00144330041089 7.35444085 38.21479566 25.00000000
265 1 1 0.00144377611811 8.82532903 20.38122435 25.00000000
266 1 1 0.00178794093625 10.29621720 22.92887739 25.00000000
267 1 1 0.00172622198519 8.82532903 25.47653044 25.00000000
268 1 1 0.00210535722738 10.29621720 28.02418348 25.00000000
269 1 1 0.00185511026327 8.82532903 30.57183653 25.00000000
270 1 1 0.0021053135746 10.29621720 33.11948957 25.00000000
271 1 1 0.00172616667211 8.82532903 35.66714262 25.00000000
272 1 1 0.00178785670438 10.29621720 38.21479566 25.00000000
273 1 1 0.0017732864962 11.76710537 20.38122435 25.00000000
274 1 1 0.00237060839409 13.23799354 22.92887739 25.00000000
275 1 1 0.00230123065424 11.76710537 25.47653044 25.00000000
276 1 1 0.00303901585762 13.23799354 28.02418348 25.00000000
277 1 1 0.00256962188233 11.76710537 30.57183653 25.00000000
278 1 1 0.00303895203167 13.23799354 33.11948957 25.00000000
279 1 1 0.00230113284876 11.76710537 35.66714262 25.00000000
280 1 1 0.00237048340992 13.23799354 38.21479566 25.00000000
281 1 1 0.00228006911767 14.70888171 20.38122435 25.00000000
282 1 1 0.0033408556512 16.17976988 22.92887739 25.00000000
283 1 1 0.00334841710862 14.70888171 25.47653044 25.00000000
284 1 1 0.00486860429176 16.17976988 28.02418348 25.00000000
285 1 1 0.00397784699955 14.70888171 30.57183653 25.00000000
286 1 1 0.00486855099063 16.17976988 33.11948957 25.00000000
287 1 1 0.00334829873047 14.70888171 35.66714262 25.00000000
288 1 1 0.00334073700248 16.17976988 38.21479566 25.00000000
289 1 1 0.000175287506828 1.47088817 21.23044203 27.40195032
290 1 1 0.000187741367544 2.94177634 23.77809508 27.40195032
291 1 1 0.000189149857498 1.47088817 26.32574812 27.40195032
292 1 1 0.00019826717248 2.94177634 28.87340116 27.40195032
293 1 1 0.000193165335376 1.47088817 31.42105421 27.40195032
294 1 1 0.000196025266714 2.94177634 33.96870725 27.40195032
295 1 1 0.000185370505852 1.47088817 36.51636030 27.40195032
296 1 1 0.0001821729334 2.94177634 39.06401334 27.40195032
297 1 1 0.000185721799742 4.41266451 21.23044203 27.40195032
298 1 1 0.000207061381535 5.88355268 23.77809508 27.40195032
299 1 1 0.000203366999483 4.41266451 26.32574812 27.40195032
300 1 1 0.000222045941624 5.88355268 28.87340116 27.40195032
301 1 1 0.000208578008064 4.41266451 31.42105421 27.40195032
302 1 1 0.000218811821319 5.88355268 33.96870725 27.40195032
303 1 1 0.000198500923712 4.41266451 36.51636030 27.40195032
304 1 1 0.000199320526672 5.88355268 39.06401334 27.40195032
305 1 1 0.000207787907273 7.35444085 21.23044203 27.40195032
306 1 1 0.000242741785759 8.82532903 23.77809508 27.40195032
307 1 1 0.000234394000746 7.35444085 26.32574812 27.40195032
308 1 1 0.000268011170282 8.82532903 28.87340116 27.40195032
309 1 1 0.000242607500009 7.35444085 31.42105421 27.40195032
310 1 1 0.00026239048689 8.82532903 33.96870725 27.40195032
311 1 1 0.000226883324142 7.35444085 36.51636030 27.40195032
312 1 1 0.000230402746245 8.82532903 39.06401334 27.40195032
313 1 1 0.000244288346059 10.29621720 21.23044203 27.40195032
314 1 1 0.000304205770568 11.76710537 23.77809508 27.40195032
315 1 1 0.000290790474876 10.29621720 26.32574812 27.40195032
316 1 1 0.000357512540769 11.76710537 28.87340116 27.40195032
317 1 1 0.000306758240872 10.29621720 31.42105421 27.40195032
318 1 1 0.000344872861493 11.76710537 33.96870725 27.40195032
319 1 1 0.000276951581508 10.29621720 36.51636030 27.40195032
320 1 1 0.000281256972454 11.76710537 39.06401334 27.40195032
321 1 1 0.000302409993873 13.23799354 21.23044203 27.40195032
322 1 1 0.000420162700142 14.70888171 23.77809508 27.40195032
323 1 1 0.000402302619251 13.23799354 26.32574812 27.40195032
324 1 1 0.000563798798468 14.70888171 28.87340116 27.40195032
325 1 1 0.000443462894875 13.23799354 31.42105421 27.40195032
326 1 1 0.00052694746892 14.70888171 33.96870725 27.40195032
327 1 1 0.000369608054308 13.23799354 36.51636030 27.40195032
328 1 1 0.000368163021965 14.70888171 39.06401334 27.40195032
329 1 1 0.000399731875945 16.17976988 21.23044203 27.40195032
330 1 1 0.000181597677353 0.00000000 23.77809508 27.40195032
331 1 1 0.00065494407697 16.17976988 26.32574812 27.40195032
332 1 1 0.000190804217132 0.00000000 28.87340116 27.40195032
333 1 1 0.000780581020286 16.17976988 31.42105421 27.40195032
334 1 1 0.000188852391232 0.00000000 33.96870725 27.40195032
335 1 1 0.000562812125611 16.17976988 36.51636030 27.40195032
336 1 1 0.000176687715687 0.00000000 39.06401334 27.40195032
337 1 1 1.35090500288e-07 2.94177634 22.07965971 29.80390065
338 1 1 1.4409451953e-07 4.41266451 24.62731276 29.80390065
339 1 1 1.4775117196e-07 2.94177634 27.17496580 29.80390065
340 1 1 1.57895744962e-07 4.41266451 29.72261885 29.80390065
341 1 1 1.55692706e-07 2.94177634 32.27027189 29.80390065
342 1 1 1.62320908442e-07 4.41266451 34.81792493 29.80390065
343 1 1 1.5333271361e-07 2.94177634 37.36557798 29.80390065
344 1 1 1.53340556024e-07 4.41266451 39.91323102 29.80390065
345 1 1 1.3922007629e-07 5.88355268 22.07965971 29.80390065
346 1 1 1.51544723291e-07 7.35444085 24.62731276 29.80390065
347 1 1 1.57734625212e-07 5.88355268 27.17496580 29.80390065
348 1 1 1.86234758495e-07 7.35444085 29.72261885 29.80390065
349 1 1 1.72976627291e-07 5.88355268 32.27027189 29.80390065
350 1 1 1.98149215907e-07 7.35444085 34.81792493 29.80390065
351 1 1 1.70841133103e-07 5.88355268 37.36557798 29.80390065
352 1 1 1.7738799499e-07 7.35444085 39.91323102 29.80390065
353 1 1 1.41681651738e-07 8.82532903 22.07965971 29.80390065
354 1 1 1.80311622568e-07 10.29621720 24.62731276 29.80390065
355 1 1 1.93901003092e-07 8.82532903 27.17496580 29.80390065
356 1 1 3.02606113632e-07 10.29621720 29.72261885 29.80390065
357 1 1 2.41742868943e-07 8.82532903 32.27027189 29.80390065
358 1 1 3.31523764004e-07 10.29621720 34.81792493 29.80390065
359 1 1 2.3144821317e-07 8.82532903 37.36557798 29.80390065
360 1 1 2.48055874392e-07 10.29621720 39.91323102 29.80390065
361 1 1 1.65113158264e-07 11.76710537 22.07965971 29.80390065
362 1 1 3.20617132302e-07 13.23799354 24.62731276 29.80390065
363 1 1 3.42650886434e-07 11.76710537 27.17496580 29.80390065
364 1 1 6.72815808962e-07 13.23799354 29.72261885 29.80390065
365 1 1 4.81898941023e-07 11.76710537 32.27027189 29.80390065
366 1 1 7.04064353923e-07 13.23799354 34.81792493 29.80390065
367 1 1 4.21653726873e-07 11.76710537 37.36557798 29.80390065
368 1 1 4.20420670569e-07 13.23799354 39.91323102 29.80390065
369 1 1 3.19698609296e-07 14.70888171 22.07965971 29.80390065
370 1 1 7.7422514336e-07 16.17976988 24.62731276 29.80390065
371 1 1 7.83327581668e-07 14.70888171 27.17496580 29.80390065
372 1 1 1.48694885928e-06 16.17976988 29.72261885 29.80390065
373 1 1 1.05922512462e-06 14.70888171 32.27027189 29.80390065
374 1 1 1.3859085523e-06 16.17976988 34.81792493 29.80390065
375 1 1 8.2961913529e-07 14.70888171 37.36557798 29.80390065
376 1 1 7.02563609924e-07 16.17976988 39.91323102 29.80390065
377 1 1 1.32810869666e-07 0.00000000 22.07965971 29.80390065
378 1 1 1.39661115763e-07 1.47088817 24.62731276 29.80390065
379 1 1 1.44748365095e-07 0.00000000 27.17496580 29.80390065
380 1 1 1.50135395774e-07 1.47088817 29.72261885 29.80390065
381 1 1 1.51652653806e-07 0.00000000 32.27027189 29.80390065
382 1 1 1.52614487509e-07 1.47088817 34.81792493 29.80390065
383 1 1 1.48942599731e-07 0.00000000 37.36557798 29.80390065
384 1 1 1.44859666019e-07 1.47088817 39.91323102 29.80390065
385 1 1 -0.000189369293621 4.41266451 22.92887739 32.20585097
386 1 1 -0.000210141402727 5.88355268 25.47653044 32.20585097
387 1 1 -0.0002033911919 4.41266451 28.02418348 32.20585097
388 1 1 -0.000219403839691 5.88355268 30.57183653 32.20585097
389 1 1 -0.000203393204843 4.41266451 33.11948957 32.20585097
390 1 1 -0.000210143619214 5.88355268 35.66714262 32.20585097
391 1 1 -0.000189369870698 4.41266451 38.21479566 32.20585097
392 1 1 -0.000187800959101 5.88355268 20.38122435 32.20585097
393 1 1 -0.000214166083385 7.35444085 22.92887739 32.20585097
394 1 1 -0.000249264782334 8.82532903 25.47653044 32.20585097
395 1 1 -0.000235670972377 7.35444085 28.02418348 32.20585097
396 1 1 -0.000265156211 8.82532903 30.57183653 32.20585097
397 1 1 -0.000235673987023 7.35444085 33.11948957 32.20585097
398 1 1 -0.000249258293948 8.82532903 35.66714262 32.20585097
399 1 1 -0.000214164672485 7.35444085 38.21479566 32.20585097
400 1 1 -0.000213777074125 8.82532903 20.38122435 32.20585097
401 1 1 -0.00025642177841 10.29621720 22.92887739 32.20585097
402 1 1 -0.000320129224099 11.76710537 25.47653044 32.20585097
403 1 1 -0.000295643962771 10.29621720 28.02418348 32.20585097
404 1 1 -0.000355117327962 11.76710537 30.57183653 32.20585097
405 1 1 -0.000295640787221 10.29621720 33.11948957 32.20585097
406 1 1 -0.000320082110258 11.76710537 35.66714262 32.20585097
407 1 1 -0.000256394904491 10.29621720 38.21479566 32.20585097
408 1 1 -0.000254242954361 11.76710537 20.38122435 32.20585097
409 1 1 -0.000328884181985 13.23799354 22.92887739 32.20585097
410 1 1 -0.000466605406011 14.70888171 25.47653044 32.20585097
411 1 1 -0.000420414257408 13.23799354 28.02418348 32.20585097
412 1 1 -0.000566564556228 14.70888171 30.57183653 32.20585097
413 1 1 -0.000420397329023 13.23799354 33.11948957 32.20585097
414 1 1 -0.000466508443751 14.70888171 35.66714262 32.20585097
415 1 1 -0.000328797930772 13.23799354 38.21479566 32.20585097
416 1 1 -0.000316968386181 14.70888171 20.38122435 32.20585097
417 1 1 -0.000465470749833 16.17976988 22.92887739 32.20585097
418 1 1 -0.000182727899144 0.00000000 25.47653044 32.20585097
419 1 1 -0.000721326564021 16.17976988 28.02418348 32.20585097
420 1 1 -0.000188365344634 0.00000000 30.57183653 32.20585097
421 1 1 -0.000721322722635 16.17976988 33.11948957 32.20585097
422 1 1 -0.000182727249925 0.00000000 35.66714262 32.20585097
423 1 1 -0.000465372437179 16.17976988 38.21479566 32.20585097
424 1 1 -0.000168492682796 0.00000000 20.38122435 32.20585097
425 1 1 -0.000177760762125 1.47088817 22.92887739 32.20585097
426 1 1 -0.000189318016744 2.94177634 25.47653044 32.20585097
427 1 1 -0.000188688949374 1.47088817 28.02418348 32.20585097
428 1 1 -0.000195779564674 2.94177634 30.57183653 32.20585097
429 1 1 -0.000188689433266 1.47088817 33.11948957 32.20585097
430 1 1 -0.000189318503025 2.94177634 35.66714262 32.20585097
431 1 1 -0.000177759526844 1.47088817 38.21479566 32.20585097
432 1 1 -0.000173195584179 2.94177634 20.38122435 32.20585097
433 1 1 -0.00136188119356 5.88355268 23.77809508 34.60780130
434 1 1 -0.00157403905827 7.35444085 26.32574812 34.60780130
435 1 1 -0.00147430032071 5.88355268 28.87340116 34.60780130
436 1 1 -0.00163816759778 7.35444085 31.42105421 34.60780130
437 1 1 -0.00144986756505 5.88355268 33.96870725 34.60780130
438 1 1 -0.00151598671966 7.35444085 36.51636030 34.60780130
439 1 1 -0.00130480837583 5.88355268 39.06401334 34.60780130
440 1 1 -0.00137076459684 7.35444085 21.23044203 34.60780130
441 1 1 -0.00164369872999 8.82532903 23.77809508 34.60780130
442 1 1 -0.00202853794299 10.29621720 26.32574812 34.60780130
443 1 1 -0.00184395924462 8.82532903 28.87340116 34.60780130
444 1 1 -0.00215430066426 10.29621720 31.42105421 34.60780130
445 1 1 -0.00179925970991 8.82532903 33.96870725 34.60780130
446 1 1 -0.00191869524158 10.29621720 36.51636030 34.60780130
447 1 1 -0.00154714223619 8.82532903 39.06401334 34.60780130
448 1 1 -0.00165941908546 10.29621720 21.23044203 34.60780130
449 1 1 -0.00213668588036 11.76710537 23.77809508 34.60780130
450 1 1 -0.002865208578 13.23799354 26.32574812 34.60780130
451 1 1 -0.00254284076944 11.76710537 28.87340116 34.60780130
452 1 1 -0.00314724729288 13.23799354 31.42105421 34.60780130
453 1 1 -0.00244841207508 11.76710537 33.96870725 34.60780130
454 1 1 -0.00263152084528 13.23799354 36.51636030 34.60780130
455 1 1 -0.00195568508923 11.76710537 39.06401334 34.60780130
456 1 1 -0.00212481195362 13.23799354 21.23044203 34.60780130
457 1 1 -0.00298881870222 14.70888171 23.77809508 34.60780130
458 1 1 -0.00443964115303 16.17976988 26.32574812 34.60780130
459 1 1 -0.00390796351895 14.70888171 28.87340116 34.60780130
460 1 1 -0.00513681357916 16.17976988 31.42105421 34.60780130
461 1 1 -0.00368216322704 14.70888171 33.96870725 34.60780130
462 1 1 -0.0038996037894 16.17976988 36.51636030 34.60780130
463 1 1 -0.00262199291227 14.70888171 39.06401334 34.60780130
464 1 1 -0.0028482797529 16.17976988 21.23044203 34.60780130
465 1 1 -0.00117060461934 0.00000000 23.77809508 34.60780130
466 1 1 -0.00122393047336 1.47088817 26.32574812 34.60780130
467 1 1 -0.0012347710066 0.00000000 28.87340116 34.60780130
468 1 1 -0.0012521302597 1.47088817 31.42105421 34.60780130
469 1 1 -0.00122113678797 0.00000000 33.96870725 34.60780130
470 1 1 -0.00119748067853 1.47088817 36.51636030 34.60780130
471 1 1 -0.00113654847507 0.00000000 39.06401334 34.60780130
472 1 1 -0.00112727659635 1.47088817 21.23044203 34.60780130
473 1 1 -0.0012158447362 2.94177634 23.77809508 34.60780130
474 1 1 -0.00133090925693 4.41266451 26.32574812 34.60780130
475 1 1 -0.00129063987326 2.94177634 28.87340116 34.60780130
476 1 1 -0.00136905599821 4.41266451 31.42105421 34.60780130
477 1 1 -0.00127464955927 2.94177634 33.96870725 34.60780130
478 1 1 -0.00129557625905 4.41266451 36.51636030 34.60780130
479 1 1 -0.00117662373384 2.94177634 39.06401334 34.60780130
480 1 1 -0.00120376261569 4.41266451 21.23044203 34.60780130
481 1 1 0.00109645878464 0.00000000 40.76244870 25.00000000
482 1 1 0.00104353069073 1.47088817 43.31010174 25.00000000
483 1 1 0.000977870983769 0.00000000 45.85775479 25.00000000
484 1 1 0.000927269005816 1.47088817 48.40540783 25.00000000
485 1 1 0.000876690223961 0.00000000 50.95306088 25.00000000
486 1 1 0.000841079681365 1.47088817 53.50071392 25.00000000
487 1 1 0.000811734000588 0.00000000 56.04836697 25.00000000
488 1 1 0.000796447643699 1.47088817 58.59602001 25.00000000
489 1 1 0.00113109374527 2.94177634 40.76244870 25.00000000
490 1 1 0.00109826386433 4.41266451 43.31010174 25.00000000
491 1 1 0.000998155893353 2.94177634 45.85775479 25.00000000
492 1 1 0.000957233548633 4.41266451 48.40540783 25.00000000
493 1 1 0.000887554338953 2.94177634 50.95306088 25.00000000
494 1 1 0.000857003500447 4.41266451 53.50071392 25.00000000
495 1 1 0.000817843704475 2.94177634 56.04836697 25.00000000
496 1 1 0.000806462401075 4.41266451 58.59602001 25.00000000
497 1 1 0.00124078608897 5.88355268 40.76244870 25.00000000
498 1 1 0.00121414371691 7.35444085 43.31010174 25.00000000
499 1 1 0.0010605346289 5.88355268 45.85775479 25.00000000
500 1 1 0.00101808555577 7.35444085 48.40540783 25.00000000
501 1 1 0.00092013568755 5.88355268 50.95306088 25.00000000
502 1 1 0.000888307154434 7.35444085 53.50071392 25.00000000
503 1 1 0.000835832813996 5.88355268 56.04836697 25.00000000
504 1 1 0.000825749870382 7.35444085 58.59602001 25.00000000
505 1 1 0.00144372599797 8.82532903 40.76244870 25.00000000
506 1 1 0.00140347212701 10.29621720 43.31010174 25.00000000
507 1 1 0.00116907567396 8.82532903 45.85775479 25.00000000
508 1 1 0.0011107457696 10.29621720 48.40540783 25.00000000
509 1 1 0.000974101526062 8.82532903 50.95306088 25.00000000
510 1 1 0.000933559269463 10.29621720 53.50071392 25.00000000
511 1 1 0.000864591024487 8.82532903 56.04836697 25.00000000
512 1 1 0.000852740689658 10.29621720 58.59602001 25.00000000
513 1 1 0.00177320245243 11.76710537 40.76244870 25.00000000
514 1 1 0.00168243743817 13.23799354 43.31010174 25.00000000
515 1 1 0.00132857322845 11.76710537 45.85775479 25.00000000
516 1 1 0.00123404832587 13.23799354 48.40540783 25.00000000
517 1 1 0.00104787265668 11.76710537 50.95306088 25.00000000
518 1 1 0.000989804902429 13.23799354 53.50071392 25.00000000
519 1 1 0.000901994772898 11.76710537 56.04836697 25.00000000
520 1 1 0.00088492173701 13.23799354 58.59602001 25.00000000
521 1 1 0.00227997131396 14.70888171 40.76244870 25.00000000
522 1 1 0.00206369390236 16.17976988 43.31010174 25.00000000
523 1 1 0.00154044158564 14.70888171 45.85775479 25.00000000
524 1 1 0.0013813182967 16.17976988 48.40540783 25.00000000
525 1 1 0.00113710839312 14.70888171 50.95306088 25.00000000
526 1 1 0.00105183687379 16.17976988 53.50071392 25.00000000
527 1 1 0.000944614110056 14.70888171 56.04836697 25.00000000
528 1 1 0.000918799628301 16.17976988 58.59602001 25.00000000
529 1 1 0.000169479713034 1.47088817 41.61166638 27.40195032
530 1 1 0.000163092446808 2.94177634 44.15931943 27.40195032
531 1 1 0.000151804607216 1.47088817 46.70697247 27.40195032
532 1 1 0.000145405162258 2.94177634 49.25462551 27.40195032
533 1 1 0.000137331394379 1.47088817 51.80227856 27.40195032
534 1 1 0.000132946966278 2.94177634 54.34993160 27.40195032
535 1 1 0.000128550036679 1.47088817 56.89758465 27.40195032
536 1 1 0.000127136722343 2.94177634 59.44523769 27.40195032
537 1 1 0.000178485370607 4.41266451 41.61166638 27.40195032
538 1 1 0.000173710534509 5.88355268 44.15931943 27.40195032
539 1 1 0.000157047563835 4.41266451 46.70697247 27.40195032
540 1 1 0.00015120309117 5.88355268 49.25462551 27.40195032
541 1 1 0.000140160293315 4.41266451 51.80227856 27.40195032
542 1 1 0.000136086116859 5.88355268 54.34993160 27.40195032
543 1 1 0.000130210994514 4.41266451 56.89758465 27.40195032
544 1 1 0.000129247360313 5.88355268 59.44523769 27.40195032
545 1 1 0.000197335236969 7.35444085 41.61166638 27.40195032
546 1 1 0.000192056577789 8.82532903 44.15931943 27.40195032
547 1 1 0.000167708644649 7.35444085 46.70697247 27.40195032
548 1 1 0.000160855491069 8.82532903 49.25462551 27.40195032
549 1 1 0.00014575366845 7.35444085 51.80227856 27.40195032
550 1 1 0.000141137945388 8.82532903 54.34993160 27.40195032
551 1 1 0.000133420000394 7.35444085 56.89758465 27.40195032
552 1 1 0.000132571074567 8.82532903 59.44523769 27.40195032
553 1 1 0.000227690626457 10.29621720 41.61166638 27.40195032
554 1 1 0.000218770350585 11.76710537 44.15931943 27.40195032
555 1 1 0.000183917448542 10.29621720 46.70697247 27.40195032
556 1 1 0.000174101636014 11.76710537 49.25462551 27.40195032
557 1 1 0.000153903727475 10.29621720 51.80227856 27.40195032
558 1 1 0.000147766489483 11.76710537 54.34993160 27.40195032
559 1 1 0.000137933537682 10.29621720 56.89758465 27.40195032
560 1 1 0.00013680431748 11.76710537 59.44523769 27.40195032
561 1 1 0.00027297062491 13.23799354 41.61166638 27.40195032
562 1 1 0.000254531328575 14.70888171 44.15931943 27.40195032
563 1 1 0.000205400726228 13.23799354 46.70697247 27.40195032
564 1 1 0.000190150396786 14.70888171 49.25462551 27.40195032
565 1 1 0.000164115210796 13.23799354 51.80227856 27.40195032
566 1 1 0.000155391687592 14.70888171 54.34993160 27.40195032
567 1 1 0.000143350179757 13.23799354 56.89758465 27.40195032
568 1 1 0.000141509596851 14.70888171 59.44523769 27.40195032
569 1 1 0.00034059222113 16.17976988 41.61166638 27.40195032
570 1 1 0.000159631927397 0.00000000 44.15931943 27.40195032
571 1 1 0.000231123797416 16.17976988 46.70697247 27.40195032
572 1 1 0.000143478680351 0.00000000 49.25462551 27.40195032
573 1 1 0.000175451536001 16.17976988 51.80227856 27.40195032
574 1 1 0.00013188456775 0.00000000 54.34993160 27.40195032
575 1 1 0.000149093427009 16.17976988 56.89758465 27.40195032
576 1 1 0.000126414229696 0.00000000 59.44523769 27.40195032
577 1 1 1.40358352605e-07 2.94177634 42.46088406 29.80390065
578 1 1 1.35347131771e-07 4.41266451 45.00853711 29.80390065
579 1 1 1.23760715937e-07 2.94177634 47.55619015 29.80390065
580 1 1 1.18275679321e-07 4.41266451 50.10384320 29.80390065
581 1 1 1.10209180183e-07 2.94177634 52.65149624 29.80390065
582 1 1 1.06493053151e-07 4.41266451 55.19914928 29.80390065
583 1 1 1.02551171591e-07 2.94177634 57.74680233 29.80390065
584 1 1 1.01611515353e-07 4.41266451 60.29445537 29.80390065
585 1 1 1.51129611521e-07 5.88355268 42.46088406 29.80390065
586 1 1 1.45880471566e-07 7.35444085 45.00853711 29.80390065
587 1 1 1.29803822803e-07 5.88355268 47.55619015 29.80390065
588 1 1 1.23858529902e-07 7.35444085 50.10384320 29.80390065
589 1 1 1.13316342386e-07 5.88355268 52.65149624 29.80390065
590 1 1 1.09332898902e-07 7.35444085 55.19914928 29.80390065
591 1 1 1.04243820908e-07 5.88355268 57.74680233 29.80390065
592 1 1 1.03587064483e-07 7.35444085 60.29445537 29.80390065
593 1 1 1.746363065e-07 8.82532903 42.46088406 29.80390065
594 1 1 1.62821004792e-07 10.29621720 45.00853711 29.80390065
595 1 1 1.38650235066e-07 8.82532903 47.55619015 29.80390065
596 1 1 1.3086790886e-07 10.29621720 50.10384320 29.80390065
597 1 1 1.18009265641e-07 8.82532903 52.65149624 29.80390065
598 1 1 1.13157597804e-07 10.29621720 55.19914928 29.80390065
599 1 1 1.06885474945e-07 8.82532903 57.74680233 29.80390065
600 1 1 1.06341395237e-07 10.29621720 60.29445537 29.80390065
601 1 1 2.27608900152e-07 11.76710537 42.46088406 29.80390065
602 1 1 1.90661840293e-07 13.23799354 45.00853711 29.80390065
603 1 1 1.49350216541e-07 11.76710537 47.55619015 29.80390065
604 1 1 1.38002959652e-07 13.23799354 50.10384320 29.80390065
605 1 1 1.23443118954e-07 11.76710537 52.65149624 29.80390065
606 1 1 1.17370822424e-07 13.23799354 55.19914928 29.80390065
607 1 1 1.10167565532e-07 11.76710537 57.74680233 29.80390065
608 1 1 1.09602840916e-07 13.23799354 60.29445537 29.80390065
609 1 1 3.27597703137e-07 14.70888171 42.46088406 29.80390065
610 1 1 2.35142688482e-07 16.17976988 45.00853711 29.80390065
611 1 1 1.62165688903e-07 14.70888171 47.55619015 29.80390065
612 1 1 1.44347739519e-07 16.17976988 50.10384320 29.80390065
613 1 1 1.28600342054e-07 14.70888171 52.65149624 29.80390065
614 1 1 1.21293984643e-07 16.17976988 55.19914928 29.80390065
615 1 1 1.13657023629e-07 14.70888171 57.74680233 29.80390065
616 1 1 1.13000955948e-07 16.17976988 60.29445537 29.80390065
617 1 1 1.36894510473e-07 0.00000000 42.46088406 29.80390065
618 1 1 1.29850607501e-07 1.47088817 45.00853711 29.80390065
619 1 1 1.21600225975e-07 0.00000000 47.55619015 29.80390065
620 1 1 1.15219826692e-07 1.47088817 50.10384320 29.80390065
621 1 1 1.09133530506e-07 0.00000000 52.65149624 29.80390065
622 1 1 1.05001558e-07 1.47088817 55.19914928 29.80390065
623 1 1 1.01970926286e-07 0.00000000 57.74680233 29.80390065
624 1 1 1.00583998359e-07 1.47088817 60.29445537 29.80390065
625 1 1 -0.000168374396836 4.41266451 43.31010174 32.20585097
626 1 1 -0.000162902397607 5.88355268 45.85775479 32.20585097
627 1 1 -0.000148352877786 4.41266451 48.40540783 32.20585097
628 1 1 -0.000142970924015 5.88355268 50.95306088 32.20585097
629 1 1 -0.000133904877138 4.41266451 53.50071392 32.20585097
630 1 1 -0.000130819643599 5.88355268 56.04836697 32.20585097
631 1 1 -0.000126553949979 4.41266451 58.59602001 32.20585097
632 1 1 -0.000187802211674 5.88355268 40.76244870 32.20585097
633 1 1 -0.000183888324977 7.35444085 43.31010174 32.20585097
634 1 1 -0.000177565936403 8.82532903 45.85775479 32.20585097
635 1 1 -0.000156814876904 7.35444085 48.40540783 32.20585097
636 1 1 -0.000150549184877 8.82532903 50.95306088 32.20585097
637 1 1 -0.000138371042976 7.35444085 53.50071392 32.20585097
638 1 1 -0.000134960767541 8.82532903 56.04836697 32.20585097
639 1 1 -0.000129359470342 7.35444085 58.59602001 32.20585097
640 1 1 -0.000213773670791 8.82532903 40.76244870 32.20585097
641 1 1 -0.000208281851182 10.29621720 43.31010174 32.20585097
642 1 1 -0.000198402876541 11.76710537 45.85775479 32.20585097
643 1 1 -0.000169488905887 10.29621720 48.40540783 32.20585097
644 1 1 -0.000160785424911 11.76710537 50.95306088 32.20585097
645 1 1 -0.000144793282659 10.29621720 53.50071392 32.20585097
646 1 1 -0.00014032528416 11.76710537 56.04836697 32.20585097
647 1 1 -0.000133275515477 10.29621720 58.59602001 32.20585097
648 1 1 -0.000254217067689 11.76710537 40.76244870 32.20585097
649 1 1 -0.000242766959271 13.23799354 43.31010174 32.20585097
650 1 1 -0.000225022047076 14.70888171 45.85775479 32.20585097
651 1 1 -0.000185920283576 13.23799354 48.40540783 32.20585097
652 1 1 -0.000172950662955 14.70888171 50.95306088 32.20585097
653 1 1 -0.000152712799261 13.23799354 53.50071392 32.20585097
654 1 1 -0.00014640712225 14.70888171 56.04836697 32.20585097
655 1 1 -0.00013793011925 13.23799354 58.59602001 32.20585097
656 1 1 -0.000316921665959 14.70888171 40.76244870 32.20585097
657 1 1 -0.000289435237032 16.17976988 43.31010174 32.20585097
658 1 1 -0.000151481400078 0.00000000 45.85775479 32.20585097
659 1 1 -0.000204931004599 16.17976988 48.40540783 32.20585097
660 1 1 -0.000136823804497 0.00000000 50.95306088 32.20585097
661 1 1 -0.000161355850006 16.17976988 53.50071392 32.20585097
662 1 1 -0.000127338378496 0.00000000 56.04836697 32.20585097
663 1 1 -0.000142813797238 16.17976988 58.59602001 32.20585097
664 1 1 -0.000168491457035 0.00000000 40.76244870 32.20585097
665 1 1 -0.000160884914693 1.47088817 43.31010174 32.20585097
666 1 1 -0.000154302297088 2.94177634 45.85775479 32.20585097
667 1 1 -0.00014415170404 1.47088817 48.40540783 32.20585097
668 1 1 -0.00013836439956 2.94177634 50.95306088 32.20585097
669 1 1 -0.000131626166978 1.47088817 53.50071392 32.20585097
670 1 1 -0.000128221941943 2.94177634 56.04836697 32.20585097
671 1 1 -0.000125094764095 1.47088817 58.59602001 32.20585097
672 1 1 -0.000173195223256 2.94177634 40.76244870 32.20585097
673 1 1 -0.00112031696743 5.88355268 44.15931943 34.60780130
674 1 1 -0.00107904501757 7.35444085 46.70697247 34.60780130
675 1 1 -0.00096304142945 5.88355268 49.25462551 34.60780130
676 1 1 -0.000925824159903 7.35444085 51.80227856 34.60780130
677 1 1 -0.000859366842038 5.88355268 54.34993160 34.60780130
678 1 1 -0.000841246914067 7.35444085 56.89758465 34.60780130
679 1 1 -0.000812893819062 5.88355268 59.44523769 34.60780130
680 1 1 -0.00129302047322 7.35444085 41.61166638 34.60780130
681 1 1 -0.00125617145617 8.82532903 44.15931943 34.60780130
682 1 1 -0.00119767980397 10.29621720 46.70697247 34.60780130
683 1 1 -0.00103141042781 8.82532903 49.25462551 34.60780130
684 1 1 -0.000982916842671 10.29621720 51.80227856 34.60780130
685 1 1 -0.000894166660795 8.82532903 54.34993160 34.60780130
686 1 1 -0.000872059923785 10.29621720 56.89758465 34.60780130
687 1 1 -0.00083538410882 8.82532903 59.44523769 34.60780130
688 1 1 -0.00152909667839 10.29621720 41.61166638 34.60780130
689 1 1 -0.00146193101069 11.76710537 44.15931943 34.60780130
690 1 1 -0.00136027509393 13.23799354 46.70697247 34.60780130
691 1 1 -0.00112689118106 11.76710537 49.25462551 34.60780130
692 1 1 -0.001055303531 13.23799354 51.80227856 34.60780130
693 1 1 -0.000940073860971 11.76710537 54.34993160 34.60780130
694 1 1 -0.000909180011892 13.23799354 56.89758465 34.60780130
695 1 1 -0.000864103101676 11.76710537 59.44523769 34.60780130
696 1 1 -0.00189232933906 13.23799354 41.61166638 34.60780130
697 1 1 -0.00174713434093 14.70888171 44.15931943 34.60780130
698 1 1 -0.00156181167856 16.17976988 46.70697247 34.60780130
699 1 1 -0.00124549461037 14.70888171 49.25462551 34.60780130
700 1 1 -0.00113695407371 16.17976988 51.80227856 34.60780130
701 1 1 -0.000993271860087 14.70888171 54.34993160 34.60780130
702 1 1 -0.000948711995492 16.17976988 56.89758465 34.60780130
703 1 1 -0.000896117198108 14.70888171 59.44523769 34.60780130
704 1 1 -0.0024201793626 16.17976988 41.61166638 34.60780130
705 1 1 -0.00101907786879 0.00000000 44.15931943 34.60780130
706 1 1 -0.000965715094936 1.47088817 46.70697247 34.60780130
707 1 1 -0.000908923021762 0.00000000 49.25462551 34.60780130
708 1 1 -0.000867342852655 1.47088817 51.80227856 34.60780130
709 1 1 -0.000830537435485 0.00000000 54.34993160 34.60780130
710 1 1 -0.000808121218346 1.47088817 56.89758465 34.60780130
711 1 1 -0.000793765817967 0.00000000 59.44523769 34.60780130
712 1 1 -0.00108708364452 1.47088817 41.61166638 34.60780130
713 1 1 -0.00104374195221 2.94177634 44.15931943 34.60780130
714 1 1 -0.00100278245002 4.41266451 46.70697247 34.60780130
715 1 1 -0.000922377923983 2.94177634 49.25462551 34.60780130
716 1 1 -0.00088693414851 4.41266451 51.80227856 34.60780130
717 1 1 -0.00083781783209 2.94177634 54.34993160 34.60780130
718 1 1 -0.000819404881586 4.41266451 56.89758465 34.60780130
719 1 1 -0.000798639909179 2.94177634 59.44523769 34.60780130
720 1 1 -0.00115246036159 4.41266451 41.61166638 34.60780130
721 1 1 0.000918268023488 17.65065805 0.00000000 25.00000000
722 1 1 0.000950093820623 19.12154622 2.54765304 25.00000000
723 1 1 0.000987576611209 17.65065805 5.09530609 25.00000000
724 1 1 0.00111183341717 19.12154622 7.64295913 25.00000000
725 1 1 0.00123298858871 17.65065805 10.19061218 25.00000000
726 1 1 0.00153619227652 19.12154622 12.73826522 25.00000000
727 1 1 0.00179468436533 17.65065805 15.28591827 25.00000000
728 1 1 0.00253362896998 19.12154622 17.83357131 25.00000000
729 1 1 0.000943823787703 20.59243439 0.00000000 25.00000000
730 1 1 0.000974289831679 22.06332256 2.54765304 25.00000000
731 1 1 0.00102489419187 20.59243439 5.09530609 25.00000000
732 1 1 0.00116008349054 22.06332256 7.64295913 25.00000000
733 1 1 0.00132143056728 20.59243439 10.19061218 25.00000000
734 1 1 0.00167059761362 22.06332256 12.73826522 25.00000000
735 1 1 0.00205779277849 20.59243439 15.28591827 25.00000000
736 1 1 0.00301029443249 22.06332256 17.83357131 25.00000000
737 1 1 0.000961002532296 23.53421073 0.00000000 25.00000000
738 1 1 0.000987516603331 25.00509890 2.54765304 25.00000000
739 1 1 0.0010504522036 23.53421073 5.09530609 25.00000000
740 1 1 0.00118717132978 25.00509890 7.64295913 25.00000000
741 1 1 0.00138495049244 23.53421073 10.19061218 25.00000000
742 1 1 0.0017502623489 25.00509890 12.73826522 25.00000000
743 1 1 0.00226630062247 23.53421073 15.28591827 25.00000000
744 1 1 0.00332746020088 25.00509890 17.83357131 25.00000000
745 1 1 0.000967063540453 26.47598708 0.00000000 25.00000000
746 1 1 0.000987516603209 27.94687525 2.54765304 25.00000000
747 1 1 0.00105956196195 26.47598708 5.09530609 25.00000000
748 1 1 0.00118717132961 27.94687525 7.64295913 25.00000000
749 1 1 0.00140819730846 26.47598708 10.19061218 25.00000000
750 1 1 0.00175026234855 27.94687525 12.73826522 25.00000000
751 1 1 0.00234711084344 26.47598708 15.28591827 25.00000000
752 1 1 0.00332746019987 27.94687525 17.83357131 25.00000000
753 1 1 0.000961002532102 29.41776342 0.00000000 25.00000000
754 1 1 0.000974289831456 30.88865159 2.54765304 25.00000000
755 1 1 0.00105045220337 29.41776342 5.09530609 25.00000000
756 1 1 0.00116008349021 30.88865159 7.64295913 25.00000000
757 1 1 0.00138495049205 29.41776342 10.19061218 25.00000000
758 1 1 0.00167059761292 30.88865159 12.73826522 25.00000000
759 1 1 0.00226630062149 29.41776342 15.28591827 25.00000000
760 1 1 0.00301029443035 30.88865159 17.83357131 25.00000000
761 1 1 0.000943823787515 32.35953976 0.00000000 25.00000000
762 1 1 0.00095009382047 33.83042793 2.54765304 25.00000000
763 1 1 0.00102489419164 32.35953976 5.09530609 25.00000000
764 1 1 0.00111183341691 33.83042793 7.64295913 25.00000000
765 1 1 0.00132143056683 32.35953976 10.19061218 25.00000000
766 1 1 0.00153619227588 33.83042793 12.73826522 25.00000000
767 1 1 0.0020577927773 32.35953976 15.28591827 25.00000000
768 1 1 0.00253362896798 33.83042793 17.83357131 25.00000000
769 1 1 0.000147353206123 19.12154622 0.84921768 27.40195032
770 1 1 0.000153815886758 20.59243439 3.39687073 27.40195032
771 1 1 0.00016188862185 19.12154622 5.94452377 27.40195032
772 1 1 0.000183141920324 20.59243439 8.49217681 27.40195032
773 1 1 0.000204767019688 19.12154622 11.03982986 27.40195032
774 1 1 0.000253417478242 20.59243439 13.58748290 27.40195032
775 1 1 0.000299531356814 19.12154622 16.13513595 27.40195032
776 1 1 0.000439177592846 20.59243439 18.68278899 27.40195032
777 1 1 0.000150587673106 22.06332256 0.84921768 27.40195032
778 1 1 0.000156816987661 23.53421073 3.39687073 27.40195032
779 1 1 0.000167061297284 22.06332256 5.94452377 27.40195032
780 1 1 0.000189308673759 23.53421073 8.49217681 27.40195032
781 1 1 0.000216871198318 22.06332256 11.03982986 27.40195032
782 1 1 0.000270517934335 23.53421073 13.58748290 27.40195032
783 1 1 0.000339279019773 22.06332256 16.13513595 27.40195032
784 1 1 0.000523620969719 23.53421073 18.68278899 27.40195032
785 1 1 0.000152347167546 25.00509890 0.84921768 27.40195032
786 1 1 0.000157879254993 26.47598708 3.39687073 27.40195032
787 1 1 0.000169919328677 25.00509890 5.94452377 27.40195032
788 1 1 0.000191527557393 26.47598708 8.49217681 27.40195032
789 1 1 0.000223811815783 25.00509890 11.03982986 27.40195032
790 1 1 0.000277022841277 26.47598708 13.58748290 27.40195032
791 1 1 0.000365612127895 25.00509890 16.13513595 27.40195032
792 1 1 0.000560511366421 26.47598708 18.68278899 27.40195032
793 1 1 0.000152347167482 27.94687525 0.84921768 27.40195032
794 1 1 0.000156816987553 29.41776342 3.39687073 27.40195032
795 1 1 0.000169919328601 27.94687525 5.94452377 27.40195032
796 1 1 0.000189308673614 29.41776342 8.49217681 27.40195032
797 1 1 0.000223811815668 27.94687525 11.03982986 27.40195032
798 1 1 0.000270517934072 29.41776342 13.58748290 27.40195032
799 1 1 0.000365612127646 27.94687525 16.13513595 27.40195032
800 1 1 0.000523620968992 29.41776342 18.68278899 27.40195032
801 1 1 0.000150587673002 30.88865159 0.84921768 27.40195032
802 1 1 0.000153815886676 32.35953976 3.39687073 27.40195032
803 1 1 0.000167061297158 30.88865159 5.94452377 27.40195032
804 1 1 0.000183141920207 32.35953976 8.49217681 27.40195032
805 1 1 0.00021687119812 30.88865159 11.03982986 27.40195032
806 1 1 0.000253417478015 32.35953976 13.58748290 27.40195032
807 1 1 0.000339279019325 30.88865159 16.13513595 27.40195032
808 1 1 0.000439177592171 32.35953976 18.68278899 27.40195032
809 1 1 0.000147353206087 33.83042793 0.84921768 27.40195032
810 1 1 0.000149377883585 17.65065805 3.39687073 27.40195032
811 1 1 0.0001618886218 33.83042793 5.94452377 27.40195032
812 1 1 0.000174288662508 17.65065805 8.49217681 27.40195032
813 1 1 0.00020476701959 33.83042793 11.03982986 27.40195032
814 1 1 0.000230914437502 17.65065805 13.58748290 27.40195032
815 1 1 0.000299531356553 33.83042793 16.13513595 27.40195032
816 1 1 0.000352483888867 17.65065805 18.68278899 27.40195032
817 1 1 1.19645086749e-07 20.59243439 1.69843536 29.80390065
818 1 1 1.28143415355e-07 22.06332256 4.24608841 29.80390065
819 1 1 1.37146598444e-07 20.59243439 6.79374145 29.80390065
820 1 1 1.60474487018e-07 22.06332256 9.34139450 29.80390065
821 1 1 1.88988619521e-07 20.59243439 11.88904754 29.80390065
822 1 1 3.25488468438e-07 22.06332256 14.43670058 29.80390065
823 1 1 4.77066003434e-07 20.59243439 16.98435363 29.80390065
824 1 1 1.05666934788e-06 22.06332256 19.53200667 29.80390065
825 1 1 1.22041167218e-07 23.53421073 1.69843536 29.80390065
826 1 1 1.30494716716e-07 25.00509890 4.24608841 29.80390065
827 1 1 1.42478961662e-07 23.53421073 6.79374145 29.80390065
828 1 1 1.70301697706e-07 25.00509890 9.34139450 29.80390065
829 1 1 2.24624445993e-07 23.53421073 11.88904754 29.80390065
830 1 1 4.16981591786e-07 25.00509890 14.43670058 29.80390065
831 1 1 7.00389489565e-07 23.53421073 16.98435363 29.80390065
832 1 1 1.38426601991e-06 25.00509890 19.53200667 29.80390065
833 1 1 1.22893652572e-07 26.47598708 1.69843536 29.80390065
834 1 1 1.30494720488e-07 27.94687525 4.24608841 29.80390065
835 1 1 1.44595771899e-07 26.47598708 6.79374145 29.80390065
836 1 1 1.70301701761e-07 27.94687525 9.34139450 29.80390065
837 1 1 2.43242507592e-07 26.47598708 11.88904754 29.80390065
838 1 1 4.16981596621e-07 27.94687525 14.43670058 29.80390065
839 1 1 8.26696797528e-07 26.47598708 16.98435363 29.80390065
840 1 1 1.38426602602e-06 27.94687525 19.53200667 29.80390065
841 1 1 1.2204117426e-07 29.41776342 1.69843536 29.80390065
842 1 1 1.28143426007e-07 30.88865159 4.24608841 29.80390065
843 1 1 1.42478968012e-07 29.41776342 6.79374145 29.80390065
844 1 1 1.60474497801e-07 30.88865159 9.34139450 29.80390065
845 1 1 2.2462445045e-07 29.41776342 11.88904754 29.80390065
846 1 1 3.254884793e-07 30.88865159 14.43670058 29.80390065
847 1 1 7.00389488242e-07 29.41776342 16.98435363 29.80390065
848 1 1 1.05666935841e-06 30.88865159 19.53200667 29.80390065
849 1 1 1.19645100551e-07 32.35953976 1.69843536 29.80390065
850 1 1 1.23978183374e-07 33.83042793 4.24608841 29.80390065
851 1 1 1.37146612909e-07 32.35953976 6.79374145 29.80390065
852 1 1 1.48085681598e-07 33.83042793 9.34139450 29.80390065
853 1 1 1.88988635545e-07 32.35953976 11.88904754 29.80390065
854 1 1 2.33996679854e-07 33.83042793 14.43670058 29.80390065
855 1 1 4.77066024565e-07 32.35953976 16.98435363 29.80390065
856 1 1 6.69550450326e-07 33.83042793 19.53200667 29.80390065
857 1 1 1.16143349293e-07 17.65065805 1.69843536 29.80390065
858 1 1 1.2397816747e-07 19.12154622 4.24608841 29.80390065
859 1 1 1.30302162664e-07 17.65065805 6.79374145 29.80390065
860 1 1 1.48085666549e-07 19.12154622 9.34139450 29.80390065
861 1 1 1.61087644483e-07 17.65065805 11.88904754 29.80390065
862 1 1 2.33996667452e-07 19.12154622 14.43670058 29.80390065
863 1 1 2.96812191161e-07 17.65065805 16.98435363 29.80390065
864 1 1 6.69550446495e-07 19.12154622 19.53200667 29.80390065
865 1 1 -0.000150778013382 22.06332256 2.54765304 32.20585097
866 1 1 -0.000161356982594 23.53421073 5.09530609 32.20585097
867 1 1 -0.00017618934766 22.06332256 7.64295913 32.20585097
868 1 1 -0.000205490706766 23.53421073 10.19061218 32.20585097
869 1 1 -0.000240976048176 22.06332256 12.73826522 32.20585097
870 1 1 -0.000314857805507 23.53421073 15.28591827 32.20585097
871 1 1 -0.00041609076063 22.06332256 17.83357131 32.20585097
872 1 1 -0.0001489500015 23.53421073 0.00000000 32.20585097
873 1 1 -0.000152669917752 25.00509890 2.54765304 32.20585097
874 1 1 -0.000162632847256 26.47598708 5.09530609 32.20585097
875 1 1 -0.000179850117947 25.00509890 7.64295913 32.20585097
876 1 1 -0.00020846075564 26.47598708 10.19061218 32.20585097
877 1 1 -0.000250766587767 25.00509890 12.73826522 32.20585097
878 1 1 -0.000325280865793 26.47598708 15.28591827 32.20585097
879 1 1 -0.000463366936304 25.00509890 17.83357131 32.20585097
880 1 1 -0.000149822326973 26.47598708 0.00000000 32.20585097
881 1 1 -0.000152669917678 27.94687525 2.54765304 32.20585097
882 1 1 -0.000161356982464 29.41776342 5.09530609 32.20585097
883 1 1 -0.000179850117855 27.94687525 7.64295913 32.20585097
884 1 1 -0.000205490706581 29.41776342 10.19061218 32.20585097
885 1 1 -0.000250766587616 27.94687525 12.73826522 32.20585097
886 1 1 -0.000314857805144 29.41776342 15.28591827 32.20585097
887 1 1 -0.000463366935935 27.94687525 17.83357131 32.20585097
888 1 1 -0.000148950001383 29.41776342 0.00000000 32.20585097
889 1 1 -0.000150778013253 30.88865159 2.54765304 32.20585097
890 1 1 -0.000157767954307 32.35953976 5.09530609 32.20585097
891 1 1 -0.000176189347499 30.88865159 7.64295913 32.20585097
892 1 1 -0.000197311415444 32.35953976 10.19061218 32.20585097
893 1 1 -0.00024097604791 30.88865159 12.73826522 32.20585097
894 1 1 -0.000288541063319 32.35953976 15.28591827 32.20585097
895 1 1 -0.000416090759968 30.88865159 17.83357131 32.20585097
896 1 1 -0.000146475307389 32.35953976 0.00000000 32.20585097
897 1 1 -0.000147310752924 33.83042793 2.54765304 32.20585097
898 1 1 -0.000152503022471 17.65065805 5.09530609 32.20585097
899 1 1 -0.000169617752082 33.83042793 7.64295913 32.20585097
900 1 1 -0.000185747278614 17.65065805 10.19061218 32.20585097
901 1 1 -0.000224374634594 33.83042793 12.73826522 32.20585097
902 1 1 -0.00025616733442 17.65065805 15.28591827 32.20585097
903 1 1 -0.000349729454131 33.83042793 17.83357131 32.20585097
904 1 1 -0.000142787521199 17.65065805 0.00000000 32.20585097
905 1 1 -0.000147310752994 19.12154622 2.54765304 32.20585097
906 1 1 -0.000157767954423 20.59243439 5.09530609 32.20585097
907 1 1 -0.000169617752173 19.12154622 7.64295913 32.20585097
908 1 1 -0.000197311415613 20.59243439 10.19061218 32.20585097
909 1 1 -0.000224374634753 19.12154622 12.73826522 32.20585097
910 1 1 -0.00028854106366 20.59243439 15.28591827 32.20585097
911 1 1 -0.00034972945455 19.12154622 17.83357131 32.20585097
912 1 1 -0.000146475307492 20.59243439 0.00000000 32.20585097
913 1 1 -0.00100171289213 23.53421073 3.39687073 34.60780130
914 1 1 -0.00109534511785 25.00509890 5.94452377 34.60780130
915 1 1 -0.00123819304507 23.53421073 8.49217681 34.60780130
916 1 1 -0.0015036376507 25.00509890 11.03982986 34.60780130
917 1 1 -0.00187631050381 23.53421073 13.58748290 34.60780130
918 1 1 -0.0026053402586 25.00509890 16.13513595 34.60780130
919 1 1 -0.00366038560137 23.53421073 18.68278899 34.60780130
920 1 1 -0.000970013240752 25.00509890 0.84921768 34.60780130
921 1 1 -0.00100906661417 26.47598708 3.39687073 34.60780130
922 1 1 -0.00109534511769 27.94687525 5.94452377 34.60780130
923 1 1 -0.00125464207938 26.47598708 8.49217681 34.60780130
924 1 1 -0.00150363765043 27.94687525 11.03982986 34.60780130
925 1 1 -0.00192791215408 26.47598708 13.58748290 34.60780130
926 1 1 -0.00260534025793 27.94687525 16.13513595 34.60780130
927 1 1 -0.00388458083935 26.47598708 18.68278899 34.60780130
928 1 1 -0.00097001324063 27.94687525 0.84921768 34.60780130
929 1 1 -0.00100171289191 29.41776342 3.39687073 34.60780130
930 1 1 -0.00107507507669 30.88865159 5.94452377 34.60780130
931 1 1 -0.00123819304474 29.41776342 8.49217681 34.60780130
932 1 1 -0.00144955447083 30.88865159 11.03982986 34.60780130
933 1 1 -0.00187631050311 29.41776342 13.58748290 34.60780130
934 1 1 -0.00241163209424 30.88865159 16.13513595 34.60780130
935 1 1 -0.00366038559915 29.41776342 18.68278899 34.60780130
936 1 1 -0.000957971169819 30.88865159 0.84921768 34.60780130
937 1 1 -0.000980970400605 32.35953976 3.39687073 34.60780130
938 1 1 -0.00103856640233 33.83042793 5.94452377 34.60780130
939 1 1 -0.00119276004525 32.35953976 8.49217681 34.60780130
940 1 1 -0.0013562037482 33.83042793 11.03982986 34.60780130
941 1 1 -0.00173989089647 32.35953976 13.58748290 34.60780130
942 1 1 -0.00210660769979 33.83042793 16.13513595 34.60780130
943 1 1 -0.0031191175338 32.35953976 18.68278899 34.60780130
944 1 1 -0.000935864317578 33.83042793 0.84921768 34.60780130
945 1 1 -0.000950384134377 17.65065805 3.39687073 34.60780130
946 1 1 -0.00103856640257 19.12154622 5.94452377 34.60780130
947 1 1 -0.00112827659648 17.65065805 8.49217681 34.60780130
948 1 1 -0.00135620374869 19.12154622 11.03982986 34.60780130
949 1 1 -0.00156045891301 17.65065805 13.58748290 34.60780130
950 1 1 -0.00210660770116 19.12154622 16.13513595 34.60780130
951 1 1 -0.00250971145033 17.65065805 18.68278899 34.60780130
952 1 1 -0.000935864317748 19.12154622 0.84921768 34.60780130
953 1 1 -0.000980970400838 20.59243439 3.39687073 34.60780130
954 1 1 -0.00107507507699 22.06332256 5.94452377 34.60780130
955 1 1 -0.00119276004562 20.59243439 8.49217681 34.60780130
956 1 1 -0.00144955447137 22.06332256 11.03982986 34.60780130
957 1 1 -0.00173989089733 20.59243439 13.58748290 34.60780130
958 1 1 -0.00241163209568 22.06332256 16.13513595 34.60780130
959 1 1 -0.00311911753653 20.59243439 18.68278899 34.60780130
960 1 1 -0.00095797117005 22.06332256 0.84921768 34.60780130
961 1 1 0.0030166781165 17.65065805 20.38122435 25.00000000
962 1 1 0.00485818047101 19.12154622 22.92887739 25.00000000
963 1 1 0.00524921289594 17.65065805 25.47653044 25.00000000
964 1 1 0.00834341722522 19.12154622 28.02418348 25.00000000
965 1 1 0.0068104225952 17.65065805 30.57183653 25.00000000
966 1 1 0.00834342132222 19.12154622 33.11948957 25.00000000
967 1 1 0.00524913568663 17.65065805 35.66714262 25.00000000
968 1 1 0.00485812624569 19.12154622 38.21479566 25.00000000
969 1 1 0.00395762861103 20.59243439 20.38122435 25.00000000
970 1 1 0.0068001859333 22.06332256 22.92887739 25.00000000
971 1 1 0.0083399227593 20.59243439 25.47653044 25.00000000
972 1 1 0.0137750619637 22.06332256 28.02418348 25.00000000
973 1 1 0.0119851056171 20.59243439 30.57183653 25.00000000
974 1 1 0.0137751096104 22.06332256 33.11948957 25.00000000
975 1 1 0.00833992588642 20.59243439 35.66714262 25.00000000
976 1 1 0.00680018515828 22.06332256 38.21479566 25.00000000
977 1 1 0.00485233529072 23.53421073 20.38122435 25.00000000
978 1 1 0.00833534271202 25.00509890 22.92887739 25.00000000
979 1 1 0.0119808923537 23.53421073 25.47653044 25.00000000
980 1 1 0.0188542258365 25.00509890 28.02418348 25.00000000
981 1 1 0.0188552327053 23.53421073 30.57183653 25.00000000
982 1 1 0.0188542271132 25.00509890 33.11948957 25.00000000
983 1 1 0.0119808918665 23.53421073 35.66714262 25.00000000
984 1 1 0.00833533832808 25.00509890 38.21479566 25.00000000
985 1 1 0.00523789445373 26.47598708 20.38122435 25.00000000
986 1 1 0.00833534270796 27.94687525 22.92887739 25.00000000
987 1 1 0.0137721857425 26.47598708 25.47653044 25.00000000
988 1 1 0.0188542258239 27.94687525 28.02418348 25.00000000
989 1 1 0.0225403527648 26.47598708 30.57183653 25.00000000
990 1 1 0.0188542271006 27.94687525 33.11948957 25.00000000
991 1 1 0.0137721385328 26.47598708 35.66714262 25.00000000
992 1 1 0.00833533832403 27.94687525 38.21479566 25.00000000
993 1 1 0.00485233528723 29.41776342 20.38122435 25.00000000
994 1 1 0.00680018592511 30.88865159 22.92887739 25.00000000
995 1 1 0.0119808923406 29.41776342 25.47653044 25.00000000
996 1 1 0.0137750619406 30.88865159 28.02418348 25.00000000
997 1 1 0.0188552326806 29.41776342 30.57183653 25.00000000
998 1 1 0.0137751095874 30.88865159 33.11948957 25.00000000
999 1 1 0.0119808918534 29.41776342 35.66714262 25.00000000
1000 1 1 0.00680018515009 30.88865159 38.21479566 25.00000000
1001 1 1 0.00395762860685 32.35953976 20.38122435 25.00000000
1002 1 1 0.00485818046411 33.83042793 22.92887739 25.00000000
1003 1 1 0.00833992274524 32.35953976 25.47653044 25.00000000
1004 1 1 0.00834341720846 33.83042793 28.02418348 25.00000000
1005 1 1 0.0119851055929 32.35953976 30.57183653 25.00000000
1006 1 1 0.00834342130546 33.83042793 33.11948957 25.00000000
1007 1 1 0.00833992587236 32.35953976 35.66714262 25.00000000
1008 1 1 0.00485812623879 33.83042793 38.21479566 25.00000000
1009 1 1 0.000561120818363 19.12154622 21.23044203 27.40195032
1010 1 1 0.00106600423942 20.59243439 23.77809508 27.40195032
1011 1 1 0.00120149558853 19.12154622 26.32574812 27.40195032
1012 1 1 0.00208602118205 20.59243439 28.87340116 27.40195032
1013 1 1 0.00155936742861 19.12154622 31.42105421 27.40195032
1014 1 1 0.001796493457 20.59243439 33.96870725 27.40195032
1015 1 1 0.000953846558529 19.12154622 36.51636030 27.40195032
1016 1 1 0.000778505923099 20.59243439 39.06401334 27.40195032
1017 1 1 0.000778215295116 22.06332256 21.23044203 27.40195032
1018 1 1 0.00155822000241 23.53421073 23.77809508 27.40195032
1019 1 1 0.00208562420514 22.06332256 26.32574812 27.40195032
1020 1 1 0.00340134389696 23.53421073 28.87340116 27.40195032
1021 1 1 0.002872911646 22.06332256 31.42105421 27.40195032
1022 1 1 0.00287263991646 23.53421073 33.96870725 27.40195032
1023 1 1 0.00155845054691 22.06332256 36.51636030 27.40195032
1024 1 1 0.00106547274585 23.53421073 39.06401334 27.40195032
1025 1 1 0.000952750711933 25.00509890 21.23044203 27.40195032
1026 1 1 0.00179570242555 26.47598708 23.77809508 27.40195032
1027 1 1 0.00287249098265 25.00509890 26.32574812 27.40195032
1028 1 1 0.00403778419844 26.47598708 28.87340116 27.40195032
1029 1 1 0.00403783562421 25.00509890 31.42105421 27.40195032
1030 1 1 0.00340113570202 26.47598708 33.96870725 27.40195032
1031 1 1 0.00208524083254 25.00509890 36.51636030 27.40195032
1032 1 1 0.00120027749993 26.47598708 39.06401334 27.40195032
1033 1 1 0.000952750711107 27.94687525 21.23044203 27.40195032
1034 1 1 0.00155821999982 29.41776342 23.77809508 27.40195032
1035 1 1 0.00287249098008 27.94687525 26.32574812 27.40195032
1036 1 1 0.0034013438912 29.41776342 28.87340116 27.40195032
1037 1 1 0.0040378356207 27.94687525 31.42105421 27.40195032
1038 1 1 0.00287263991158 29.41776342 33.96870725 27.40195032
1039 1 1 0.00208524083066 27.94687525 36.51636030 27.40195032
1040 1 1 0.00106547274414 29.41776342 39.06401334 27.40195032
1041 1 1 0.000778215293584 30.88865159 21.23044203 27.40195032
1042 1 1 0.00106600423689 32.35953976 23.77809508 27.40195032
1043 1 1 0.00208562420033 30.88865159 26.32574812 27.40195032
1044 1 1 0.0020860211763 32.35953976 28.87340116 27.40195032
1045 1 1 0.00287291163923 30.88865159 31.42105421 27.40195032
1046 1 1 0.00179649345216 32.35953976 33.96870725 27.40195032
1047 1 1 0.00155845054343 30.88865159 36.51636030 27.40195032
1048 1 1 0.000778505921421 32.35953976 39.06401334 27.40195032
1049 1 1 0.000561120817367 33.83042793 21.23044203 27.40195032
1050 1 1 0.000654034984654 17.65065805 23.77809508 27.40195032
1051 1 1 0.00120149558534 33.83042793 26.32574812 27.40195032
1052 1 1 0.00106723143725 17.65065805 28.87340116 27.40195032
1053 1 1 0.00155936742411 33.83042793 31.42105421 27.40195032
1054 1 1 0.000954552849106 17.65065805 33.96870725 27.40195032
1055 1 1 0.000953846556222 33.83042793 36.51636030 27.40195032
1056 1 1 0.00052490996766 17.65065805 39.06401334 27.40195032
1057 1 1 1.48493153268e-06 20.59243439 22.07965971 29.80390065
1058 1 1 3.37296176626e-06 22.06332256 24.62731276 29.80390065
1059 1 1 4.40346899466e-06 20.59243439 27.17496580 29.80390065
1060 1 1 1.92526841144e-05 22.06332256 29.72261885 29.80390065
1061 1 1 6.31529135908e-06 20.59243439 32.27027189 29.80390065
1062 1 1 6.314440111e-06 22.06332256 34.81792493 29.80390065
1063 1 1 2.10384674175e-06 20.59243439 37.36557798 29.80390065
1064 1 1 1.48535273651e-06 22.06332256 39.91323102 29.80390065
1065 1 1 2.1031353737e-06 23.53421073 22.07965971 29.80390065
1066 1 1 6.31394479907e-06 25.00509890 24.62731276 29.80390065
1067 1 1 1.92514230109e-05 23.53421073 27.17496580 29.80390065
1068 1 1 8.74234987683e-05 25.00509890 29.72261885 29.80390065
1069 1 1 3.95001591909e-05 23.53421073 32.27027189 29.80390065
1070 1 1 1.92509832826e-05 25.00509890 34.81792493 29.80390065
1071 1 1 3.37357358638e-06 23.53421073 37.36557798 29.80390065
1072 1 1 1.74519856835e-06 25.00509890 39.91323102 29.80390065
1073 1 1 2.4261341515e-06 26.47598708 22.07965971 29.80390065
1074 1 1 6.31394479785e-06 27.94687525 24.62731276 29.80390065
1075 1 1 3.95003336069e-05 26.47598708 27.17496580 29.80390065
1076 1 1 8.74234985267e-05 27.94687525 29.72261885 29.80390065
1077 1 1 8.74231556343e-05 26.47598708 32.27027189 29.80390065
1078 1 1 1.92509832393e-05 27.94687525 34.81792493 29.80390065
1079 1 1 4.40315634163e-06 26.47598708 37.36557798 29.80390065
1080 1 1 1.74519856756e-06 27.94687525 39.91323102 29.80390065
1081 1 1 2.10313536574e-06 29.41776342 22.07965971 29.80390065
1082 1 1 3.37296177187e-06 30.88865159 24.62731276 29.80390065
1083 1 1 1.92514229266e-05 29.41776342 27.17496580 29.80390065
1084 1 1 1.92526839898e-05 30.88865159 29.72261885 29.80390065
1085 1 1 3.95001589916e-05 29.41776342 32.27027189 29.80390065
1086 1 1 6.31444009213e-06 30.88865159 34.81792493 29.80390065
1087 1 1 3.37357360106e-06 29.41776342 37.36557798 29.80390065
1088 1 1 1.48535274344e-06 30.88865159 39.91323102 29.80390065
1089 1 1 1.48493156259e-06 32.35953976 22.07965971 29.80390065
1090 1 1 1.74498275103e-06 33.83042793 24.62731276 29.80390065
1091 1 1 4.40346900451e-06 32.35953976 27.17496580 29.80390065
1092 1 1 3.37468060481e-06 33.83042793 29.72261885 29.80390065
1093 1 1 6.31529132377e-06 32.35953976 32.27027189 29.80390065
1094 1 1 2.42686642255e-06 33.83042793 34.81792493 29.80390065
1095 1 1 2.10384673196e-06 32.35953976 37.36557798 29.80390065
1096 1 1 1.05757903682e-06 33.83042793 39.91323102 29.80390065
1097 1 1 7.81728738446e-07 17.65065805 22.07965971 29.80390065
1098 1 1 1.74498275597e-06 19.12154622 24.62731276 29.80390065
1099 1 1 1.74591653916e-06 17.65065805 27.17496580 29.80390065
1100 1 1 3.37468060744e-06 19.12154622 29.72261885 29.80390065
1101 1 1 2.10462280681e-06 17.65065805 32.27027189 29.80390065
1102 1 1 2.42686639756e-06 19.12154622 34.81792493 29.80390065
1103 1 1 1.38558243484e-06 17.65065805 37.36557798 29.80390065
1104 1 1 1.05757900844e-06 19.12154622 39.91323102 29.80390065
1105 1 1 -0.00109137431237 22.06332256 22.92887739 32.20585097
1106 1 1 -0.00217906753785 23.53421073 25.47653044 32.20585097
1107 1 1 -0.00256535393103 22.06332256 28.02418348 32.20585097
1108 1 1 -0.00365987435631 23.53421073 30.57183653 32.20585097
1109 1 1 -0.00256542494495 22.06332256 33.11948957 32.20585097
1110 1 1 -0.0021790657887 23.53421073 35.66714262 32.20585097
1111 1 1 -0.00109137113374 22.06332256 38.21479566 32.20585097
1112 1 1 -0.000718873514307 23.53421073 20.38122435 32.20585097
1113 1 1 -0.00140509850349 25.00509890 22.92887739 32.20585097
1114 1 1 -0.00256498113211 26.47598708 25.47653044 32.20585097
1115 1 1 -0.0036597233496 25.00509890 28.02418348 32.20585097
1116 1 1 -0.00445193427769 26.47598708 30.57183653 32.20585097
1117 1 1 -0.00365972995308 25.00509890 33.11948957 32.20585097
1118 1 1 -0.00256491340757 26.47598708 35.66714262 32.20585097
1119 1 1 -0.00140504026896 25.00509890 38.21479566 32.20585097
1120 1 1 -0.000789586628765 26.47598708 20.38122435 32.20585097
1121 1 1 -0.00140509850221 27.94687525 22.92887739 32.20585097
1122 1 1 -0.00217906753408 29.41776342 25.47653044 32.20585097
1123 1 1 -0.00365972334613 27.94687525 28.02418348 32.20585097
1124 1 1 -0.00365987434972 29.41776342 30.57183653 32.20585097
1125 1 1 -0.00365972994963 27.94687525 33.11948957 32.20585097
1126 1 1 -0.00217906578493 29.41776342 35.66714262 32.20585097
1127 1 1 -0.00140504026768 27.94687525 38.21479566 32.20585097
1128 1 1 -0.000718873513185 29.41776342 20.38122435 32.20585097
1129 1 1 -0.00109137431001 30.88865159 22.92887739 32.20585097
1130 1 1 -0.00140573997233 32.35953976 25.47653044 32.20585097
1131 1 1 -0.00256535392484 30.88865159 28.02418348 32.20585097
1132 1 1 -0.00217970004481 32.35953976 30.57183653 32.20585097
1133 1 1 -0.00256542493877 30.88865159 33.11948957 32.20585097
1134 1 1 -0.00140579331143 32.35953976 35.66714262 32.20585097
1135 1 1 -0.00109137113137 30.88865159 38.21479566 32.20585097
1136 1 1 -0.000563522970938 32.35953976 20.38122435 32.20585097
1137 1 1 -0.000719758834396 33.83042793 22.92887739 32.20585097
1138 1 1 -0.000791328906715 17.65065805 25.47653044 32.20585097
1139 1 1 -0.00140626443 33.83042793 28.02418348 32.20585097
1140 1 1 -0.00109291757253 17.65065805 30.57183653 32.20585097
1141 1 1 -0.00140632252429 33.83042793 33.11948957 32.20585097
1142 1 1 -0.00079128887599 17.65065805 35.66714262 32.20585097
1143 1 1 -0.000719750366172 33.83042793 38.21479566 32.20585097
1144 1 1 -0.000417065405407 17.65065805 20.38122435 32.20585097
1145 1 1 -0.000719758835963 19.12154622 22.92887739 32.20585097
1146 1 1 -0.00140573997601 20.59243439 25.47653044 32.20585097
1147 1 1 -0.00140626443402 19.12154622 28.02418348 32.20585097
1148 1 1 -0.002179700051 20.59243439 30.57183653 32.20585097
1149 1 1 -0.0014063225283 19.12154622 33.11948957 32.20585097
1150 1 1 -0.0014057933151 20.59243439 35.66714262 32.20585097
1151 1 1 -0.000719750367747 19.12154622 38.21479566 32.20585097
1152 1 1 -0.00056352297203 20.59243439 20.38122435 32.20585097
1153 1 1 -0.00900920816421 23.53421073 23.77809508 34.60780130
1154 1 1 -0.0152345845937 25.00509890 26.32574812 34.60780130
1155 1 1 -0.0178291049727 23.53421073 28.87340116 34.60780130
1156 1 1 -0.0211276724435 25.00509890 31.42105421 34.60780130
1157 1 1 -0.0152355456016 23.53421073 33.96870725 34.60780130
1158 1 1 -0.011501714875 25.00509890 36.51636030 34.60780130
1159 1 1 -0.00660996538197 23.53421073 39.06401334 34.60780130
1160 1 1 -0.00603718797798 25.00509890 21.23044203 34.60780130
1161 1 1 -0.0101352921113 26.47598708 23.77809508 34.60780130
1162 1 1 -0.0152345845844 27.94687525 26.32574812 34.60780130
1163 1 1 -0.0211273399838 26.47598708 28.87340116 34.60780130
1164 1 1 -0.0211276724291 27.94687525 31.42105421 34.60780130
1165 1 1 -0.0178278014012 26.47598708 33.96870725 34.60780130
1166 1 1 -0.0115017148686 27.94687525 36.51636030 34.60780130
1167 1 1 -0.00727851951708 26.47598708 39.06401334 34.60780130
1168 1 1 -0.00603718797544 27.94687525 21.23044203 34.60780130
1169 1 1 -0.00900920815551 29.41776342 23.77809508 34.60780130
1170 1 1 -0.0115042219868 30.88865159 26.32574812 34.60780130
1171 1 1 -0.0178291049502 29.41776342 28.87340116 34.60780130
1172 1 1 -0.0152372779356 30.88865159 31.42105421 34.60780130
1173 1 1 -0.0152355455834 29.41776342 33.96870725 34.60780130
1174 1 1 -0.0090107075008 30.88865159 36.51636030 34.60780130
1175 1 1 -0.00660996537642 29.41776342 39.06401334 34.60780130
1176 1 1 -0.00512134317226 30.88865159 21.23044203 34.60780130
1177 1 1 -0.00661343902651 32.35953976 23.77809508 34.60780130
1178 1 1 -0.0072864781145 33.83042793 26.32574812 34.60780130
1179 1 1 -0.0115067736033 32.35953976 28.87340116 34.60780130
1180 1 1 -0.00901666974037 33.83042793 31.42105421 34.60780130
1181 1 1 -0.010140449272 32.35953976 33.96870725 34.60780130
1182 1 1 -0.00604434071872 33.83042793 36.51636030 34.60780130
1183 1 1 -0.00512323618309 32.35953976 39.06401334 34.60780130
1184 1 1 -0.00389039971386 33.83042793 21.23044203 34.60780130
1185 1 1 -0.00443367898068 17.65065805 23.77809508 34.60780130
1186 1 1 -0.00728647812804 19.12154622 26.32574812 34.60780130
1187 1 1 -0.00662144309423 17.65065805 28.87340116 34.60780130
1188 1 1 -0.00901666975926 19.12154622 31.42105421 34.60780130
1189 1 1 -0.00604896445256 17.65065805 33.96870725 34.60780130
1190 1 1 -0.00604434072871 19.12154622 36.51636030 34.60780130
1191 1 1 -0.00366877787404 17.65065805 39.06401334 34.60780130
1192 1 1 -0.00389039971851 19.12154622 21.23044203 34.60780130
1193 1 1 -0.00661343903633 20.59243439 23.77809508 34.60780130
1194 1 1 -0.0115042220046 22.06332256 26.32574812 34.60780130
1195 1 1 -0.0115067736261 20.59243439 28.87340116 34.60780130
1196 1 1 -0.015237277962 22.06332256 31.42105421 34.60780130
1197 1 1 -0.0101404492908 20.59243439 33.96870725 34.60780130
1198 1 1 -0.00901070751326 22.06332256 36.51636030 34.60780130
1199 1 1 -0.00512323618959 20.59243439 39.06401334 34.60780130
1200 1 1 -0.00512134317753 22.06332256 21.23044203 34.60780130
1201 1 1 0.0030166139563 17.65065805 40.76244870 25.00000000
1202 1 1 0.00253362879806 19.12154622 43.31010174 25.00000000
1203 1 1 0.00179468388838 17.65065805 45.85775479 25.00000000
1204 1 1 0.00153621302296 19.12154622 48.40540783 25.00000000
1205 1 1 0.00123299631536 17.65065805 50.95306088 25.00000000
1206 1 1 0.00111184135186 19.12154622 53.50071392 25.00000000
1207 1 1 0.000987579005348 17.65065805 56.04836697 25.00000000
1208 1 1 0.000950095193363 19.12154622 58.59602001 25.00000000
1209 1 1 0.00395762846182 20.59243439 40.76244870 25.00000000
1210 1 1 0.00301035823152 22.06332256 43.31010174 25.00000000
1211 1 1 0.00205783587031 20.59243439 45.85775479 25.00000000
1212 1 1 0.0016706516627 22.06332256 48.40540783 25.00000000
1213 1 1 0.0013214534262 20.59243439 50.95306088 25.00000000
1214 1 1 0.00116009909244 22.06332256 53.50071392 25.00000000
1215 1 1 0.00102489932336 20.59243439 56.04836697 25.00000000
1216 1 1 0.000974292153316 22.06332256 58.59602001 25.00000000
1217 1 1 0.0048523888199 23.53421073 40.76244870 25.00000000
1218 1 1 0.00332757822463 25.00509890 43.31010174 25.00000000
1219 1 1 0.0022663975646 23.53421073 45.85775479 25.00000000
1220 1 1 0.0017503451395 25.00509890 48.40540783 25.00000000
1221 1 1 0.0013849908097 23.53421073 50.95306088 25.00000000
1222 1 1 0.00118719299534 25.00509890 53.50071392 25.00000000
1223 1 1 0.00105046012841 23.53421073 56.04836697 25.00000000
1224 1 1 0.000987519603136 25.00509890 58.59602001 25.00000000
1225 1 1 0.0052379713541 26.47598708 40.76244870 25.00000000
1226 1 1 0.00332757822361 27.94687525 43.31010174 25.00000000
1227 1 1 0.00234723475438 26.47598708 45.85775479 25.00000000
1228 1 1 0.00175034513916 27.94687525 48.40540783 25.00000000
1229 1 1 0.00140824580666 26.47598708 50.95306088 25.00000000
1230 1 1 0.00118719299516 27.94687525 53.50071392 25.00000000
1231 1 1 0.00105957111707 26.47598708 56.04836697 25.00000000
1232 1 1 0.000987519603014 27.94687525 58.59602001 25.00000000
1233 1 1 0.00485238881641 29.41776342 40.76244870 25.00000000
1234 1 1 0.00301035822938 30.88865159 43.31010174 25.00000000
1235 1 1 0.00226639756363 29.41776342 45.85775479 25.00000000
1236 1 1 0.001670651662 30.88865159 48.40540783 25.00000000
1237 1 1 0.0013849908093 29.41776342 50.95306088 25.00000000
1238 1 1 0.0011600990921 30.88865159 53.50071392 25.00000000
1239 1 1 0.00105046012817 29.41776342 56.04836697 25.00000000
1240 1 1 0.000974292153092 30.88865159 58.59602001 25.00000000
1241 1 1 0.00395762845765 32.35953976 40.76244870 25.00000000
1242 1 1 0.00253362879606 33.83042793 43.31010174 25.00000000
1243 1 1 0.00205783586911 32.35953976 45.85775479 25.00000000
1244 1 1 0.00153621302232 33.83042793 48.40540783 25.00000000
1245 1 1 0.00132145342575 32.35953976 50.95306088 25.00000000
1246 1 1 0.0011118413516 33.83042793 53.50071392 25.00000000
1247 1 1 0.00102489932313 32.35953976 56.04836697 25.00000000
1248 1 1 0.000950095193211 33.83042793 58.59602001 25.00000000
1249 1 1 0.000439494362915 19.12154622 41.61166638 27.40195032
1250 1 1 0.000351852929818 20.59243439 44.15931943 27.40195032
1251 1 1 0.000258785922935 19.12154622 46.70697247 27.40195032
1252 1 1 0.000223475894768 20.59243439 49.25462551 27.40195032
1253 1 1 0.000186472819951 19.12154622 51.80227856 27.40195032
1254 1 1 0.000169933063441 20.59243439 54.34993160 27.40195032
1255 1 1 0.000154435383988 19.12154622 56.89758465 27.40195032
1256 1 1 0.000150051777745 20.59243439 59.44523769 27.40195032
1257 1 1 0.000560497202546 22.06332256 41.61166638 27.40195032
1258 1 1 0.000398030483136 23.53421073 44.15931943 27.40195032
1259 1 1 0.000283845856881 22.06332256 46.70697247 27.40195032
1260 1 1 0.000235128308243 23.53421073 49.25462551 27.40195032
1261 1 1 0.000195373716626 22.06332256 51.80227856 27.40195032
1262 1 1 0.000174604435631 23.53421073 54.34993160 27.40195032
1263 1 1 0.000158588946778 22.06332256 56.89758465 27.40195032
1264 1 1 0.000152687973862 23.53421073 59.44523769 27.40195032
1265 1 1 0.000652487363824 25.00509890 41.61166638 27.40195032
1266 1 1 0.000417237908706 26.47598708 44.15931943 27.40195032
1267 1 1 0.000299358222386 25.00509890 46.70697247 27.40195032
1268 1 1 0.000239430881906 26.47598708 49.25462551 27.40195032
1269 1 1 0.000200387339353 25.00509890 51.80227856 27.40195032
1270 1 1 0.000176273926018 26.47598708 54.34993160 27.40195032
1271 1 1 0.000160867879698 25.00509890 56.89758465 27.40195032
1272 1 1 0.000153618281247 26.47598708 59.44523769 27.40195032
1273 1 1 0.000652487363285 27.94687525 41.61166638 27.40195032
1274 1 1 0.000398030482646 29.41776342 44.15931943 27.40195032
1275 1 1 0.000299358222202 27.94687525 46.70697247 27.40195032
1276 1 1 0.000235128308036 29.41776342 49.25462551 27.40195032
1277 1 1 0.000200387339257 27.94687525 51.80227856 27.40195032
1278 1 1 0.000174604435503 29.41776342 54.34993160 27.40195032
1279 1 1 0.000160867879628 27.94687525 56.89758465 27.40195032
1280 1 1 0.000152687973758 29.41776342 59.44523769 27.40195032
1281 1 1 0.000560497201566 30.88865159 41.61166638 27.40195032
1282 1 1 0.000351852929362 32.35953976 44.15931943 27.40195032
1283 1 1 0.00028384585656 30.88865159 46.70697247 27.40195032
1284 1 1 0.000223475894589 32.35953976 49.25462551 27.40195032
1285 1 1 0.000195373716463 30.88865159 51.80227856 27.40195032
1286 1 1 0.000169933063339 32.35953976 54.34993160 27.40195032
1287 1 1 0.000158588946664 30.88865159 56.89758465 27.40195032
1288 1 1 0.000150051777667 32.35953976 59.44523769 27.40195032
1289 1 1 0.000439494362295 33.83042793 41.61166638 27.40195032
1290 1 1 0.000299825384662 17.65065805 44.15931943 27.40195032
1291 1 1 0.000258785922756 33.83042793 46.70697247 27.40195032
1292 1 1 0.000207430045993 17.65065805 49.25462551 27.40195032
1293 1 1 0.000186472819876 33.83042793 51.80227856 27.40195032
1294 1 1 0.000163147300317 17.65065805 54.34993160 27.40195032
1295 1 1 0.000154435383945 33.83042793 56.89758465 27.40195032
1296 1 1 0.000146131545641 17.65065805 59.44523769 27.40195032
1297 1 1 6.69486049276e-07 20.59243439 42.46088406 29.80390065
1298 1 1 3.38622407677e-07 22.06332256 45.00853711 29.80390065
1299 1 1 1.87770144259e-07 20.59243439 47.55619015 29.80390065
1300 1 1 1.45271779175e-07 22.06332256 50.10384320 29.80390065
1301 1 1 1.34175669503e-07 20.59243439 52.65149624 29.80390065
1302 1 1 1.26121747826e-07 22.06332256 55.19914928 29.80390065
1303 1 1 1.19451480489e-07 20.59243439 57.74680233 29.80390065
1304 1 1 1.18471398595e-07 22.06332256 60.29445537 29.80390065
1305 1 1 7.81027157885e-07 23.53421073 42.46088406 29.80390065
1306 1 1 3.18021434041e-07 25.00509890 45.00853711 29.80390065
1307 1 1 1.76326641342e-07 23.53421073 47.55619015 29.80390065
1308 1 1 1.37900401682e-07 25.00509890 50.10384320 29.80390065
1309 1 1 1.33297727692e-07 23.53421073 52.65149624 29.80390065
1310 1 1 1.26774026513e-07 25.00509890 55.19914928 29.80390065
1311 1 1 1.21070860722e-07 23.53421073 57.74680233 29.80390065
1312 1 1 1.19755962817e-07 25.00509890 60.29445537 29.80390065
1313 1 1 7.73007607274e-07 26.47598708 42.46088406 29.80390065
1314 1 1 3.1802143542e-07 27.94687525 45.00853711 29.80390065
1315 1 1 1.62666155075e-07 26.47598708 47.55619015 29.80390065
1316 1 1 1.3790040457e-07 27.94687525 50.10384320 29.80390065
1317 1 1 1.32316535505e-07 26.47598708 52.65149624 29.80390065
1318 1 1 1.26774029917e-07 27.94687525 55.19914928 29.80390065
1319 1 1 1.21618520069e-07 26.47598708 57.74680233 29.80390065
1320 1 1 1.19755966429e-07 27.94687525 60.29445537 29.80390065
1321 1 1 7.81027174534e-07 29.41776342 42.46088406 29.80390065
1322 1 1 3.38622416774e-07 30.88865159 45.00853711 29.80390065
1323 1 1 1.76326652155e-07 29.41776342 47.55619015 29.80390065
1324 1 1 1.45271789211e-07 30.88865159 50.10384320 29.80390065
1325 1 1 1.3329773605e-07 29.41776342 52.65149624 29.80390065
1326 1 1 1.26121758217e-07 30.88865159 55.19914928 29.80390065
1327 1 1 1.21070868257e-07 29.41776342 57.74680233 29.80390065
1328 1 1 1.18471409143e-07 30.88865159 60.29445537 29.80390065
1329 1 1 6.69486049692e-07 32.35953976 42.46088406 29.80390065
1330 1 1 2.97100928688e-07 33.83042793 45.00853711 29.80390065
1331 1 1 1.87770153827e-07 32.35953976 47.55619015 29.80390065
1332 1 1 1.48121038724e-07 33.83042793 50.10384320 29.80390065
1333 1 1 1.34175681831e-07 32.35953976 52.65149624 29.80390065
1334 1 1 1.24335902256e-07 33.83042793 55.19914928 29.80390065
1335 1 1 1.19451493739e-07 32.35953976 57.74680233 29.80390065
1336 1 1 1.16101732918e-07 33.83042793 60.29445537 29.80390065
1337 1 1 4.78155564158e-07 17.65065805 42.46088406 29.80390065
1338 1 1 2.97100907759e-07 19.12154622 45.00853711 29.80390065
1339 1 1 1.77707951767e-07 17.65065805 47.55619015 29.80390065
1340 1 1 1.48121020845e-07 19.12154622 50.10384320 29.80390065
1341 1 1 1.32531635228e-07 17.65065805 52.65149624 29.80390065
1342 1 1 1.24335885405e-07 19.12154622 55.19914928 29.80390065
1343 1 1 1.16886704607e-07 17.65065805 57.74680233 29.80390065
1344 1 1 1.16101716555e-07 19.12154622 60.29445537 29.80390065
1345 1 1 -0.000416110553093 22.06332256 43.31010174 32.20585097
1346 1 1 -0.000314904238021 23.53421073 45.85775479 32.20585097
1347 1 1 -0.000240981487518 22.06332256 48.40540783 32.20585097
1348 1 1 -0.00020549136358 23.53421073 50.95306088 32.20585097
1349 1 1 -0.000176188313067 22.06332256 53.50071392 32.20585097
1350 1 1 -0.000161356694198 23.53421073 56.04836697 32.20585097
1351 1 1 -0.000150777902766 22.06332256 58.59602001 32.20585097
1352 1 1 -0.000718880751953 23.53421073 40.76244870 32.20585097
1353 1 1 -0.000463465192033 25.00509890 43.31010174 32.20585097
1354 1 1 -0.000325365385475 26.47598708 45.85775479 32.20585097
1355 1 1 -0.000250791586234 25.00509890 48.40540783 32.20585097
1356 1 1 -0.000208464183246 26.47598708 50.95306088 32.20585097
1357 1 1 -0.000179849125497 25.00509890 53.50071392 32.20585097
1358 1 1 -0.000162632446691 26.47598708 56.04836697 32.20585097
1359 1 1 -0.000152669777673 25.00509890 58.59602001 32.20585097
1360 1 1 -0.000789627334752 26.47598708 40.76244870 32.20585097
1361 1 1 -0.000463465191666 27.94687525 43.31010174 32.20585097
1362 1 1 -0.000314904237656 29.41776342 45.85775479 32.20585097
1363 1 1 -0.000250791586084 27.94687525 48.40540783 32.20585097
1364 1 1 -0.000205491363395 29.41776342 50.95306088 32.20585097
1365 1 1 -0.000179849125405 27.94687525 53.50071392 32.20585097
1366 1 1 -0.000161356694067 29.41776342 56.04836697 32.20585097
1367 1 1 -0.000152669777599 27.94687525 58.59602001 32.20585097
1368 1 1 -0.000718880750827 29.41776342 40.76244870 32.20585097
1369 1 1 -0.000416110552423 30.88865159 43.31010174 32.20585097
1370 1 1 -0.00028854478068 32.35953976 45.85775479 32.20585097
1371 1 1 -0.00024098148725 30.88865159 48.40540783 32.20585097
1372 1 1 -0.000197309035188 32.35953976 50.95306088 32.20585097
1373 1 1 -0.000176188312905 30.88865159 53.50071392 32.20585097
1374 1 1 -0.000157767925363 32.35953976 56.04836697 32.20585097
1375 1 1 -0.000150777902637 30.88865159 58.59602001 32.20585097
1376 1 1 -0.000563523760916 32.35953976 40.76244870 32.20585097
1377 1 1 -0.00034973063753 33.83042793 43.31010174 32.20585097
1378 1 1 -0.000256167013328 17.65065805 45.85775479 32.20585097
1379 1 1 -0.000224371474993 33.83042793 48.40540783 32.20585097
1380 1 1 -0.000185745758106 17.65065805 50.95306088 32.20585097
1381 1 1 -0.000169617305102 33.83042793 53.50071392 32.20585097
1382 1 1 -0.000152503169438 17.65065805 56.04836697 32.20585097
1383 1 1 -0.000147310626662 33.83042793 58.59602001 32.20585097
1384 1 1 -0.000417047505402 17.65065805 40.76244870 32.20585097
1385 1 1 -0.000349730637953 19.12154622 43.31010174 32.20585097
1386 1 1 -0.000288544781014 20.59243439 45.85775479 32.20585097
1387 1 1 -0.000224371475153 19.12154622 48.40540783 32.20585097
1388 1 1 -0.000197309035355 20.59243439 50.95306088 32.20585097
1389 1 1 -0.000169617305194 19.12154622 53.50071392 32.20585097
1390 1 1 -0.000157767925479 20.59243439 56.04836697 32.20585097
1391 1 1 -0.000147310626731 19.12154622 58.59602001 32.20585097
1392 1 1 -0.000563523761992 20.59243439 40.76244870 32.20585097
1393 1 1 -0.00283719830975 23.53421073 44.15931943 34.60780130
1394 1 1 -0.00210485453701 25.00509890 46.70697247 34.60780130
1395 1 1 -0.00159339063489 23.53421073 49.25462551 34.60780130
1396 1 1 -0.00132176583381 25.00509890 51.80227856 34.60780130
1397 1 1 -0.00112949220066 23.53421073 54.34993160 34.60780130
1398 1 1 -0.00103035614649 25.00509890 56.89758465 34.60780130
1399 1 1 -0.0009725427402 23.53421073 59.44523769 34.60780130
1400 1 1 -0.00442358597739 25.00509890 41.61166638 34.60780130
1401 1 1 -0.00296970306134 26.47598708 44.15931943 34.60780130
1402 1 1 -0.00210485453654 27.94687525 46.70697247 34.60780130
1403 1 1 -0.00162748223377 26.47598708 49.25462551 34.60780130
1404 1 1 -0.0013217658336 27.94687525 51.80227856 34.60780130
1405 1 1 -0.00114149196126 26.47598708 54.34993160 34.60780130
1406 1 1 -0.00103035614636 27.94687525 56.89758465 34.60780130
1407 1 1 -0.00097892588123 26.47598708 59.44523769 34.60780130
1408 1 1 -0.00442358597581 27.94687525 41.61166638 34.60780130
1409 1 1 -0.0028371983083 29.41776342 44.15931943 34.60780130
1410 1 1 -0.00198275507763 30.88865159 46.70697247 34.60780130
1411 1 1 -0.00159339063437 29.41776342 49.25462551 34.60780130
1412 1 1 -0.00128403546678 30.88865159 51.80227856 34.60780130
1413 1 1 -0.00112949220038 29.41776342 54.34993160 34.60780130
1414 1 1 -0.00101448809395 30.88865159 56.89758465 34.60780130
1415 1 1 -0.000972542739992 29.41776342 59.44523769 34.60780130
1416 1 1 -0.00388634596776 30.88865159 41.61166638 34.60780130
1417 1 1 -0.00250561245885 32.35953976 44.15931943 34.60780130
1418 1 1 -0.00178289222363 33.83042793 46.70697247 34.60780130
1419 1 1 -0.00150154836334 32.35953976 49.25462551 34.60780130
1420 1 1 -0.0012177507084 33.83042793 51.80227856 34.60780130
1421 1 1 -0.00109605955637 32.35953976 54.34993160 34.60780130
1422 1 1 -0.000985649920694 33.83042793 56.89758465 34.60780130
1423 1 1 -0.00095447369802 32.35953976 59.44523769 34.60780130
1424 1 1 -0.00312117778309 33.83042793 41.61166638 34.60780130
1425 1 1 -0.00210851863616 17.65065805 44.15931943 34.60780130
1426 1 1 -0.00178289222458 19.12154622 46.70697247 34.60780130
1427 1 1 -0.00137678764629 17.65065805 49.25462551 34.60780130
1428 1 1 -0.00121775070877 19.12154622 51.80227856 34.60780130
1429 1 1 -0.00104786026883 17.65065805 54.34993160 34.60780130
1430 1 1 -0.000985649920896 19.12154622 56.89758465 34.60780130
1431 1 1 -0.000927655285018 17.65065805 59.44523769 34.60780130
1432 1 1 -0.00312117778617 19.12154622 41.61166638 34.60780130
1433 1 1 -0.00250561246065 20.59243439 44.15931943 34.60780130
1434 1 1 -0.00198275507863 22.06332256 46.70697247 34.60780130
1435 1 1 -0.00150154836397 20.59243439 49.25462551 34.60780130
1436 1 1 -0.0012840354672 22.06332256 51.80227856 34.60780130
1437 1 1 -0.00109605955667 20.59243439 54.34993160 34.60780130
1438 1 1 -0.00101448809421 22.06332256 56.89758465 34.60780130
1439 1 1 -0.000954473698237 20.59243439 59.44523769 34.60780130
1440 1 1 -0.00388634597111 22.06332256 41.61166638 34.60780130
1441 1 1 0.000918268023399 35.30131610 0.00000000 25.00000000
1442 1 1 0.000918799086126 36.77220427 2.54765304 25.00000000
1443 1 1 0.000987576611074 35.30131610 5.09530609 25.00000000
1444 1 1 0.00105183449748 36.77220427 7.64295913 25.00000000
1445 1 1 0.00123298858838 35.30131610 10.19061218 25.00000000
1446 1 1 0.00138131892677 36.77220427 12.73826522 25.00000000
1447 1 1 0.00179468436437 35.30131610 15.28591827 25.00000000
1448 1 1 0.00206373772956 36.77220427 17.83357131 25.00000000
1449 1 1 0.000888125159768 38.24309244 0.00000000 25.00000000
1450 1 1 0.000884921781215 39.71398061 2.54765304 25.00000000
1451 1 1 0.000944613580988 38.24309244 5.09530609 25.00000000
1452 1 1 0.000989805422717 39.71398061 7.64295913 25.00000000
1453 1 1 0.00113710896758 38.24309244 10.19061218 25.00000000
1454 1 1 0.00123405732753 39.71398061 12.73826522 25.00000000
1455 1 1 0.0015404634959 38.24309244 15.28591827 25.00000000
1456 1 1 0.00168249256091 39.71398061 17.83357131 25.00000000
1457 1 1 0.000857428640962 41.18486878 0.00000000 25.00000000
1458 1 1 0.000852741108012 42.65575695 2.54765304 25.00000000
1459 1 1 0.00090199530995 41.18486878 5.09530609 25.00000000
1460 1 1 0.000933561015278 42.65575695 7.64295913 25.00000000
1461 1 1 0.00104787624191 41.18486878 10.19061218 25.00000000
1462 1 1 0.00111075523342 42.65575695 12.73826522 25.00000000
1463 1 1 0.00132859739914 41.18486878 15.28591827 25.00000000
1464 1 1 0.00140351380611 42.65575695 17.83357131 25.00000000
1465 1 1 0.000829807496002 44.12664513 0.00000000 25.00000000
1466 1 1 0.000825750502269 45.59753330 2.54765304 25.00000000
1467 1 1 0.000864592128373 44.12664513 5.09530609 25.00000000
1468 1 1 0.000888309354316 45.59753330 7.64295913 25.00000000
1469 1 1 0.00097410558943 44.12664513 10.19061218 25.00000000
1470 1 1 0.00101809294046 45.59753330 12.73826522 25.00000000
1471 1 1 0.0011690930368 44.12664513 15.28591827 25.00000000
1472 1 1 0.00121416738027 45.59753330 17.83357131 25.00000000
1473 1 1 0.000808121813356 47.06842147 0.00000000 25.00000000
1474 1 1 0.000806463131942 48.53930964 2.54765304 25.00000000
1475 1 1 0.00083583418966 47.06842147 5.09530609 25.00000000
1476 1 1 0.000857005844353 48.53930964 7.64295913 25.00000000
1477 1 1 0.000920139523648 47.06842147 10.19061218 25.00000000
1478 1 1 0.00095723925079 48.53930964 12.73826522 25.00000000
1479 1 1 0.0010605452946 47.06842147 15.28591827 25.00000000
1480 1 1 0.00109827622029 48.53930964 17.83357131 25.00000000
1481 1 1 0.000794352958533 50.01019781 0.00000000 25.00000000
1482 1 1 0.000796448406942 51.48108598 2.54765304 25.00000000
1483 1 1 0.00081784518254 50.01019781 5.09530609 25.00000000
1484 1 1 0.000841082057196 51.48108598 7.64295913 25.00000000
1485 1 1 0.000887557962675 50.01019781 10.19061218 25.00000000
1486 1 1 0.000927273991415 51.48108598 12.73826522 25.00000000
1487 1 1 0.000998163069074 50.01019781 15.28591827 25.00000000
1488 1 1 0.00104353866352 51.48108598 17.83357131 25.00000000
1489 1 1 0.000143139090462 36.77220427 0.84921768 27.40195032
1490 1 1 0.000144184108629 38.24309244 3.39687073 27.40195032
1491 1 1 0.000155305915812 36.77220427 5.94452377 27.40195032
1492 1 1 0.000164317114896 38.24309244 8.49217681 27.40195032
1493 1 1 0.000190101813285 36.77220427 11.03982986 27.40195032
1494 1 1 0.000207715934764 38.24309244 13.58748290 27.40195032
1495 1 1 0.000259313358011 36.77220427 16.13513595 27.40195032
1496 1 1 0.000285454464373 38.24309244 18.68278899 27.40195032
1497 1 1 0.000138537362184 39.71398061 0.84921768 27.40195032
1498 1 1 0.000138940071108 41.18486878 3.39687073 27.40195032
1499 1 1 0.000148319002176 39.71398061 5.94452377 27.40195032
1500 1 1 0.000154668419661 41.18486878 8.49217681 27.40195032
1501 1 1 0.000175329080418 39.71398061 11.03982986 27.40195032
1502 1 1 0.000186867438994 41.18486878 13.58748290 27.40195032
1503 1 1 0.000224674254636 39.71398061 16.13513595 27.40195032
1504 1 1 0.000237844015113 41.18486878 18.68278899 27.40195032
1505 1 1 0.000134126750919 42.65575695 0.84921768 27.40195032
1506 1 1 0.000134259703056 44.12664513 3.39687073 27.40195032
1507 1 1 0.000141818385053 42.65575695 5.94452377 27.40195032
1508 1 1 0.000146413226259 44.12664513 8.49217681 27.40195032
1509 1 1 0.000162269344054 42.65575695 11.03982986 27.40195032
1510 1 1 0.000170049869391 44.12664513 13.58748290 27.40195032
1511 1 1 0.000197157576931 42.65575695 16.13513595 27.40195032
1512 1 1 0.000204489951318 44.12664513 18.68278899 27.40195032
1513 1 1 0.000130397098712 45.59753330 0.84921768 27.40195032
1514 1 1 0.000130609813901 47.06842147 3.39687073 27.40195032
1515 1 1 0.000136469901045 45.59753330 5.94452377 27.40195032
1516 1 1 0.00014021040845 47.06842147 8.49217681 27.40195032
1517 1 1 0.000152017822887 45.59753330 11.03982986 27.40195032
1518 1 1 0.00015799796952 47.06842147 13.58748290 27.40195032
1519 1 1 0.000176966999934 45.59753330 16.13513595 27.40195032
1520 1 1 0.000182263709222 47.06842147 18.68278899 27.40195032
1521 1 1 0.000127714482815 48.53930964 0.84921768 27.40195032
1522 1 1 0.000128303318346 50.01019781 3.39687073 27.40195032
1523 1 1 0.000132705953532 48.53930964 5.94452377 27.40195032
1524 1 1 0.000136397045503 50.01019781 8.49217681 27.40195032
1525 1 1 0.000145078157064 48.53930964 11.03982986 27.40195032
1526 1 1 0.000150845299346 50.01019781 13.58748290 27.40195032
1527 1 1 0.000163898508593 48.53930964 16.13513595 27.40195032
1528 1 1 0.000169578427966 50.01019781 18.68278899 27.40195032
1529 1 1 0.000126315724065 51.48108598 0.84921768 27.40195032
1530 1 1 0.000149377883582 35.30131610 3.39687073 27.40195032
1531 1 1 0.000130770542171 51.48108598 5.94452377 27.40195032
1532 1 1 0.000174288662486 35.30131610 8.49217681 27.40195032
1533 1 1 0.000141600639526 51.48108598 11.03982986 27.40195032
1534 1 1 0.000230914437419 35.30131610 13.58748290 27.40195032
1535 1 1 0.000157531971585 51.48108598 16.13513595 27.40195032
1536 1 1 0.000352483888545 35.30131610 18.68278899 27.40195032
1537 1 1 1.12129881068e-07 38.24309244 1.69843536 29.80390065
1538 1 1 1.13433904404e-07 39.71398061 4.24608841 29.80390065
1539 1 1 1.23019749044e-07 38.24309244 6.79374145 29.80390065
1540 1 1 1.27592891848e-07 39.71398061 9.34139450 29.80390065
1541 1 1 1.43420047428e-07 38.24309244 11.88904754 29.80390065
1542 1 1 1.47487631399e-07 39.71398061 14.43670058 29.80390065
1543 1 1 1.87793220304e-07 38.24309244 16.98435363 29.80390065
1544 1 1 1.77538483649e-07 39.71398061 19.53200667 29.80390065
1545 1 1 1.08196549703e-07 41.18486878 1.69843536 29.80390065
1546 1 1 1.08640972977e-07 42.65575695 4.24608841 29.80390065
1547 1 1 1.16118389535e-07 41.18486878 6.79374145 29.80390065
1548 1 1 1.19313570628e-07 42.65575695 9.34139450 29.80390065
1549 1 1 1.31393556285e-07 41.18486878 11.88904754 29.80390065
1550 1 1 1.33524559351e-07 42.65575695 14.43670058 29.80390065
1551 1 1 1.45604015322e-07 41.18486878 16.98435363 29.80390065
1552 1 1 1.39780570281e-07 42.65575695 19.53200667 29.80390065
1553 1 1 1.04801863518e-07 44.12664513 1.69843536 29.80390065
1554 1 1 1.04884466884e-07 45.59753330 4.24608841 29.80390065
1555 1 1 1.10368095452e-07 44.12664513 6.79374145 29.80390065
1556 1 1 1.12804178194e-07 45.59753330 9.34139450 29.80390065
1557 1 1 1.22316416813e-07 44.12664513 11.88904754 29.80390065
1558 1 1 1.24965788025e-07 45.59753330 14.43670058 29.80390065
1559 1 1 1.34027089366e-07 44.12664513 16.98435363 29.80390065
1560 1 1 1.35272446076e-07 45.59753330 19.53200667 29.80390065
1561 1 1 1.02231725991e-07 47.06842147 1.69843536 29.80390065
1562 1 1 1.02358221878e-07 48.53930964 4.24608841 29.80390065
1563 1 1 1.06225628945e-07 47.06842147 6.79374145 29.80390065
1564 1 1 1.08459482241e-07 48.53930964 9.34139450 29.80390065
1565 1 1 1.15546139888e-07 47.06842147 11.88904754 29.80390065
1566 1 1 1.18645225761e-07 48.53930964 14.43670058 29.80390065
1567 1 1 1.27696147162e-07 47.06842147 16.98435363 29.80390065
1568 1 1 1.31051933769e-07 48.53930964 19.53200667 29.80390065
1569 1 1 1.00640085184e-07 50.01019781 1.69843536 29.80390065
1570 1 1 1.01098843831e-07 51.48108598 4.24608841 29.80390065
1571 1 1 1.03790367909e-07 50.01019781 6.79374145 29.80390065
1572 1 1 1.06335547382e-07 51.48108598 9.34139450 29.80390065
1573 1 1 1.11370066414e-07 50.01019781 11.88904754 29.80390065
1574 1 1 1.15170049837e-07 51.48108598 14.43670058 29.80390065
1575 1 1 1.22423813788e-07 50.01019781 16.98435363 29.80390065
1576 1 1 1.27103841276e-07 51.48108598 19.53200667 29.80390065
1577 1 1 1.16143367765e-07 35.30131610 1.69843536 29.80390065
1578 1 1 1.18792630939e-07 36.77220427 4.24608841 29.80390065
1579 1 1 1.30302181101e-07 35.30131610 6.79374145 29.80390065
1580 1 1 1.37148836173e-07 36.77220427 9.34139450 29.80390065
1581 1 1 1.61087662788e-07 35.30131610 11.88904754 29.80390065
1582 1 1 1.76935260589e-07 36.77220427 14.43670058 29.80390065
1583 1 1 2.96812208626e-07 35.30131610 16.98435363 29.80390065
1584 1 1 3.39440648629e-07 36.77220427 19.53200667 29.80390065
1585 1 1 -0.000137930473156 39.71398061 2.54765304 32.20585097
1586 1 1 -0.000140325386264 41.18486878 5.09530609 32.20585097
1587 1 1 -0.00015271243768 39.71398061 7.64295913 32.20585097
1588 1 1 -0.000160785329787 41.18486878 10.19061218 32.20585097
1589 1 1 -0.00018591942684 39.71398061 12.73826522 32.20585097
1590 1 1 -0.000198400669409 41.18486878 15.28591827 32.20585097
1591 1 1 -0.000242772600421 39.71398061 17.83357131 32.20585097
1592 1 1 -0.000133975644658 41.18486878 0.00000000 32.20585097
1593 1 1 -0.000133275950323 42.65575695 2.54765304 32.20585097
1594 1 1 -0.000134960985304 44.12664513 5.09530609 32.20585097
1595 1 1 -0.000144793157035 42.65575695 7.64295913 32.20585097
1596 1 1 -0.000150549560691 44.12664513 10.19061218 32.20585097
1597 1 1 -0.000169488677863 42.65575695 12.73826522 32.20585097
1598 1 1 -0.000177564678131 44.12664513 15.28591827 32.20585097
1599 1 1 -0.000208281916391 42.65575695 17.83357131 32.20585097
1600 1 1 -0.000129958579292 44.12664513 0.00000000 32.20585097
1601 1 1 -0.000129359925801 45.59753330 2.54765304 32.20585097
1602 1 1 -0.000130819873876 47.06842147 5.09530609 32.20585097
1603 1 1 -0.000138371066417 45.59753330 7.64295913 32.20585097
1604 1 1 -0.000142971541759 47.06842147 10.19061218 32.20585097
1605 1 1 -0.000156815650087 45.59753330 12.73826522 32.20585097
1606 1 1 -0.000162902573316 47.06842147 15.28591827 32.20585097
1607 1 1 -0.000183886508338 45.59753330 17.83357131 32.20585097
1608 1 1 -0.000126796818891 47.06842147 0.00000000 32.20585097
1609 1 1 -0.000126554397961 48.53930964 2.54765304 32.20585097
1610 1 1 -0.000128222145366 50.01019781 5.09530609 32.20585097
1611 1 1 -0.000133904886856 48.53930964 7.64295913 32.20585097
1612 1 1 -0.000138364986181 50.01019781 10.19061218 32.20585097
1613 1 1 -0.000148354127117 48.53930964 12.73826522 32.20585097
1614 1 1 -0.000154303312338 50.01019781 15.28591827 32.20585097
1615 1 1 -0.000168374035109 48.53930964 17.83357131 32.20585097
1616 1 1 -0.000124785489238 50.01019781 0.00000000 32.20585097
1617 1 1 -0.000125095204025 51.48108598 2.54765304 32.20585097
1618 1 1 -0.000152503022429 35.30131610 5.09530609 32.20585097
1619 1 1 -0.000131626121998 51.48108598 7.64295913 32.20585097
1620 1 1 -0.000185747278544 35.30131610 10.19061218 32.20585097
1621 1 1 -0.000144152999197 51.48108598 12.73826522 32.20585097
1622 1 1 -0.000256167334261 35.30131610 15.28591827 32.20585097
1623 1 1 -0.0001608856432 51.48108598 17.83357131 32.20585097
1624 1 1 -0.000142787521164 35.30131610 0.00000000 32.20585097
1625 1 1 -0.000142814023207 36.77220427 2.54765304 32.20585097
1626 1 1 -0.000146407040362 38.24309244 5.09530609 32.20585097
1627 1 1 -0.000161355599455 36.77220427 7.64295913 32.20585097
1628 1 1 -0.00017295067693 38.24309244 10.19061218 32.20585097
1629 1 1 -0.000204931751412 36.77220427 12.73826522 32.20585097
1630 1 1 -0.000225019967131 38.24309244 15.28591827 32.20585097
1631 1 1 -0.000289438446662 36.77220427 17.83357131 32.20585097
1632 1 1 -0.000138427628313 38.24309244 0.00000000 32.20585097
1633 1 1 -0.000878842167003 41.18486878 3.39687073 34.60780130
1634 1 1 -0.000898858277417 42.65575695 5.94452377 34.60780130
1635 1 1 -0.000988375601036 41.18486878 8.49217681 34.60780130
1636 1 1 -0.00104182486118 42.65575695 11.03982986 34.60780130
1637 1 1 -0.00122020216836 41.18486878 13.58748290 34.60780130
1638 1 1 -0.0012956310146 42.65575695 16.13513595 34.60780130
1639 1 1 -0.00161114904812 41.18486878 18.68278899 34.60780130
1640 1 1 -0.000845890253374 42.65575695 0.84921768 34.60780130
1641 1 1 -0.000846937393881 44.12664513 3.39687073 34.60780130
1642 1 1 -0.000862076918941 45.59753330 5.94452377 34.60780130
1643 1 1 -0.000930594361644 44.12664513 8.49217681 34.60780130
1644 1 1 -0.000969156662167 45.59753330 11.03982986 34.60780130
1645 1 1 -0.00109655232222 44.12664513 13.58748290 34.60780130
1646 1 1 -0.0011449018684 45.59753330 16.13513595 34.60780130
1647 1 1 -0.0013487385358 44.12664513 18.68278899 34.60780130
1648 1 1 -0.000820652800123 45.59753330 0.84921768 34.60780130
1649 1 1 -0.000822132988937 47.06842147 3.39687073 34.60780130
1650 1 1 -0.000836290408448 48.53930964 5.94452377 34.60780130
1651 1 1 -0.00088751746678 47.06842147 8.49217681 34.60780130
1652 1 1 -0.000920507407659 48.53930964 11.03982986 34.60780130
1653 1 1 -0.00101011339373 47.06842147 13.58748290 34.60780130
1654 1 1 -0.00105025799117 48.53930964 16.13513595 34.60780130
1655 1 1 -0.00118117728237 47.06842147 18.68278899 34.60780130
1656 1 1 -0.000802540454582 48.53930964 0.84921768 34.60780130
1657 1 1 -0.000806493490674 50.01019781 3.39687073 34.60780130
1658 1 1 -0.000823061649223 51.48108598 5.94452377 34.60780130
1659 1 1 -0.000861158504591 50.01019781 8.49217681 34.60780130
1660 1 1 -0.000896264577656 51.48108598 11.03982986 34.60780130
1661 1 1 -0.00095954092203 50.01019781 13.58748290 34.60780130
1662 1 1 -0.00100489289023 51.48108598 16.13513595 34.60780130
1663 1 1 -0.0010886540719 50.01019781 18.68278899 34.60780130
1664 1 1 -0.000793110335211 51.48108598 0.84921768 34.60780130
1665 1 1 -0.000950384134236 35.30131610 3.39687073 34.60780130
1666 1 1 -0.000992421121233 36.77220427 5.94452377 34.60780130
1667 1 1 -0.00112827659621 35.30131610 8.49217681 34.60780130
1668 1 1 -0.00124520652057 36.77220427 11.03982986 34.60780130
1669 1 1 -0.00156045891231 35.30131610 13.58748290 34.60780130
1670 1 1 -0.00178631772749 36.77220427 16.13513595 34.60780130
1671 1 1 -0.00250971144819 35.30131610 18.68278899 34.60780130
1672 1 1 -0.000907121372187 36.77220427 0.84921768 34.60780130
1673 1 1 -0.000914717535624 38.24309244 3.39687073 34.60780130
1674 1 1 -0.000943798944159 39.71398061 5.94452377 34.60780130
1675 1 1 -0.00105668269152 38.24309244 8.49217681 34.60780130
1676 1 1 -0.00113606949765 39.71398061 11.03982986 34.60780130
1677 1 1 -0.00137861851634 38.24309244 13.58748290 34.60780130
1678 1 1 -0.00150933036441 39.71398061 16.13513595 34.60780130
1679 1 1 -0.00199323483015 38.24309244 18.68278899 34.60780130
1680 1 1 -0.000875814527663 39.71398061 0.84921768 34.60780130
1681 1 1 0.00301667811337 35.30131610 20.38122435 25.00000000
1682 1 1 0.00334085564701 36.77220427 22.92887739 25.00000000
1683 1 1 0.00524921288699 35.30131610 25.47653044 25.00000000
1684 1 1 0.00486860428303 36.77220427 28.02418348 25.00000000
1685 1 1 0.00681042258128 35.30131610 30.57183653 25.00000000
1686 1 1 0.00486855098191 36.77220427 33.11948957 25.00000000
1687 1 1 0.00524913567768 35.30131610 35.66714262 25.00000000
1688 1 1 0.00334073699828 36.77220427 38.21479566 25.00000000
1689 1 1 0.00228006911578 38.24309244 20.38122435 25.00000000
1690 1 1 0.00237060839188 39.71398061 22.92887739 25.00000000
1691 1 1 0.00334841710406 38.24309244 25.47653044 25.00000000
1692 1 1 0.00303901585365 39.71398061 28.02418348 25.00000000
1693 1 1 0.00397784699306 38.24309244 30.57183653 25.00000000
1694 1 1 0.0030389520277 39.71398061 33.11948957 25.00000000
1695 1 1 0.00334829872592 38.24309244 35.66714262 25.00000000
1696 1 1 0.00237048340771 39.71398061 38.21479566 25.00000000
1697 1 1 0.00177328649513 41.18486878 20.38122435 25.00000000
1698 1 1 0.00178794093502 42.65575695 22.92887739 25.00000000
1699 1 1 0.00230123065204 41.18486878 25.47653044 25.00000000
1700 1 1 0.00210535722546 42.65575695 28.02418348 25.00000000
1701 1 1 0.00256962187943 41.18486878 30.57183653 25.00000000
1702 1 1 0.00210531357268 42.65575695 33.11948957 25.00000000
1703 1 1 0.00230113284656 41.18486878 35.66714262 25.00000000
1704 1 1 0.00178785670314 42.65575695 38.21479566 25.00000000
1705 1 1 0.00144377611647 44.12664513 20.38122435 25.00000000
1706 1 1 0.00144334255599 45.59753330 22.92887739 25.00000000
1707 1 1 0.0017262219825 44.12664513 25.47653044 25.00000000
1708 1 1 0.00161238448048 45.59753330 28.02418348 25.00000000
1709 1 1 0.00185511026003 44.12664513 30.57183653 25.00000000
1710 1 1 0.00161236280525 45.59753330 33.11948957 25.00000000
1711 1 1 0.00172616666942 44.12664513 35.66714262 25.00000000
1712 1 1 0.00144330040997 45.59753330 38.21479566 25.00000000
1713 1 1 0.00124081012702 47.06842147 20.38122435 25.00000000
1714 1 1 0.00124958514658 48.53930964 22.92887739 25.00000000
1715 1 1 0.0014082516592 47.06842147 25.47653044 25.00000000
1716 1 1 0.00135301410303 48.53930964 28.02418348 25.00000000
1717 1 1 0.00147935978029 47.06842147 30.57183653 25.00000000
1718 1 1 0.00135300518295 48.53930964 33.11948957 25.00000000
1719 1 1 0.00140822715366 47.06842147 35.66714262 25.00000000
1720 1 1 0.00124956692489 48.53930964 38.21479566 25.00000000
1721 1 1 0.00113110542809 50.01019781 20.38122435 25.00000000
1722 1 1 0.00116215974788 51.48108598 22.92887739 25.00000000
1723 1 1 0.00124645024717 50.01019781 25.47653044 25.00000000
1724 1 1 0.00123982169123 51.48108598 28.02418348 25.00000000
1725 1 1 0.00129325345777 50.01019781 30.57183653 25.00000000
1726 1 1 0.00123981752315 51.48108598 33.11948957 25.00000000
1727 1 1 0.0012464398912 50.01019781 35.66714262 25.00000000
1728 1 1 0.00116215037445 51.48108598 38.21479566 25.00000000
1729 1 1 0.000399731875549 36.77220427 21.23044203 27.40195032
1730 1 1 0.000420162699754 38.24309244 23.77809508 27.40195032
1731 1 1 0.000654944075662 36.77220427 26.32574812 27.40195032
1732 1 1 0.00056379879756 38.24309244 28.87340116 27.40195032
1733 1 1 0.00078058101846 36.77220427 31.42105421 27.40195032
1734 1 1 0.000526947468156 38.24309244 33.96870725 27.40195032
1735 1 1 0.000562812124658 36.77220427 36.51636030 27.40195032
1736 1 1 0.000368163021732 38.24309244 39.06401334 27.40195032
1737 1 1 0.000302409993844 39.71398061 21.23044203 27.40195032
1738 1 1 0.000304205770548 41.18486878 23.77809508 27.40195032
1739 1 1 0.000402302618967 39.71398061 26.32574812 27.40195032
1740 1 1 0.000357512540626 41.18486878 28.87340116 27.40195032
1741 1 1 0.000443462894453 39.71398061 31.42105421 27.40195032
1742 1 1 0.000344872861384 41.18486878 33.96870725 27.40195032
1743 1 1 0.00036960805412 39.71398061 36.51636030 27.40195032
1744 1 1 0.000281256972471 41.18486878 39.06401334 27.40195032
1745 1 1 0.00024428834608 42.65575695 21.23044203 27.40195032
1746 1 1 0.00024274178555 44.12664513 23.77809508 27.40195032
1747 1 1 0.000290790474839 42.65575695 26.32574812 27.40195032
1748 1 1 0.000268011169992 44.12664513 28.87340116 27.40195032
1749 1 1 0.000306758240807 42.65575695 31.42105421 27.40195032
1750 1 1 0.000262390486619 44.12664513 33.96870725 27.40195032
1751 1 1 0.000276951581493 42.65575695 36.51636030 27.40195032
1752 1 1 0.000230402746067 44.12664513 39.06401334 27.40195032
1753 1 1 0.000207787907152 45.59753330 21.23044203 27.40195032
1754 1 1 0.000207061381347 47.06842147 23.77809508 27.40195032
1755 1 1 0.000234394000594 45.59753330 26.32574812 27.40195032
1756 1 1 0.000222045941413 47.06842147 28.87340116 27.40195032
1757 1 1 0.000242607499846 45.59753330 31.42105421 27.40195032
1758 1 1 0.000218811821113 47.06842147 33.96870725 27.40195032
1759 1 1 0.000226883324 45.59753330 36.51636030 27.40195032
1760 1 1 0.000199320526496 47.06842147 39.06401334 27.40195032
1761 1 1 0.000185721799571 48.53930964 21.23044203 27.40195032
1762 1 1 0.000187741367403 50.01019781 23.77809508 27.40195032
1763 1 1 0.000203366999282 48.53930964 26.32574812 27.40195032
1764 1 1 0.000198267172323 50.01019781 28.87340116 27.40195032
1765 1 1 0.000208578007854 48.53930964 31.42105421 27.40195032
1766 1 1 0.000196025266561 50.01019781 33.96870725 27.40195032
1767 1 1 0.00019850092352 48.53930964 36.51636030 27.40195032
1768 1 1 0.000182172933268 50.01019781 39.06401334 27.40195032
1769 1 1 0.000175287506765 51.48108598 21.23044203 27.40195032
1770 1 1 0.000654034983364 35.30131610 23.77809508 27.40195032
1771 1 1 0.000189149857423 51.48108598 26.32574812 27.40195032
1772 1 1 0.00106723143438 35.30131610 28.87340116 27.40195032
1773 1 1 0.000193165335298 51.48108598 31.42105421 27.40195032
1774 1 1 0.000954552846689 35.30131610 33.96870725 27.40195032
1775 1 1 0.000185370505781 51.48108598 36.51636030 27.40195032
1776 1 1 0.000524909966824 35.30131610 39.06401334 27.40195032
1777 1 1 3.19698628759e-07 38.24309244 22.07965971 29.80390065
1778 1 1 3.20617153061e-07 39.71398061 24.62731276 29.80390065
1779 1 1 7.83327600359e-07 38.24309244 27.17496580 29.80390065
1780 1 1 6.72815828623e-07 39.71398061 29.72261885 29.80390065
1781 1 1 1.05922514294e-06 38.24309244 32.27027189 29.80390065
1782 1 1 7.04064373564e-07 39.71398061 34.81792493 29.80390065
1783 1 1 8.29619155205e-07 38.24309244 37.36557798 29.80390065
1784 1 1 4.20420691142e-07 39.71398061 39.91323102 29.80390065
1785 1 1 1.65113180065e-07 41.18486878 22.07965971 29.80390065
1786 1 1 1.8031164242e-07 42.65575695 24.62731276 29.80390065
1787 1 1 3.42650907226e-07 41.18486878 27.17496580 29.80390065
1788 1 1 3.02606133248e-07 42.65575695 29.72261885 29.80390065
1789 1 1 4.8189896078e-07 41.18486878 32.27027189 29.80390065
1790 1 1 3.31523783738e-07 42.65575695 34.81792493 29.80390065
1791 1 1 4.21653746324e-07 41.18486878 37.36557798 29.80390065
1792 1 1 2.48055894527e-07 42.65575695 39.91323102 29.80390065
1793 1 1 1.4168167098e-07 44.12664513 22.07965971 29.80390065
1794 1 1 1.51544739521e-07 45.59753330 24.62731276 29.80390065
1795 1 1 1.93901021659e-07 44.12664513 27.17496580 29.80390065
1796 1 1 1.86234774709e-07 45.59753330 29.72261885 29.80390065
1797 1 1 2.41742886497e-07 44.12664513 32.27027189 29.80390065
1798 1 1 1.98149232128e-07 45.59753330 34.81792493 29.80390065
1799 1 1 2.31448230382e-07 44.12664513 37.36557798 29.80390065
1800 1 1 1.77388011256e-07 45.59753330 39.91323102 29.80390065
1801 1 1 1.39220089653e-07 47.06842147 22.07965971 29.80390065
1802 1 1 1.44094530093e-07 48.53930964 24.62731276 29.80390065
1803 1 1 1.57734638669e-07 47.06842147 27.17496580 29.80390065
1804 1 1 1.57895755491e-07 48.53930964 29.72261885 29.80390065
1805 1 1 1.72976640919e-07 47.06842147 32.27027189 29.80390065
1806 1 1 1.62320918954e-07 48.53930964 34.81792493 29.80390065
1807 1 1 1.70841146894e-07 47.06842147 37.36557798 29.80390065
1808 1 1 1.53340566539e-07 48.53930964 39.91323102 29.80390065
1809 1 1 1.35090507924e-07 50.01019781 22.07965971 29.80390065
1810 1 1 1.3966111905e-07 51.48108598 24.62731276 29.80390065
1811 1 1 1.47751179365e-07 50.01019781 27.17496580 29.80390065
1812 1 1 1.50135399349e-07 51.48108598 29.72261885 29.80390065
1813 1 1 1.55692713059e-07 50.01019781 32.27027189 29.80390065
1814 1 1 1.52614491413e-07 51.48108598 34.81792493 29.80390065
1815 1 1 1.53332720443e-07 50.01019781 37.36557798 29.80390065
1816 1 1 1.44859670099e-07 51.48108598 39.91323102 29.80390065
1817 1 1 7.81728753267e-07 35.30131610 22.07965971 29.80390065
1818 1 1 7.74225161765e-07 36.77220427 24.62731276 29.80390065
1819 1 1 1.74591655333e-06 35.30131610 27.17496580 29.80390065
1820 1 1 1.48694887505e-06 36.77220427 29.72261885 29.80390065
1821 1 1 2.10462281739e-06 35.30131610 32.27027189 29.80390065
1822 1 1 1.38590856873e-06 36.77220427 34.81792493 29.80390065
1823 1 1 1.38558245208e-06 35.30131610 37.36557798 29.80390065
1824 1 1 7.02563627801e-07 36.77220427 39.91323102 29.80390065
1825 1 1 -0.000328884181854 39.71398061 22.92887739 32.20585097
1826 1 1 -0.000320129224003 41.18486878 25.47653044 32.20585097
1827 1 1 -0.000420414257009 39.71398061 28.02418348 32.20585097
1828 1 1 -0.000355117327779 41.18486878 30.57183653 32.20585097
1829 1 1 -0.000420397328625 39.71398061 33.11948957 32.20585097
1830 1 1 -0.000320082110162 41.18486878 35.66714262 32.20585097
1831 1 1 -0.000328797930641 39.71398061 38.21479566 32.20585097
1832 1 1 -0.000254242954371 41.18486878 20.38122435 32.20585097
1833 1 1 -0.000256421778383 42.65575695 22.92887739 32.20585097
1834 1 1 -0.000249264782065 44.12664513 25.47653044 32.20585097
1835 1 1 -0.000295643962687 42.65575695 28.02418348 32.20585097
1836 1 1 -0.000265156210678 44.12664513 30.57183653 32.20585097
1837 1 1 -0.000295640787137 42.65575695 33.11948957 32.20585097
1838 1 1 -0.00024925829368 44.12664513 35.66714262 32.20585097
1839 1 1 -0.000256394904463 42.65575695 38.21479566 32.20585097
1840 1 1 -0.000213777073948 44.12664513 20.38122435 32.20585097
1841 1 1 -0.000214166083222 45.59753330 22.92887739 32.20585097
1842 1 1 -0.000210141402503 47.06842147 25.47653044 32.20585097
1843 1 1 -0.000235670972189 45.59753330 28.02418348 32.20585097
1844 1 1 -0.000219403839453 47.06842147 30.57183653 32.20585097
1845 1 1 -0.000235673986834 45.59753330 33.11948957 32.20585097
1846 1 1 -0.00021014361899 47.06842147 35.66714262 32.20585097
1847 1 1 -0.000214164672323 45.59753330 38.21479566 32.20585097
1848 1 1 -0.000187800958911 47.06842147 20.38122435 32.20585097
1849 1 1 -0.000189369293419 48.53930964 22.92887739 32.20585097
1850 1 1 -0.000189318016583 50.01019781 25.47653044 32.20585097
1851 1 1 -0.000203391191673 48.53930964 28.02418348 32.20585097
1852 1 1 -0.000195779564503 50.01019781 30.57183653 32.20585097
1853 1 1 -0.000203393204616 48.53930964 33.11948957 32.20585097
1854 1 1 -0.000189318502864 50.01019781 35.66714262 32.20585097
1855 1 1 -0.000189369870495 48.53930964 38.21479566 32.20585097
1856 1 1 -0.000173195584041 50.01019781 20.38122435 32.20585097
1857 1 1 -0.000177760762052 51.48108598 22.92887739 32.20585097
1858 1 1 -0.000791328904856 35.30131610 25.47653044 32.20585097
1859 1 1 -0.00018868894929 51.48108598 28.02418348 32.20585097
1860 1 1 -0.00109291756948 35.30131610 30.57183653 32.20585097
1861 1 1 -0.000188689433183 51.48108598 33.11948957 32.20585097
1862 1 1 -0.000791288874125 35.30131610 35.66714262 32.20585097
1863 1 1 -0.00017775952677 51.48108598 38.21479566 32.20585097
1864 1 1 -0.000417065404859 35.30131610 20.38122435 32.20585097
1865 1 1 -0.00046547074917 36.77220427 22.92887739 32.20585097
1866 1 1 -0.000466605405409 38.24309244 25.47653044 32.20585097
1867 1 1 -0.00072132656237 36.77220427 28.02418348 32.20585097
1868 1 1 -0.000566564555243 38.24309244 30.57183653 32.20585097
1869 1 1 -0.000721322720986 36.77220427 33.11948957 32.20585097
1870 1 1 -0.000466508443149 38.24309244 35.66714262 32.20585097
1871 1 1 -0.000465372436517 36.77220427 38.21479566 32.20585097
1872 1 1 -0.000316968386026 38.24309244 20.38122435 32.20585097
1873 1 1 -0.00213668587851 41.18486878 23.77809508 34.60780130
1874 1 1 -0.00202853794122 42.65575695 26.32574812 34.60780130
1875 1 1 -0.00254284076659 41.18486878 28.87340116 34.60780130
1876 1 1 -0.00215430066219 42.65575695 31.42105421 34.60780130
1877 1 1 -0.00244841207247 41.18486878 33.96870725 34.60780130
1878 1 1 -0.00191869524004 42.65575695 36.51636030 34.60780130
1879 1 1 -0.00195568508777 41.18486878 39.06401334 34.60780130
1880 1 1 -0.00165941908443 42.65575695 21.23044203 34.60780130
1881 1 1 -0.0016436987276 44.12664513 23.77809508 34.60780130
1882 1 1 -0.0015740390571 45.59753330 26.32574812 34.60780130
1883 1 1 -0.00184395924139 44.12664513 28.87340116 34.60780130
1884 1 1 -0.00163816759648 45.59753330 31.42105421 34.60780130
1885 1 1 -0.00179925970689 44.12664513 33.96870725 34.60780130
1886 1 1 -0.00151598671859 45.59753330 36.51636030 34.60780130
1887 1 1 -0.00154714223417 44.12664513 39.06401334 34.60780130
1888 1 1 -0.00137076459602 45.59753330 21.23044203 34.60780130
1889 1 1 -0.00136188119269 47.06842147 23.77809508 34.60780130
1890 1 1 -0.00133090925615 48.53930964 26.32574812 34.60780130
1891 1 1 -0.00147430031964 47.06842147 28.87340116 34.60780130
1892 1 1 -0.00136905599737 48.53930964 31.42105421 34.60780130
1893 1 1 -0.00144986756403 47.06842147 33.96870725 34.60780130
1894 1 1 -0.00129557625832 48.53930964 36.51636030 34.60780130
1895 1 1 -0.00130480837505 47.06842147 39.06401334 34.60780130
1896 1 1 -0.00120376261509 48.53930964 21.23044203 34.60780130
1897 1 1 -0.00121584473572 50.01019781 23.77809508 34.60780130
1898 1 1 -0.00122393047309 51.48108598 26.32574812 34.60780130
1899 1 1 -0.00129063987269 50.01019781 28.87340116 34.60780130
1900 1 1 -0.00125213025941 51.48108598 31.42105421 34.60780130
1901 1 1 -0.00127464955872 50.01019781 33.96870725 34.60780130
1902 1 1 -0.00119748067828 51.48108598 36.51636030 34.60780130
1903 1 1 -0.0011766237334 50.01019781 39.06401334 34.60780130
1904 1 1 -0.00112727659614 51.48108598 21.23044203 34.60780130
1905 1 1 -0.00443367897404 35.30131610 23.77809508 34.60780130
1906 1 1 -0.00443964114566 36.77220427 26.32574812 34.60780130
1907 1 1 -0.00662144308093 35.30131610 28.87340116 34.60780130
1908 1 1 -0.00513681356952 36.77220427 31.42105421 34.60780130
1909 1 1 -0.00604896444112 35.30131610 33.96870725 34.60780130
1910 1 1 -0.00389960378364 36.77220427 36.51636030 34.60780130
1911 1 1 -0.00366877786938 35.30131610 39.06401334 34.60780130
1912 1 1 -0.00284827974988 36.77220427 21.23044203 34.60780130
1913 1 1 -0.00298881869863 38.24309244 23.77809508 34.60780130
1914 1 1 -0.00286520857449 39.71398061 26.32574812 34.60780130
1915 1 1 -0.00390796351266 38.24309244 28.87340116 34.60780130
1916 1 1 -0.00314724728856 39.71398061 31.42105421 34.60780130
1917 1 1 -0.00368216322147 38.24309244 33.96870725 34.60780130
1918 1 1 -0.0026315208424 39.71398061 36.51636030 34.60780130
1919 1 1 -0.00262199290959 38.24309244 39.06401334 34.60780130
1920 1 1 -0.00212481195192 39.71398061 21.23044203 34.60780130
1921 1 1 0.00301661395317 35.30131610 40.76244870 25.00000000
1922 1 1 0.00206369390094 36.77220427 43.31010174 25.00000000
1923 1 1 0.00179468388742 35.30131610 45.85775479 25.00000000
1924 1 1 0.00138131829625 36.77220427 48.40540783 25.00000000
1925 1 1 0.00123299631503 35.30131610 50.95306088 25.00000000
1926 1 1 0.00105183687365 36.77220427 53.50071392 25.00000000
1927 1 1 0.000987579005212 35.30131610 56.04836697 25.00000000
1928 1 1 0.000918799628256 36.77220427 58.59602001 25.00000000
1929 1 1 0.00227997131207 38.24309244 40.76244870 25.00000000
1930 1 1 0.00168243743731 39.71398061 43.31010174 25.00000000
1931 1 1 0.00154044158501 38.24309244 45.85775479 25.00000000
1932 1 1 0.00123404832561 39.71398061 48.40540783 25.00000000
1933 1 1 0.00113710839294 38.24309244 50.95306088 25.00000000
1934 1 1 0.000989804902399 39.71398061 53.50071392 25.00000000
1935 1 1 0.000944614110035 38.24309244 56.04836697 25.00000000
1936 1 1 0.000884921737055 39.71398061 58.59602001 25.00000000
1937 1 1 0.00177320245136 41.18486878 40.76244870 25.00000000
1938 1 1 0.00140347212643 42.65575695 43.31010174 25.00000000
1939 1 1 0.00132857322806 41.18486878 45.85775479 25.00000000
1940 1 1 0.00111074576939 42.65575695 48.40540783 25.00000000
1941 1 1 0.00104787265659 41.18486878 50.95306088 25.00000000
1942 1 1 0.000933559269412 42.65575695 53.50071392 25.00000000
1943 1 1 0.000901994772926 41.18486878 56.04836697 25.00000000
1944 1 1 0.000852740689666 42.65575695 58.59602001 25.00000000
1945 1 1 0.00144372599633 44.12664513 40.76244870 25.00000000
1946 1 1 0.00121414371635 45.59753330 43.31010174 25.00000000
1947 1 1 0.00116907567312 44.12664513 45.85775479 25.00000000
1948 1 1 0.00101808555545 45.59753330 48.40540783 25.00000000
1949 1 1 0.000974101525668 44.12664513 50.95306088 25.00000000
1950 1 1 0.000888307154241 45.59753330 53.50071392 25.00000000
1951 1 1 0.000864591024289 44.12664513 56.04836697 25.00000000
1952 1 1 0.000825749870241 45.59753330 58.59602001 25.00000000
1953 1 1 0.0012407860883 47.06842147 40.76244870 25.00000000
1954 1 1 0.00109826386387 48.53930964 43.31010174 25.00000000
1955 1 1 0.00106053462847 47.06842147 45.85775479 25.00000000
1956 1 1 0.000957233548332 48.53930964 48.40540783 25.00000000
1957 1 1 0.000920135687275 47.06842147 50.95306088 25.00000000
1958 1 1 0.000857003500234 48.53930964 53.50071392 25.00000000
1959 1 1 0.000835832813797 47.06842147 56.04836697 25.00000000
1960 1 1 0.000806462400901 48.53930964 58.59602001 25.00000000
1961 1 1 0.00113109374489 50.01019781 40.76244870 25.00000000
1962 1 1 0.00104353069057 51.48108598 43.31010174 25.00000000
1963 1 1 0.000998155893089 50.01019781 45.85775479 25.00000000
1964 1 1 0.000927269005705 51.48108598 48.40540783 25.00000000
1965 1 1 0.000887554338771 50.01019781 50.95306088 25.00000000
1966 1 1 0.000841079681285 51.48108598 53.50071392 25.00000000
1967 1 1 0.000817843704336 50.01019781 56.04836697 25.00000000
1968 1 1 0.000796447643633 51.48108598 58.59602001 25.00000000
1969 1 1 0.000340592220897 36.77220427 41.61166638 27.40195032
1970 1 1 0.000254531328572 38.24309244 44.15931943 27.40195032
1971 1 1 0.000231123797382 36.77220427 46.70697247 27.40195032
1972 1 1 0.000190150396837 38.24309244 49.25462551 27.40195032
1973 1 1 0.000175451536016 36.77220427 51.80227856 27.40195032
1974 1 1 0.000155391687659 38.24309244 54.34993160 27.40195032
1975 1 1 0.000149093427041 36.77220427 56.89758465 27.40195032
1976 1 1 0.000141509596923 38.24309244 59.44523769 27.40195032
1977 1 1 0.000272970624927 39.71398061 41.61166638 27.40195032
1978 1 1 0.000218770350662 41.18486878 44.15931943 27.40195032
1979 1 1 0.000205400726306 39.71398061 46.70697247 27.40195032
1980 1 1 0.000174101636106 41.18486878 49.25462551 27.40195032
1981 1 1 0.000164115210888 39.71398061 51.80227856 27.40195032
1982 1 1 0.000147766489579 41.18486878 54.34993160 27.40195032
1983 1 1 0.000143350179853 39.71398061 56.89758465 27.40195032
1984 1 1 0.000136804317577 41.18486878 59.44523769 27.40195032
1985 1 1 0.000227690626491 42.65575695 41.61166638 27.40195032
1986 1 1 0.000192056577695 44.12664513 44.15931943 27.40195032
1987 1 1 0.000183917448596 42.65575695 46.70697247 27.40195032
1988 1 1 0.000160855491028 44.12664513 49.25462551 27.40195032
1989 1 1 0.000153903727537 42.65575695 51.80227856 27.40195032
1990 1 1 0.000141137945375 44.12664513 54.34993160 27.40195032
1991 1 1 0.000137933537746 42.65575695 56.89758465 27.40195032
1992 1 1 0.000132571074565 44.12664513 59.44523769 27.40195032
1993 1 1 0.00019733523686 45.59753330 41.61166638 27.40195032
1994 1 1 0.000173710534371 47.06842147 44.15931943 27.40195032
1995 1 1 0.000167708644571 45.59753330 46.70697247 27.40195032
1996 1 1 0.000151203091063 47.06842147 49.25462551 27.40195032
1997 1 1 0.000145753668393 45.59753330 51.80227856 27.40195032
1998 1 1 0.000136086116772 47.06842147 54.34993160 27.40195032
1999 1 1 0.000133420000347 45.59753330 56.89758465 27.40195032
2000 1 1 0.000129247360234 47.06842147 59.44523769 27.40195032
2001 1 1 0.000178485370449 48.53930964 41.61166638 27.40195032
2002 1 1 0.000163092446702 50.01019781 44.15931943 27.40195032
2003 1 1 0.000157047563711 48.53930964 46.70697247 27.40195032
2004 1 1 0.000145405162175 50.01019781 49.25462551 27.40195032
2005 1 1 0.000140160293216 48.53930964 51.80227856 27.40195032
2006 1 1 0.000132946966209 50.01019781 54.34993160 27.40195032
2007 1 1 0.000130210994428 48.53930964 56.89758465 27.40195032
2008 1 1 0.000127136722281 50.01019781 59.44523769 27.40195032
2009 1 1 0.000169479712976 51.48108598 41.61166638 27.40195032
2010 1 1 0.000299825384465 35.30131610 44.15931943 27.40195032
2011 1 1 0.000151804607171 51.48108598 46.70697247 27.40195032
2012 1 1 0.000207430045939 35.30131610 49.25462551 27.40195032
2013 1 1 0.000137331394343 51.48108598 51.80227856 27.40195032
2014 1 1 0.000163147300303 35.30131610 54.34993160 27.40195032
2015 1 1 0.000128550036647 51.48108598 56.89758465 27.40195032
2016 1 1 0.00014613154564 35.30131610 59.44523769 27.40195032
2017 1 1 3.27597724371e-07 38.24309244 42.46088406 29.80390065
2018 1 1 1.90661861698e-07 39.71398061 45.00853711 29.80390065
2019 1 1 1.62165710504e-07 38.24309244 47.55619015 29.80390065
2020 1 1 1.38002981153e-07 39.71398061 50.10384320 29.80390065
2021 1 1 1.28600363499e-07 38.24309244 52.65149624 29.80390065
2022 1 1 1.17370843894e-07 39.71398061 55.19914928 29.80390065
2023 1 1 1.13657044853e-07 38.24309244 57.74680233 29.80390065
2024 1 1 1.09602862353e-07 39.71398061 60.29445537 29.80390065
2025 1 1 2.27608920213e-07 41.18486878 42.46088406 29.80390065
2026 1 1 1.628210252e-07 42.65575695 45.00853711 29.80390065
2027 1 1 1.49350237044e-07 41.18486878 47.55619015 29.80390065
2028 1 1 1.30867929192e-07 42.65575695 50.10384320 29.80390065
2029 1 1 1.23443139713e-07 41.18486878 52.65149624 29.80390065
2030 1 1 1.13157618024e-07 42.65575695 55.19914928 29.80390065
2031 1 1 1.10167586507e-07 41.18486878 57.74680233 29.80390065
2032 1 1 1.06341415376e-07 42.65575695 60.29445537 29.80390065
2033 1 1 1.74636324299e-07 44.12664513 42.46088406 29.80390065
2034 1 1 1.45880487867e-07 45.59753330 45.00853711 29.80390065
2035 1 1 1.38650253298e-07 44.12664513 47.55619015 29.80390065
2036 1 1 1.23858546182e-07 45.59753330 50.10384320 29.80390065
2037 1 1 1.18009284021e-07 44.12664513 52.65149624 29.80390065
2038 1 1 1.09332915186e-07 45.59753330 55.19914928 29.80390065
2039 1 1 1.06885493401e-07 44.12664513 57.74680233 29.80390065
2040 1 1 1.03587080782e-07 45.59753330 60.29445537 29.80390065
2041 1 1 1.51129625412e-07 47.06842147 42.46088406 29.80390065
2042 1 1 1.35347142285e-07 48.53930964 45.00853711 29.80390065
2043 1 1 1.29803836683e-07 47.06842147 47.55619015 29.80390065
2044 1 1 1.18275689853e-07 48.53930964 50.10384320 29.80390065
2045 1 1 1.13316356197e-07 47.06842147 52.65149624 29.80390065
2046 1 1 1.06493063663e-07 48.53930964 55.19914928 29.80390065
2047 1 1 1.04243834626e-07 47.06842147 57.74680233 29.80390065
2048 1 1 1.01611525942e-07 48.53930964 60.29445537 29.80390065
2049 1 1 1.40358359311e-07 50.01019781 42.46088406 29.80390065
2050 1 1 1.29850611569e-07 51.48108598 45.00853711 29.80390065
2051 1 1 1.23760722728e-07 50.01019781 47.55619015 29.80390065
2052 1 1 1.15219830646e-07 51.48108598 50.10384320 29.80390065
2053 1 1 1.10209187138e-07 50.01019781 52.65149624 29.80390065
2054 1 1 1.05001561821e-07 51.48108598 55.19914928 29.80390065
2055 1 1 1.02551178715e-07 50.01019781 57.74680233 29.80390065
2056 1 1 1.00584002048e-07 51.48108598 60.29445537 29.80390065
2057 1 1 4.7815558226e-07 35.30131610 42.46088406 29.80390065
2058 1 1 2.35142707533e-07 36.77220427 45.00853711 29.80390065
2059 1 1 1.7770797019e-07 35.30131610 47.55619015 29.80390065
2060 1 1 1.44347759148e-07 36.77220427 50.10384320 29.80390065
2061 1 1 1.32531653702e-07 35.30131610 52.65149624 29.80390065
2062 1 1 1.21294004518e-07 36.77220427 55.19914928 29.80390065
2063 1 1 1.16886723084e-07 35.30131610 57.74680233 29.80390065
2064 1 1 1.13000976012e-07 36.77220427 60.29445537 29.80390065
2065 1 1 -0.000242766959282 39.71398061 43.31010174 32.20585097
2066 1 1 -0.000198402876588 41.18486878 45.85775479 32.20585097
2067 1 1 -0.000185920283622 39.71398061 48.40540783 32.20585097
2068 1 1 -0.000160785424967 41.18486878 50.95306088 32.20585097
2069 1 1 -0.000152712799316 39.71398061 53.50071392 32.20585097
2070 1 1 -0.000140325284217 41.18486878 56.04836697 32.20585097
2071 1 1 -0.000137930119306 39.71398061 58.59602001 32.20585097
2072 1 1 -0.0002542170677 41.18486878 40.76244870 32.20585097
2073 1 1 -0.00020828185119 42.65575695 43.31010174 32.20585097
2074 1 1 -0.000177565936297 44.12664513 45.85775479 32.20585097
2075 1 1 -0.000169488905908 42.65575695 48.40540783 32.20585097
2076 1 1 -0.000150549184814 44.12664513 50.95306088 32.20585097
2077 1 1 -0.000144793282685 42.65575695 53.50071392 32.20585097
2078 1 1 -0.000134960767499 44.12664513 56.04836697 32.20585097
2079 1 1 -0.000133275515504 42.65575695 58.59602001 32.20585097
2080 1 1 -0.000213773670615 44.12664513 40.76244870 32.20585097
2081 1 1 -0.000183888324847 45.59753330 43.31010174 32.20585097
2082 1 1 -0.000162902397454 47.06842147 45.85775479 32.20585097
2083 1 1 -0.000156814876802 45.59753330 48.40540783 32.20585097
2084 1 1 -0.000142970923889 47.06842147 50.95306088 32.20585097
2085 1 1 -0.000138371042891 45.59753330 53.50071392 32.20585097
2086 1 1 -0.000130819643489 47.06842147 56.04836697 32.20585097
2087 1 1 -0.000129359470265 45.59753330 58.59602001 32.20585097
2088 1 1 -0.000187802211485 47.06842147 40.76244870 32.20585097
2089 1 1 -0.000168374396669 48.53930964 43.31010174 32.20585097
2090 1 1 -0.000154302296977 50.01019781 45.85775479 32.20585097
2091 1 1 -0.000148352877651 48.53930964 48.40540783 32.20585097
2092 1 1 -0.000138364399469 50.01019781 50.95306088 32.20585097
2093 1 1 -0.000133904877024 48.53930964 53.50071392 32.20585097
2094 1 1 -0.000128221941863 50.01019781 56.04836697 32.20585097
2095 1 1 -0.000126553949874 48.53930964 58.59602001 32.20585097
2096 1 1 -0.000173195223119 50.01019781 40.76244870 32.20585097
2097 1 1 -0.000160884914632 51.48108598 43.31010174 32.20585097
2098 1 1 -0.000256167013168 35.30131610 45.85775479 32.20585097
2099 1 1 -0.000144151703991 51.48108598 48.40540783 32.20585097
2100 1 1 -0.000185745758035 35.30131610 50.95306088 32.20585097
2101 1 1 -0.000131626166937 51.48108598 53.50071392 32.20585097
2102 1 1 -0.000152503169396 35.30131610 56.04836697 32.20585097
2103 1 1 -0.000125094764057 51.48108598 58.59602001 32.20585097
2104 1 1 -0.000417047504849 35.30131610 40.76244870 32.20585097
2105 1 1 -0.000289435236867 36.77220427 43.31010174 32.20585097
2106 1 1 -0.000225022047061 38.24309244 45.85775479 32.20585097
2107 1 1 -0.000204931004552 36.77220427 48.40540783 32.20585097
2108 1 1 -0.000172950662974 38.24309244 50.95306088 32.20585097
2109 1 1 -0.000161355849991 36.77220427 53.50071392 32.20585097
2110 1 1 -0.00014640712228 38.24309244 56.04836697 32.20585097
2111 1 1 -0.000142813797233 36.77220427 58.59602001 32.20585097
2112 1 1 -0.000316921665803 38.24309244 40.76244870 32.20585097
2113 1 1 -0.00146193101008 41.18486878 44.15931943 34.60780130
2114 1 1 -0.00119767980362 42.65575695 46.70697247 34.60780130
2115 1 1 -0.00112689118086 41.18486878 49.25462551 34.60780130
2116 1 1 -0.000982916842543 42.65575695 51.80227856 34.60780130
2117 1 1 -0.000940073860934 41.18486878 54.34993160 34.60780130
2118 1 1 -0.000872059923744 42.65575695 56.89758465 34.60780130
2119 1 1 -0.000864103101691 41.18486878 59.44523769 34.60780130
2120 1 1 -0.00152909667758 42.65575695 41.61166638 34.60780130
2121 1 1 -0.00125617145507 44.12664513 44.15931943 34.60780130
2122 1 1 -0.00107904501715 45.59753330 46.70697247 34.60780130
2123 1 1 -0.00103141042727 44.12664513 49.25462551 34.60780130
2124 1 1 -0.000925824159651 45.59753330 51.80227856 34.60780130
2125 1 1 -0.000894166660519 44.12664513 54.34993160 34.60780130
2126 1 1 -0.000841246913889 45.59753330 56.89758465 34.60780130
2127 1 1 -0.000835384108638 44.12664513 59.44523769 34.60780130
2128 1 1 -0.00129302047252 45.59753330 41.61166638 34.60780130
2129 1 1 -0.00112031696691 47.06842147 44.15931943 34.60780130
2130 1 1 -0.00100278244965 48.53930964 46.70697247 34.60780130
2131 1 1 -0.000963041429113 47.06842147 49.25462551 34.60780130
2132 1 1 -0.000886934148257 48.53930964 51.80227856 34.60780130
2133 1 1 -0.0008593668418 47.06842147 54.34993160 34.60780130
2134 1 1 -0.000819404881387 48.53930964 56.89758465 34.60780130
2135 1 1 -0.000812893818862 47.06842147 59.44523769 34.60780130
2136 1 1 -0.00115246036106 48.53930964 41.61166638 34.60780130
2137 1 1 -0.00104374195189 50.01019781 44.15931943 34.60780130
2138 1 1 -0.000965715094803 51.48108598 46.70697247 34.60780130
2139 1 1 -0.000922377923765 50.01019781 49.25462551 34.60780130
2140 1 1 -0.00086734285256 51.48108598 51.80227856 34.60780130
2141 1 1 -0.000837817831928 50.01019781 54.34993160 34.60780130
2142 1 1 -0.00080812121827 51.48108598 56.89758465 34.60780130
2143 1 1 -0.000798639909039 50.01019781 59.44523769 34.60780130
2144 1 1 -0.00108708364433 51.48108598 41.61166638 34.60780130
2145 1 1 -0.0021085186347 35.30131610 44.15931943 34.60780130
2146 1 1 -0.00156181167787 36.77220427 46.70697247 34.60780130
2147 1 1 -0.00137678764579 35.30131610 49.25462551 34.60780130
2148 1 1 -0.00113695407346 36.77220427 51.80227856 34.60780130
2149 1 1 -0.00104786026862 35.30131610 54.34993160 34.60780130
2150 1 1 -0.000948711995394 36.77220427 56.89758465 34.60780130
2151 1 1 -0.000927655284892 35.30131610 59.44523769 34.60780130
2152 1 1 -0.0024201793605 36.77220427 41.61166638 34.60780130
2153 1 1 -0.00174713433997 38.24309244 44.15931943 34.60780130
2154 1 1 -0.0013602750935 39.71398061 46.70697247 34.60780130
2155 1 1 -0.00124549461005 38.24309244 49.25462551 34.60780130
2156 1 1 -0.00105530353088 39.71398061 51.80227856 34.60780130
2157 1 1 -0.000993271859995 38.24309244 54.34993160 34.60780130
2158 1 1 -0.000909180011886 39.71398061 56.89758465 34.60780130
2159 1 1 -0.000896117198086 38.24309244 59.44523769 34.60780130
2160 1 1 -0.00189232933782 39.71398061 41.61166638 34.60780130
2161 2 2 1 26.47598707 30.57183653 42.60780130
2162 3 2 -1 26.47598707 30.57183653 17.00000000
