ITEM: TIMESTEP
0
ITEM: NUMBER OF ATOMS
240
ITEM: BOX BOUNDS pp pp ff
0.0000000000000000e+00 1.7650658050000001e+01
0.0000000000000000e+00 2.0381224350000000e+01
0.0000000000000000e+00 6.0000000000000000e+01
ITEM: ATOMS id type q
1 1 -0.191513956936
2 1 -0.191512887576
3 1 -0.191513198335
4 1 -0.191514591473
5 1 -0.191513957222
6 1 -0.191512887538
7 1 -0.191513198131
8 1 -0.19151459109
9 1 -0.191513956769
10 1 -0.191512887405
11 1 -0.191513198168
12 1 -0.191514591303
13 1 -0.191513957056
14 1 -0.191512887367
15 1 -0.191513197965
16 1 -0.191514590919
17 1 -0.19151395664
18 1 -0.191512887335
19 1 -0.191513198039
20 1 -0.191514591233
21 1 -0.191513956927
22 1 -0.191512887297
23 1 -0.191513197836
24 1 -0.191514590849
25 1 -0.19151395662
26 1 -0.191512887355
27 1 -0.191513198019
28 1 -0.191514591253
29 1 -0.191513956907
30 1 -0.191512887317
31 1 -0.191513197816
32 1 -0.191514590869
33 1 -0.19151395669
34 1 -0.191512887484
35 1 -0.191513198089
36 1 -0.191514591382
37 1 -0.191513956977
38 1 -0.191512887446
39 1 -0.191513197886
40 1 -0.191514590998
41 1 -0.191513956861
42 1 -0.191512887651
43 1 -0.19151319826
44 1 -0.191514591548
45 1 -0.191513957148
46 1 -0.191512887612
47 1 -0.191513198056
48 1 -0.191514591165
49 1 0.281994662102
50 1 0.28199744508
51 1 0.281996626426
52 1 0.281993483766
53 1 0.281994661919
54 1 0.28199744505
55 1 0.281996626536
56 1 0.281993484033
57 1 0.281994661995
58 1 0.28199744495
59 1 0.281996626319
60 1 0.281993483636
61 1 0.281994661811
62 1 0.28199744492
63 1 0.281996626429
64 1 0.281993483902
65 1 0.28199466189
66 1 0.28199744491
67 1 0.281996626214
68 1 0.281993483596
69 1 0.281994661706
70 1 0.28199744488
71 1 0.281996626324
72 1 0.281993483862
73 1 0.28199466193
74 1 0.281997445015
75 1 0.281996626254
76 1 0.281993483701
77 1 0.281994661746
78 1 0.281997444985
79 1 0.281996626364
80 1 0.281993483967
81 1 0.281994662061
82 1 0.281997445122
83 1 0.281996626384
84 1 0.281993483808
85 1 0.281994661877
86 1 0.281997445092
87 1 0.281996626495
88 1 0.281993484074
89 1 0.281994662132
90 1 0.281997445152
91 1 0.281996626456
92 1 0.281993483837
93 1 0.281994661948
94 1 0.281997445122
95 1 0.281996626566
96 1 0.281993484104
97 1 0.00797951681968
98 1 0.00798234827288
99 1 0.00797955336859
100 1 0.00797678393053
101 1 0.00797951695322
102 1 0.0079823482231
103 1 0.00797955323964
104 1 0.00797678386201
105 1 0.00797951682139
106 1 0.00798234827854
107 1 0.0079795533703
108 1 0.00797678393622
109 1 0.00797951695494
110 1 0.00798234822878
111 1 0.00797955324137
112 1 0.0079767838677
113 1 0.00797951682511
114 1 0.00798234827481
115 1 0.00797955337403
116 1 0.0079767839325
117 1 0.00797951695868
118 1 0.00798234822506
119 1 0.00797955324511
120 1 0.00797678386398
121 1 0.00797951681944
122 1 0.00798234827309
123 1 0.00797955336835
124 1 0.00797678393078
125 1 0.007979516953
126 1 0.00798234822333
127 1 0.00797955323943
128 1 0.00797678386227
129 1 0.00797951682295
130 1 0.00798234828091
131 1 0.00797955337186
132 1 0.00797678393856
133 1 0.0079795169565
134 1 0.00798234823113
135 1 0.00797955324293
136 1 0.00797678387005
137 1 0.00797951682748
138 1 0.00798234827641
139 1 0.00797955337638
140 1 0.00797678393403
141 1 0.00797951696101
142 1 0.00798234822661
143 1 0.00797955324744
144 1 0.00797678386552
145 1 -0.292490200344
146 1 -0.292488853804
147 1 -0.292492263625
148 1 -0.292493159285
149 1 -0.292490200166
150 1 -0.292488853833
151 1 -0.29249226363
152 1 -0.292493159351
153 1 -0.292490200226
154 1 -0.29248885376
155 1 -0.292492263507
156 1 -0.29249315924
157 1 -0.292490200048
158 1 -0.292488853789
159 1 -0.292492263512
160 1 -0.292493159307
161 1 -0.292490200271
162 1 -0.292488853878
163 1 -0.292492263551
164 1 -0.292493159358
165 1 -0.292490200093
166 1 -0.292488853907
167 1 -0.292492263556
168 1 -0.292493159425
169 1 -0.292490200415
170 1 -0.292488853993
171 1 -0.292492263696
172 1 -0.292493159474
173 1 -0.292490200237
174 1 -0.292488854022
175 1 -0.2924922637
176 1 -0.29249315954
177 1 -0.292490200493
178 1 -0.292488854026
179 1 -0.292492263774
180 1 -0.292493159507
181 1 -0.292490200315
182 1 -0.292488854055
183 1 -0.292492263778
184 1 -0.292493159573
185 1 -0.29249020046
186 1 -0.292488853948
187 1 -0.29249226374
188 1 -0.292493159429
189 1 -0.292490200282
190 1 -0.292488853977
191 1 -0.292492263745
192 1 -0.292493159495
193 1 0.194030241886
194 1 0.194030931452
195 1 0.194028928316
196 1 0.194028588514
197 1 0.194030241886
198 1 0.194030931831
199 1 0.194028928947
200 1 0.194028588939
201 1 0.194030241871
202 1 0.194030931467
203 1 0.194028928301
204 1 0.194028588529
205 1 0.194030241871
206 1 0.194030931846
207 1 0.194028928933
208 1 0.194028588954
209 1 0.194030241926
210 1 0.194030931568
211 1 0.194028928356
212 1 0.19402858863
213 1 0.194030241926
214 1 0.194030931948
215 1 0.194028928988
216 1 0.194028589056
217 1 0.194030242063
218 1 0.194030931708
219 1 0.194028928493
220 1 0.19402858877
221 1 0.194030242062
222 1 0.194030932088
223 1 0.194028929124
224 1 0.194028589196
225 1 0.194030242128
226 1 0.194030931643
227 1 0.194028928557
228 1 0.194028588706
229 1 0.194030242127
230 1 0.194030932023
231 1 0.194028929189
232 1 0.194028589131
233 1 0.194030241988
234 1 0.194030931507
235 1 0.194028928417
236 1 0.194028588569
237 1 0.194030241987
238 1 0.194030931887
239 1 0.194028929049
240 1 0.194028588995
