ITEM: TIMESTEP
0
ITEM: NUMBER OF ATOMS
240
ITEM: BOX BOUNDS pp pp ff
0.0000000000000000e+00 1.7650658050000001e+01
0.0000000000000000e+00 2.0381224350000000e+01
0.0000000000000000e+00 6.0000000000000000e+01
ITEM: ATOMS id type q
1 1 0.0499080091039
2 1 0.0500065658557
3 1 0.050033284241
4 1 0.0499347664156
5 1 0.0499080106663
6 1 0.0500065667135
7 1 0.0500332839147
8 1 0.0499347650742
9 1 0.0499080091177
10 1 0.0500065658918
11 1 0.0500332842548
12 1 0.0499347664522
13 1 0.0499080106803
14 1 0.0500065667502
15 1 0.0500332839286
16 1 0.0499347651106
17 1 0.04990800917
18 1 0.0500065659401
19 1 0.0500332843071
20 1 0.0499347665009
21 1 0.0499080107333
22 1 0.0500065667992
23 1 0.0500332839814
24 1 0.0499347651592
25 1 0.0499080091899
26 1 0.05000656592
27 1 0.0500332843271
28 1 0.0499347664808
29 1 0.0499080107536
30 1 0.0500065667791
31 1 0.0500332840016
32 1 0.0499347651391
33 1 0.0499080091414
34 1 0.0500065658677
35 1 0.0500332842786
36 1 0.0499347664281
37 1 0.0499080107049
38 1 0.0500065667262
39 1 0.0500332839529
40 1 0.0499347650865
41 1 0.0499080091052
42 1 0.0500065658542
43 1 0.0500332842424
44 1 0.0499347664142
45 1 0.049908010668
46 1 0.050006566712
47 1 0.0500332839163
48 1 0.0499347650727
49 1 -0.136433599138
50 1 -0.136298924845
51 1 -0.136334378318
52 1 -0.136468987216
53 1 -0.136433598859
54 1 -0.136298924326
55 1 -0.136334377861
56 1 -0.136468987094
57 1 -0.136433599182
58 1 -0.136298924878
59 1 -0.136334378362
60 1 -0.136468987249
61 1 -0.136433598903
62 1 -0.136298924358
63 1 -0.136334377905
64 1 -0.136468987126
65 1 -0.1364335992
66 1 -0.136298924884
67 1 -0.136334378381
68 1 -0.136468987254
69 1 -0.13643359892
70 1 -0.136298924364
71 1 -0.136334377923
72 1 -0.136468987132
73 1 -0.136433599195
74 1 -0.136298924866
75 1 -0.136334378375
76 1 -0.136468987236
77 1 -0.136433598915
78 1 -0.136298924346
79 1 -0.136334377917
80 1 -0.136468987114
81 1 -0.136433599162
82 1 -0.136298924821
83 1 -0.136334378342
84 1 -0.136468987193
85 1 -0.136433598882
86 1 -0.136298924302
87 1 -0.136334377884
88 1 -0.13646898707
89 1 -0.136433599123
90 1 -0.136298924806
91 1 -0.136334378303
92 1 -0.136468987178
93 1 -0.136433598844
94 1 -0.136298924287
95 1 -0.136334377845
96 1 -0.136468987055
97 1 -0.00134412372234
98 1 -0.0012346640042
99 1 -0.00134253550778
100 1 -0.00145199647884
101 1 -0.00134412382933
102 1 -0.00123466322945
103 1 -0.00134253431526
104 1 -0.00145199557409
105 1 -0.00134412381743
106 1 -0.00123466407371
107 1 -0.00134253560273
108 1 -0.00145199654802
109 1 -0.00134412392418
110 1 -0.00123466329875
111 1 -0.00134253441025
112 1 -0.00145199564349
113 1 -0.0013441238429
114 1 -0.00123466404845
115 1 -0.00134253562806
116 1 -0.00145199652267
117 1 -0.00134412394936
118 1 -0.00123466327332
119 1 -0.00134253443557
120 1 -0.00145199561825
121 1 -0.00134412377358
122 1 -0.00123466395339
123 1 -0.00134253555875
124 1 -0.00145199642784
125 1 -0.00134412387999
126 1 -0.0012346631783
127 1 -0.00134253436619
128 1 -0.0014519955233
129 1 -0.00134412367836
130 1 -0.0012346638836
131 1 -0.00134253546366
132 1 -0.00145199635835
133 1 -0.001344123785
134 1 -0.00123466310871
135 1 -0.00134253427106
136 1 -0.00145199545359
137 1 -0.00134412365273
138 1 -0.00123466390901
139 1 -0.00134253543817
140 1 -0.00145199638387
141 1 -0.00134412375966
142 1 -0.00123466313429
143 1 -0.00134253424559
144 1 -0.001451995479
145 1 0.137914619331
146 1 0.13795200585
147 1 0.13781780898
148 1 0.137780355672
149 1 0.137914619796
150 1 0.137952006375
151 1 0.137817809238
152 1 0.137780355521
153 1 0.137914619309
154 1 0.13795200584
155 1 0.137817808959
156 1 0.137780355663
157 1 0.137914619774
158 1 0.137952006366
159 1 0.137817809216
160 1 0.137780355511
161 1 0.137914619318
162 1 0.137952005862
163 1 0.137817808968
164 1 0.137780355685
165 1 0.137914619783
166 1 0.137952006388
167 1 0.137817809226
168 1 0.137780355533
169 1 0.137914619338
170 1 0.13795200587
171 1 0.137817808988
172 1 0.137780355693
173 1 0.137914619804
174 1 0.137952006396
175 1 0.137817809246
176 1 0.137780355541
177 1 0.137914619337
178 1 0.137952005869
179 1 0.137817808987
180 1 0.137780355692
181 1 0.137914619803
182 1 0.137952006394
183 1 0.137817809245
184 1 0.137780355539
185 1 0.137914619339
186 1 0.13795200587
187 1 0.137817808988
188 1 0.137780355693
189 1 0.137914619804
190 1 0.137952006396
191 1 0.137817809246
192 1 0.137780355541
193 1 -0.0500471436073
194 1 -0.0500725806333
195 1 -0.0501719408293
196 1 -0.0501465419945
197 1 -0.0500471430715
198 1 -0.0500725814122
199 1 -0.0501719424709
200 1 -0.0501465435335
201 1 -0.050047143573
202 1 -0.0500725806675
203 1 -0.0501719407951
204 1 -0.0501465420286
205 1 -0.0500471430373
206 1 -0.0500725814463
207 1 -0.0501719424367
208 1 -0.0501465435677
209 1 -0.050047143672
210 1 -0.0500725808149
211 1 -0.0501719408939
212 1 -0.0501465421758
213 1 -0.0500471431359
214 1 -0.0500725815935
215 1 -0.0501719425356
216 1 -0.0501465437153
217 1 -0.0500471438347
218 1 -0.0500725809464
219 1 -0.0501719410564
220 1 -0.0501465423071
221 1 -0.0500471432982
222 1 -0.0500725817249
223 1 -0.0501719426982
224 1 -0.0501465438469
225 1 -0.0500471438864
226 1 -0.0500725808947
227 1 -0.050171941108
228 1 -0.0501465422555
229 1 -0.0500471433498
230 1 -0.0500725816733
231 1 -0.0501719427499
232 1 -0.0501465437952
233 1 -0.0500471437548
234 1 -0.0500725807321
235 1 -0.0501719409766
236 1 -0.0501465420932
237 1 -0.0500471432185
238 1 -0.050072581511
239 1 -0.0501719426184
240 1 -0.0501465436325
