ITEM: TIMESTEP
0
ITEM: NUMBER OF ATOMS
2162
ITEM: BOX BOUNDS pp pp ff
0.0000000000000000e+00 5.2951974149999998e+01
0.0000000000000000e+00 6.1143673049999997e+01
0.0000000000000000e+00 6.0000000000000000e+01
ITEM: ATOMS id mol type q x y z
1 1 1 0.00172232347169 0.00000000 0.00000000 25.00000000
2 1 1 0.00173689902177 1.47088817 2.54765304 25.00000000
3 1 1 0.00176963563752 0.00000000 5.09530609 25.00000000
4 1 1 0.00183238600086 1.47088817 7.64295913 25.00000000
5 1 1 0.00190849180406 0.00000000 10.19061218 25.00000000
6 1 1 0.00201632093606 1.47088817 12.73826522 25.00000000
7 1 1 0.00212419504301 0.00000000 15.28591827 25.00000000
8 1 1 0.00226380343672 1.47088817 17.83357131 25.00000000
9 1 1 0.0017324124281 2.94177634 0.00000000 25.00000000
10 1 1 0.00175830817918 4.41266451 2.54765304 25.00000000
11 1 1 0.00178265865498 2.94177634 5.09530609 25.00000000
12 1 1 0.00186620134838 4.41266451 7.64295913 25.00000000
13 1 1 0.00193150129187 2.94177634 10.19061218 25.00000000
14 1 1 0.00207967123105 4.41266451 12.73826522 25.00000000
15 1 1 0.00216701984813 2.94177634 15.28591827 25.00000000
16 1 1 0.00237874249066 4.41266451 17.83357131 25.00000000
17 1 1 0.00176187360598 5.88355268 0.00000000 25.00000000
18 1 1 0.00179950511007 7.35444085 2.54765304 25.00000000
19 1 1 0.00182098188781 5.88355268 5.09530609 25.00000000
20 1 1 0.00193266772453 7.35444085 7.64295913 25.00000000
21 1 1 0.00200051462887 5.88355268 10.19061218 25.00000000
22 1 1 0.00220804221019 7.35444085 12.73826522 25.00000000
23 1 1 0.00229827446684 5.88355268 15.28591827 25.00000000
24 1 1 0.00262046694201 7.35444085 17.83357131 25.00000000
25 1 1 0.00180823065449 8.82532903 0.00000000 25.00000000
26 1 1 0.00185709625849 10.29621720 2.54765304 25.00000000
27 1 1 0.00188220193492 8.82532903 5.09530609 25.00000000
28 1 1 0.00202868097217 10.29621720 7.64295913 25.00000000
29 1 1 0.00211469449415 8.82532903 10.19061218 25.00000000
30 1 1 0.00240254106505 10.29621720 12.73826522 25.00000000
31 1 1 0.00252526689061 8.82532903 15.28591827 25.00000000
32 1 1 0.00301407874585 10.29621720 17.83357131 25.00000000
33 1 1 0.00186720874163 11.76710537 0.00000000 25.00000000
34 1 1 0.00192569467487 13.23799354 2.54765304 25.00000000
35 1 1 0.00196176499742 11.76710537 5.09530609 25.00000000
36 1 1 0.00214777324476 13.23799354 7.64295913 25.00000000
37 1 1 0.00227022689133 11.76710537 10.19061218 25.00000000
38 1 1 0.00266003288016 13.23799354 12.73826522 25.00000000
39 1 1 0.00285742159616 11.76710537 15.28591827 25.00000000
40 1 1 0.0035955062467 13.23799354 17.83357131 25.00000000
41 1 1 0.0019326814663 14.70888171 0.00000000 25.00000000
42 1 1 0.00199784400982 16.17976988 2.54765304 25.00000000
43 1 1 0.00205232104961 14.70888171 5.09530609 25.00000000
44 1 1 0.0022786547949 16.17976988 7.64295913 25.00000000
45 1 1 0.00245741949377 14.70888171 10.19061218 25.00000000
46 1 1 0.00296706822922 16.17976988 12.73826522 25.00000000
47 1 1 0.00329925919919 14.70888171 15.28591827 25.00000000
48 1 1 0.00438578365917 16.17976988 17.83357131 25.00000000
49 1 1 -0.00114844473558 1.47088817 0.84921768 27.40195032
50 1 1 -0.00116794792566 2.94177634 3.39687073 27.40195032
51 1 1 -0.00119208008551 1.47088817 5.94452377 27.40195032
52 1 1 -0.00124760973422 2.94177634 8.49217681 27.40195032
53 1 1 -0.0012987615318 1.47088817 11.03982986 27.40195032
54 1 1 -0.00139089502916 2.94177634 13.58748290 27.40195032
55 1 1 -0.00145697484994 1.47088817 16.13513595 27.40195032
56 1 1 -0.00157867393734 2.94177634 18.68278899 27.40195032
57 1 1 -0.00116218492401 4.41266451 0.84921768 27.40195032
58 1 1 -0.00119075441585 5.88355268 3.39687073 27.40195032
59 1 1 -0.00121138611022 4.41266451 5.94452377 27.40195032
60 1 1 -0.00128603690004 5.88355268 8.49217681 27.40195032
61 1 1 -0.00133405315607 4.41266451 11.03982986 27.40195032
62 1 1 -0.00146430096312 5.88355268 13.58748290 27.40195032
63 1 1 -0.00152271773597 4.41266451 16.13513595 27.40195032
64 1 1 -0.00171325229863 5.88355268 18.68278899 27.40195032
65 1 1 -0.0011885846113 7.35444085 0.84921768 27.40195032
66 1 1 -0.00122693047694 8.82532903 3.39687073 27.40195032
67 1 1 -0.00124899832689 7.35444085 5.94452377 27.40195032
68 1 1 -0.00134872087225 8.82532903 8.49217681 27.40195032
69 1 1 -0.00140475882421 7.35444085 11.03982986 27.40195032
70 1 1 -0.0015900662068 8.82532903 13.58748290 27.40195032
71 1 1 -0.00166043540803 7.35444085 16.13513595 27.40195032
72 1 1 -0.00195806130262 8.82532903 18.68278899 27.40195032
73 1 1 -0.00122538245383 10.29621720 0.84921768 27.40195032
74 1 1 -0.00127344511588 11.76710537 3.39687073 27.40195032
75 1 1 -0.00130258495547 10.29621720 5.94452377 27.40195032
76 1 1 -0.00143273003712 11.76710537 8.49217681 27.40195032
77 1 1 -0.00151043322091 10.29621720 11.03982986 27.40195032
78 1 1 -0.00177085860076 11.76710537 13.58748290 27.40195032
79 1 1 -0.00188083843182 10.29621720 16.13513595 27.40195032
80 1 1 -0.00233964937366 11.76710537 18.68278899 27.40195032
81 1 1 -0.00126901902563 13.23799354 0.84921768 27.40195032
82 1 1 -0.00132570318695 14.70888171 3.39687073 27.40195032
83 1 1 -0.00136797048022 13.23799354 5.94452377 27.40195032
84 1 1 -0.0015321420577 14.70888171 8.49217681 27.40195032
85 1 1 -0.0016479602444 13.23799354 11.03982986 27.40195032
86 1 1 -0.00200298588252 14.70888171 13.58748290 27.40195032
87 1 1 -0.00219300380965 13.23799354 16.13513595 27.40195032
88 1 1 -0.0028885065175 14.70888171 18.68278899 27.40195032
89 1 1 -0.00131466000478 16.17976988 0.84921768 27.40195032
90 1 1 -0.00116017212426 0.00000000 3.39687073 27.40195032
91 1 1 -0.00143865224785 16.17976988 5.94452377 27.40195032
92 1 1 -0.0012346899797 0.00000000 8.49217681 27.40195032
93 1 1 -0.0018077203317 16.17976988 11.03982986 27.40195032
94 1 1 -0.00136680305259 0.00000000 13.58748290 27.40195032
95 1 1 -0.00259398341427 16.17976988 16.13513595 27.40195032
96 1 1 -0.00153596411691 0.00000000 18.68278899 27.40195032
97 1 1 -3.71782087611e-05 2.94177634 1.69843536 29.80390065
98 1 1 -3.81695971474e-05 4.41266451 4.24608841 29.80390065
99 1 1 -3.90430633655e-05 2.94177634 6.79374145 29.80390065
100 1 1 -4.13772977154e-05 4.41266451 9.34139450 29.80390065
101 1 1 -4.30638420111e-05 2.94177634 11.88904754 29.80390065
102 1 1 -4.69012116878e-05 4.41266451 14.43670058 29.80390065
103 1 1 -4.88457482779e-05 2.94177634 16.98435363 29.80390065
104 1 1 -5.40308472295e-05 4.41266451 19.53200667 29.80390065
105 1 1 -3.78558929508e-05 5.88355268 1.69843536 29.80390065
106 1 1 -3.92091794874e-05 7.35444085 4.24608841 29.80390065
107 1 1 -4.00702270142e-05 5.88355268 6.79374145 29.80390065
108 1 1 -4.32332103369e-05 7.35444085 9.34139450 29.80390065
109 1 1 -4.500639415e-05 5.88355268 11.88904754 29.80390065
110 1 1 -5.05523134234e-05 7.35444085 14.43670058 29.80390065
111 1 1 -5.25102511451e-05 5.88355268 16.98435363 29.80390065
112 1 1 -6.07795394795e-05 7.35444085 19.53200667 29.80390065
113 1 1 -3.89249857328e-05 8.82532903 1.69843536 29.80390065
114 1 1 -4.06761161496e-05 10.29621720 4.24608841 29.80390065
115 1 1 -4.17294969474e-05 8.82532903 6.79374145 29.80390065
116 1 1 -4.59586908186e-05 10.29621720 9.34139450 29.80390065
117 1 1 -4.82762208776e-05 8.82532903 11.88904754 29.80390065
118 1 1 -5.62697407474e-05 10.29621720 14.43670058 29.80390065
119 1 1 -5.90475002853e-05 8.82532903 16.98435363 29.80390065
120 1 1 -7.22412127308e-05 10.29621720 19.53200667 29.80390065
121 1 1 -4.02902983671e-05 11.76710537 1.69843536 29.80390065
122 1 1 -4.24436497968e-05 13.23799354 4.24608841 29.80390065
123 1 1 -4.39181422296e-05 11.76710537 6.79374145 29.80390065
124 1 1 -4.94140771394e-05 13.23799354 9.34139450 29.80390065
125 1 1 -5.28609146574e-05 11.76710537 11.88904754 29.80390065
126 1 1 -6.41846402728e-05 13.23799354 14.43670058 29.80390065
127 1 1 -6.90676249554e-05 11.76710537 16.98435363 29.80390065
128 1 1 -9.0033356266e-05 13.23799354 19.53200667 29.80390065
129 1 1 -4.18128467218e-05 14.70888171 1.69843536 29.80390065
130 1 1 -4.43242017978e-05 16.17976988 4.24608841 29.80390065
131 1 1 -4.64497437991e-05 14.70888171 6.79374145 29.80390065
132 1 1 -5.3306619501e-05 16.17976988 9.34139450 29.80390065
133 1 1 -5.85835196328e-05 14.70888171 11.88904754 29.80390065
134 1 1 -7.40521586938e-05 16.17976988 14.43670058 29.80390065
135 1 1 -8.30209855761e-05 14.70888171 16.98435363 29.80390065
136 1 1 -0.000115274257073 16.17976988 19.53200667 29.80390065
137 1 1 -3.69464403166e-05 0.00000000 1.69843536 29.80390065
138 1 1 -3.76326133926e-05 1.47088817 4.24608841 29.80390065
139 1 1 -3.86961269701e-05 0.00000000 6.79374145 29.80390065
140 1 1 -4.04424648477e-05 1.47088817 9.34139450 29.80390065
141 1 1 -4.24209332546e-05 0.00000000 11.88904754 29.80390065
142 1 1 -4.51279759642e-05 1.47088817 14.43670058 29.80390065
143 1 1 -4.76649517373e-05 0.00000000 16.98435363 29.80390065
144 1 1 -5.09014358122e-05 1.47088817 19.53200667 29.80390065
145 1 1 0.00123652840617 4.41266451 2.54765304 32.20585097
146 1 1 0.00128191004297 5.88355268 5.09530609 32.20585097
147 1 1 0.00131460292789 4.41266451 7.64295913 32.20585097
148 1 1 0.0014120417772 5.88355268 10.19061218 32.20585097
149 1 1 0.0014692355392 4.41266451 12.73826522 32.20585097
150 1 1 0.00162838409214 5.88355268 15.28591827 32.20585097
151 1 1 0.00168661135523 4.41266451 17.83357131 32.20585097
152 1 1 0.00123909389808 5.88355268 0.00000000 32.20585097
153 1 1 0.00126632826966 7.35444085 2.54765304 32.20585097
154 1 1 0.00132635312491 8.82532903 5.09530609 32.20585097
155 1 1 0.00136295837976 7.35444085 7.64295913 32.20585097
156 1 1 0.00149521488966 8.82532903 10.19061218 32.20585097
157 1 1 0.00156296427677 7.35444085 12.73826522 32.20585097
158 1 1 0.00179618168704 8.82532903 15.28591827 32.20585097
159 1 1 0.00186575601889 7.35444085 17.83357131 32.20585097
160 1 1 0.00127259153945 8.82532903 0.00000000 32.20585097
161 1 1 0.0013080366733 10.29621720 2.54765304 32.20585097
162 1 1 0.00138409847537 11.76710537 5.09530609 32.20585097
163 1 1 0.00143275632995 10.29621720 7.64295913 32.20585097
164 1 1 0.00160903151671 11.76710537 10.19061218 32.20585097
165 1 1 0.00170610813693 10.29621720 12.73826522 32.20585097
166 1 1 0.00204380095802 11.76710537 15.28591827 32.20585097
167 1 1 0.00215930105779 10.29621720 17.83357131 32.20585097
168 1 1 0.00131527129377 11.76710537 0.00000000 32.20585097
169 1 1 0.00135775043604 13.23799354 2.54765304 32.20585097
170 1 1 0.00144981522844 14.70888171 5.09530609 32.20585097
171 1 1 0.00151945613957 13.23799354 7.64295913 32.20585097
172 1 1 0.00174713403754 14.70888171 10.19061218 32.20585097
173 1 1 0.00189746363888 13.23799354 12.73826522 32.20585097
174 1 1 0.00237217239556 14.70888171 15.28591827 32.20585097
175 1 1 0.00258941758577 13.23799354 17.83357131 32.20585097
176 1 1 0.00136270340723 14.70888171 0.00000000 32.20585097
177 1 1 0.00141004700578 16.17976988 2.54765304 32.20585097
178 1 1 0.00124465168931 0.00000000 5.09530609 32.20585097
179 1 1 0.00161513947801 16.17976988 7.64295913 32.20585097
180 1 1 0.00134497244997 0.00000000 10.19061218 32.20585097
181 1 1 0.00212628197606 16.17976988 12.73826522 32.20585097
182 1 1 0.00150121007875 0.00000000 15.28591827 32.20585097
183 1 1 0.00317142308191 16.17976988 17.83357131 32.20585097
184 1 1 0.00121055945367 0.00000000 0.00000000 32.20585097
185 1 1 0.0012210604657 1.47088817 2.54765304 32.20585097
186 1 1 0.00125409780922 2.94177634 5.09530609 32.20585097
187 1 1 0.00128997367388 1.47088817 7.64295913 32.20585097
188 1 1 0.00136176341684 2.94177634 10.19061218 32.20585097
189 1 1 0.00142307785151 1.47088817 12.73826522 32.20585097
190 1 1 0.00153237966811 2.94177634 15.28591827 32.20585097
191 1 1 0.00160245655023 1.47088817 17.83357131 32.20585097
192 1 1 0.00121783405165 2.94177634 0.00000000 32.20585097
193 1 1 -0.0018138699414 5.88355268 3.39687073 34.60780130
194 1 1 -0.00190008624006 7.35444085 5.94452377 34.60780130
195 1 1 -0.00195503374087 5.88355268 8.49217681 34.60780130
196 1 1 -0.00213066507488 7.35444085 11.03982986 34.60780130
197 1 1 -0.00221898201366 5.88355268 13.58748290 34.60780130
198 1 1 -0.00250656798933 7.35444085 16.13513595 34.60780130
199 1 1 -0.00258474034485 5.88355268 18.68278899 34.60780130
200 1 1 -0.00181070238632 7.35444085 0.84921768 34.60780130
201 1 1 -0.00186746983964 8.82532903 3.39687073 34.60780130
202 1 1 -0.00197932009575 10.29621720 5.94452377 34.60780130
203 1 1 -0.00204760609504 8.82532903 8.49217681 34.60780130
204 1 1 -0.00228594495189 10.29621720 11.03982986 34.60780130
205 1 1 -0.00240299771703 8.82532903 13.58748290 34.60780130
206 1 1 -0.0028248719711 10.29621720 16.13513595 34.60780130
207 1 1 -0.0029379795602 8.82532903 18.68278899 34.60780130
208 1 1 -0.00186531527712 10.29621720 0.84921768 34.60780130
209 1 1 -0.00193635035267 11.76710537 3.39687073 34.60780130
210 1 1 -0.00207603098297 13.23799354 5.94452377 34.60780130
211 1 1 -0.00217154759517 11.76710537 8.49217681 34.60780130
212 1 1 -0.00248633162485 13.23799354 11.03982986 34.60780130
213 1 1 -0.00266482988189 11.76710537 13.58748290 34.60780130
214 1 1 -0.00327645132431 13.23799354 16.13513595 34.60780130
215 1 1 -0.00349210207438 11.76710537 18.68278899 34.60780130
216 1 1 -0.00192999942366 13.23799354 0.84921768 34.60780130
217 1 1 -0.00201373807367 14.70888171 3.39687073 34.60780130
218 1 1 -0.00218046580038 16.17976988 5.94452377 34.60780130
219 1 1 -0.00231754049216 14.70888171 8.49217681 34.60780130
220 1 1 -0.00271739954891 16.17976988 11.03982986 34.60780130
221 1 1 -0.00299966616992 14.70888171 13.58748290 34.60780130
222 1 1 -0.00386279879873 16.17976988 16.13513595 34.60780130
223 1 1 -0.00429727659503 14.70888171 18.68278899 34.60780130
224 1 1 -0.00199760740321 16.17976988 0.84921768 34.60780130
225 1 1 -0.00176849960063 0.00000000 3.39687073 34.60780130
226 1 1 -0.00181597514564 1.47088817 5.94452377 34.60780130
227 1 1 -0.00187933795685 0.00000000 8.49217681 34.60780130
228 1 1 -0.00197437472987 1.47088817 11.03982986 34.60780130
229 1 1 -0.00207528360305 0.00000000 13.58748290 34.60780130
230 1 1 -0.00220885489515 1.47088817 16.13513595 34.60780130
231 1 1 -0.0023258913994 0.00000000 18.68278899 34.60780130
232 1 1 -0.00175102230234 1.47088817 0.84921768 34.60780130
233 1 1 -0.001780042986 2.94177634 3.39687073 34.60780130
234 1 1 -0.00184450351864 4.41266451 5.94452377 34.60780130
235 1 1 -0.00189836433523 2.94177634 8.49217681 34.60780130
236 1 1 -0.00202638206125 4.41266451 11.03982986 34.60780130
237 1 1 -0.00211083178343 2.94177634 13.58748290 34.60780130
238 1 1 -0.00230568323018 4.41266451 16.13513595 34.60780130
239 1 1 -0.00238874391275 2.94177634 18.68278899 34.60780130
240 1 1 -0.00177146628671 4.41266451 0.84921768 34.60780130
241 1 1 0.00237645552153 0.00000000 20.38122435 25.00000000
242 1 1 0.00251558446987 1.47088817 22.92887739 25.00000000
243 1 1 0.00258923172249 0.00000000 25.47653044 25.00000000
244 1 1 0.00268002583243 1.47088817 28.02418348 25.00000000
245 1 1 0.00267400084051 0.00000000 30.57183653 25.00000000
246 1 1 0.00268001545531 1.47088817 33.11948957 25.00000000
247 1 1 0.00258922442236 0.00000000 35.66714262 25.00000000
248 1 1 0.00251558587042 1.47088817 38.21479566 25.00000000
249 1 1 0.00244903380638 2.94177634 20.38122435 25.00000000
250 1 1 0.00269752537578 4.41266451 22.92887739 25.00000000
251 1 1 0.00269263051456 2.94177634 25.47653044 25.00000000
252 1 1 0.00291471760638 4.41266451 28.02418348 25.00000000
253 1 1 0.00279129353162 2.94177634 30.57183653 25.00000000
254 1 1 0.0029147367011 4.41266451 33.11948957 25.00000000
255 1 1 0.00269263236165 2.94177634 35.66714262 25.00000000
256 1 1 0.00269755979796 4.41266451 38.21479566 25.00000000
257 1 1 0.00267752367028 5.88355268 20.38122435 25.00000000
258 1 1 0.00309950919668 7.35444085 22.92887739 25.00000000
259 1 1 0.00302814580165 5.88355268 25.47653044 25.00000000
260 1 1 0.00345363668629 7.35444085 28.02418348 25.00000000
261 1 1 0.00317728914029 5.88355268 30.57183653 25.00000000
262 1 1 0.00345376932103 7.35444085 33.11948957 25.00000000
263 1 1 0.00302824683544 5.88355268 35.66714262 25.00000000
264 1 1 0.00309969235463 7.35444085 38.21479566 25.00000000
265 1 1 0.00309894668998 8.82532903 20.38122435 25.00000000
266 1 1 0.00381612576737 10.29621720 22.92887739 25.00000000
267 1 1 0.00368942853904 8.82532903 25.47653044 25.00000000
268 1 1 0.00447529146655 10.29621720 28.02418348 25.00000000
269 1 1 0.00395968777699 8.82532903 30.57183653 25.00000000
270 1 1 0.00447552660838 10.29621720 33.11948957 25.00000000
271 1 1 0.00368970430315 8.82532903 35.66714262 25.00000000
272 1 1 0.00381640858756 10.29621720 38.21479566 25.00000000
273 1 1 0.00378464795328 11.76710537 20.38122435 25.00000000
274 1 1 0.00500667082401 13.23799354 22.92887739 25.00000000
275 1 1 0.00487020158085 11.76710537 25.47653044 25.00000000
276 1 1 0.00631311436712 13.23799354 28.02418348 25.00000000
277 1 1 0.00540993918458 11.76710537 30.57183653 25.00000000
278 1 1 0.00631332262034 13.23799354 33.11948957 25.00000000
279 1 1 0.00487039114317 11.76710537 35.66714262 25.00000000
280 1 1 0.00500670075503 13.23799354 38.21479566 25.00000000
281 1 1 0.00482470214257 14.70888171 20.38122435 25.00000000
282 1 1 0.00687022056689 16.17976988 22.92887739 25.00000000
283 1 1 0.00688648766165 14.70888171 25.47653044 25.00000000
284 1 1 0.00961729834491 16.17976988 28.02418348 25.00000000
285 1 1 0.00803989558159 14.70888171 30.57183653 25.00000000
286 1 1 0.00961760493674 16.17976988 33.11948957 25.00000000
287 1 1 0.00688633852905 14.70888171 35.66714262 25.00000000
288 1 1 0.0068700782685 16.17976988 38.21479566 25.00000000
289 1 1 -0.00163498964558 1.47088817 21.23044203 27.40195032
290 1 1 -0.00176388978009 2.94177634 23.77809508 27.40195032
291 1 1 -0.00177567840312 1.47088817 26.32574812 27.40195032
292 1 1 -0.00187316053915 2.94177634 28.87340116 27.40195032
293 1 1 -0.00181679355304 1.47088817 31.42105421 27.40195032
294 1 1 -0.00184978546985 2.94177634 33.96870725 27.40195032
295 1 1 -0.00173717891336 1.47088817 36.51636030 27.40195032
296 1 1 -0.00170672610029 2.94177634 39.06401334 27.40195032
297 1 1 -0.0017462056515 4.41266451 21.23044203 27.40195032
298 1 1 -0.00197736326325 5.88355268 23.77809508 27.40195032
299 1 1 -0.00193217379536 4.41266451 26.32574812 27.40195032
300 1 1 -0.00214237731488 5.88355268 28.87340116 27.40195032
301 1 1 -0.00198817800472 4.41266451 31.42105421 27.40195032
302 1 1 -0.00210647754027 5.88355268 33.96870725 27.40195032
303 1 1 -0.00188040017655 4.41266451 36.51636030 27.40195032
304 1 1 -0.00189383054289 5.88355268 39.06401334 27.40195032
305 1 1 -0.0019901459412 7.35444085 21.23044203 27.40195032
306 1 1 -0.00238706351726 8.82532903 23.77809508 27.40195032
307 1 1 -0.00228725790741 7.35444085 26.32574812 27.40195032
308 1 1 -0.00267790767287 8.82532903 28.87340116 27.40195032
309 1 1 -0.00238124990794 7.35444085 31.42105421 27.40195032
310 1 1 -0.00261310034775 8.82532903 33.96870725 27.40195032
311 1 1 -0.00220244357398 7.35444085 36.51636030 27.40195032
312 1 1 -0.00224706184267 8.82532903 39.06401334 27.40195032
313 1 1 -0.00240897933664 10.29621720 21.23044203 27.40195032
314 1 1 -0.00309138342346 11.76710537 23.77809508 27.40195032
315 1 1 -0.0029399221658 10.29621720 26.32574812 27.40195032
316 1 1 -0.00367229855444 11.76710537 28.87340116 27.40195032
317 1 1 -0.00312169221905 10.29621720 31.42105421 27.40195032
318 1 1 -0.00353729643605 11.76710537 33.96870725 27.40195032
319 1 1 -0.00278228769323 10.29621720 36.51636030 27.40195032
320 1 1 -0.00283365984323 11.76710537 39.06401334 27.40195032
321 1 1 -0.00307407577278 13.23799354 21.23044203 27.40195032
322 1 1 -0.00429658950401 14.70888171 23.77809508 27.40195032
323 1 1 -0.00412466545203 13.23799354 26.32574812 27.40195032
324 1 1 -0.00558240909923 14.70888171 28.87340116 27.40195032
325 1 1 -0.00452620176277 13.23799354 31.42105421 27.40195032
326 1 1 -0.00526976376638 14.70888171 33.96870725 27.40195032
327 1 1 -0.00379294929538 13.23799354 36.51636030 27.40195032
328 1 1 -0.00377906021259 14.70888171 39.06401334 27.40195032
329 1 1 -0.00409999183178 16.17976988 21.23044203 27.40195032
330 1 1 -0.00169806406697 0.00000000 23.77809508 27.40195032
331 1 1 -0.00630011448843 16.17976988 26.32574812 27.40195032
332 1 1 -0.00179143849046 0.00000000 28.87340116 27.40195032
333 1 1 -0.00721922831714 16.17976988 31.42105421 27.40195032
334 1 1 -0.00177161752399 0.00000000 33.96870725 27.40195032
335 1 1 -0.00556666720372 16.17976988 36.51636030 27.40195032
336 1 1 -0.00164855861792 0.00000000 39.06401334 27.40195032
337 1 1 -5.51826602614e-05 2.94177634 22.07965971 29.80390065
338 1 1 -6.09166207732e-05 4.41266451 24.62731276 29.80390065
339 1 1 -5.98806037006e-05 2.94177634 27.17496580 29.80390065
340 1 1 -6.44422119531e-05 4.41266451 29.72261885 29.80390065
341 1 1 -6.06049569451e-05 2.94177634 32.27027189 29.80390065
342 1 1 -6.253620998e-05 4.41266451 34.81792493 29.80390065
343 1 1 -5.69931272318e-05 2.94177634 37.36557798 29.80390065
344 1 1 -5.64119423917e-05 4.41266451 39.91323102 29.80390065
345 1 1 -6.13510810668e-05 5.88355268 22.07965971 29.80390065
346 1 1 -7.16310665984e-05 7.35444085 24.62731276 29.80390065
347 1 1 -6.84283627375e-05 5.88355268 27.17496580 29.80390065
348 1 1 -7.76560999723e-05 7.35444085 29.72261885 29.80390065
349 1 1 -6.9570869921e-05 5.88355268 32.27027189 29.80390065
350 1 1 -7.44799550206e-05 7.35444085 34.81792493 29.80390065
351 1 1 -6.40561060915e-05 5.88355268 37.36557798 29.80390065
352 1 1 -6.45426912833e-05 7.35444085 39.91323102 29.80390065
353 1 1 -7.30990461843e-05 8.82532903 22.07965971 29.80390065
354 1 1 -9.12938979865e-05 10.29621720 24.62731276 29.80390065
355 1 1 -8.54834235179e-05 8.82532903 27.17496580 29.80390065
356 1 1 -0.000102691628481 10.29621720 29.72261885 29.80390065
357 1 1 -8.77619584539e-05 8.82532903 32.27027189 29.80390065
358 1 1 -9.65850487639e-05 10.29621720 34.81792493 29.80390065
359 1 1 -7.79044565947e-05 8.82532903 37.36557798 29.80390065
360 1 1 -7.86769861116e-05 10.29621720 39.91323102 29.80390065
361 1 1 -9.31683853806e-05 11.76710537 22.07965971 29.80390065
362 1 1 -0.000125741654281 13.23799354 24.62731276 29.80390065
363 1 1 -0.000116618011249 11.76710537 27.17496580 29.80390065
364 1 1 -0.000148806894815 13.23799354 29.72261885 29.80390065
365 1 1 -0.000121140391474 11.76710537 32.27027189 29.80390065
366 1 1 -0.00013481285546 13.23799354 34.81792493 29.80390065
367 1 1 -0.00010128279773 11.76710537 37.36557798 29.80390065
368 1 1 -0.000100716866181 13.23799354 39.91323102 29.80390065
369 1 1 -0.00012527458485 14.70888171 22.07965971 29.80390065
370 1 1 -0.000181781286405 16.17976988 24.62731276 29.80390065
371 1 1 -0.000172124995056 14.70888171 27.17496580 29.80390065
372 1 1 -0.000232699578955 16.17976988 29.72261885 29.80390065
373 1 1 -0.0001816635481 14.70888171 32.27027189 29.80390065
374 1 1 -0.000201121375137 16.17976988 34.81792493 29.80390065
375 1 1 -0.000139154713529 14.70888171 37.36557798 29.80390065
376 1 1 -0.0001339916195 16.17976988 39.91323102 29.80390065
377 1 1 -5.32596292603e-05 0.00000000 22.07965971 29.80390065
378 1 1 -5.61753712958e-05 1.47088817 24.62731276 29.80390065
379 1 1 -5.72936354491e-05 0.00000000 27.17496580 29.80390065
380 1 1 -5.87661696381e-05 1.47088817 29.72261885 29.80390065
381 1 1 -5.79275364175e-05 0.00000000 32.27027189 29.80390065
382 1 1 -5.74008658516e-05 1.47088817 34.81792493 29.80390065
383 1 1 -5.48532537137e-05 0.00000000 37.36557798 29.80390065
384 1 1 -5.27787486241e-05 1.47088817 39.91323102 29.80390065
385 1 1 0.00192046510102 4.41266451 22.92887739 32.20585097
386 1 1 0.00216675763481 5.88355268 25.47653044 32.20585097
387 1 1 0.0020811185824 4.41266451 28.02418348 32.20585097
388 1 1 0.00227761753485 5.88355268 30.57183653 32.20585097
389 1 1 0.00208109630362 4.41266451 33.11948957 32.20585097
390 1 1 0.00216670040771 5.88355268 35.66714262 32.20585097
391 1 1 0.00192043576687 4.41266451 38.21479566 32.20585097
392 1 1 0.00190689571706 5.88355268 20.38122435 32.20585097
393 1 1 0.00222076460995 7.35444085 22.92887739 32.20585097
394 1 1 0.00265687690382 8.82532903 25.47653044 32.20585097
395 1 1 0.0024831714527 7.35444085 28.02418348 32.20585097
396 1 1 0.00285597578617 8.82532903 30.57183653 32.20585097
397 1 1 0.00248305458757 7.35444085 33.11948957 32.20585097
398 1 1 0.00265655720963 8.82532903 35.66714262 32.20585097
399 1 1 0.00222062378801 7.35444085 38.21479566 32.20585097
400 1 1 0.00222125991386 8.82532903 20.38122435 32.20585097
401 1 1 0.00274968119856 10.29621720 22.92887739 32.20585097
402 1 1 0.00352862986676 11.76710537 25.47653044 32.20585097
403 1 1 0.00323562690705 10.29621720 28.02418348 32.20585097
404 1 1 0.00393801621986 11.76710537 30.57183653 32.20585097
405 1 1 0.00323514843716 10.29621720 33.11948957 32.20585097
406 1 1 0.00352800961742 11.76710537 35.66714262 32.20585097
407 1 1 0.0027492529153 10.29621720 38.21479566 32.20585097
408 1 1 0.00272708827077 11.76710537 20.38122435 32.20585097
409 1 1 0.00363095869825 13.23799354 22.92887739 32.20585097
410 1 1 0.00509519591714 14.70888171 25.47653044 32.20585097
411 1 1 0.00464035878725 13.23799354 28.02418348 32.20585097
412 1 1 0.00602611275241 14.70888171 30.57183653 32.20585097
413 1 1 0.00463951490812 13.23799354 33.11948957 32.20585097
414 1 1 0.00509494990121 14.70888171 35.66714262 32.20585097
415 1 1 0.00363056734064 13.23799354 38.21479566 32.20585097
416 1 1 0.00349601818798 14.70888171 20.38122435 32.20585097
417 1 1 0.0050835534617 16.17976988 22.92887739 32.20585097
418 1 1 0.00183868954938 0.00000000 25.47653044 32.20585097
419 1 1 0.00728442695884 16.17976988 28.02418348 32.20585097
420 1 1 0.00190041468637 0.00000000 30.57183653 32.20585097
421 1 1 0.00728348618157 16.17976988 33.11948957 32.20585097
422 1 1 0.00183864967746 0.00000000 35.66714262 32.20585097
423 1 1 0.005083319165 16.17976988 38.21479566 32.20585097
424 1 1 0.00168412154266 0.00000000 20.38122435 32.20585097
425 1 1 0.0017853565819 1.47088817 22.92887739 32.20585097
426 1 1 0.00191559997509 2.94177634 25.47653044 32.20585097
427 1 1 0.00190527529579 1.47088817 28.02418348 32.20585097
428 1 1 0.00198817751546 2.94177634 30.57183653 32.20585097
429 1 1 0.00190524536393 1.47088817 33.11948957 32.20585097
430 1 1 0.00191557074955 2.94177634 35.66714262 32.20585097
431 1 1 0.00178532174348 1.47088817 38.21479566 32.20585097
432 1 1 0.00173736097644 2.94177634 20.38122435 32.20585097
433 1 1 -0.002968678771 5.88355268 23.77809508 34.60780130
434 1 1 -0.00341710272507 7.35444085 26.32574812 34.60780130
435 1 1 -0.00320743425191 5.88355268 28.87340116 34.60780130
436 1 1 -0.00355346656984 7.35444085 31.42105421 34.60780130
437 1 1 -0.00315538973659 5.88355268 33.96870725 34.60780130
438 1 1 -0.00329347390044 7.35444085 36.51636030 34.60780130
439 1 1 -0.00284738294586 5.88355268 39.06401334 34.60780130
440 1 1 -0.00298581747956 7.35444085 21.23044203 34.60780130
441 1 1 -0.00356291197758 8.82532903 23.77809508 34.60780130
442 1 1 -0.00437416251048 10.29621720 26.32574812 34.60780130
443 1 1 -0.00398823003862 8.82532903 28.87340116 34.60780130
444 1 1 -0.00463792172378 10.29621720 31.42105421 34.60780130
445 1 1 -0.0038929308004 8.82532903 33.96870725 34.60780130
446 1 1 -0.00414238706126 10.29621720 36.51636030 34.60780130
447 1 1 -0.00335775010174 8.82532903 39.06401334 34.60780130
448 1 1 -0.0035947969687 10.29621720 21.23044203 34.60780130
449 1 1 -0.00459638050809 11.76710537 23.77809508 34.60780130
450 1 1 -0.00606312511085 13.23799354 26.32574812 34.60780130
451 1 1 -0.00543028542918 11.76710537 28.87340116 34.60780130
452 1 1 -0.0066126523126 13.23799354 31.42105421 34.60780130
453 1 1 -0.00523776970054 11.76710537 33.96870725 34.60780130
454 1 1 -0.00560036516904 13.23799354 36.51636030 34.60780130
455 1 1 -0.00421817809686 11.76710537 39.06401334 34.60780130
456 1 1 -0.00457049840775 13.23799354 21.23044203 34.60780130
457 1 1 -0.00629825890511 14.70888171 23.77809508 34.60780130
458 1 1 -0.00898867415143 16.17976988 26.32574812 34.60780130
459 1 1 -0.00803069613899 14.70888171 28.87340116 34.60780130
460 1 1 -0.0102467368872 16.17976988 31.42105421 34.60780130
461 1 1 -0.00761102868576 14.70888171 33.96870725 34.60780130
462 1 1 -0.00800537311127 16.17976988 36.51636030 34.60780130
463 1 1 -0.00557958165212 14.70888171 39.06401334 34.60780130
464 1 1 -0.00602619266727 16.17976988 21.23044203 34.60780130
465 1 1 -0.00256576763779 0.00000000 23.77809508 34.60780130
466 1 1 -0.00267983553412 1.47088817 26.32574812 34.60780130
467 1 1 -0.00270360063467 0.00000000 28.87340116 34.60780130
468 1 1 -0.00274028922699 1.47088817 31.42105421 34.60780130
469 1 1 -0.00267433583337 0.00000000 33.96870725 34.60780130
470 1 1 -0.00262308593168 1.47088817 36.51636030 34.60780130
471 1 1 -0.00249250546948 0.00000000 39.06401334 34.60780130
472 1 1 -0.00247232092147 1.47088817 21.23044203 34.60780130
473 1 1 -0.00266132505456 2.94177634 23.77809508 34.60780130
474 1 1 -0.00290490114042 4.41266451 26.32574812 34.60780130
475 1 1 -0.0028211272859 2.94177634 28.87340116 34.60780130
476 1 1 -0.00298604041396 4.41266451 31.42105421 34.60780130
477 1 1 -0.00278697650936 2.94177634 33.96870725 34.60780130
478 1 1 -0.00282964211117 4.41266451 36.51636030 34.60780130
479 1 1 -0.00257735860359 2.94177634 39.06401334 34.60780130
480 1 1 -0.00263412396243 4.41266451 21.23044203 34.60780130
481 1 1 0.00237646005747 0.00000000 40.76244870 25.00000000
482 1 1 0.00226380808996 1.47088817 43.31010174 25.00000000
483 1 1 0.00212420945294 0.00000000 45.85775479 25.00000000
484 1 1 0.00201633596965 1.47088817 48.40540783 25.00000000
485 1 1 0.00190850011074 0.00000000 50.95306088 25.00000000
486 1 1 0.00183238790909 1.47088817 53.50071392 25.00000000
487 1 1 0.0017696373005 0.00000000 56.04836697 25.00000000
488 1 1 0.00173690200411 1.47088817 58.59602001 25.00000000
489 1 1 0.00244903642714 2.94177634 40.76244870 25.00000000
490 1 1 0.00237874295441 4.41266451 43.31010174 25.00000000
491 1 1 0.00216702608404 2.94177634 45.85775479 25.00000000
492 1 1 0.00207967881509 4.41266451 48.40540783 25.00000000
493 1 1 0.00193150999694 2.94177634 50.95306088 25.00000000
494 1 1 0.00186620555614 4.41266451 53.50071392 25.00000000
495 1 1 0.00178266113102 2.94177634 56.04836697 25.00000000
496 1 1 0.00175831143245 4.41266451 58.59602001 25.00000000
497 1 1 0.00267758265564 5.88355268 40.76244870 25.00000000
498 1 1 0.00262052140835 7.35444085 43.31010174 25.00000000
499 1 1 0.00229827317233 5.88355268 45.85775479 25.00000000
500 1 1 0.00220803908588 7.35444085 48.40540783 25.00000000
501 1 1 0.00200052037958 5.88355268 50.95306088 25.00000000
502 1 1 0.00193267163434 7.35444085 53.50071392 25.00000000
503 1 1 0.00182098597155 5.88355268 56.04836697 25.00000000
504 1 1 0.00179950874504 7.35444085 58.59602001 25.00000000
505 1 1 0.00309915204504 8.82532903 40.76244870 25.00000000
506 1 1 0.00301425242519 10.29621720 43.31010174 25.00000000
507 1 1 0.00252529384191 8.82532903 45.85775479 25.00000000
508 1 1 0.00240254134712 10.29621720 48.40540783 25.00000000
509 1 1 0.00211469101057 8.82532903 50.95306088 25.00000000
510 1 1 0.00202868005683 10.29621720 53.50071392 25.00000000
511 1 1 0.0018822058783 8.82532903 56.04836697 25.00000000
512 1 1 0.00185709910633 10.29621720 58.59602001 25.00000000
513 1 1 0.00378492278203 11.76710537 40.76244870 25.00000000
514 1 1 0.00359577643933 13.23799354 43.31010174 25.00000000
515 1 1 0.00285752180315 11.76710537 45.85775479 25.00000000
516 1 1 0.0026600578939 13.23799354 48.40540783 25.00000000
517 1 1 0.00227021959207 11.76710537 50.95306088 25.00000000
518 1 1 0.00214777143949 13.23799354 53.50071392 25.00000000
519 1 1 0.00196176616184 11.76710537 56.04836697 25.00000000
520 1 1 0.00192569504456 13.23799354 58.59602001 25.00000000
521 1 1 0.00482488545548 14.70888171 40.76244870 25.00000000
522 1 1 0.00438602061348 16.17976988 43.31010174 25.00000000
523 1 1 0.00329939994923 14.70888171 45.85775479 25.00000000
524 1 1 0.00296707280239 16.17976988 48.40540783 25.00000000
525 1 1 0.00245741893874 14.70888171 50.95306088 25.00000000
526 1 1 0.00227866023637 16.17976988 53.50071392 25.00000000
527 1 1 0.00205232165001 14.70888171 56.04836697 25.00000000
528 1 1 0.00199784279702 16.17976988 58.59602001 25.00000000
529 1 1 -0.00157655996341 1.47088817 41.61166638 27.40195032
530 1 1 -0.00151338877815 2.94177634 44.15931943 27.40195032
531 1 1 -0.00139995838501 1.47088817 46.70697247 27.40195032
532 1 1 -0.00133680591288 2.94177634 49.25462551 27.40195032
533 1 1 -0.00125661825959 1.47088817 51.80227856 27.40195032
534 1 1 -0.00121360380773 2.94177634 54.34993160 27.40195032
535 1 1 -0.00117031598439 1.47088817 56.89758465 27.40195032
536 1 1 -0.00115650109897 2.94177634 59.44523769 27.40195032
537 1 1 -0.00167143394131 4.41266451 41.61166638 27.40195032
538 1 1 -0.00162459353463 5.88355268 44.15931943 27.40195032
539 1 1 -0.00145372224321 4.41266451 46.70697247 27.40195032
540 1 1 -0.00139590427005 5.88355268 49.25462551 27.40195032
541 1 1 -0.00128518796594 4.41266451 51.80227856 27.40195032
542 1 1 -0.00124504346715 5.88355268 54.34993160 27.40195032
543 1 1 -0.00118677313076 4.41266451 56.89758465 27.40195032
544 1 1 -0.00117727599734 5.88355268 59.44523769 27.40195032
545 1 1 -0.00187662291829 7.35444085 41.61166638 27.40195032
546 1 1 -0.00182297733424 8.82532903 44.15931943 27.40195032
547 1 1 -0.00156453438293 7.35444085 46.70697247 27.40195032
548 1 1 -0.00149526640704 8.82532903 49.25462551 27.40195032
549 1 1 -0.00134179221487 7.35444085 51.80227856 27.40195032
550 1 1 -0.0012957516962 8.82532903 54.34993160 27.40195032
551 1 1 -0.00121863286482 7.35444085 56.89758465 27.40195032
552 1 1 -0.00121006699679 8.82532903 59.44523769 27.40195032
553 1 1 -0.00222078517741 10.29621720 41.61166638 27.40195032
554 1 1 -0.00212370922247 11.76710537 44.15931943 27.40195032
555 1 1 -0.00173774602803 10.29621720 46.70697247 27.40195032
556 1 1 -0.00163449030441 11.76710537 49.25462551 27.40195032
557 1 1 -0.00142479023689 10.29621720 51.80227856 27.40195032
558 1 1 -0.00136254369684 11.76710537 54.34993160 27.40195032
559 1 1 -0.00126356036597 10.29621720 56.89758465 27.40195032
560 1 1 -0.00125194542892 11.76710537 59.44523769 27.40195032
561 1 1 -0.00274389078084 13.23799354 41.61166638 27.40195032
562 1 1 -0.00253719133354 14.70888171 44.15931943 27.40195032
563 1 1 -0.00197594009496 13.23799354 46.70697247 27.40195032
564 1 1 -0.00180813793019 14.70888171 49.25462551 27.40195032
565 1 1 -0.00153013201345 13.23799354 51.80227856 27.40195032
566 1 1 -0.00143987922041 14.70888171 54.34993160 27.40195032
567 1 1 -0.00131762886572 13.23799354 56.89758465 27.40195032
568 1 1 -0.00129861584025 14.70888171 59.44523769 27.40195032
569 1 1 -0.00349617957449 16.17976988 41.61166638 27.40195032
570 1 1 -0.00147769272213 0.00000000 44.15931943 27.40195032
571 1 1 -0.00227003733837 16.17976988 46.70697247 27.40195032
572 1 1 -0.00131722303654 0.00000000 49.25462551 27.40195032
573 1 1 -0.00164926220619 16.17976988 51.80227856 27.40195032
574 1 1 -0.00120297574599 0.00000000 54.34993160 27.40195032
575 1 1 -0.00137513841085 16.17976988 56.89758465 27.40195032
576 1 1 -0.00114939911772 0.00000000 59.44523769 27.40195032
577 1 1 -5.0939157101e-05 2.94177634 42.46088406 29.80390065
578 1 1 -4.91192235402e-05 4.41266451 45.00853711 29.80390065
579 1 1 -4.48123832169e-05 2.94177634 47.55619015 29.80390065
580 1 1 -4.29607648678e-05 4.41266451 50.10384320 29.80390065
581 1 1 -4.01411502641e-05 2.94177634 52.65149624 29.80390065
582 1 1 -3.89653034816e-05 4.41266451 55.19914928 29.80390065
583 1 1 -3.75481653584e-05 2.94177634 57.74680233 29.80390065
584 1 1 -3.73597791943e-05 4.41266451 60.29445537 29.80390065
585 1 1 -5.53504508854e-05 5.88355268 42.46088406 29.80390065
586 1 1 -5.36289691304e-05 7.35444085 45.00853711 29.80390065
587 1 1 -4.72169369083e-05 5.88355268 47.55619015 29.80390065
588 1 1 -4.52798313312e-05 7.35444085 50.10384320 29.80390065
589 1 1 -4.14006146578e-05 5.88355268 52.65149624 29.80390065
590 1 1 -4.01953077807e-05 7.35444085 55.19914928 29.80390065
591 1 1 -3.82920206668e-05 5.88355268 57.74680233 29.80390065
592 1 1 -3.82207930871e-05 7.35444085 60.29445537 29.80390065
593 1 1 -6.3506295211e-05 8.82532903 42.46088406 29.80390065
594 1 1 -6.09219800532e-05 10.29621720 45.00853711 29.80390065
595 1 1 -5.13293358142e-05 8.82532903 47.55619015 29.80390065
596 1 1 -4.87402997026e-05 10.29621720 50.10384320 29.80390065
597 1 1 -4.34574064116e-05 8.82532903 52.65149624 29.80390065
598 1 1 -4.19508531811e-05 10.29621720 55.19914928 29.80390065
599 1 1 -3.94730358445e-05 8.82532903 57.74680233 29.80390065
600 1 1 -3.94207649739e-05 10.29621720 60.29445537 29.80390065
601 1 1 -7.63683936732e-05 11.76710537 42.46088406 29.80390065
602 1 1 -7.14145352083e-05 13.23799354 45.00853711 29.80390065
603 1 1 -5.72775924733e-05 11.76710537 47.55619015 29.80390065
604 1 1 -5.32607727607e-05 13.23799354 50.10384320 29.80390065
605 1 1 -4.62136159948e-05 11.76710537 52.65149624 29.80390065
606 1 1 -4.40944475864e-05 13.23799354 55.19914928 29.80390065
607 1 1 -4.09931112637e-05 11.76710537 57.74680233 29.80390065
608 1 1 -4.08439169629e-05 13.23799354 60.29445537 29.80390065
609 1 1 -9.49127627416e-05 14.70888171 42.46088406 29.80390065
610 1 1 -8.50394380583e-05 16.17976988 45.00853711 29.80390065
611 1 1 -6.50324551401e-05 14.70888171 47.55619015 29.80390065
612 1 1 -5.85669942678e-05 16.17976988 50.10384320 29.80390065
613 1 1 -4.94818051794e-05 14.70888171 52.65149624 29.80390065
614 1 1 -4.64139546868e-05 16.17976988 55.19914928 29.80390065
615 1 1 -4.27017147276e-05 14.70888171 57.74680233 29.80390065
616 1 1 -4.233278338e-05 16.17976988 60.29445537 29.80390065
617 1 1 -4.95468217441e-05 0.00000000 42.46088406 29.80390065
618 1 1 -4.69690766185e-05 1.47088817 45.00853711 29.80390065
619 1 1 -4.40206636547e-05 0.00000000 47.55619015 29.80390065
620 1 1 -4.18016609248e-05 1.47088817 50.10384320 29.80390065
621 1 1 -3.9718443274e-05 0.00000000 52.65149624 29.80390065
622 1 1 -3.83352862241e-05 1.47088817 55.19914928 29.80390065
623 1 1 -3.72946454522e-05 0.00000000 57.74680233 29.80390065
624 1 1 -3.69114877374e-05 1.47088817 60.29445537 29.80390065
625 1 1 0.0016865725183 4.41266451 43.31010174 32.20585097
626 1 1 0.00162835378212 5.88355268 45.85775479 32.20585097
627 1 1 0.00146921497669 4.41266451 48.40540783 32.20585097
628 1 1 0.00141202126651 5.88355268 50.95306088 32.20585097
629 1 1 0.00131458838341 4.41266451 53.50071392 32.20585097
630 1 1 0.00128190531056 5.88355268 56.04836697 32.20585097
631 1 1 0.00123653013376 4.41266451 58.59602001 32.20585097
632 1 1 0.00190684358646 5.88355268 40.76244870 32.20585097
633 1 1 0.00186569918067 7.35444085 43.31010174 32.20585097
634 1 1 0.0017961494648 8.82532903 45.85775479 32.20585097
635 1 1 0.00156293971345 7.35444085 48.40540783 32.20585097
636 1 1 0.00149519030507 8.82532903 50.95306088 32.20585097
637 1 1 0.00136294235892 7.35444085 53.50071392 32.20585097
638 1 1 0.00132634909996 8.82532903 56.04836697 32.20585097
639 1 1 0.00126633069565 7.35444085 58.59602001 32.20585097
640 1 1 0.00222105707425 8.82532903 40.76244870 32.20585097
641 1 1 0.00215914462804 10.29621720 43.31010174 32.20585097
642 1 1 0.00204374673201 11.76710537 45.85775479 32.20585097
643 1 1 0.00170608982885 10.29621720 48.40540783 32.20585097
644 1 1 0.00160901332044 11.76710537 50.95306088 32.20585097
645 1 1 0.00143274005834 10.29621720 53.50071392 32.20585097
646 1 1 0.00138409689293 11.76710537 56.04836697 32.20585097
647 1 1 0.00130803979863 10.29621720 58.59602001 32.20585097
648 1 1 0.0027266453037 11.76710537 40.76244870 32.20585097
649 1 1 0.00258908737414 13.23799354 43.31010174 32.20585097
650 1 1 0.00237206987626 14.70888171 45.85775479 32.20585097
651 1 1 0.0018974565241 13.23799354 48.40540783 32.20585097
652 1 1 0.00174712877587 14.70888171 50.95306088 32.20585097
653 1 1 0.00151944822776 13.23799354 53.50071392 32.20585097
654 1 1 0.00144982175674 14.70888171 56.04836697 32.20585097
655 1 1 0.00135775519386 13.23799354 58.59602001 32.20585097
656 1 1 0.00349538633121 14.70888171 40.76244870 32.20585097
657 1 1 0.00317094651489 16.17976988 43.31010174 32.20585097
658 1 1 0.0015011840363 0.00000000 45.85775479 32.20585097
659 1 1 0.00212628667417 16.17976988 48.40540783 32.20585097
660 1 1 0.00134495791505 0.00000000 50.95306088 32.20585097
661 1 1 0.00161514467702 16.17976988 53.50071392 32.20585097
662 1 1 0.00124464538699 0.00000000 56.04836697 32.20585097
663 1 1 0.00141005605829 16.17976988 58.59602001 32.20585097
664 1 1 0.00168407979294 0.00000000 40.76244870 32.20585097
665 1 1 0.00160241598545 1.47088817 43.31010174 32.20585097
666 1 1 0.00153235086676 2.94177634 45.85775479 32.20585097
667 1 1 0.0014230628634 1.47088817 48.40540783 32.20585097
668 1 1 0.00136174751856 2.94177634 50.95306088 32.20585097
669 1 1 0.00128995895481 1.47088817 53.50071392 32.20585097
670 1 1 0.00125409204272 2.94177634 56.04836697 32.20585097
671 1 1 0.00122106180654 1.47088817 58.59602001 32.20585097
672 1 1 0.00173732390044 2.94177634 40.76244870 32.20585097
673 1 1 -0.0024549336474 5.88355268 44.15931943 34.60780130
674 1 1 -0.00236610954259 7.35444085 46.70697247 34.60780130
675 1 1 -0.00211776323566 5.88355268 49.25462551 34.60780130
676 1 1 -0.00203744371291 7.35444085 51.80227856 34.60780130
677 1 1 -0.00189428265237 5.88355268 54.34993160 34.60780130
678 1 1 -0.00185514745146 7.35444085 56.89758465 34.60780130
679 1 1 -0.0017938868984 5.88355268 59.44523769 34.60780130
680 1 1 -0.00282090213393 7.35444085 41.61166638 34.60780130
681 1 1 -0.00274185818178 8.82532903 44.15931943 34.60780130
682 1 1 -0.00261738026544 10.29621720 46.70697247 34.60780130
683 1 1 -0.00226389408896 8.82532903 49.25462551 34.60780130
684 1 1 -0.002159887714 10.29621720 51.80227856 34.60780130
685 1 1 -0.00196920784681 8.82532903 54.34993160 34.60780130
686 1 1 -0.00192164456711 10.29621720 56.89758465 34.60780130
687 1 1 -0.00184256040577 8.82532903 59.44523769 34.60780130
688 1 1 -0.00331852157241 10.29621720 41.61166638 34.60780130
689 1 1 -0.00317600742334 11.76710537 44.15931943 34.60780130
690 1 1 -0.00296084707326 13.23799354 46.70697247 34.60780130
691 1 1 -0.00246693986916 11.76710537 49.25462551 34.60780130
692 1 1 -0.00231456289649 13.23799354 51.80227856 34.60780130
693 1 1 -0.00206795846982 11.76710537 54.34993160 34.60780130
694 1 1 -0.00200169017058 13.23799354 56.89758465 34.60780130
695 1 1 -0.00190464888473 11.76710537 59.44523769 34.60780130
696 1 1 -0.00408498678462 13.23799354 41.61166638 34.60780130
697 1 1 -0.00377950741478 14.70888171 44.15931943 34.60780130
698 1 1 -0.00338744842938 16.17976988 46.70697247 34.60780130
699 1 1 -0.00271804220892 14.70888171 49.25462551 34.60780130
700 1 1 -0.00248821788963 16.17976988 51.80227856 34.60780130
701 1 1 -0.00218215652544 14.70888171 54.34993160 34.60780130
702 1 1 -0.00208684694051 16.17976988 56.89758465 34.60780130
703 1 1 -0.00197379453247 14.70888171 59.44523769 34.60780130
704 1 1 -0.00517622997211 16.17976988 41.61166638 34.60780130
705 1 1 -0.00223951573247 0.00000000 44.15931943 34.60780130
706 1 1 -0.00212432839913 1.47088817 46.70697247 34.60780130
707 1 1 -0.0020017599626 0.00000000 49.25462551 34.60780130
708 1 1 -0.00191182585059 1.47088817 51.80227856 34.60780130
709 1 1 -0.0018321890224 0.00000000 54.34993160 34.60780130
710 1 1 -0.00178358449375 1.47088817 56.89758465 34.60780130
711 1 1 -0.00175244425323 0.00000000 59.44523769 34.60780130
712 1 1 -0.00238585738887 1.47088817 41.61166638 34.60780130
713 1 1 -0.00229219089658 2.94177634 44.15931943 34.60780130
714 1 1 -0.00220363059796 4.41266451 46.70697247 34.60780130
715 1 1 -0.00203061180014 2.94177634 49.25462551 34.60780130
716 1 1 -0.00195390901795 4.41266451 51.80227856 34.60780130
717 1 1 -0.00184787169265 2.94177634 54.34993160 34.60780130
718 1 1 -0.00180797313379 4.41266451 56.89758465 34.60780130
719 1 1 -0.00176300902423 2.94177634 59.44523769 34.60780130
720 1 1 -0.0025245519401 4.41266451 41.61166638 34.60780130
721 1 1 0.00199691320828 17.65065805 0.00000000 25.00000000
722 1 1 0.00206443116171 19.12154622 2.54765304 25.00000000
723 1 1 0.00214345016029 17.65065805 5.09530609 25.00000000
724 1 1 0.00240474952697 19.12154622 7.64295913 25.00000000
725 1 1 0.00265772305362 17.65065805 10.19061218 25.00000000
726 1 1 0.0032902161152 19.12154622 12.73826522 25.00000000
727 1 1 0.00382980581721 17.65065805 15.28591827 25.00000000
728 1 1 0.00533243714306 19.12154622 17.83357131 25.00000000
729 1 1 0.00205132954217 20.59243439 0.00000000 25.00000000
730 1 1 0.00211586721361 22.06332256 2.54765304 25.00000000
731 1 1 0.00222243466801 20.59243439 5.09530609 25.00000000
732 1 1 0.00250582373437 22.06332256 7.64295913 25.00000000
733 1 1 0.00284207521708 20.59243439 10.19061218 25.00000000
734 1 1 0.00357023090811 22.06332256 12.73826522 25.00000000
735 1 1 0.00437327559021 20.59243439 15.28591827 25.00000000
736 1 1 0.00625157362493 22.06332256 17.83357131 25.00000000
737 1 1 0.00208788840584 23.53421073 0.00000000 25.00000000
738 1 1 0.00214396539979 25.00509890 2.54765304 25.00000000
739 1 1 0.00227642662703 23.53421073 5.09530609 25.00000000
740 1 1 0.00256245645263 25.00509890 7.64295913 25.00000000
741 1 1 0.00297432448622 23.53421073 10.19061218 25.00000000
742 1 1 0.00373547314244 25.00509890 12.73826522 25.00000000
743 1 1 0.00479536795609 23.53421073 15.28591827 25.00000000
744 1 1 0.00684140384357 25.00509890 17.83357131 25.00000000
745 1 1 0.00210078321201 26.47598708 0.00000000 25.00000000
746 1 1 0.00214396539929 27.94687525 2.54765304 25.00000000
747 1 1 0.00229565035192 26.47598708 5.09530609 25.00000000
748 1 1 0.00256245645222 27.94687525 7.64295913 25.00000000
749 1 1 0.00302268841179 26.47598708 10.19061218 25.00000000
750 1 1 0.00373547314196 27.94687525 12.73826522 25.00000000
751 1 1 0.0049562954436 26.47598708 15.28591827 25.00000000
752 1 1 0.00684140384199 27.94687525 17.83357131 25.00000000
753 1 1 0.00208788840505 29.41776342 0.00000000 25.00000000
754 1 1 0.00211586721299 30.88865159 2.54765304 25.00000000
755 1 1 0.0022764266264 29.41776342 5.09530609 25.00000000
756 1 1 0.00250582373419 30.88865159 7.64295913 25.00000000
757 1 1 0.0029743244858 29.41776342 10.19061218 25.00000000
758 1 1 0.00357023090825 30.88865159 12.73826522 25.00000000
759 1 1 0.00479536795514 29.41776342 15.28591827 25.00000000
760 1 1 0.00625157362361 30.88865159 17.83357131 25.00000000
761 1 1 0.00205132954166 32.35953976 0.00000000 25.00000000
762 1 1 0.0020644311615 33.83042793 2.54765304 25.00000000
763 1 1 0.00222243466788 32.35953976 5.09530609 25.00000000
764 1 1 0.00240474952756 33.83042793 7.64295913 25.00000000
765 1 1 0.00284207521773 32.35953976 10.19061218 25.00000000
766 1 1 0.00329021611674 33.83042793 12.73826522 25.00000000
767 1 1 0.00437327559106 32.35953976 15.28591827 25.00000000
768 1 1 0.00533243714407 33.83042793 17.83357131 25.00000000
769 1 1 -0.00135654007368 19.12154622 0.84921768 27.40195032
770 1 1 -0.00142206829049 20.59243439 3.39687073 27.40195032
771 1 1 -0.00150571903693 19.12154622 5.94452377 27.40195032
772 1 1 -0.00173059781143 20.59243439 8.49217681 27.40195032
773 1 1 -0.00197001468419 19.12154622 11.03982986 27.40195032
774 1 1 -0.00252664528986 20.59243439 13.58748290 27.40195032
775 1 1 -0.00305227410333 19.12154622 16.13513595 27.40195032
776 1 1 -0.00448526553068 20.59243439 18.68278899 27.40195032
777 1 1 -0.00138873100044 22.06332256 0.84921768 27.40195032
778 1 1 -0.00145220546256 23.53421073 3.39687073 27.40195032
779 1 1 -0.00155878253643 22.06332256 5.94452377 27.40195032
780 1 1 -0.00179681139535 23.53421073 8.49217681 27.40195032
781 1 1 -0.00210568749669 22.06332256 11.03982986 27.40195032
782 1 1 -0.00272058388884 23.53421073 13.58748290 27.40195032
783 1 1 -0.00348376027514 22.06332256 16.13513595 27.40195032
784 1 1 -0.00523804924095 23.53421073 18.68278899 27.40195032
785 1 1 -0.00140625797694 25.00509890 0.84921768 27.40195032
786 1 1 -0.00146288689852 26.47598708 3.39687073 27.40195032
787 1 1 -0.00158824493981 25.00509890 5.94452377 27.40195032
788 1 1 -0.00182075339027 26.47598708 8.49217681 27.40195032
789 1 1 -0.0021837268075 25.00509890 11.03982986 27.40195032
790 1 1 -0.00279324863159 26.47598708 13.58748290 27.40195032
791 1 1 -0.00375486161335 25.00509890 16.13513595 27.40195032
792 1 1 -0.00554480589467 26.47598708 18.68278899 27.40195032
793 1 1 -0.00140625797749 27.94687525 0.84921768 27.40195032
794 1 1 -0.00145220546343 29.41776342 3.39687073 27.40195032
795 1 1 -0.00158824494014 27.94687525 5.94452377 27.40195032
796 1 1 -0.00179681139551 29.41776342 8.49217681 27.40195032
797 1 1 -0.00218372680736 27.94687525 11.03982986 27.40195032
798 1 1 -0.00272058388774 29.41776342 13.58748290 27.40195032
799 1 1 -0.00375486161237 27.94687525 16.13513595 27.40195032
800 1 1 -0.00523804923742 29.41776342 18.68278899 27.40195032
801 1 1 -0.0013887310018 30.88865159 0.84921768 27.40195032
802 1 1 -0.00142206829183 32.35953976 3.39687073 27.40195032
803 1 1 -0.00155878253718 30.88865159 5.94452377 27.40195032
804 1 1 -0.00173059781144 32.35953976 8.49217681 27.40195032
805 1 1 -0.00210568749604 30.88865159 11.03982986 27.40195032
806 1 1 -0.00252664528752 32.35953976 13.58748290 27.40195032
807 1 1 -0.00348376027214 30.88865159 16.13513595 27.40195032
808 1 1 -0.00448526552408 32.35953976 18.68278899 27.40195032
809 1 1 -0.00135654007545 33.83042793 0.84921768 27.40195032
810 1 1 -0.00137760226742 17.65065805 3.39687073 27.40195032
811 1 1 -0.00150571903774 33.83042793 5.94452377 27.40195032
812 1 1 -0.00163652377182 17.65065805 8.49217681 27.40195032
813 1 1 -0.00197001468283 33.83042793 11.03982986 27.40195032
814 1 1 -0.00226807272993 17.65065805 13.58748290 27.40195032
815 1 1 -0.00305227409842 33.83042793 16.13513595 27.40195032
816 1 1 -0.00362407524949 17.65065805 18.68278899 27.40195032
817 1 1 -4.45869507749e-05 20.59243439 1.69843536 29.80390065
818 1 1 -4.74383825629e-05 22.06332256 4.24608841 29.80390065
819 1 1 -5.13170608211e-05 20.59243439 6.79374145 29.80390065
820 1 1 -6.03721216943e-05 22.06332256 9.34139450 29.80390065
821 1 1 -7.10404241985e-05 20.59243439 11.88904754 29.80390065
822 1 1 -9.44194618608e-05 22.06332256 14.43670058 29.80390065
823 1 1 -0.00011939522435 20.59243439 16.98435363 29.80390065
824 1 1 -0.000180631649934 22.06332256 19.53200667 29.80390065
825 1 1 -4.54437381501e-05 23.53421073 1.69843536 29.80390065
826 1 1 -4.81863945953e-05 25.00509890 4.24608841 29.80390065
827 1 1 -5.29065964127e-05 23.53421073 6.79374145 29.80390065
828 1 1 -6.22321476994e-05 25.00509890 9.34139450 29.80390065
829 1 1 -7.55240169254e-05 23.53421073 11.88904754 29.80390065
830 1 1 -9.97889280896e-05 25.00509890 14.43670058 29.80390065
831 1 1 -0.000133496867926 23.53421073 16.98435363 29.80390065
832 1 1 -0.000200334019565 25.00509890 19.53200667 29.80390065
833 1 1 -4.57459549671e-05 26.47598708 1.69843536 29.80390065
834 1 1 -4.8186395575e-05 27.94687525 4.24608841 29.80390065
835 1 1 -5.34815715704e-05 26.47598708 6.79374145 29.80390065
836 1 1 -6.22321483023e-05 27.94687525 9.34139450 29.80390065
837 1 1 -7.71707132701e-05 26.47598708 11.88904754 29.80390065
838 1 1 -9.97889281569e-05 27.94687525 14.43670058 29.80390065
839 1 1 -0.000138278618681 26.47598708 16.98435363 29.80390065
840 1 1 -0.000200334019054 27.94687525 19.53200667 29.80390065
841 1 1 -4.54437402483e-05 29.41776342 1.69843536 29.80390065
842 1 1 -4.74383853128e-05 30.88865159 4.24608841 29.80390065
843 1 1 -5.29065980228e-05 29.41776342 6.79374145 29.80390065
844 1 1 -6.03721233539e-05 30.88865159 9.34139450 29.80390065
845 1 1 -7.55240176411e-05 29.41776342 11.88904754 29.80390065
846 1 1 -9.44194619446e-05 30.88865159 14.43670058 29.80390065
847 1 1 -0.000133496867632 29.41776342 16.98435363 29.80390065
848 1 1 -0.000180631648332 30.88865159 19.53200667 29.80390065
849 1 1 -4.45869546152e-05 32.35953976 1.69843536 29.80390065
850 1 1 -4.60759781886e-05 33.83042793 4.24608841 29.80390065
851 1 1 -5.13170637393e-05 32.35953976 6.79374145 29.80390065
852 1 1 -5.7165584976e-05 33.83042793 9.34139450 29.80390065
853 1 1 -7.10404254089e-05 32.35953976 11.88904754 29.80390065
854 1 1 -8.48789831905e-05 33.83042793 14.43670058 29.80390065
855 1 1 -0.00011939522348 32.35953976 16.98435363 29.80390065
856 1 1 -0.000147580836724 33.83042793 19.53200667 29.80390065
857 1 1 -4.33128170275e-05 17.65065805 1.69843536 29.80390065
858 1 1 -4.60759740715e-05 19.12154622 4.24608841 29.80390065
859 1 1 -4.90370924313e-05 17.65065805 6.79374145 29.80390065
860 1 1 -5.71655824421e-05 19.12154622 9.34139450 29.80390065
861 1 1 -6.49482333555e-05 17.65065805 11.88904754 29.80390065
862 1 1 -8.4878982912e-05 19.12154622 14.43670058 29.80390065
863 1 1 -0.000100545464907 17.65065805 16.98435363 29.80390065
864 1 1 -0.000147580838753 19.12154622 19.53200667 29.80390065
865 1 1 0.00149560792712 22.06332256 2.54765304 32.20585097
866 1 1 0.00161284000212 23.53421073 5.09530609 32.20585097
867 1 1 0.00178231478331 22.06332256 7.64295913 32.20585097
868 1 1 0.0021306177274 23.53421073 10.19061218 32.20585097
869 1 1 0.00257085728419 22.06332256 12.73826522 32.20585097
870 1 1 0.003474298915 23.53421073 15.28591827 32.20585097
871 1 1 0.00459533656905 22.06332256 17.83357131 32.20585097
872 1 1 0.00147522215491 23.53421073 0.00000000 32.20585097
873 1 1 0.00151598605794 25.00509890 2.54765304 32.20585097
874 1 1 0.00162686937778 26.47598708 5.09530609 32.20585097
875 1 1 0.00182412469045 25.00509890 7.64295913 32.20585097
876 1 1 0.0021662802569 26.47598708 10.19061218 32.20585097
877 1 1 0.00269128325027 25.00509890 12.73826522 32.20585097
878 1 1 0.00359451388725 26.47598708 15.28591827 32.20585097
879 1 1 0.00506283004415 25.00509890 17.83357131 32.20585097
880 1 1 0.00148457122643 26.47598708 0.00000000 32.20585097
881 1 1 0.00151598605653 27.94687525 2.54765304 32.20585097
882 1 1 0.00161283999944 29.41776342 5.09530609 32.20585097
883 1 1 0.00182412468932 27.94687525 7.64295913 32.20585097
884 1 1 0.00213061772539 29.41776342 10.19061218 32.20585097
885 1 1 0.00269128324953 27.94687525 12.73826522 32.20585097
886 1 1 0.00347429891357 29.41776342 15.28591827 32.20585097
887 1 1 0.00506283004347 27.94687525 17.83357131 32.20585097
888 1 1 0.00147522215194 29.41776342 0.00000000 32.20585097
889 1 1 0.00149560792278 30.88865159 2.54765304 32.20585097
890 1 1 0.00157347992946 32.35953976 5.09530609 32.20585097
891 1 1 0.00178231477967 30.88865159 7.64295913 32.20585097
892 1 1 0.0020327635995 32.35953976 10.19061218 32.20585097
893 1 1 0.00257085728153 30.88865159 12.73826522 32.20585097
894 1 1 0.00316185657317 32.35953976 15.28591827 32.20585097
895 1 1 0.00459533656631 30.88865159 17.83357131 32.20585097
896 1 1 0.00144871591608 32.35953976 0.00000000 32.20585097
897 1 1 0.00145831489795 33.83042793 2.54765304 32.20585097
898 1 1 0.00151600640819 17.65065805 5.09530609 32.20585097
899 1 1 0.00170779101177 33.83042793 7.64295913 32.20585097
900 1 1 0.0018958379496 17.65065805 10.19061218 32.20585097
901 1 1 0.002365532308 33.83042793 12.73826522 32.20585097
902 1 1 0.00276273764745 17.65065805 15.28591827 32.20585097
903 1 1 0.00388249259647 33.83042793 17.83357131 32.20585097
904 1 1 0.00140926345927 17.65065805 0.00000000 32.20585097
905 1 1 0.00145831490475 19.12154622 2.54765304 32.20585097
906 1 1 0.00157347993477 20.59243439 5.09530609 32.20585097
907 1 1 0.00170779101756 19.12154622 7.64295913 32.20585097
908 1 1 0.00203276360366 20.59243439 10.19061218 32.20585097
909 1 1 0.00236553231239 19.12154622 12.73826522 32.20585097
910 1 1 0.00316185657637 20.59243439 15.28591827 32.20585097
911 1 1 0.0038824926007 19.12154622 17.83357131 32.20585097
912 1 1 0.00144871592189 20.59243439 0.00000000 32.20585097
913 1 1 -0.00220104454726 23.53421073 3.39687073 34.60780130
914 1 1 -0.0024005058822 25.00509890 5.94452377 34.60780130
915 1 1 -0.00270258751769 23.53421073 8.49217681 34.60780130
916 1 1 -0.00326296694209 25.00509890 11.03982986 34.60780130
917 1 1 -0.00405000278444 23.53421073 13.58748290 34.60780130
918 1 1 -0.0055432387852 25.00509890 16.13513595 34.60780130
919 1 1 -0.00756345266997 23.53421073 18.68278899 34.60780130
920 1 1 -0.0021332601076 25.00509890 0.84921768 34.60780130
921 1 1 -0.00221684585139 26.47598708 3.39687073 34.60780130
922 1 1 -0.00240050588324 27.94687525 5.94452377 34.60780130
923 1 1 -0.00273731376618 26.47598708 8.49217681 34.60780130
924 1 1 -0.00326296694245 27.94687525 11.03982986 34.60780130
925 1 1 -0.00415759307074 26.47598708 13.58748290 34.60780130
926 1 1 -0.00554323878415 27.94687525 16.13513595 34.60780130
927 1 1 -0.00797254726851 26.47598708 18.68278899 34.60780130
928 1 1 -0.00213326010889 27.94687525 0.84921768 34.60780130
929 1 1 -0.00220104454982 29.41776342 3.39687073 34.60780130
930 1 1 -0.00235729728079 30.88865159 5.94452377 34.60780130
931 1 1 -0.00270258751942 29.41776342 8.49217681 34.60780130
932 1 1 -0.00314893812603 30.88865159 11.03982986 34.60780130
933 1 1 -0.00405000278443 29.41776342 13.58748290 34.60780130
934 1 1 -0.00515755959671 30.88865159 16.13513595 34.60780130
935 1 1 -0.00756345266593 29.41776342 18.68278899 34.60780130
936 1 1 -0.00210730286574 30.88865159 0.84921768 34.60780130
937 1 1 -0.00215644313352 32.35953976 3.39687073 34.60780130
938 1 1 -0.00227931250662 33.83042793 5.94452377 34.60780130
939 1 1 -0.00260654862499 32.35953976 8.49217681 34.60780130
940 1 1 -0.00295190971588 33.83042793 11.03982986 34.60780130
941 1 1 -0.00376366256922 32.35953976 13.58748290 34.60780130
942 1 1 -0.00453402687472 33.83042793 16.13513595 34.60780130
943 1 1 -0.00655128173104 32.35953976 18.68278899 34.60780130
944 1 1 -0.00205962988636 33.83042793 0.84921768 34.60780130
945 1 1 -0.00209060231409 17.65065805 3.39687073 34.60780130
946 1 1 -0.00227931250037 19.12154622 5.94452377 34.60780130
947 1 1 -0.0024698786156 17.65065805 8.49217681 34.60780130
948 1 1 -0.00295190971168 19.12154622 11.03982986 34.60780130
949 1 1 -0.00338449507014 17.65065805 13.58748290 34.60780130
950 1 1 -0.00453402687416 19.12154622 16.13513595 34.60780130
951 1 1 -0.00535807634774 17.65065805 18.68278899 34.60780130
952 1 1 -0.00205962987925 19.12154622 0.84921768 34.60780130
953 1 1 -0.00215644312795 20.59243439 3.39687073 34.60780130
954 1 1 -0.00235729727712 22.06332256 5.94452377 34.60780130
955 1 1 -0.00260654862072 20.59243439 8.49217681 34.60780130
956 1 1 -0.00314893812392 22.06332256 11.03982986 34.60780130
957 1 1 -0.00376366256747 20.59243439 13.58748290 34.60780130
958 1 1 -0.00515755959769 22.06332256 16.13513595 34.60780130
959 1 1 -0.00655128173429 20.59243439 18.68278899 34.60780130
960 1 1 -0.00210730286144 22.06332256 0.84921768 34.60780130
961 1 1 0.00626502774918 17.65065805 20.38122435 25.00000000
962 1 1 0.0095948291406 19.12154622 22.92887739 25.00000000
963 1 1 0.0102823893312 17.65065805 25.47653044 25.00000000
964 1 1 0.0157861899739 19.12154622 28.02418348 25.00000000
965 1 1 0.0130414649614 17.65065805 30.57183653 25.00000000
966 1 1 0.0157871000192 19.12154622 33.11948957 25.00000000
967 1 1 0.0102829067643 17.65065805 35.66714262 25.00000000
968 1 1 0.00959516808958 19.12154622 38.21479566 25.00000000
969 1 1 0.00799632526658 20.59243439 20.38122435 25.00000000
970 1 1 0.0130193620716 22.06332256 22.92887739 25.00000000
971 1 1 0.015778599541 20.59243439 25.47653044 25.00000000
972 1 1 0.0258596204222 22.06332256 28.02418348 25.00000000
973 1 1 0.0225101550995 20.59243439 30.57183653 25.00000000
974 1 1 0.0258608078039 22.06332256 33.11948957 25.00000000
975 1 1 0.0157795479816 20.59243439 35.66714262 25.00000000
976 1 1 0.013019382674 22.06332256 38.21479566 25.00000000
977 1 1 0.00958267726699 23.53421073 20.38122435 25.00000000
978 1 1 0.0157696981349 25.00509890 22.92887739 25.00000000
979 1 1 0.0225009569353 23.53421073 25.47653044 25.00000000
980 1 1 0.0351562538661 25.00509890 28.02418348 25.00000000
981 1 1 0.0351584721894 23.53421073 30.57183653 25.00000000
982 1 1 0.0351562111113 25.00509890 33.11948957 25.00000000
983 1 1 0.0225009723808 23.53421073 35.66714262 25.00000000
984 1 1 0.0157687858692 25.00509890 38.21479566 25.00000000
985 1 1 0.0102587040924 26.47598708 20.38122435 25.00000000
986 1 1 0.0157696981269 27.94687525 22.92887739 25.00000000
987 1 1 0.0258544491239 26.47598708 25.47653044 25.00000000
988 1 1 0.0351562538407 27.94687525 28.02418348 25.00000000
989 1 1 0.0412979813601 26.47598708 30.57183653 25.00000000
990 1 1 0.0351562110859 27.94687525 33.11948957 25.00000000
991 1 1 0.0258532424592 26.47598708 35.66714262 25.00000000
992 1 1 0.0157687858611 27.94687525 38.21479566 25.00000000
993 1 1 0.00958267726178 29.41776342 20.38122435 25.00000000
994 1 1 0.0130193620597 30.88865159 22.92887739 25.00000000
995 1 1 0.0225009569097 29.41776342 25.47653044 25.00000000
996 1 1 0.02585962038 30.88865159 28.02418348 25.00000000
997 1 1 0.0351584721419 29.41776342 30.57183653 25.00000000
998 1 1 0.0258608077617 30.88865159 33.11948957 25.00000000
999 1 1 0.0225009723552 29.41776342 35.66714262 25.00000000
1000 1 1 0.0130193826621 30.88865159 38.21479566 25.00000000
1001 1 1 0.00799632526402 32.35953976 20.38122435 25.00000000
1002 1 1 0.00959482913532 33.83042793 22.92887739 25.00000000
1003 1 1 0.015778599521 32.35953976 25.47653044 25.00000000
1004 1 1 0.0157861899516 33.83042793 28.02418348 25.00000000
1005 1 1 0.0225101550592 32.35953976 30.57183653 25.00000000
1006 1 1 0.0157870999969 33.83042793 33.11948957 25.00000000
1007 1 1 0.0157795479614 32.35953976 35.66714262 25.00000000
1008 1 1 0.00959516808414 33.83042793 38.21479566 25.00000000
1009 1 1 -0.0055568349378 19.12154622 21.23044203 27.40195032
1010 1 1 -0.00902987087841 20.59243439 23.77809508 27.40195032
1011 1 1 -0.00979832623778 19.12154622 26.32574812 27.40195032
1012 1 1 -0.0138593744006 20.59243439 28.87340116 27.40195032
1013 1 1 -0.0116173339359 19.12154622 31.42105421 27.40195032
1014 1 1 -0.0126793819423 20.59243439 33.96870725 27.40195032
1015 1 1 -0.00835179050859 19.12154622 36.51636030 27.40195032
1016 1 1 -0.00719945300541 20.59243439 39.06401334 27.40195032
1017 1 1 -0.00719669533878 22.06332256 21.23044203 27.40195032
1018 1 1 -0.0116065146421 23.53421073 23.77809508 27.40195032
1019 1 1 -0.0138557663528 22.06332256 26.32574812 27.40195032
1020 1 1 -0.0178562061674 23.53421073 28.87340116 27.40195032
1021 1 1 -0.0165046485416 22.06332256 31.42105421 27.40195032
1022 1 1 -0.0165022538857 23.53421073 33.96870725 27.40195032
1023 1 1 -0.0116086818172 22.06332256 36.51636030 27.40195032
1024 1 1 -0.00902476548403 23.53421073 39.06401334 27.40195032
1025 1 1 -0.00834134231543 25.00509890 21.23044203 27.40195032
1026 1 1 -0.0126718331229 26.47598708 23.77809508 27.40195032
1027 1 1 -0.016500854206 25.00509890 26.32574812 27.40195032
1028 1 1 -0.0189845004586 26.47598708 28.87340116 27.40195032
1029 1 1 -0.0189850043235 25.00509890 31.42105421 27.40195032
1030 1 1 -0.0178544489966 26.47598708 33.96870725 27.40195032
1031 1 1 -0.0138520521694 25.00509890 36.51636030 27.40195032
1032 1 1 -0.00978666705716 26.47598708 39.06401334 27.40195032
1033 1 1 -0.00834134231263 27.94687525 21.23044203 27.40195032
1034 1 1 -0.0116065146341 29.41776342 23.77809508 27.40195032
1035 1 1 -0.0165008542018 27.94687525 26.32574812 27.40195032
1036 1 1 -0.0178562061594 29.41776342 28.87340116 27.40195032
1037 1 1 -0.0189850043219 27.94687525 31.42105421 27.40195032
1038 1 1 -0.0165022538765 29.41776342 33.96870725 27.40195032
1039 1 1 -0.0138520521652 27.94687525 36.51636030 27.40195032
1040 1 1 -0.00902476547786 29.41776342 39.06401334 27.40195032
1041 1 1 -0.00719669533071 30.88865159 21.23044203 27.40195032
1042 1 1 -0.00902987086339 32.35953976 23.77809508 27.40195032
1043 1 1 -0.0138557663379 30.88865159 26.32574812 27.40195032
1044 1 1 -0.0138593743786 32.35953976 28.87340116 27.40195032
1045 1 1 -0.0165046485261 30.88865159 31.42105421 27.40195032
1046 1 1 -0.0126793819218 32.35953976 33.96870725 27.40195032
1047 1 1 -0.0116086818041 30.88865159 36.51636030 27.40195032
1048 1 1 -0.00719945299396 32.35953976 39.06401334 27.40195032
1049 1 1 -0.00555683492619 33.83042793 21.23044203 27.40195032
1050 1 1 -0.00629142746984 17.65065805 23.77809508 27.40195032
1051 1 1 -0.00979832621596 33.83042793 26.32574812 27.40195032
1052 1 1 -0.00904148122415 17.65065805 28.87340116 27.40195032
1053 1 1 -0.0116173339104 33.83042793 31.42105421 27.40195032
1054 1 1 -0.00835855437628 17.65065805 33.96870725 27.40195032
1055 1 1 -0.00835179049038 33.83042793 36.51636030 27.40195032
1056 1 1 -0.0052502373149 17.65065805 39.06401334 27.40195032
1057 1 1 -0.000232060147215 20.59243439 22.07965971 29.80390065
1058 1 1 -0.000375740691377 22.06332256 24.62731276 29.80390065
1059 1 1 -0.000415894533405 20.59243439 27.17496580 29.80390065
1060 1 1 -0.000676280730822 22.06332256 29.72261885 29.80390065
1061 1 1 -0.000471239217785 20.59243439 32.27027189 29.80390065
1062 1 1 -0.00047115500523 22.06332256 34.81792493 29.80390065
1063 1 1 -0.000288682896413 20.59243439 37.36557798 29.80390065
1064 1 1 -0.000231974123452 22.06332256 39.91323102 29.80390065
1065 1 1 -0.000288510710761 23.53421073 22.07965971 29.80390065
1066 1 1 -0.000471029129114 25.00509890 24.62731276 29.80390065
1067 1 1 -0.000676270861068 23.53421073 27.17496580 29.80390065
1068 1 1 -0.00144127520898 25.00509890 29.72261885 29.80390065
1069 1 1 -0.000921699248362 23.53421073 32.27027189 29.80390065
1070 1 1 -0.000676257051763 25.00509890 34.81792493 29.80390065
1071 1 1 -0.000375611936253 23.53421073 37.36557798 29.80390065
1072 1 1 -0.000266364940571 25.00509890 39.91323102 29.80390065
1073 1 1 -0.000312269247522 26.47598708 22.07965971 29.80390065
1074 1 1 -0.000471029128144 27.94687525 24.62731276 29.80390065
1075 1 1 -0.000921660578452 26.47598708 27.17496580 29.80390065
1076 1 1 -0.00144127520563 27.94687525 29.72261885 29.80390065
1077 1 1 -0.00144133601086 26.47598708 32.27027189 29.80390065
1078 1 1 -0.000676257050401 27.94687525 34.81792493 29.80390065
1079 1 1 -0.000415603578246 26.47598708 37.36557798 29.80390065
1080 1 1 -0.00026636494008 27.94687525 39.91323102 29.80390065
1081 1 1 -0.000288510709549 29.41776342 22.07965971 29.80390065
1082 1 1 -0.000375740688481 30.88865159 24.62731276 29.80390065
1083 1 1 -0.000676270858237 29.41776342 27.17496580 29.80390065
1084 1 1 -0.000676280726304 30.88865159 29.72261885 29.80390065
1085 1 1 -0.000921699244245 29.41776342 32.27027189 29.80390065
1086 1 1 -0.000471155002042 30.88865159 34.81792493 29.80390065
1087 1 1 -0.000375611934395 29.41776342 37.36557798 29.80390065
1088 1 1 -0.000231974121902 30.88865159 39.91323102 29.80390065
1089 1 1 -0.000232060144257 32.35953976 22.07965971 29.80390065
1090 1 1 -0.000266744799672 33.83042793 24.62731276 29.80390065
1091 1 1 -0.000415894528993 32.35953976 27.17496580 29.80390065
1092 1 1 -0.000375955884133 33.83042793 29.72261885 29.80390065
1093 1 1 -0.000471239213351 32.35953976 32.27027189 29.80390065
1094 1 1 -0.000312706286659 33.83042793 34.81792493 29.80390065
1095 1 1 -0.000288682893474 32.35953976 37.36557798 29.80390065
1096 1 1 -0.000180819513164 33.83042793 39.91323102 29.80390065
1097 1 1 -0.000171475355057 17.65065805 22.07965971 29.80390065
1098 1 1 -0.000266744803535 19.12154622 24.62731276 29.80390065
1099 1 1 -0.000266950778187 17.65065805 27.17496580 29.80390065
1100 1 1 -0.0003759558892 19.12154622 29.72261885 29.80390065
1101 1 1 -0.000289084232295 17.65065805 32.27027189 29.80390065
1102 1 1 -0.000312706291489 19.12154622 34.81792493 29.80390065
1103 1 1 -0.000200809365412 17.65065805 37.36557798 29.80390065
1104 1 1 -0.000180819516085 19.12154622 39.91323102 29.80390065
1105 1 1 0.0098049012663 22.06332256 22.92887739 32.20585097
1106 1 1 0.0152094963235 23.53421073 25.47653044 32.20585097
1107 1 1 0.0167307599646 22.06332256 28.02418348 32.20585097
1108 1 1 0.0204388167963 23.53421073 30.57183653 32.20585097
1109 1 1 0.0167299496265 22.06332256 33.11948957 32.20585097
1110 1 1 0.0152095382171 23.53421073 35.66714262 32.20585097
1111 1 1 0.00980493858543 22.06332256 38.21479566 32.20585097
1112 1 1 0.00725855090594 23.53421073 20.38122435 32.20585097
1113 1 1 0.0115912309633 25.00509890 22.92887739 32.20585097
1114 1 1 0.0167254375462 26.47598708 25.47653044 32.20585097
1115 1 1 0.020437191935 25.00509890 28.02418348 32.20585097
1116 1 1 0.0228325061676 26.47598708 30.57183653 32.20585097
1117 1 1 0.0204370942251 25.00509890 33.11948957 32.20585097
1118 1 1 0.0167262203714 26.47598708 35.66714262 32.20585097
1119 1 1 0.0115922545703 25.00509890 38.21479566 32.20585097
1120 1 1 0.00778281166519 26.47598708 20.38122435 32.20585097
1121 1 1 0.0115912309614 27.94687525 22.92887739 32.20585097
1122 1 1 0.0152094963175 29.41776342 25.47653044 32.20585097
1123 1 1 0.0204371919316 27.94687525 28.02418348 32.20585097
1124 1 1 0.0204388167875 29.41776342 30.57183653 32.20585097
1125 1 1 0.0204370942216 27.94687525 33.11948957 32.20585097
1126 1 1 0.015209538211 29.41776342 35.66714262 32.20585097
1127 1 1 0.0115922545684 27.94687525 38.21479566 32.20585097
1128 1 1 0.00725855090341 29.41776342 20.38122435 32.20585097
1129 1 1 0.00980490125947 30.88865159 22.92887739 32.20585097
1130 1 1 0.0115992165408 32.35953976 25.47653044 32.20585097
1131 1 1 0.0167307599524 30.88865159 28.02418348 32.20585097
1132 1 1 0.0152161118109 32.35953976 30.57183653 32.20585097
1133 1 1 0.0167299496142 30.88865159 33.11948957 32.20585097
1134 1 1 0.0115982653379 32.35953976 35.66714262 32.20585097
1135 1 1 0.00980493857871 30.88865159 38.21479566 32.20585097
1136 1 1 0.00599494997503 32.35953976 20.38122435 32.20585097
1137 1 1 0.00726834982693 33.83042793 22.92887739 32.20585097
1138 1 1 0.0077999297354 17.65065805 25.47653044 32.20585097
1139 1 1 0.0116046597919 33.83042793 28.02418348 32.20585097
1140 1 1 0.00982071014403 17.65065805 30.57183653 32.20585097
1141 1 1 0.0116036315148 33.83042793 33.11948957 32.20585097
1142 1 1 0.00780007988735 17.65065805 35.66714262 32.20585097
1143 1 1 0.00726746621124 33.83042793 38.21479566 32.20585097
1144 1 1 0.00460592797742 17.65065805 20.38122435 32.20585097
1145 1 1 0.00726834983593 19.12154622 22.92887739 32.20585097
1146 1 1 0.0115992165532 20.59243439 25.47653044 32.20585097
1147 1 1 0.0116046598088 19.12154622 28.02418348 32.20585097
1148 1 1 0.015216111828 20.59243439 30.57183653 32.20585097
1149 1 1 0.0116036315319 19.12154622 33.11948957 32.20585097
1150 1 1 0.0115982653505 20.59243439 35.66714262 32.20585097
1151 1 1 0.00726746622051 19.12154622 38.21479566 32.20585097
1152 1 1 0.00599494998013 20.59243439 20.38122435 32.20585097
1153 1 1 -0.0172501746356 23.53421073 23.77809508 34.60780130
1154 1 1 -0.0292106704223 25.00509890 26.32574812 34.60780130
1155 1 1 -0.0344024037522 23.53421073 28.87340116 34.60780130
1156 1 1 -0.0411459318077 25.00509890 31.42105421 34.60780130
1157 1 1 -0.0292128150709 23.53421073 33.96870725 34.60780130
1158 1 1 -0.0219352326684 25.00509890 36.51636030 34.60780130
1159 1 1 -0.0128758081147 23.53421073 39.06401334 34.60780130
1160 1 1 -0.0118442529533 25.00509890 21.23044203 34.60780130
1161 1 1 -0.0193473861333 26.47598708 23.77809508 34.60780130
1162 1 1 -0.0292106704008 27.94687525 26.32574812 34.60780130
1163 1 1 -0.0411451801512 26.47598708 28.87340116 34.60780130
1164 1 1 -0.0411459317739 27.94687525 31.42105421 34.60780130
1165 1 1 -0.034399682223 26.47598708 33.96870725 34.60780130
1166 1 1 -0.0219352326541 27.94687525 36.51636030 34.60780130
1167 1 1 -0.0140785785321 26.47598708 39.06401334 34.60780130
1168 1 1 -0.0118442529479 27.94687525 21.23044203 34.60780130
1169 1 1 -0.0172501746171 29.41776342 23.77809508 34.60780130
1170 1 1 -0.0219407574311 30.88865159 26.32574812 34.60780130
1171 1 1 -0.0344024037013 29.41776342 28.87340116 34.60780130
1172 1 1 -0.0292165062511 30.88865159 31.42105421 34.60780130
1173 1 1 -0.0292128150304 29.41776342 33.96870725 34.60780130
1174 1 1 -0.0172534057845 30.88865159 36.51636030 34.60780130
1175 1 1 -0.0128758081034 29.41776342 39.06401334 34.60780130
1176 1 1 -0.0102129293478 30.88865159 21.23044203 34.60780130
1177 1 1 -0.0128834747533 32.35953976 23.77809508 34.60780130
1178 1 1 -0.0140960437715 33.83042793 26.32574812 34.60780130
1179 1 1 -0.0219462675841 32.35953976 28.87340116 34.60780130
1180 1 1 -0.0172664260961 33.83042793 31.42105421 34.60780130
1181 1 1 -0.0193586734801 32.35953976 33.96870725 34.60780130
1182 1 1 -0.0118599251866 33.83042793 36.51636030 34.60780130
1183 1 1 -0.0102170687487 32.35953976 39.06401334 34.60780130
1184 1 1 -0.0079923620499 33.83042793 21.23044203 34.60780130
1185 1 1 -0.00897566756783 17.65065805 23.77809508 34.60780130
1186 1 1 -0.0140960437952 19.12154622 26.32574812 34.60780130
1187 1 1 -0.0129009017052 17.65065805 28.87340116 34.60780130
1188 1 1 -0.0172664261305 19.12154622 31.42105421 34.60780130
1189 1 1 -0.0118700614712 17.65065805 33.96870725 34.60780130
1190 1 1 -0.0118599252034 19.12154622 36.51636030 34.60780130
1191 1 1 -0.00758178102531 17.65065805 39.06401334 34.60780130
1192 1 1 -0.00799236205666 19.12154622 21.23044203 34.60780130
1193 1 1 -0.0128834747707 20.59243439 23.77809508 34.60780130
1194 1 1 -0.021940757468 22.06332256 26.32574812 34.60780130
1195 1 1 -0.021946267629 20.59243439 28.87340116 34.60780130
1196 1 1 -0.0292165063076 22.06332256 31.42105421 34.60780130
1197 1 1 -0.0193586735164 20.59243439 33.96870725 34.60780130
1198 1 1 -0.0172534058094 22.06332256 36.51636030 34.60780130
1199 1 1 -0.0102170687592 20.59243439 39.06401334 34.60780130
1200 1 1 -0.010212929357 22.06332256 21.23044203 34.60780130
1201 1 1 0.00626523866474 17.65065805 40.76244870 25.00000000
1202 1 1 0.00533243097742 19.12154622 43.31010174 25.00000000
1203 1 1 0.00382981098056 17.65065805 45.85775479 25.00000000
1204 1 1 0.00329008384562 19.12154622 48.40540783 25.00000000
1205 1 1 0.00265770140568 17.65065805 50.95306088 25.00000000
1206 1 1 0.00240475190358 19.12154622 53.50071392 25.00000000
1207 1 1 0.00214345590173 17.65065805 56.04836697 25.00000000
1208 1 1 0.00206443186233 19.12154622 58.59602001 25.00000000
1209 1 1 0.00799631309688 20.59243439 40.76244870 25.00000000
1210 1 1 0.00625134791449 22.06332256 43.31010174 25.00000000
1211 1 1 0.00437304060703 20.59243439 45.85775479 25.00000000
1212 1 1 0.00356996163842 22.06332256 48.40540783 25.00000000
1213 1 1 0.00284197621893 20.59243439 50.95306088 25.00000000
1214 1 1 0.00250579748889 22.06332256 53.50071392 25.00000000
1215 1 1 0.00222244470026 20.59243439 56.04836697 25.00000000
1216 1 1 0.00211587175451 22.06332256 58.59602001 25.00000000
1217 1 1 0.00958233788445 23.53421073 40.76244870 25.00000000
1218 1 1 0.00684154953879 25.00509890 43.31010174 25.00000000
1219 1 1 0.0047951893525 23.53421073 45.85775479 25.00000000
1220 1 1 0.0037352015675 25.00509890 48.40540783 25.00000000
1221 1 1 0.00297414547723 23.53421073 50.95306088 25.00000000
1222 1 1 0.00256239823468 25.00509890 53.50071392 25.00000000
1223 1 1 0.00227643389676 23.53421073 56.04836697 25.00000000
1224 1 1 0.0021439724269 25.00509890 58.59602001 25.00000000
1225 1 1 0.0102581767643 26.47598708 40.76244870 25.00000000
1226 1 1 0.00684154953714 27.94687525 43.31010174 25.00000000
1227 1 1 0.00495628300929 26.47598708 45.85775479 25.00000000
1228 1 1 0.00373520156694 27.94687525 48.40540783 25.00000000
1229 1 1 0.00302248026473 26.47598708 50.95306088 25.00000000
1230 1 1 0.00256239823422 27.94687525 53.50071392 25.00000000
1231 1 1 0.0022956543843 26.47598708 56.04836697 25.00000000
1232 1 1 0.00214397242638 27.94687525 58.59602001 25.00000000
1233 1 1 0.00958233787912 29.41776342 40.76244870 25.00000000
1234 1 1 0.00625134791308 30.88865159 43.31010174 25.00000000
1235 1 1 0.00479518935143 29.41776342 45.85775479 25.00000000
1236 1 1 0.00356996163842 30.88865159 48.40540783 25.00000000
1237 1 1 0.0029741454767 29.41776342 50.95306088 25.00000000
1238 1 1 0.0025057974886 30.88865159 53.50071392 25.00000000
1239 1 1 0.00227643389606 29.41776342 56.04836697 25.00000000
1240 1 1 0.00211587175385 30.88865159 58.59602001 25.00000000
1241 1 1 0.007996313094 32.35953976 40.76244870 25.00000000
1242 1 1 0.00533243097824 33.83042793 43.31010174 25.00000000
1243 1 1 0.0043730406076 32.35953976 45.85775479 25.00000000
1244 1 1 0.00329008384695 33.83042793 48.40540783 25.00000000
1245 1 1 0.00284197621938 32.35953976 50.95306088 25.00000000
1246 1 1 0.00240475190401 33.83042793 53.50071392 25.00000000
1247 1 1 0.00222244470002 32.35953976 56.04836697 25.00000000
1248 1 1 0.00206443186207 33.83042793 58.59602001 25.00000000
1249 1 1 -0.00448826772594 19.12154622 41.61166638 27.40195032
1250 1 1 -0.00361813353639 20.59243439 44.15931943 27.40195032
1251 1 1 -0.00258899032404 19.12154622 46.70697247 27.40195032
1252 1 1 -0.00218167304832 20.59243439 49.25462551 27.40195032
1253 1 1 -0.00176730287655 19.12154622 51.80227856 27.40195032
1254 1 1 -0.00158937832749 20.59243439 54.34993160 27.40195032
1255 1 1 -0.00142882211218 19.12154622 56.89758465 27.40195032
1256 1 1 -0.00138360442624 20.59243439 59.44523769 27.40195032
1257 1 1 -0.00555096955568 22.06332256 41.61166638 27.40195032
1258 1 1 -0.0040839076623 23.53421073 44.15931943 27.40195032
1259 1 1 -0.00287326066479 22.06332256 46.70697247 27.40195032
1260 1 1 -0.00231380778252 23.53421073 49.25462551 27.40195032
1261 1 1 -0.00186397210223 22.06332256 51.80227856 27.40195032
1262 1 1 -0.00163802716776 23.53421073 54.34993160 27.40195032
1263 1 1 -0.00147071309108 22.06332256 56.89758465 27.40195032
1264 1 1 -0.00140989363464 23.53421073 59.44523769 27.40195032
1265 1 1 -0.00627673994415 25.00509890 41.61166638 27.40195032
1266 1 1 -0.00426878588814 26.47598708 44.15931943 27.40195032
1267 1 1 -0.00304504057779 25.00509890 46.70697247 27.40195032
1268 1 1 -0.00236249748124 26.47598708 49.25462551 27.40195032
1269 1 1 -0.00191881550433 25.00509890 51.80227856 27.40195032
1270 1 1 -0.00165548553158 26.47598708 54.34993160 27.40195032
1271 1 1 -0.00149375954812 25.00509890 56.89758465 27.40195032
1272 1 1 -0.00141917787149 26.47598708 59.44523769 27.40195032
1273 1 1 -0.00627673994217 27.94687525 41.61166638 27.40195032
1274 1 1 -0.00408390766003 29.41776342 44.15931943 27.40195032
1275 1 1 -0.00304504057724 27.94687525 46.70697247 27.40195032
1276 1 1 -0.00231380778208 29.41776342 49.25462551 27.40195032
1277 1 1 -0.00191881550443 27.94687525 51.80227856 27.40195032
1278 1 1 -0.00163802716832 29.41776342 54.34993160 27.40195032
1279 1 1 -0.00149375954859 27.94687525 56.89758465 27.40195032
1280 1 1 -0.00140989363564 29.41776342 59.44523769 27.40195032
1281 1 1 -0.00555096954972 30.88865159 41.61166638 27.40195032
1282 1 1 -0.00361813353191 32.35953976 44.15931943 27.40195032
1283 1 1 -0.00287326066286 30.88865159 46.70697247 27.40195032
1284 1 1 -0.00218167304715 32.35953976 49.25462551 27.40195032
1285 1 1 -0.00186397210226 30.88865159 51.80227856 27.40195032
1286 1 1 -0.00158937832823 32.35953976 54.34993160 27.40195032
1287 1 1 -0.0014707130922 30.88865159 56.89758465 27.40195032
1288 1 1 -0.00138360442783 32.35953976 59.44523769 27.40195032
1289 1 1 -0.00448826771742 33.83042793 41.61166638 27.40195032
1290 1 1 -0.00305505518724 17.65065805 44.15931943 27.40195032
1291 1 1 -0.00258899032082 33.83042793 46.70697247 27.40195032
1292 1 1 -0.0020003176746 17.65065805 49.25462551 27.40195032
1293 1 1 -0.00176730287628 33.83042793 51.80227856 27.40195032
1294 1 1 -0.00151925358874 17.65065805 54.34993160 27.40195032
1295 1 1 -0.00142882211358 33.83042793 56.89758465 27.40195032
1296 1 1 -0.00134456268025 17.65065805 59.44523769 27.40195032
1297 1 1 -0.000147506100387 20.59243439 42.46088406 29.80390065
1298 1 1 -0.000114883255984 22.06332256 45.00853711 29.80390065
1299 1 1 -8.26652604729e-05 20.59243439 47.55619015 29.80390065
1300 1 1 -6.8475021104e-05 22.06332256 50.10384320 29.80390065
1301 1 1 -5.60351768603e-05 20.59243439 52.65149624 29.80390065
1302 1 1 -5.03627498541e-05 22.06332256 55.19914928 29.80390065
1303 1 1 -4.58556459382e-05 20.59243439 57.74680233 29.80390065
1304 1 1 -4.4750649153e-05 22.06332256 60.29445537 29.80390065
1305 1 1 -0.000171110822273 23.53421073 42.46088406 29.80390065
1306 1 1 -0.000124501042058 25.00509890 45.00853711 29.80390065
1307 1 1 -8.92732655721e-05 23.53421073 47.55619015 29.80390065
1308 1 1 -7.10385508339e-05 25.00509890 50.10384320 29.80390065
1309 1 1 -5.81972061304e-05 23.53421073 52.65149624 29.80390065
1310 1 1 -5.13268576758e-05 25.00509890 55.19914928 29.80390065
1311 1 1 -4.68440991346e-05 23.53421073 57.74680233 29.80390065
1312 1 1 -4.53233446787e-05 25.00509890 60.29445537 29.80390065
1313 1 1 -0.000181078391177 26.47598708 42.46088406 29.80390065
1314 1 1 -0.00012450104205 27.94687525 45.00853711 29.80390065
1315 1 1 -9.18496671343e-05 26.47598708 47.55619015 29.80390065
1316 1 1 -7.1038551354e-05 27.94687525 50.10384320 29.80390065
1317 1 1 -5.89693266059e-05 26.47598708 52.65149624 29.80390065
1318 1 1 -5.1326858605e-05 27.94687525 55.19914928 29.80390065
1319 1 1 -4.71946658424e-05 26.47598708 57.74680233 29.80390065
1320 1 1 -4.53233457774e-05 27.94687525 60.29445537 29.80390065
1321 1 1 -0.000171110821438 29.41776342 42.46088406 29.80390065
1322 1 1 -0.000114883255928 30.88865159 45.00853711 29.80390065
1323 1 1 -8.92732659724e-05 29.41776342 47.55619015 29.80390065
1324 1 1 -6.8475022557e-05 30.88865159 50.10384320 29.80390065
1325 1 1 -5.81972075513e-05 29.41776342 52.65149624 29.80390065
1326 1 1 -5.03627524666e-05 30.88865159 55.19914928 29.80390065
1327 1 1 -4.68441011677e-05 29.41776342 57.74680233 29.80390065
1328 1 1 -4.47506522458e-05 30.88865159 60.29445537 29.80390065
1329 1 1 -0.000147506099162 32.35953976 42.46088406 29.80390065
1330 1 1 -0.000100450821921 33.83042793 45.00853711 29.80390065
1331 1 1 -8.26652612731e-05 32.35953976 47.55619015 29.80390065
1332 1 1 -6.39832863809e-05 33.83042793 50.10384320 29.80390065
1333 1 1 -5.6035179483e-05 32.35953976 52.65149624 29.80390065
1334 1 1 -4.86188871317e-05 33.83042793 55.19914928 29.80390065
1335 1 1 -4.58556496704e-05 32.35953976 57.74680233 29.80390065
1336 1 1 -4.36994853646e-05 33.83042793 60.29445537 29.80390065
1337 1 1 -0.000119583475042 17.65065805 42.46088406 29.80390065
1338 1 1 -0.000100450822305 19.12154622 45.00853711 29.80390065
1339 1 1 -7.39771694271e-05 17.65065805 47.55619015 29.80390065
1340 1 1 -6.39832843439e-05 19.12154622 50.10384320 29.80390065
1341 1 1 -5.29293429586e-05 17.65065805 52.65149624 29.80390065
1342 1 1 -4.86188832903e-05 19.12154622 55.19914928 29.80390065
1343 1 1 -4.43993461906e-05 17.65065805 57.74680233 29.80390065
1344 1 1 -4.36994807668e-05 19.12154622 60.29445537 29.80390065
1345 1 1 0.0045961457931 22.06332256 43.31010174 32.20585097
1346 1 1 0.00347493373109 23.53421073 45.85775479 32.20585097
1347 1 1 0.00257118149996 22.06332256 48.40540783 32.20585097
1348 1 1 0.00213075393261 23.53421073 50.95306088 32.20585097
1349 1 1 0.00178233545098 22.06332256 53.50071392 32.20585097
1350 1 1 0.00161286240123 23.53421073 56.04836697 32.20585097
1351 1 1 0.00149562616278 22.06332256 58.59602001 32.20585097
1352 1 1 0.00725942880275 23.53421073 40.76244870 32.20585097
1353 1 1 0.0050630663499 25.00509890 43.31010174 32.20585097
1354 1 1 0.00359493129712 26.47598708 45.85775479 32.20585097
1355 1 1 0.00269172464247 25.00509890 48.40540783 32.20585097
1356 1 1 0.00216646700703 26.47598708 50.95306088 32.20585097
1357 1 1 0.00182415952066 25.00509890 53.50071392 32.20585097
1358 1 1 0.00162689087429 26.47598708 56.04836697 32.20585097
1359 1 1 0.00151600494224 25.00509890 58.59602001 32.20585097
1360 1 1 0.00778263929936 26.47598708 40.76244870 32.20585097
1361 1 1 0.00506306634913 27.94687525 43.31010174 32.20585097
1362 1 1 0.00347493372946 29.41776342 45.85775479 32.20585097
1363 1 1 0.00269172464165 27.94687525 48.40540783 32.20585097
1364 1 1 0.00213075393046 29.41776342 50.95306088 32.20585097
1365 1 1 0.00182415951946 27.94687525 53.50071392 32.20585097
1366 1 1 0.00161286239847 29.41776342 56.04836697 32.20585097
1367 1 1 0.00151600494081 27.94687525 58.59602001 32.20585097
1368 1 1 0.00725942879998 29.41776342 40.76244870 32.20585097
1369 1 1 0.00459614579033 30.88865159 43.31010174 32.20585097
1370 1 1 0.00316233034946 32.35953976 45.85775479 32.20585097
1371 1 1 0.00257118149717 30.88865159 48.40540783 32.20585097
1372 1 1 0.00203281043882 32.35953976 50.95306088 32.20585097
1373 1 1 0.00178233544722 30.88865159 53.50071392 32.20585097
1374 1 1 0.00157350278399 32.35953976 56.04836697 32.20585097
1375 1 1 0.00149562615839 30.88865159 58.59602001 32.20585097
1376 1 1 0.00599492620998 32.35953976 40.76244870 32.20585097
1377 1 1 0.00388247893845 33.83042793 43.31010174 32.20585097
1378 1 1 0.00276274357006 17.65065805 45.85775479 32.20585097
1379 1 1 0.00236564280633 33.83042793 48.40540783 32.20585097
1380 1 1 0.00189584270843 17.65065805 50.95306088 32.20585097
1381 1 1 0.00170780332739 33.83042793 53.50071392 32.20585097
1382 1 1 0.00151602380132 17.65065805 56.04836697 32.20585097
1383 1 1 0.00145832966053 33.83042793 58.59602001 32.20585097
1384 1 1 0.00460508834508 17.65065805 40.76244870 32.20585097
1385 1 1 0.003882478943 19.12154622 43.31010174 32.20585097
1386 1 1 0.00316233035297 20.59243439 45.85775479 32.20585097
1387 1 1 0.00236564281101 19.12154622 48.40540783 32.20585097
1388 1 1 0.00203281044322 20.59243439 50.95306088 32.20585097
1389 1 1 0.00170780333337 19.12154622 53.50071392 32.20585097
1390 1 1 0.00157350278943 20.59243439 56.04836697 32.20585097
1391 1 1 0.00145832966739 19.12154622 58.59602001 32.20585097
1392 1 1 0.00599492621546 20.59243439 40.76244870 32.20585097
1393 1 1 -0.00600200743286 23.53421073 44.15931943 34.60780130
1394 1 1 -0.00452691836167 25.00509890 46.70697247 34.60780130
1395 1 1 -0.00345331363854 23.53421073 49.25462551 34.60780130
1396 1 1 -0.00287915529816 25.00509890 51.80227856 34.60780130
1397 1 1 -0.00247289045333 23.53421073 54.34993160 34.60780130
1398 1 1 -0.00226226625662 25.00509890 56.89758465 34.60780130
1399 1 1 -0.00213861948094 23.53421073 59.44523769 34.60780130
1400 1 1 -0.00895360574216 25.00509890 41.61166638 34.60780130
1401 1 1 -0.00625651656799 26.47598708 44.15931943 34.60780130
1402 1 1 -0.0045269183613 27.94687525 46.70697247 34.60780130
1403 1 1 -0.0035251386651 26.47598708 49.25462551 34.60780130
1404 1 1 -0.00287915529886 27.94687525 51.80227856 34.60780130
1405 1 1 -0.00249838392213 26.47598708 54.34993160 34.60780130
1406 1 1 -0.00226226625781 27.94687525 56.89758465 34.60780130
1407 1 1 -0.00215236943206 26.47598708 59.44523769 34.60780130
1408 1 1 -0.00895360573901 27.94687525 41.61166638 34.60780130
1409 1 1 -0.00600200743077 29.41776342 44.15931943 34.60780130
1410 1 1 -0.00427436969662 30.88865159 46.70697247 34.60780130
1411 1 1 -0.00345331363936 29.41776342 49.25462551 34.60780130
1412 1 1 -0.00279950123236 30.88865159 51.80227856 34.60780130
1413 1 1 -0.00247289045549 29.41776342 54.34993160 34.60780130
1414 1 1 -0.00222823024349 30.88865159 56.89758465 34.60780130
1415 1 1 -0.00213861948364 29.41776342 59.44523769 34.60780130
1416 1 1 -0.00798353367403 30.88865159 41.61166638 34.60780130
1417 1 1 -0.00534913622815 32.35953976 44.15931943 34.60780130
1418 1 1 -0.00385529024598 33.83042793 46.70697247 34.60780130
1419 1 1 -0.00325940742056 32.35953976 49.25462551 34.60780130
1420 1 1 -0.00265939476974 33.83042793 51.80227856 34.60780130
1421 1 1 -0.00240176865641 32.35953976 54.34993160 34.60780130
1422 1 1 -0.00216629910328 33.83042793 56.89758465 34.60780130
1423 1 1 -0.00209968227196 32.35953976 59.44523769 34.60780130
1424 1 1 -0.00655579942148 33.83042793 41.61166638 34.60780130
1425 1 1 -0.00453820761845 17.65065805 44.15931943 34.60780130
1426 1 1 -0.00385529024374 19.12154622 46.70697247 34.60780130
1427 1 1 -0.00299562867405 17.65065805 49.25462551 34.60780130
1428 1 1 -0.00265939476453 19.12154622 51.80227856 34.60780130
1429 1 1 -0.00229897063587 17.65065805 54.34993160 34.60780130
1430 1 1 -0.00216629909652 19.12154622 56.89758465 34.60780130
1431 1 1 -0.00204185355396 17.65065805 59.44523769 34.60780130
1432 1 1 -0.0065557994249 19.12154622 41.61166638 34.60780130
1433 1 1 -0.00534913622895 20.59243439 44.15931943 34.60780130
1434 1 1 -0.00427436969619 22.06332256 46.70697247 34.60780130
1435 1 1 -0.00325940741755 20.59243439 49.25462551 34.60780130
1436 1 1 -0.0027995012295 22.06332256 51.80227856 34.60780130
1437 1 1 -0.00240176865143 20.59243439 54.34993160 34.60780130
1438 1 1 -0.00222823023945 22.06332256 56.89758465 34.60780130
1439 1 1 -0.00209968226615 20.59243439 59.44523769 34.60780130
1440 1 1 -0.00798353367925 22.06332256 41.61166638 34.60780130
1441 1 1 0.00199691320813 35.30131610 0.00000000 25.00000000
1442 1 1 0.00199784401003 36.77220427 2.54765304 25.00000000
1443 1 1 0.00214345016066 35.30131610 5.09530609 25.00000000
1444 1 1 0.00227865479613 36.77220427 7.64295913 25.00000000
1445 1 1 0.00265772305517 35.30131610 10.19061218 25.00000000
1446 1 1 0.00296706823185 36.77220427 12.73826522 25.00000000
1447 1 1 0.0038298058196 35.30131610 15.28591827 25.00000000
1448 1 1 0.00438578366228 36.77220427 17.83357131 25.00000000
1449 1 1 0.00193268146658 38.24309244 0.00000000 25.00000000
1450 1 1 0.00192569467558 39.71398061 2.54765304 25.00000000
1451 1 1 0.00205232105047 38.24309244 5.09530609 25.00000000
1452 1 1 0.00214777324654 39.71398061 7.64295913 25.00000000
1453 1 1 0.00245741949603 38.24309244 10.19061218 25.00000000
1454 1 1 0.00266003288355 39.71398061 12.73826522 25.00000000
1455 1 1 0.00329925920282 38.24309244 15.28591827 25.00000000
1456 1 1 0.00359550625122 39.71398061 17.83357131 25.00000000
1457 1 1 0.00186720874238 41.18486878 0.00000000 25.00000000
1458 1 1 0.00185709625931 42.65575695 2.54765304 25.00000000
1459 1 1 0.00196176499874 41.18486878 5.09530609 25.00000000
1460 1 1 0.00202868097397 42.65575695 7.64295913 25.00000000
1461 1 1 0.00227022689408 41.18486878 10.19061218 25.00000000
1462 1 1 0.0024025410684 42.65575695 12.73826522 25.00000000
1463 1 1 0.00285742160053 41.18486878 15.28591827 25.00000000
1464 1 1 0.00301407875062 42.65575695 17.83357131 25.00000000
1465 1 1 0.00180823065468 44.12664513 0.00000000 25.00000000
1466 1 1 0.00179950511016 45.59753330 2.54765304 25.00000000
1467 1 1 0.00188220193553 44.12664513 5.09530609 25.00000000
1468 1 1 0.00193266772534 45.59753330 7.64295913 25.00000000
1469 1 1 0.00211469449575 44.12664513 10.19061218 25.00000000
1470 1 1 0.00220804221215 45.59753330 12.73826522 25.00000000
1471 1 1 0.00252526689325 44.12664513 15.28591827 25.00000000
1472 1 1 0.0026204669451 45.59753330 17.83357131 25.00000000
1473 1 1 0.00176187360578 47.06842147 0.00000000 25.00000000
1474 1 1 0.00175830817909 48.53930964 2.54765304 25.00000000
1475 1 1 0.00182098188792 47.06842147 5.09530609 25.00000000
1476 1 1 0.00186620134873 48.53930964 7.64295913 25.00000000
1477 1 1 0.00200051462977 47.06842147 10.19061218 25.00000000
1478 1 1 0.0020796712321 48.53930964 12.73826522 25.00000000
1479 1 1 0.0022982744687 47.06842147 15.28591827 25.00000000
1480 1 1 0.00237874249241 48.53930964 17.83357131 25.00000000
1481 1 1 0.00173241242805 50.01019781 0.00000000 25.00000000
1482 1 1 0.00173689902177 51.48108598 2.54765304 25.00000000
1483 1 1 0.00178265865508 50.01019781 5.09530609 25.00000000
1484 1 1 0.00183238600101 51.48108598 7.64295913 25.00000000
1485 1 1 0.00193150129238 50.01019781 10.19061218 25.00000000
1486 1 1 0.00201632093646 51.48108598 12.73826522 25.00000000
1487 1 1 0.00216701984916 50.01019781 15.28591827 25.00000000
1488 1 1 0.00226380343736 51.48108598 17.83357131 25.00000000
1489 1 1 -0.001314660007 36.77220427 0.84921768 27.40195032
1490 1 1 -0.00132570318875 38.24309244 3.39687073 27.40195032
1491 1 1 -0.00143865224901 36.77220427 5.94452377 27.40195032
1492 1 1 -0.0015321420577 38.24309244 8.49217681 27.40195032
1493 1 1 -0.00180772033043 36.77220427 11.03982986 27.40195032
1494 1 1 -0.00200298587949 38.24309244 13.58748290 27.40195032
1495 1 1 -0.0025939834094 36.77220427 16.13513595 27.40195032
1496 1 1 -0.0028885065104 38.24309244 18.68278899 27.40195032
1497 1 1 -0.00126901902764 39.71398061 0.84921768 27.40195032
1498 1 1 -0.0012734451174 41.18486878 3.39687073 27.40195032
1499 1 1 -0.00136797048117 39.71398061 5.94452377 27.40195032
1500 1 1 -0.00143273003694 41.18486878 8.49217681 27.40195032
1501 1 1 -0.00164796024293 39.71398061 11.03982986 27.40195032
1502 1 1 -0.00177085859777 41.18486878 13.58748290 27.40195032
1503 1 1 -0.00219300380478 39.71398061 16.13513595 27.40195032
1504 1 1 -0.0023396493672 41.18486878 18.68278899 27.40195032
1505 1 1 -0.00122538245551 42.65575695 0.84921768 27.40195032
1506 1 1 -0.00122693047807 44.12664513 3.39687073 27.40195032
1507 1 1 -0.00130258495621 42.65575695 5.94452377 27.40195032
1508 1 1 -0.00134872087187 44.12664513 8.49217681 27.40195032
1509 1 1 -0.00151043321953 42.65575695 11.03982986 27.40195032
1510 1 1 -0.00159006620386 44.12664513 13.58748290 27.40195032
1511 1 1 -0.00188083842751 42.65575695 16.13513595 27.40195032
1512 1 1 -0.00195806129644 44.12664513 18.68278899 27.40195032
1513 1 1 -0.00118858461266 45.59753330 0.84921768 27.40195032
1514 1 1 -0.00119075441679 47.06842147 3.39687073 27.40195032
1515 1 1 -0.00124899832754 45.59753330 5.94452377 27.40195032
1516 1 1 -0.0012860369 47.06842147 8.49217681 27.40195032
1517 1 1 -0.00140475882324 45.59753330 11.03982986 27.40195032
1518 1 1 -0.00146430096149 47.06842147 13.58748290 27.40195032
1519 1 1 -0.00166043540487 45.59753330 16.13513595 27.40195032
1520 1 1 -0.00171325229515 47.06842147 18.68278899 27.40195032
1521 1 1 -0.00116218492484 48.53930964 0.84921768 27.40195032
1522 1 1 -0.00116794792606 50.01019781 3.39687073 27.40195032
1523 1 1 -0.00121138611061 48.53930964 5.94452377 27.40195032
1524 1 1 -0.00124760973411 50.01019781 8.49217681 27.40195032
1525 1 1 -0.00133405315546 48.53930964 11.03982986 27.40195032
1526 1 1 -0.00139089502823 50.01019781 13.58748290 27.40195032
1527 1 1 -0.00152271773401 48.53930964 16.13513595 27.40195032
1528 1 1 -0.00157867393546 50.01019781 18.68278899 27.40195032
1529 1 1 -0.00114844473575 51.48108598 0.84921768 27.40195032
1530 1 1 -0.00137760226912 35.30131610 3.39687073 27.40195032
1531 1 1 -0.00119208008552 51.48108598 5.94452377 27.40195032
1532 1 1 -0.00163652377182 35.30131610 8.49217681 27.40195032
1533 1 1 -0.00129876153146 51.48108598 11.03982986 27.40195032
1534 1 1 -0.00226807272698 35.30131610 13.58748290 27.40195032
1535 1 1 -0.00145697484912 51.48108598 16.13513595 27.40195032
1536 1 1 -0.00362407524192 35.30131610 18.68278899 27.40195032
1537 1 1 -4.18128522071e-05 38.24309244 1.69843536 29.80390065
1538 1 1 -4.24436547859e-05 39.71398061 4.24608841 29.80390065
1539 1 1 -4.64497479964e-05 38.24309244 6.79374145 29.80390065
1540 1 1 -4.94140802298e-05 39.71398061 9.34139450 29.80390065
1541 1 1 -5.8583521404e-05 38.24309244 11.88904754 29.80390065
1542 1 1 -6.41846406183e-05 39.71398061 14.43670058 29.80390065
1543 1 1 -8.30209844161e-05 38.24309244 16.98435363 29.80390065
1544 1 1 -9.00333537312e-05 39.71398061 19.53200667 29.80390065
1545 1 1 -4.02903036199e-05 41.18486878 1.69843536 29.80390065
1546 1 1 -4.06761206518e-05 42.65575695 4.24608841 29.80390065
1547 1 1 -4.39181462618e-05 41.18486878 6.79374145 29.80390065
1548 1 1 -4.5958693624e-05 42.65575695 9.34139450 29.80390065
1549 1 1 -5.28609163727e-05 41.18486878 11.88904754 29.80390065
1550 1 1 -5.62697410893e-05 42.65575695 14.43670058 29.80390065
1551 1 1 -6.90676238688e-05 41.18486878 16.98435363 29.80390065
1552 1 1 -7.22412104926e-05 42.65575695 19.53200667 29.80390065
1553 1 1 -3.89249901774e-05 44.12664513 1.69843536 29.80390065
1554 1 1 -3.92091830505e-05 45.59753330 4.24608841 29.80390065
1555 1 1 -4.17295003804e-05 44.12664513 6.79374145 29.80390065
1556 1 1 -4.32332125834e-05 45.59753330 9.34139450 29.80390065
1557 1 1 -4.82762223675e-05 44.12664513 11.88904754 29.80390065
1558 1 1 -5.05523137498e-05 45.59753330 14.43670058 29.80390065
1559 1 1 -5.90474994118e-05 44.12664513 16.98435363 29.80390065
1560 1 1 -6.07795377934e-05 45.59753330 19.53200667 29.80390065
1561 1 1 -3.78558961564e-05 47.06842147 1.69843536 29.80390065
1562 1 1 -3.81695994114e-05 48.53930964 4.24608841 29.80390065
1563 1 1 -4.00702295099e-05 47.06842147 6.79374145 29.80390065
1564 1 1 -4.13772991499e-05 48.53930964 9.34139450 29.80390065
1565 1 1 -4.50063952692e-05 47.06842147 11.88904754 29.80390065
1566 1 1 -4.69012119093e-05 48.53930964 14.43670058 29.80390065
1567 1 1 -5.2510250588e-05 47.06842147 16.98435363 29.80390065
1568 1 1 -5.40308461776e-05 48.53930964 19.53200667 29.80390065
1569 1 1 -3.7178210426e-05 50.01019781 1.69843536 29.80390065
1570 1 1 -3.76326141683e-05 51.48108598 4.24608841 29.80390065
1571 1 1 -3.90430646637e-05 50.01019781 6.79374145 29.80390065
1572 1 1 -4.04424653444e-05 51.48108598 9.34139450 29.80390065
1573 1 1 -4.30638425948e-05 50.01019781 11.88904754 29.80390065
1574 1 1 -4.51279760498e-05 51.48108598 14.43670058 29.80390065
1575 1 1 -4.88457479899e-05 50.01019781 16.98435363 29.80390065
1576 1 1 -5.09014354635e-05 51.48108598 19.53200667 29.80390065
1577 1 1 -4.33128220405e-05 35.30131610 1.69843536 29.80390065
1578 1 1 -4.43242066713e-05 36.77220427 4.24608841 29.80390065
1579 1 1 -4.90370962486e-05 35.30131610 6.79374145 29.80390065
1580 1 1 -5.33066224925e-05 36.77220427 9.34139450 29.80390065
1581 1 1 -6.49482349365e-05 35.30131610 11.88904754 29.80390065
1582 1 1 -7.40521589796e-05 36.77220427 14.43670058 29.80390065
1583 1 1 -0.000100545463773 35.30131610 16.98435363 29.80390065
1584 1 1 -0.000115274254514 36.77220427 19.53200667 29.80390065
1585 1 1 0.00135775042765 39.71398061 2.54765304 32.20585097
1586 1 1 0.00138409846764 41.18486878 5.09530609 32.20585097
1587 1 1 0.00151945613246 39.71398061 7.64295913 32.20585097
1588 1 1 0.00160903151064 41.18486878 10.19061218 32.20585097
1589 1 1 0.00189746363376 39.71398061 12.73826522 32.20585097
1590 1 1 0.00204380095395 41.18486878 15.28591827 32.20585097
1591 1 1 0.00258941758242 39.71398061 17.83357131 32.20585097
1592 1 1 0.00131527128538 41.18486878 0.00000000 32.20585097
1593 1 1 0.00130803666557 42.65575695 2.54765304 32.20585097
1594 1 1 0.00132635311821 44.12664513 5.09530609 32.20585097
1595 1 1 0.00143275632336 42.65575695 7.64295913 32.20585097
1596 1 1 0.00149521488424 44.12664513 10.19061218 32.20585097
1597 1 1 0.00170610813217 42.65575695 12.73826522 32.20585097
1598 1 1 0.00179618168307 44.12664513 15.28591827 32.20585097
1599 1 1 0.00215930105484 42.65575695 17.83357131 32.20585097
1600 1 1 0.00127259153224 44.12664513 0.00000000 32.20585097
1601 1 1 0.00126632826371 45.59753330 2.54765304 32.20585097
1602 1 1 0.00128191003836 47.06842147 5.09530609 32.20585097
1603 1 1 0.00136295837472 45.59753330 7.64295913 32.20585097
1604 1 1 0.00141204177364 47.06842147 10.19061218 32.20585097
1605 1 1 0.00156296427324 45.59753330 12.73826522 32.20585097
1606 1 1 0.00162838408995 47.06842147 15.28591827 32.20585097
1607 1 1 0.00186575601694 45.59753330 17.83357131 32.20585097
1608 1 1 0.00123909389308 47.06842147 0.00000000 32.20585097
1609 1 1 0.00123652840236 48.53930964 2.54765304 32.20585097
1610 1 1 0.00125409780672 50.01019781 5.09530609 32.20585097
1611 1 1 0.00131460292465 48.53930964 7.64295913 32.20585097
1612 1 1 0.00136176341487 50.01019781 10.19061218 32.20585097
1613 1 1 0.00146923553693 48.53930964 12.73826522 32.20585097
1614 1 1 0.00153237966686 50.01019781 15.28591827 32.20585097
1615 1 1 0.00168661135401 48.53930964 17.83357131 32.20585097
1616 1 1 0.00121783404894 50.01019781 0.00000000 32.20585097
1617 1 1 0.00122106046427 51.48108598 2.54765304 32.20585097
1618 1 1 0.00151600640116 35.30131610 5.09530609 32.20585097
1619 1 1 0.00128997367264 51.48108598 7.64295913 32.20585097
1620 1 1 0.00189583794407 35.30131610 10.19061218 32.20585097
1621 1 1 0.00142307785058 51.48108598 12.73826522 32.20585097
1622 1 1 0.00276273764336 35.30131610 15.28591827 32.20585097
1623 1 1 0.00160245654965 51.48108598 17.83357131 32.20585097
1624 1 1 0.0014092634516 35.30131610 0.00000000 32.20585097
1625 1 1 0.00141004699786 36.77220427 2.54765304 32.20585097
1626 1 1 0.00144981522067 38.24309244 5.09530609 32.20585097
1627 1 1 0.00161513947133 36.77220427 7.64295913 32.20585097
1628 1 1 0.0017471340315 38.24309244 10.19061218 32.20585097
1629 1 1 0.00212628197125 36.77220427 12.73826522 32.20585097
1630 1 1 0.00237217239146 38.24309244 15.28591827 32.20585097
1631 1 1 0.00317142307831 36.77220427 17.83357131 32.20585097
1632 1 1 0.00136270339876 38.24309244 0.00000000 32.20585097
1633 1 1 -0.00193635036185 41.18486878 3.39687073 34.60780130
1634 1 1 -0.00197932010375 42.65575695 5.94452377 34.60780130
1635 1 1 -0.00217154760286 41.18486878 8.49217681 34.60780130
1636 1 1 -0.002285944958 42.65575695 11.03982986 34.60780130
1637 1 1 -0.00266482988705 41.18486878 13.58748290 34.60780130
1638 1 1 -0.00282487197453 42.65575695 16.13513595 34.60780130
1639 1 1 -0.00349210207616 41.18486878 18.68278899 34.60780130
1640 1 1 -0.00186531528594 42.65575695 0.84921768 34.60780130
1641 1 1 -0.00186746984699 44.12664513 3.39687073 34.60780130
1642 1 1 -0.00190008624589 45.59753330 5.94452377 34.60780130
1643 1 1 -0.00204760610099 44.12664513 8.49217681 34.60780130
1644 1 1 -0.00213066507919 45.59753330 11.03982986 34.60780130
1645 1 1 -0.00240299772056 44.12664513 13.58748290 34.60780130
1646 1 1 -0.00250656799153 45.59753330 16.13513595 34.60780130
1647 1 1 -0.0029379795605 44.12664513 18.68278899 34.60780130
1648 1 1 -0.00181070239281 45.59753330 0.84921768 34.60780130
1649 1 1 -0.00181386994641 47.06842147 3.39687073 34.60780130
1650 1 1 -0.00184450352218 48.53930964 5.94452377 34.60780130
1651 1 1 -0.00195503374494 47.06842147 8.49217681 34.60780130
1652 1 1 -0.0020263820638 48.53930964 11.03982986 34.60780130
1653 1 1 -0.00221898201618 47.06842147 13.58748290 34.60780130
1654 1 1 -0.00230568323136 48.53930964 16.13513595 34.60780130
1655 1 1 -0.00258474034548 47.06842147 18.68278899 34.60780130
1656 1 1 -0.00177146629067 48.53930964 0.84921768 34.60780130
1657 1 1 -0.00178004298862 50.01019781 3.39687073 34.60780130
1658 1 1 -0.00181597514687 51.48108598 5.94452377 34.60780130
1659 1 1 -0.00189836433736 50.01019781 8.49217681 34.60780130
1660 1 1 -0.00197437473076 51.48108598 11.03982986 34.60780130
1661 1 1 -0.00211083178475 50.01019781 13.58748290 34.60780130
1662 1 1 -0.00220885489559 51.48108598 16.13513595 34.60780130
1663 1 1 -0.00238874391309 50.01019781 18.68278899 34.60780130
1664 1 1 -0.00175102230372 51.48108598 0.84921768 34.60780130
1665 1 1 -0.00209060232195 35.30131610 3.39687073 34.60780130
1666 1 1 -0.00218046580835 36.77220427 5.94452377 34.60780130
1667 1 1 -0.0024698786219 35.30131610 8.49217681 34.60780130
1668 1 1 -0.00271739955464 36.77220427 11.03982986 34.60780130
1669 1 1 -0.00338449507359 35.30131610 13.58748290 34.60780130
1670 1 1 -0.00386279880086 36.77220427 16.13513595 34.60780130
1671 1 1 -0.00535807634638 35.30131610 18.68278899 34.60780130
1672 1 1 -0.00199760741214 36.77220427 0.84921768 34.60780130
1673 1 1 -0.00201373808277 38.24309244 3.39687073 34.60780130
1674 1 1 -0.00207603099165 39.71398061 5.94452377 34.60780130
1675 1 1 -0.00231754049964 38.24309244 8.49217681 34.60780130
1676 1 1 -0.00248633163137 39.71398061 11.03982986 34.60780130
1677 1 1 -0.00299966617456 38.24309244 13.58748290 34.60780130
1678 1 1 -0.00327645132757 39.71398061 16.13513595 34.60780130
1679 1 1 -0.00429727659548 38.24309244 18.68278899 34.60780130
1680 1 1 -0.00192999943328 39.71398061 0.84921768 34.60780130
1681 1 1 0.00626502774993 35.30131610 20.38122435 25.00000000
1682 1 1 0.00687022056749 36.77220427 22.92887739 25.00000000
1683 1 1 0.0102823893241 35.30131610 25.47653044 25.00000000
1684 1 1 0.00961729833945 36.77220427 28.02418348 25.00000000
1685 1 1 0.0130414649463 35.30131610 30.57183653 25.00000000
1686 1 1 0.00961760493122 36.77220427 33.11948957 25.00000000
1687 1 1 0.0102829067572 35.30131610 35.66714262 25.00000000
1688 1 1 0.00687007826892 36.77220427 38.21479566 25.00000000
1689 1 1 0.00482470214609 38.24309244 20.38122435 25.00000000
1690 1 1 0.00500667082799 39.71398061 22.92887739 25.00000000
1691 1 1 0.00688648766254 38.24309244 25.47653044 25.00000000
1692 1 1 0.0063131143693 39.71398061 28.02418348 25.00000000
1693 1 1 0.00803989558004 38.24309244 30.57183653 25.00000000
1694 1 1 0.00631332262248 39.71398061 33.11948957 25.00000000
1695 1 1 0.00688633852984 38.24309244 35.66714262 25.00000000
1696 1 1 0.00500670075888 39.71398061 38.21479566 25.00000000
1697 1 1 0.00378464795844 41.18486878 20.38122435 25.00000000
1698 1 1 0.00381612577264 42.65575695 22.92887739 25.00000000
1699 1 1 0.00487020158544 41.18486878 25.47653044 25.00000000
1700 1 1 0.00447529147151 42.65575695 28.02418348 25.00000000
1701 1 1 0.0054099391885 41.18486878 30.57183653 25.00000000
1702 1 1 0.00447552661332 42.65575695 33.11948957 25.00000000
1703 1 1 0.00487039114771 41.18486878 35.66714262 25.00000000
1704 1 1 0.00381640859276 42.65575695 38.21479566 25.00000000
1705 1 1 0.00309894669294 44.12664513 20.38122435 25.00000000
1706 1 1 0.00309950920043 45.59753330 22.92887739 25.00000000
1707 1 1 0.00368942854131 44.12664513 25.47653044 25.00000000
1708 1 1 0.00345363669018 45.59753330 28.02418348 25.00000000
1709 1 1 0.00395968777864 44.12664513 30.57183653 25.00000000
1710 1 1 0.0034537693249 45.59753330 33.11948957 25.00000000
1711 1 1 0.00368970430537 44.12664513 35.66714262 25.00000000
1712 1 1 0.00309969235835 45.59753330 38.21479566 25.00000000
1713 1 1 0.00267752367291 47.06842147 20.38122435 25.00000000
1714 1 1 0.00269752537799 48.53930964 22.92887739 25.00000000
1715 1 1 0.00302814580463 47.06842147 25.47653044 25.00000000
1716 1 1 0.00291471760876 48.53930964 28.02418348 25.00000000
1717 1 1 0.00317728914334 47.06842147 30.57183653 25.00000000
1718 1 1 0.00291473670348 48.53930964 33.11948957 25.00000000
1719 1 1 0.00302824683841 47.06842147 35.66714262 25.00000000
1720 1 1 0.00269755980017 48.53930964 38.21479566 25.00000000
1721 1 1 0.00244903380782 50.01019781 20.38122435 25.00000000
1722 1 1 0.00251558447069 51.48108598 22.92887739 25.00000000
1723 1 1 0.00269263051623 50.01019781 25.47653044 25.00000000
1724 1 1 0.00268002583332 51.48108598 28.02418348 25.00000000
1725 1 1 0.00279129353334 50.01019781 30.57183653 25.00000000
1726 1 1 0.0026800154562 51.48108598 33.11948957 25.00000000
1727 1 1 0.00269263236331 50.01019781 35.66714262 25.00000000
1728 1 1 0.00251558587124 51.48108598 38.21479566 25.00000000
1729 1 1 -0.0040999918215 36.77220427 21.23044203 27.40195032
1730 1 1 -0.00429658949145 38.24309244 23.77809508 27.40195032
1731 1 1 -0.00630011447076 36.77220427 26.32574812 27.40195032
1732 1 1 -0.00558240908185 38.24309244 28.87340116 27.40195032
1733 1 1 -0.00721922829655 36.77220427 31.42105421 27.40195032
1734 1 1 -0.00526976375025 38.24309244 33.96870725 27.40195032
1735 1 1 -0.00556666718865 36.77220427 36.51636030 27.40195032
1736 1 1 -0.00377906020219 38.24309244 39.06401334 27.40195032
1737 1 1 -0.00307407576378 39.71398061 21.23044203 27.40195032
1738 1 1 -0.00309138341337 41.18486878 23.77809508 27.40195032
1739 1 1 -0.00412466543867 39.71398061 26.32574812 27.40195032
1740 1 1 -0.00367229854177 41.18486878 28.87340116 27.40195032
1741 1 1 -0.00452620174782 39.71398061 31.42105421 27.40195032
1742 1 1 -0.00353729642402 41.18486878 33.96870725 27.40195032
1743 1 1 -0.00379294928351 39.71398061 36.51636030 27.40195032
1744 1 1 -0.00283365983443 41.18486878 39.06401334 27.40195032
1745 1 1 -0.00240897932915 42.65575695 21.23044203 27.40195032
1746 1 1 -0.00238706350777 44.12664513 23.77809508 27.40195032
1747 1 1 -0.00293992215563 42.65575695 26.32574812 27.40195032
1748 1 1 -0.00267790766123 44.12664513 28.87340116 27.40195032
1749 1 1 -0.00312169220804 42.65575695 31.42105421 27.40195032
1750 1 1 -0.00261310033661 44.12664513 33.96870725 27.40195032
1751 1 1 -0.00278228768389 42.65575695 36.51636030 27.40195032
1752 1 1 -0.00224706183429 44.12664513 39.06401334 27.40195032
1753 1 1 -0.00199014593576 45.59753330 21.23044203 27.40195032
1754 1 1 -0.0019773632581 47.06842147 23.77809508 27.40195032
1755 1 1 -0.00228725790023 45.59753330 26.32574812 27.40195032
1756 1 1 -0.00214237730881 47.06842147 28.87340116 27.40195032
1757 1 1 -0.00238124990025 45.59753330 31.42105421 27.40195032
1758 1 1 -0.0021064775344 47.06842147 33.96870725 27.40195032
1759 1 1 -0.00220244356729 45.59753330 36.51636030 27.40195032
1760 1 1 -0.00189383053826 47.06842147 39.06401334 27.40195032
1761 1 1 -0.00174620564817 48.53930964 21.23044203 27.40195032
1762 1 1 -0.00176388977738 50.01019781 23.77809508 27.40195032
1763 1 1 -0.00193217379102 48.53930964 26.32574812 27.40195032
1764 1 1 -0.00187316053598 50.01019781 28.87340116 27.40195032
1765 1 1 -0.00198817800009 48.53930964 31.42105421 27.40195032
1766 1 1 -0.00184978546677 50.01019781 33.96870725 27.40195032
1767 1 1 -0.00188040017247 48.53930964 36.51636030 27.40195032
1768 1 1 -0.00170672609782 50.01019781 39.06401334 27.40195032
1769 1 1 -0.00163498964428 51.48108598 21.23044203 27.40195032
1770 1 1 -0.00629142745426 35.30131610 23.77809508 27.40195032
1771 1 1 -0.00177567840148 51.48108598 26.32574812 27.40195032
1772 1 1 -0.00904148120067 35.30131610 28.87340116 27.40195032
1773 1 1 -0.0018167935513 51.48108598 31.42105421 27.40195032
1774 1 1 -0.00835855435474 35.30131610 33.96870725 27.40195032
1775 1 1 -0.0017371789118 51.48108598 36.51636030 27.40195032
1776 1 1 -0.00525023730251 35.30131610 39.06401334 27.40195032
1777 1 1 -0.000125274580995 38.24309244 22.07965971 29.80390065
1778 1 1 -0.000125741649479 39.71398061 24.62731276 29.80390065
1779 1 1 -0.000172124989472 38.24309244 27.17496580 29.80390065
1780 1 1 -0.000148806889009 39.71398061 29.72261885 29.80390065
1781 1 1 -0.000181663542304 38.24309244 32.27027189 29.80390065
1782 1 1 -0.000134812850253 39.71398061 34.81792493 29.80390065
1783 1 1 -0.000139154709138 38.24309244 37.36557798 29.80390065
1784 1 1 -0.000100716862948 39.71398061 39.91323102 29.80390065
1785 1 1 -9.31683817385e-05 41.18486878 22.07965971 29.80390065
1786 1 1 -9.12938937316e-05 42.65575695 24.62731276 29.80390065
1787 1 1 -0.000116618005995 41.18486878 27.17496580 29.80390065
1788 1 1 -0.000102691623333 42.65575695 29.72261885 29.80390065
1789 1 1 -0.000121140386013 41.18486878 32.27027189 29.80390065
1790 1 1 -9.65850441117e-05 42.65575695 34.81792493 29.80390065
1791 1 1 -0.000101282793549 41.18486878 37.36557798 29.80390065
1792 1 1 -7.8676983193e-05 42.65575695 39.91323102 29.80390065
1793 1 1 -7.30990431479e-05 44.12664513 22.07965971 29.80390065
1794 1 1 -7.16310633424e-05 45.59753330 24.62731276 29.80390065
1795 1 1 -8.54834191025e-05 44.12664513 27.17496580 29.80390065
1796 1 1 -7.7656096017e-05 45.59753330 29.72261885 29.80390065
1797 1 1 -8.77619538383e-05 44.12664513 32.27027189 29.80390065
1798 1 1 -7.44799514338e-05 45.59753330 34.81792493 29.80390065
1799 1 1 -7.79044530289e-05 44.12664513 37.36557798 29.80390065
1800 1 1 -6.45426890269e-05 45.59753330 39.91323102 29.80390065
1801 1 1 -6.135107898e-05 47.06842147 22.07965971 29.80390065
1802 1 1 -6.09166187293e-05 48.53930964 24.62731276 29.80390065
1803 1 1 -6.84283596784e-05 47.06842147 27.17496580 29.80390065
1804 1 1 -6.44422094672e-05 48.53930964 29.72261885 29.80390065
1805 1 1 -6.95708667119e-05 47.06842147 32.27027189 29.80390065
1806 1 1 -6.25362077225e-05 48.53930964 34.81792493 29.80390065
1807 1 1 -6.40561035981e-05 47.06842147 37.36557798 29.80390065
1808 1 1 -5.64119409689e-05 48.53930964 39.91323102 29.80390065
1809 1 1 -5.51826591782e-05 50.01019781 22.07965971 29.80390065
1810 1 1 -5.61753706057e-05 51.48108598 24.62731276 29.80390065
1811 1 1 -5.98806021133e-05 50.01019781 27.17496580 29.80390065
1812 1 1 -5.87661687891e-05 51.48108598 29.72261885 29.80390065
1813 1 1 -6.06049552816e-05 50.01019781 32.27027189 29.80390065
1814 1 1 -5.74008650716e-05 51.48108598 34.81792493 29.80390065
1815 1 1 -5.69931259393e-05 50.01019781 37.36557798 29.80390065
1816 1 1 -5.27787481237e-05 51.48108598 39.91323102 29.80390065
1817 1 1 -0.000171475351394 35.30131610 22.07965971 29.80390065
1818 1 1 -0.000181781281599 36.77220427 24.62731276 29.80390065
1819 1 1 -0.000266950772794 35.30131610 27.17496580 29.80390065
1820 1 1 -0.00023269957313 36.77220427 29.72261885 29.80390065
1821 1 1 -0.00028908422681 35.30131610 32.27027189 29.80390065
1822 1 1 -0.000201121369951 36.77220427 34.81792493 29.80390065
1823 1 1 -0.000200809361367 35.30131610 37.36557798 29.80390065
1824 1 1 -0.000133991616358 36.77220427 39.91323102 29.80390065
1825 1 1 0.00363095869514 39.71398061 22.92887739 32.20585097
1826 1 1 0.00352862986417 41.18486878 25.47653044 32.20585097
1827 1 1 0.00464035878274 39.71398061 28.02418348 32.20585097
1828 1 1 0.00393801621683 41.18486878 30.57183653 32.20585097
1829 1 1 0.00463951490355 39.71398061 33.11948957 32.20585097
1830 1 1 0.00352800961476 41.18486878 35.66714262 32.20585097
1831 1 1 0.00363056733737 39.71398061 38.21479566 32.20585097
1832 1 1 0.00272708826812 41.18486878 20.38122435 32.20585097
1833 1 1 0.00274968119666 42.65575695 22.92887739 32.20585097
1834 1 1 0.00265687690064 44.12664513 25.47653044 32.20585097
1835 1 1 0.00323562690526 42.65575695 28.02418348 32.20585097
1836 1 1 0.00285597578268 44.12664513 30.57183653 32.20585097
1837 1 1 0.00323514843534 42.65575695 33.11948957 32.20585097
1838 1 1 0.00265655720642 44.12664513 35.66714262 32.20585097
1839 1 1 0.00274925291333 42.65575695 38.21479566 32.20585097
1840 1 1 0.00222125991076 44.12664513 20.38122435 32.20585097
1841 1 1 0.00222076460914 45.59753330 22.92887739 32.20585097
1842 1 1 0.00216675763462 47.06842147 25.47653044 32.20585097
1843 1 1 0.00248317145238 45.59753330 28.02418348 32.20585097
1844 1 1 0.00227761753489 47.06842147 30.57183653 32.20585097
1845 1 1 0.00248305458724 45.59753330 33.11948957 32.20585097
1846 1 1 0.00216670040751 47.06842147 35.66714262 32.20585097
1847 1 1 0.00222062378718 45.59753330 38.21479566 32.20585097
1848 1 1 0.0019068957161 47.06842147 20.38122435 32.20585097
1849 1 1 0.00192046510063 48.53930964 22.92887739 32.20585097
1850 1 1 0.00191559997492 50.01019781 25.47653044 32.20585097
1851 1 1 0.00208111858243 48.53930964 28.02418348 32.20585097
1852 1 1 0.00198817751544 50.01019781 30.57183653 32.20585097
1853 1 1 0.00208109630365 48.53930964 33.11948957 32.20585097
1854 1 1 0.00191557074939 50.01019781 35.66714262 32.20585097
1855 1 1 0.00192043576649 48.53930964 38.21479566 32.20585097
1856 1 1 0.00173736097584 50.01019781 20.38122435 32.20585097
1857 1 1 0.0017853565816 51.48108598 22.92887739 32.20585097
1858 1 1 0.00779992972434 35.30131610 25.47653044 32.20585097
1859 1 1 0.00190527529563 51.48108598 28.02418348 32.20585097
1860 1 1 0.00982071012849 35.30131610 30.57183653 32.20585097
1861 1 1 0.00190524536376 51.48108598 33.11948957 32.20585097
1862 1 1 0.00780007987628 35.30131610 35.66714262 32.20585097
1863 1 1 0.00178532174317 51.48108598 38.21479566 32.20585097
1864 1 1 0.00460592797235 35.30131610 20.38122435 32.20585097
1865 1 1 0.0050835534562 36.77220427 22.92887739 32.20585097
1866 1 1 0.00509519591159 38.24309244 25.47653044 32.20585097
1867 1 1 0.00728442694871 36.77220427 28.02418348 32.20585097
1868 1 1 0.00602611274475 38.24309244 30.57183653 32.20585097
1869 1 1 0.00728348617135 36.77220427 33.11948957 32.20585097
1870 1 1 0.00509494989553 38.24309244 35.66714262 32.20585097
1871 1 1 0.0050833191593 36.77220427 38.21479566 32.20585097
1872 1 1 0.00349601818457 38.24309244 20.38122435 32.20585097
1873 1 1 -0.00459638050598 41.18486878 23.77809508 34.60780130
1874 1 1 -0.00437416250785 42.65575695 26.32574812 34.60780130
1875 1 1 -0.00543028542428 41.18486878 28.87340116 34.60780130
1876 1 1 -0.00463792172022 42.65575695 31.42105421 34.60780130
1877 1 1 -0.00523776969633 41.18486878 33.96870725 34.60780130
1878 1 1 -0.00414238705953 42.65575695 36.51636030 34.60780130
1879 1 1 -0.00421817809614 41.18486878 39.06401334 34.60780130
1880 1 1 -0.00359479696897 42.65575695 21.23044203 34.60780130
1881 1 1 -0.00356291197428 44.12664513 23.77809508 34.60780130
1882 1 1 -0.00341710272312 45.59753330 26.32574812 34.60780130
1883 1 1 -0.00398823003286 44.12664513 28.87340116 34.60780130
1884 1 1 -0.00355346656733 45.59753330 31.42105421 34.60780130
1885 1 1 -0.00389293079523 44.12664513 33.96870725 34.60780130
1886 1 1 -0.00329347389903 45.59753330 36.51636030 34.60780130
1887 1 1 -0.00335775009968 44.12664513 39.06401334 34.60780130
1888 1 1 -0.00298581747948 45.59753330 21.23044203 34.60780130
1889 1 1 -0.00296867876987 47.06842147 23.77809508 34.60780130
1890 1 1 -0.00290490113905 48.53930964 26.32574812 34.60780130
1891 1 1 -0.00320743424975 47.06842147 28.87340116 34.60780130
1892 1 1 -0.00298604041227 48.53930964 31.42105421 34.60780130
1893 1 1 -0.00315538973466 47.06842147 33.96870725 34.60780130
1894 1 1 -0.0028296421101 48.53930964 36.51636030 34.60780130
1895 1 1 -0.00284738294529 47.06842147 39.06401334 34.60780130
1896 1 1 -0.00263412396217 48.53930964 21.23044203 34.60780130
1897 1 1 -0.00266132505401 50.01019781 23.77809508 34.60780130
1898 1 1 -0.0026798355337 51.48108598 26.32574812 34.60780130
1899 1 1 -0.00282112728485 50.01019781 28.87340116 34.60780130
1900 1 1 -0.00274028922646 51.48108598 31.42105421 34.60780130
1901 1 1 -0.00278697650842 50.01019781 33.96870725 34.60780130
1902 1 1 -0.00262308593135 51.48108598 36.51636030 34.60780130
1903 1 1 -0.00257735860332 50.01019781 39.06401334 34.60780130
1904 1 1 -0.00247232092141 51.48108598 21.23044203 34.60780130
1905 1 1 -0.00897566755739 35.30131610 23.77809508 34.60780130
1906 1 1 -0.00898867413957 36.77220427 26.32574812 34.60780130
1907 1 1 -0.0129009016825 35.30131610 28.87340116 34.60780130
1908 1 1 -0.0102467368712 36.77220427 31.42105421 34.60780130
1909 1 1 -0.011870061452 35.30131610 33.96870725 34.60780130
1910 1 1 -0.00800537310253 36.77220427 36.51636030 34.60780130
1911 1 1 -0.00758178101872 35.30131610 39.06401334 34.60780130
1912 1 1 -0.00602619266379 36.77220427 21.23044203 34.60780130
1913 1 1 -0.00629825889989 38.24309244 23.77809508 34.60780130
1914 1 1 -0.00606312510513 39.71398061 26.32574812 34.60780130
1915 1 1 -0.00803069612855 38.24309244 28.87340116 34.60780130
1916 1 1 -0.00661265230516 39.71398061 31.42105421 34.60780130
1917 1 1 -0.00761102867671 38.24309244 33.96870725 34.60780130
1918 1 1 -0.00560036516486 39.71398061 36.51636030 34.60780130
1919 1 1 -0.00557958164908 38.24309244 39.06401334 34.60780130
1920 1 1 -0.00457049840666 39.71398061 21.23044203 34.60780130
1921 1 1 0.00626523866533 35.30131610 40.76244870 25.00000000
1922 1 1 0.00438602061637 36.77220427 43.31010174 25.00000000
1923 1 1 0.00382981098274 35.30131610 45.85775479 25.00000000
1924 1 1 0.0029670728048 36.77220427 48.40540783 25.00000000
1925 1 1 0.00265770140703 35.30131610 50.95306088 25.00000000
1926 1 1 0.00227866023743 36.77220427 53.50071392 25.00000000
1927 1 1 0.00214345590198 35.30131610 56.04836697 25.00000000
1928 1 1 0.00199784279718 36.77220427 58.59602001 25.00000000
1929 1 1 0.00482488545882 38.24309244 40.76244870 25.00000000
1930 1 1 0.00359577644367 39.71398061 43.31010174 25.00000000
1931 1 1 0.00329939995266 38.24309244 45.85775479 25.00000000
1932 1 1 0.00266005789712 39.71398061 48.40540783 25.00000000
1933 1 1 0.00245741894083 38.24309244 50.95306088 25.00000000
1934 1 1 0.00214777144115 39.71398061 53.50071392 25.00000000
1935 1 1 0.00205232165077 38.24309244 56.04836697 25.00000000
1936 1 1 0.00192569504522 39.71398061 58.59602001 25.00000000
1937 1 1 0.00378492278707 41.18486878 40.76244870 25.00000000
1938 1 1 0.00301425242987 42.65575695 43.31010174 25.00000000
1939 1 1 0.00285752180737 41.18486878 45.85775479 25.00000000
1940 1 1 0.00240254135038 42.65575695 48.40540783 25.00000000
1941 1 1 0.00227021959469 41.18486878 50.95306088 25.00000000
1942 1 1 0.00202868005856 42.65575695 53.50071392 25.00000000
1943 1 1 0.00196176616309 41.18486878 56.04836697 25.00000000
1944 1 1 0.00185709910712 42.65575695 58.59602001 25.00000000
1945 1 1 0.00309915204794 44.12664513 40.76244870 25.00000000
1946 1 1 0.00262052141141 45.59753330 43.31010174 25.00000000
1947 1 1 0.00252529384449 44.12664513 45.85775479 25.00000000
1948 1 1 0.00220803908781 45.59753330 48.40540783 25.00000000
1949 1 1 0.00211469101212 44.12664513 50.95306088 25.00000000
1950 1 1 0.00193267163511 45.59753330 53.50071392 25.00000000
1951 1 1 0.00188220587887 44.12664513 56.04836697 25.00000000
1952 1 1 0.00179950874511 45.59753330 58.59602001 25.00000000
1953 1 1 0.00267758265825 47.06842147 40.76244870 25.00000000
1954 1 1 0.00237874295616 48.53930964 43.31010174 25.00000000
1955 1 1 0.00229827317418 47.06842147 45.85775479 25.00000000
1956 1 1 0.00207967881614 48.53930964 48.40540783 25.00000000
1957 1 1 0.00200052038046 47.06842147 50.95306088 25.00000000
1958 1 1 0.0018662055565 48.53930964 53.50071392 25.00000000
1959 1 1 0.00182098597165 47.06842147 56.04836697 25.00000000
1960 1 1 0.00175831143237 48.53930964 58.59602001 25.00000000
1961 1 1 0.00244903642858 50.01019781 40.76244870 25.00000000
1962 1 1 0.00226380809061 51.48108598 43.31010174 25.00000000
1963 1 1 0.00216702608506 50.01019781 45.85775479 25.00000000
1964 1 1 0.00201633597005 51.48108598 48.40540783 25.00000000
1965 1 1 0.00193150999745 50.01019781 50.95306088 25.00000000
1966 1 1 0.00183238790925 51.48108598 53.50071392 25.00000000
1967 1 1 0.00178266113112 50.01019781 56.04836697 25.00000000
1968 1 1 0.00173690200411 51.48108598 58.59602001 25.00000000
1969 1 1 -0.00349617956655 36.77220427 41.61166638 27.40195032
1970 1 1 -0.00253719132816 38.24309244 44.15931943 27.40195032
1971 1 1 -0.0022700373351 36.77220427 46.70697247 27.40195032
1972 1 1 -0.00180813792851 38.24309244 49.25462551 27.40195032
1973 1 1 -0.00164926220608 36.77220427 51.80227856 27.40195032
1974 1 1 -0.00143987922131 38.24309244 54.34993160 27.40195032
1975 1 1 -0.00137513841264 36.77220427 56.89758465 27.40195032
1976 1 1 -0.00129861584237 38.24309244 59.44523769 27.40195032
1977 1 1 -0.00274389077349 39.71398061 41.61166638 27.40195032
1978 1 1 -0.00212370921735 41.18486878 44.15931943 27.40195032
1979 1 1 -0.00197594009152 39.71398061 46.70697247 27.40195032
1980 1 1 -0.00163449030259 41.18486878 49.25462551 27.40195032
1981 1 1 -0.00153013201308 39.71398061 51.80227856 27.40195032
1982 1 1 -0.00136254369746 41.18486878 54.34993160 27.40195032
1983 1 1 -0.00131762886727 39.71398061 56.89758465 27.40195032
1984 1 1 -0.00125194543072 41.18486878 59.44523769 27.40195032
1985 1 1 -0.00222078517107 42.65575695 41.61166638 27.40195032
1986 1 1 -0.00182297732926 44.12664513 44.15931943 27.40195032
1987 1 1 -0.00173774602486 42.65575695 46.70697247 27.40195032
1988 1 1 -0.00149526640513 44.12664513 49.25462551 27.40195032
1989 1 1 -0.00142479023641 42.65575695 51.80227856 27.40195032
1990 1 1 -0.00129575169649 44.12664513 54.34993160 27.40195032
1991 1 1 -0.00126356036721 42.65575695 56.89758465 27.40195032
1992 1 1 -0.00121006699815 44.12664513 59.44523769 27.40195032
1993 1 1 -0.00187662291361 45.59753330 41.61166638 27.40195032
1994 1 1 -0.00162459353178 47.06842147 44.15931943 27.40195032
1995 1 1 -0.00156453438057 45.59753330 46.70697247 27.40195032
1996 1 1 -0.00139590426901 47.06842147 49.25462551 27.40195032
1997 1 1 -0.00134179221455 45.59753330 51.80227856 27.40195032
1998 1 1 -0.00124504346753 47.06842147 54.34993160 27.40195032
1999 1 1 -0.00121863286584 45.59753330 56.89758465 27.40195032
2000 1 1 -0.00117727599844 47.06842147 59.44523769 27.40195032
2001 1 1 -0.0016714339384 48.53930964 41.61166638 27.40195032
2002 1 1 -0.00151338877658 50.01019781 44.15931943 27.40195032
2003 1 1 -0.00145372224171 48.53930964 46.70697247 27.40195032
2004 1 1 -0.00133680591224 50.01019781 49.25462551 27.40195032
2005 1 1 -0.0012851879657 48.53930964 51.80227856 27.40195032
2006 1 1 -0.00121360380783 50.01019781 54.34993160 27.40195032
2007 1 1 -0.00118677313136 48.53930964 56.89758465 27.40195032
2008 1 1 -0.00115650109945 50.01019781 59.44523769 27.40195032
2009 1 1 -0.00157655996226 51.48108598 41.61166638 27.40195032
2010 1 1 -0.00305505518172 35.30131610 44.15931943 27.40195032
2011 1 1 -0.00139995838435 51.48108598 46.70697247 27.40195032
2012 1 1 -0.00200031767302 35.30131610 49.25462551 27.40195032
2013 1 1 -0.00125661825938 51.48108598 51.80227856 27.40195032
2014 1 1 -0.00151925358963 35.30131610 54.34993160 27.40195032
2015 1 1 -0.00117031598448 51.48108598 56.89758465 27.40195032
2016 1 1 -0.00134456268226 35.30131610 59.44523769 27.40195032
2017 1 1 -9.49127608548e-05 38.24309244 42.46088406 29.80390065
2018 1 1 -7.14145347597e-05 39.71398061 45.00853711 29.80390065
2019 1 1 -6.50324561987e-05 38.24309244 47.55619015 29.80390065
2020 1 1 -5.32607751726e-05 39.71398061 50.10384320 29.80390065
2021 1 1 -4.9481808858e-05 38.24309244 52.65149624 29.80390065
2022 1 1 -4.40944521869e-05 39.71398061 55.19914928 29.80390065
2023 1 1 -4.27017200236e-05 38.24309244 57.74680233 29.80390065
2024 1 1 -4.0843922505e-05 39.71398061 60.29445537 29.80390065
2025 1 1 -7.63683918509e-05 41.18486878 42.46088406 29.80390065
2026 1 1 -6.09219796216e-05 42.65575695 45.00853711 29.80390065
2027 1 1 -5.72775934555e-05 41.18486878 47.55619015 29.80390065
2028 1 1 -4.87403018431e-05 42.65575695 50.10384320 29.80390065
2029 1 1 -4.62136194892e-05 41.18486878 52.65149624 29.80390065
2030 1 1 -4.19508573006e-05 42.65575695 55.19914928 29.80390065
2031 1 1 -4.09931163194e-05 41.18486878 57.74680233 29.80390065
2032 1 1 -3.94207699567e-05 42.65575695 60.29445537 29.80390065
2033 1 1 -6.35062936283e-05 44.12664513 42.46088406 29.80390065
2034 1 1 -5.36289688038e-05 45.59753330 45.00853711 29.80390065
2035 1 1 -5.13293366032e-05 44.12664513 47.55619015 29.80390065
2036 1 1 -4.52798330138e-05 45.59753330 50.10384320 29.80390065
2037 1 1 -4.34574093336e-05 44.12664513 52.65149624 29.80390065
2038 1 1 -4.01953110186e-05 45.59753330 55.19914928 29.80390065
2039 1 1 -3.94730401022e-05 44.12664513 57.74680233 29.80390065
2040 1 1 -3.82207970129e-05 45.59753330 60.29445537 29.80390065
2041 1 1 -5.53504497773e-05 47.06842147 42.46088406 29.80390065
2042 1 1 -4.91192233325e-05 48.53930964 45.00853711 29.80390065
2043 1 1 -4.7216937479e-05 47.06842147 47.55619015 29.80390065
2044 1 1 -4.29607659299e-05 48.53930964 50.10384320 29.80390065
2045 1 1 -4.1400616753e-05 47.06842147 52.65149624 29.80390065
2046 1 1 -3.89653055302e-05 48.53930964 55.19914928 29.80390065
2047 1 1 -3.82920237259e-05 47.06842147 57.74680233 29.80390065
2048 1 1 -3.73597816829e-05 48.53930964 60.29445537 29.80390065
2049 1 1 -5.09391565249e-05 50.01019781 42.46088406 29.80390065
2050 1 1 -4.69690765329e-05 51.48108598 45.00853711 29.80390065
2051 1 1 -4.48123835106e-05 50.01019781 47.55619015 29.80390065
2052 1 1 -4.18016612762e-05 51.48108598 50.10384320 29.80390065
2053 1 1 -4.01411513493e-05 50.01019781 52.65149624 29.80390065
2054 1 1 -3.83352869168e-05 51.48108598 55.19914928 29.80390065
2055 1 1 -3.75481669457e-05 50.01019781 57.74680233 29.80390065
2056 1 1 -3.69114885851e-05 51.48108598 60.29445537 29.80390065
2057 1 1 -0.000119583473364 35.30131610 42.46088406 29.80390065
2058 1 1 -8.50394376815e-05 36.77220427 45.00853711 29.80390065
2059 1 1 -7.39771704434e-05 35.30131610 47.55619015 29.80390065
2060 1 1 -5.85669966887e-05 36.77220427 50.10384320 29.80390065
2061 1 1 -5.29293463561e-05 35.30131610 52.65149624 29.80390065
2062 1 1 -4.64139592306e-05 36.77220427 55.19914928 29.80390065
2063 1 1 -4.43993510496e-05 35.30131610 57.74680233 29.80390065
2064 1 1 -4.23327888206e-05 36.77220427 60.29445537 29.80390065
2065 1 1 0.00258908737057 39.71398061 43.31010174 32.20585097
2066 1 1 0.0020437467278 41.18486878 45.85775479 32.20585097
2067 1 1 0.00189745651877 39.71398061 48.40540783 32.20585097
2068 1 1 0.00160901331424 41.18486878 50.95306088 32.20585097
2069 1 1 0.0015194482205 39.71398061 53.50071392 32.20585097
2070 1 1 0.00138409688512 41.18486878 56.04836697 32.20585097
2071 1 1 0.00135775518542 39.71398061 58.59602001 32.20585097
2072 1 1 0.00272664530092 41.18486878 40.76244870 32.20585097
2073 1 1 0.00215914462499 42.65575695 43.31010174 32.20585097
2074 1 1 0.00179614946076 44.12664513 45.85775479 32.20585097
2075 1 1 0.00170608982399 42.65575695 48.40540783 32.20585097
2076 1 1 0.00149519029959 44.12664513 50.95306088 32.20585097
2077 1 1 0.00143274005167 42.65575695 53.50071392 32.20585097
2078 1 1 0.00132634909323 44.12664513 56.04836697 32.20585097
2079 1 1 0.00130803979087 42.65575695 58.59602001 32.20585097
2080 1 1 0.00222105707109 44.12664513 40.76244870 32.20585097
2081 1 1 0.00186569917869 45.59753330 43.31010174 32.20585097
2082 1 1 0.00162835377991 47.06842147 45.85775479 32.20585097
2083 1 1 0.00156293970988 45.59753330 48.40540783 32.20585097
2084 1 1 0.00141202126294 47.06842147 50.95306088 32.20585097
2085 1 1 0.00136294235386 45.59753330 53.50071392 32.20585097
2086 1 1 0.00128190530595 47.06842147 56.04836697 32.20585097
2087 1 1 0.00126633068969 45.59753330 58.59602001 32.20585097
2088 1 1 0.00190684358549 47.06842147 40.76244870 32.20585097
2089 1 1 0.0016865725171 48.53930964 43.31010174 32.20585097
2090 1 1 0.00153235086551 50.01019781 45.85775479 32.20585097
2091 1 1 0.00146921497443 48.53930964 48.40540783 32.20585097
2092 1 1 0.00136174751659 50.01019781 50.95306088 32.20585097
2093 1 1 0.00131458838018 48.53930964 53.50071392 32.20585097
2094 1 1 0.00125409204022 50.01019781 56.04836697 32.20585097
2095 1 1 0.00123653012995 48.53930964 58.59602001 32.20585097
2096 1 1 0.00173732389984 50.01019781 40.76244870 32.20585097
2097 1 1 0.00160241598487 51.48108598 43.31010174 32.20585097
2098 1 1 0.00276274356572 35.30131610 45.85775479 32.20585097
2099 1 1 0.00142306286248 51.48108598 48.40540783 32.20585097
2100 1 1 0.00189584270267 35.30131610 50.95306088 32.20585097
2101 1 1 0.00128995895358 51.48108598 53.50071392 32.20585097
2102 1 1 0.00151602379416 35.30131610 56.04836697 32.20585097
2103 1 1 0.00122106180511 51.48108598 58.59602001 32.20585097
2104 1 1 0.00460508833985 35.30131610 40.76244870 32.20585097
2105 1 1 0.00317094651104 36.77220427 43.31010174 32.20585097
2106 1 1 0.00237206987192 38.24309244 45.85775479 32.20585097
2107 1 1 0.0021262866691 36.77220427 48.40540783 32.20585097
2108 1 1 0.00174712876962 38.24309244 50.95306088 32.20585097
2109 1 1 0.00161514467016 36.77220427 53.50071392 32.20585097
2110 1 1 0.00144982174885 38.24309244 56.04836697 32.20585097
2111 1 1 0.0014100560503 36.77220427 58.59602001 32.20585097
2112 1 1 0.00349538632758 38.24309244 40.76244870 32.20585097
2113 1 1 -0.00317600742648 41.18486878 44.15931943 34.60780130
2114 1 1 -0.00261738026994 42.65575695 46.70697247 34.60780130
2115 1 1 -0.00246693987539 41.18486878 49.25462551 34.60780130
2116 1 1 -0.00215988772093 42.65575695 51.80227856 34.60780130
2117 1 1 -0.00206795847822 41.18486878 54.34993160 34.60780130
2118 1 1 -0.00192164457555 42.65575695 56.89758465 34.60780130
2119 1 1 -0.00190464889417 41.18486878 59.44523769 34.60780130
2120 1 1 -0.00331852157385 42.65575695 41.61166638 34.60780130
2121 1 1 -0.0027418581833 44.12664513 44.15931943 34.60780130
2122 1 1 -0.00236610954557 45.59753330 46.70697247 34.60780130
2123 1 1 -0.00226389409346 44.12664513 49.25462551 34.60780130
2124 1 1 -0.00203744371783 45.59753330 51.80227856 34.60780130
2125 1 1 -0.00196920785339 44.12664513 54.34993160 34.60780130
2126 1 1 -0.00185514745764 45.59753330 56.89758465 34.60780130
2127 1 1 -0.00184256041334 44.12664513 59.44523769 34.60780130
2128 1 1 -0.00282090213463 45.59753330 41.61166638 34.60780130
2129 1 1 -0.00245493364869 47.06842147 44.15931943 34.60780130
2130 1 1 -0.00220363059963 48.53930964 46.70697247 34.60780130
2131 1 1 -0.00211776323876 47.06842147 49.25462551 34.60780130
2132 1 1 -0.00195390902088 48.53930964 51.80227856 34.60780130
2133 1 1 -0.00189428265685 47.06842147 54.34993160 34.60780130
2134 1 1 -0.00180797313754 48.53930964 56.89758465 34.60780130
2135 1 1 -0.00179388690356 47.06842147 59.44523769 34.60780130
2136 1 1 -0.00252455194031 48.53930964 41.61166638 34.60780130
2137 1 1 -0.00229219089726 50.01019781 44.15931943 34.60780130
2138 1 1 -0.00212432839972 51.48108598 46.70697247 34.60780130
2139 1 1 -0.00203061180176 50.01019781 49.25462551 34.60780130
2140 1 1 -0.00191182585161 51.48108598 51.80227856 34.60780130
2141 1 1 -0.00184787169499 50.01019781 54.34993160 34.60780130
2142 1 1 -0.00178358449505 51.48108598 56.89758465 34.60780130
2143 1 1 -0.00176300902693 50.01019781 59.44523769 34.60780130
2144 1 1 -0.00238585738897 51.48108598 41.61166638 34.60780130
2145 1 1 -0.0045382076192 35.30131610 44.15931943 34.60780130
2146 1 1 -0.00338744843313 36.77220427 46.70697247 34.60780130
2147 1 1 -0.00299562867882 35.30131610 49.25462551 34.60780130
2148 1 1 -0.00248821789644 36.77220427 51.80227856 34.60780130
2149 1 1 -0.00229897064297 35.30131610 54.34993160 34.60780130
2150 1 1 -0.00208684694904 36.77220427 56.89758465 34.60780130
2151 1 1 -0.00204185356209 35.30131610 59.44523769 34.60780130
2152 1 1 -0.005176229971 36.77220427 41.61166638 34.60780130
2153 1 1 -0.003779507417 38.24309244 44.15931943 34.60780130
2154 1 1 -0.0029608470779 39.71398061 46.70697247 34.60780130
2155 1 1 -0.00271804221483 38.24309244 49.25462551 34.60780130
2156 1 1 -0.00231456290399 39.71398061 51.80227856 34.60780130
2157 1 1 -0.00218215653372 38.24309244 54.34993160 34.60780130
2158 1 1 -0.00200169017979 39.71398061 56.89758465 34.60780130
2159 1 1 -0.00197379454185 38.24309244 59.44523769 34.60780130
2160 1 1 -0.00408498678525 39.71398061 41.61166638 34.60780130
2161 2 2 1 26.47598707 30.57183653 44.60780130
2162 3 2 -1 26.47598707 30.57183653 15.00000000
