ITEM: TIMESTEP
0
ITEM: NUMBER OF ATOMS
564
ITEM: BOX BOUNDS pp pp ff
0.0000000000000000e+00 1.7650658050000001e+01
0.0000000000000000e+00 2.0381224350000000e+01
0.0000000000000000e+00 6.0000000000000000e+01
ITEM: ATOMS id mol type q x y z
1 1 2 0 8.24512200 15.58107900 22.60780130
2 1 3 0.000990446304954 8.99930700 15.99494600 23.02750430
3 1 3 0.000989260287924 7.50380600 16.13955400 22.84187130
4 1 4 -0.00197970659288 8.24676900 15.70555000 22.69149230
5 2 2 0 15.94739500 18.39865100 22.69035230
6 2 3 0.000990079727974 16.71765600 18.46088800 22.12550130
7 2 3 0.000989372370173 15.55165300 17.55682700 22.46462430
8 2 4 -0.00197945209815 15.99533800 18.29885400 22.58914830
9 3 2 0 17.43363900 10.16011000 22.73132430
10 3 3 0.000989307461685 17.04728200 9.37132900 22.35081830
11 3 3 0.00098999502917 0.66633495 9.89504700 22.98756730
12 3 4 -0.00197930249085 17.49726000 10.02520600 22.71541730
13 4 2 0 1.34938300 4.55603100 22.80664330
14 4 3 0.000989197638309 2.25303400 4.29537500 22.62858430
15 4 3 0.000990060266505 1.36124800 4.85802700 23.71487830
16 4 4 -0.00197925790481 1.46658000 4.56132300 22.90011430
17 5 2 0 13.79454900 8.69815200 22.91890230
18 5 3 0.000989880636191 13.76817500 9.65498800 22.91982030
19 5 3 0.000989814961121 14.31482300 8.47167600 23.68978230
20 5 4 -0.00197969559731 13.85777400 8.79164700 23.01770230
21 6 2 0 2.45384200 11.13179700 23.00931330
22 6 3 0.000989602260618 3.34523300 10.88819200 23.25893330
23 6 3 0.000989660791542 2.56797500 11.78723500 22.32112330
24 6 4 -0.00197926305216 2.58256100 11.18451700 22.95317030
25 7 2 0 5.78675400 16.92692800 23.09641330
26 7 3 0.000989816975472 5.28323000 16.47580400 23.77404430
27 7 3 0.00098930891977 5.17677800 17.01724400 22.36429030
28 7 4 -0.00197912589524 5.64421300 16.88074000 23.08943730
29 8 2 0 9.01000400 19.57176400 23.18088730
30 8 3 0.000990372722402 8.78238800 19.25232600 24.05403330
31 8 3 0.000989064213318 8.18499100 19.55303200 22.69587630
32 8 4 -0.00197943693572 8.87525500 19.52847400 23.23057330
33 9 2 0 8.83043300 2.85815800 23.19435430
34 9 3 0.000990030931612 9.21769000 2.02205600 23.45357830
35 9 3 0.000989610325889 9.56648500 3.46996200 23.18191330
36 9 4 -0.0019796412575 8.97423000 2.82944500 23.22594530
37 10 2 0 6.02784200 0.12173500 23.20701130
38 10 3 0.000989018210985 5.47821600 0.33162200 22.45196730
39 10 3 0.000990498454343 5.79197900 19.60317635 23.43282430
40 10 4 -0.00197951666533 5.92729000 0.03342000 23.13926330
41 11 2 0 4.18397800 8.35952700 23.26490830
42 11 3 0.000990384421286 5.05229100 7.96143000 23.32642530
43 11 3 0.000989365766483 3.81527900 8.00719600 22.45487330
44 11 4 -0.00197975018777 4.24793400 8.26346300 23.16908830
45 12 2 0 0.45553800 19.51483400 23.37309230
46 12 3 0.000989512165976 0.12126100 20.35801600 23.67892930
47 12 3 0.000989984902152 0.15406600 18.88529700 24.02809630
48 12 4 -0.00197949706813 0.37415500 19.54218300 23.49609230
49 13 2 0 15.09732900 11.54517500 23.49740530
50 13 3 0.000990066987959 15.28848600 12.42944200 23.81007330
51 13 3 0.000989949611878 15.91183100 11.25434900 23.08723630
52 13 4 -0.00198001659984 15.22606500 11.62114200 23.48492330
53 14 2 0 10.74610700 16.76684700 23.56450830
54 14 3 0.000989965455373 10.79944800 17.51104700 24.16413530
55 14 3 0.000989693431529 11.09645100 16.02988700 24.06489030
56 14 4 -0.0019796588869 10.79778300 16.76777400 23.70532230
57 15 2 0 10.92097000 4.49939700 23.57670830
58 15 3 0.000990531688572 10.73334500 5.43784000 23.59550930
59 15 3 0.000989498605506 11.43992200 4.37428700 22.78218430
60 15 4 -0.00198003029408 10.96338400 4.60351300 23.47740630
61 16 2 0 11.20759600 7.43499100 23.63896930
62 16 3 0.000990032566201 12.08038100 7.79234200 23.47532730
63 16 3 0.000989968875047 10.71998500 8.16114200 24.02777930
64 16 4 -0.00198000144125 11.25690300 7.57369300 23.66779430
65 17 2 0 2.77487200 2.13963000 23.80555830
66 17 3 0.000989582285757 1.87563000 2.20241100 24.12751330
67 17 3 0.000989996449964 3.06142600 1.26344600 24.06328030
68 17 4 -0.00197957873572 2.69644000 2.03550400 23.87976330
69 18 2 0 6.66557400 7.03157500 23.85975330
70 18 3 0.00099064132522 7.12119900 7.12854900 24.69595530
71 18 3 0.000989305705056 7.35394200 7.11666000 23.20009930
72 18 4 -0.00197994703028 6.81201900 7.05488100 23.88235330
73 19 2 0 13.64690200 1.83257800 24.19527930
74 19 3 0.000989974249244 12.85765800 1.41328700 24.53809330
75 19 3 0.000989601455654 13.96923300 2.36706000 24.92099530
76 19 4 -0.0019795757049 13.58713200 1.84732400 24.33206430
77 20 2 0 5.00715200 4.70371400 24.22363830
78 20 3 0.000990448139353 5.69863400 5.36154900 24.15057330
79 20 3 0.000989240096536 4.71389900 4.56278300 23.32343130
80 20 4 -0.00197968823589 5.05813000 4.76988400 24.09904830
81 21 2 0 15.07740200 5.32894500 24.27709430
82 21 3 0.000989874477776 15.73547300 6.01263700 24.40255330
83 21 3 0.000989581055418 14.93436300 5.30425000 23.33096330
84 21 4 -0.00197945553319 15.14333200 5.41330500 24.17203830
85 22 2 0 1.93368600 15.47494700 24.31767830
86 22 3 0.000990179990008 2.65042100 14.86751800 24.50085330
87 22 3 0.000989336590812 2.23595500 15.98270500 23.56465230
88 22 4 -0.00197951658082 2.06413000 15.46218800 24.24473030
89 23 2 0 9.63670000 9.69834100 24.31854630
90 23 3 0.000989864794738 8.68003500 9.72351600 24.29875530
91 23 3 0.000989817239143 9.90754500 10.40837200 23.73654030
92 23 4 -0.00197968203388 9.54890600 9.79245600 24.24150930
93 24 2 0 4.31714800 14.06587000 24.39000730
94 24 3 0.000989688525525 4.78988600 13.85099400 23.58590530
95 24 3 0.00099020514112 4.04766500 13.21824400 24.74376130
96 24 4 -0.00197989366665 4.34316700 13.92985700 24.33235730
97 25 2 0 8.26061000 12.83181700 24.44569030
98 25 3 0.000990309057725 9.17832700 13.10211800 24.47678330
99 25 3 0.000989956729362 7.78734700 13.53820400 24.88531730
100 25 4 -0.00198026578709 8.31750600 12.95684500 24.50594830
101 26 2 0 3.49508600 18.95208400 24.47556130
102 26 3 0.000988815432165 2.58902400 18.66568000 24.36042530
103 26 3 0.000990767897991 3.69139100 18.76415800 25.39337430
104 26 4 -0.00197958333016 3.40422900 18.89136400 24.57831330
105 27 2 0 6.70188600 10.48890000 24.57235630
106 27 3 0.000988933786593 6.46010100 10.31878300 23.66195430
107 27 3 0.000991027991256 7.31296500 11.22413700 24.52500130
108 27 4 -0.00197996177785 6.74916000 10.56124200 24.44975230
109 28 2 0 15.29878900 14.08884200 24.76001430
110 28 3 0.000991247221483 14.60940900 14.74576100 24.85719830
111 28 3 0.000988639594833 16.08598800 14.51512300 25.09888730
112 28 4 -0.00197988681632 15.31131100 14.22750500 24.81583530
113 29 2 0 10.77183900 14.15511100 24.80595330
114 29 3 0.000989823460828 10.57829100 14.62850600 25.61506930
115 29 3 0.000990070080711 11.47870900 13.55459400 25.04248130
116 29 4 -0.00197989354154 10.83755000 14.13883800 24.93980830
117 30 2 0 16.91267600 2.62313000 24.96988530
118 30 3 0.000990080298468 16.99912700 3.50638200 25.32852730
119 30 3 0.000989329349695 16.30921700 2.72117700 24.23336830
120 30 4 -0.00197940964816 16.84649300 2.74874800 24.92151230
121 31 2 0 6.30170800 2.23170000 24.98602930
122 31 3 0.000989512711919 5.83233700 3.00106400 24.66353530
123 31 3 0.000990547736658 6.33270000 1.63767700 24.23608930
124 31 4 -0.00198006044858 6.24559000 2.25414600 24.84874530
125 32 2 0 11.01134000 1.83247200 25.20326530
126 32 3 0.000990201504504 10.71999300 2.01679600 26.09622330
127 32 3 0.000989474564491 11.10650300 2.69489800 24.79904030
128 32 4 -0.001979676069 10.98622600 1.96646900 25.26582930
129 33 2 0 13.32813600 15.90542400 25.21628930
130 33 3 0.000989887328461 13.85549900 16.61335500 25.58636330
131 33 3 0.000989864029883 12.97239400 15.44774900 25.97800630
132 33 4 -0.00197975135834 13.35010600 15.93746000 25.36117230
133 34 2 0 12.52022500 12.01202700 25.25169830
134 34 3 0.000989916858999 13.16850400 11.76504100 24.59218030
135 34 3 0.000989929432725 12.46499600 11.25163700 25.83048030
136 34 4 -0.00197984629172 12.59614300 11.88307100 25.24136330
137 35 2 0 16.40840300 19.45741800 25.26426230
138 35 3 0.000989472760953 16.45952200 0.01605565 25.09025530
139 35 3 0.000990516859119 16.01683600 19.08778600 24.47288430
140 35 4 -0.00197998962007 16.36482200 19.53041400 25.14068130
141 36 2 0 8.47517700 18.06131700 25.42277330
142 36 3 0.00098957233975 9.37481800 18.02996000 25.74818930
143 36 3 0.000990291442444 8.14606800 17.17026200 25.54085130
144 36 4 -0.00197986378219 8.54821200 17.94323700 25.47954630
145 37 2 0 15.19334000 8.74581100 25.53532230
146 37 3 0.000990429076211 15.44104000 8.06498400 26.16090330
147 37 3 0.000989500530873 15.78328000 9.47463600 25.72772030
148 37 4 -0.00197992960708 15.30056800 8.75195500 25.64003330
149 38 2 0 0.84938300 5.70515300 25.53580530
150 38 3 0.000989511673678 1.03248100 6.59229700 25.84513430
151 38 3 0.000990273274999 1.58163000 5.18159800 25.86128430
152 38 4 -0.00197978494868 0.96655800 5.75169700 25.61706830
153 39 2 0 11.22479500 18.68220300 25.59883530
154 39 3 0.000989914655399 11.22328700 19.60210700 25.33424530
155 39 3 0.000989897774677 12.03922400 18.57516400 26.09024130
156 39 4 -0.00197981243008 11.32885800 18.78626000 25.62787030
157 40 2 0 0.41183400 11.55787700 25.60587830
158 40 3 0.000989967046024 0.64613800 10.64146400 25.75257830
159 40 3 0.000989600697463 1.16805100 11.92914000 25.15142030
160 40 4 -0.00197956774349 0.53863300 11.48809100 25.56648230
161 41 2 0 8.12633200 4.17882000 25.81706730
162 41 3 0.0009890059778 8.77924900 3.69358300 26.32152430
163 41 3 0.000991016366901 7.91021400 3.60075600 25.08537830
164 41 4 -0.0019800223447 8.18224700 4.04270400 25.78797930
165 42 2 0 7.56908800 15.36448100 25.83811130
166 42 3 0.000990107622699 8.22538200 15.13923700 26.49748630
167 42 3 0.000989713488152 6.73050100 15.24906300 26.28496930
168 42 4 -0.00197982111085 7.54575200 15.32087200 25.97972230
169 43 2 0 0.99370900 8.71985900 25.85117430
170 43 3 0.000988612513521 0.75134800 8.66391400 24.92685630
171 43 3 0.000991203891169 1.94997400 8.76190300 25.84641530
172 43 4 -0.00197981640469 1.08509800 8.71807900 25.73224130
173 44 2 0 12.80925900 5.16015400 25.90682430
174 44 3 0.000989386343178 12.15851800 4.87924200 25.26350730
175 44 3 0.000990613324281 13.60881700 5.29227200 25.39742730
176 44 4 -0.00197999966746 12.82831000 5.14110600 25.75926230
177 45 2 0 8.66085300 7.03336900 26.04967530
178 45 3 0.000990012480292 8.59535500 6.07871800 26.07381730
179 45 3 0.000990311504077 9.58679200 7.21454900 26.21105330
180 45 4 -0.00198032398437 8.77100000 6.93435600 26.07342430
181 46 2 0 3.89553600 11.60235000 26.06317630
182 46 3 0.000989306593371 4.36255600 11.87078400 26.85442130
183 46 3 0.00099045043014 4.10647500 10.67404100 25.96328430
184 46 4 -0.00197975702351 3.98232300 11.51787800 26.15167730
185 47 2 0 3.62978500 8.71462200 26.07897430
186 47 3 0.000990631710722 4.19971700 8.10610000 26.54919830
187 47 3 0.000989532357459 3.81499100 8.55099900 25.15422730
188 47 4 -0.00198016406818 3.72645200 8.61577800 26.02079030
189 48 2 0 3.21464800 4.26027600 26.49332830
190 48 3 0.000989566923282 3.37191400 4.89379200 27.19343930
191 48 3 0.00099008929491 3.82220800 4.51447600 25.79871730
192 48 4 -0.00197965621819 3.31255500 4.37391400 26.49403230
193 49 2 0 14.18334800 18.39282300 26.57302230
194 49 3 0.000989520069584 14.05279500 18.70785100 27.46741930
195 49 3 0.000990480485078 14.96614200 18.85201600 26.26870830
196 49 4 -0.00198000055466 14.26684300 18.49193300 26.64856030
197 50 2 0 6.69366900 8.81958100 26.69397730
198 50 3 0.000990088594027 6.66206100 9.56283700 26.09164430
199 50 3 0.000990000471819 7.49209700 8.34957300 26.45348230
200 50 4 -0.00198008906585 6.79183100 8.85456000 26.58608530
201 51 2 0 9.63566200 11.01814000 26.78542030
202 51 3 0.000990176917304 9.80181200 10.80716900 25.86666130
203 51 3 0.000989473486999 8.84712900 11.56050100 26.76830830
204 51 4 -0.0019796504043 9.55599000 11.06056200 26.66561830
205 52 2 0 2.56207100 1.31779700 26.86136530
206 52 3 0.000989444745378 2.86473400 2.03251100 26.30117630
207 52 3 0.000990551140563 3.10342600 1.38371200 27.64801730
208 52 4 -0.00197999588594 2.67011600 1.41772700 26.89035530
209 53 2 0 1.35572600 16.76575200 26.97442730
210 53 3 0.000989126419148 0.76187300 16.19088100 27.45722630
211 53 3 0.00099013370991 1.52887500 16.29958600 26.15653930
212 53 4 -0.00197926012906 1.30187100 16.63248700 26.93153130
213 54 2 0 15.20294000 12.00841700 26.99576630
214 54 3 0.000989339598512 16.02440000 11.63625400 26.67493830
215 54 3 0.000990190054183 15.01914100 12.73415100 26.39930930
216 54 4 -0.0019795296527 15.28456800 12.05367800 26.87834230
217 55 2 0 14.20052200 2.94209600 26.99865430
218 55 3 0.000990283384609 13.94774800 3.86530700 27.00281030
219 55 3 0.000989273077796 14.89590700 2.88072000 27.65356130
220 55 4 -0.00197955646241 14.25718100 3.05242100 27.08302230
221 56 2 0 11.24978600 7.42906100 27.02862630
222 56 3 0.000989859084791 11.65519100 6.82977100 26.40194430
223 56 3 0.000990102567053 10.98777200 6.87013000 27.76018530
224 56 4 -0.00197996165184 11.26814200 7.28079500 27.04205230
225 57 2 0 4.12556900 17.85664100 27.04741530
226 57 3 0.000990084359325 4.62032600 17.03731100 27.03536130
227 57 3 0.000989557599449 3.20873000 17.58389200 27.01209730
228 57 4 -0.00197964195877 4.07153700 17.71684200 27.04135130
229 58 2 0 13.02757000 9.70643000 27.07282030
230 58 3 0.00099017086111 12.45232700 8.95602600 26.92375030
231 58 3 0.000989762506464 13.84320600 9.47563300 26.62818230
232 58 4 -0.00197993336757 13.05834300 9.58082500 26.99681930
233 59 2 0 5.09463500 15.28001200 27.15941430
234 59 3 0.000989442078221 4.68903500 14.99026100 26.34224530
235 59 3 0.000990347625174 5.01627300 14.52778700 27.74614230
236 59 4 -0.0019797897034 5.03268200 15.14662600 27.12991530
237 60 2 0 6.66157900 0.62793900 27.18777830
238 60 3 0.000990345036639 6.64215100 1.27150000 26.47948130
239 60 3 0.000989741821751 6.86266800 20.18023435 26.75341430
240 60 4 -0.00198008685839 6.68483400 0.60421000 27.04150430
241 61 2 0 9.88209000 14.93647000 27.29756330
242 61 3 0.000988949216248 9.67706800 14.14177100 27.79016230
243 61 3 0.000990875706564 10.37561600 15.47930100 27.91237830
244 61 4 -0.00197982492281 9.91902200 14.90422800 27.43932630
245 62 2 0 7.39681800 12.82525900 27.51775430
246 62 3 0.000990409663152 6.44357100 12.88146200 27.58404130
247 62 3 0.000988975775531 7.67311700 12.44228000 28.35035130
248 62 4 -0.00197938543868 7.31016100 12.78342800 27.63282230
249 63 2 0 10.32713300 2.90882100 27.55348030
250 63 3 0.00099073811201 9.59637700 2.71213200 28.13960530
251 63 3 0.000989671763032 10.47085900 3.84955300 27.65643630
252 63 4 -0.00198040987504 10.25198600 3.00406800 27.64169130
253 64 2 0 13.08636200 14.70248000 27.75652730
254 64 3 0.000988513400096 13.84954500 14.83373000 28.31916130
255 64 3 0.000991685236226 12.89162000 13.76821100 27.83034430
256 64 4 -0.00198019863632 13.15912900 14.59968400 27.83800030
257 65 2 0 15.86894400 6.99060100 27.75915330
258 65 3 0.000989543961882 15.29772500 7.08061000 28.52193630
259 65 3 0.000989797311424 16.66471700 7.46600900 27.99782430
260 65 4 -0.00197934127331 15.89769000 7.06298100 27.88735130
261 66 2 0 5.11344400 6.80445900 27.87901130
262 66 3 0.000989446862235 5.75585700 7.32598600 27.39781730
263 66 3 0.000990395905952 5.57738500 5.99710300 28.10074930
264 66 4 -0.00197984276819 5.25507000 6.76787000 27.84579730
265 67 2 0 0.21195400 1.70798400 27.89629830
266 67 3 0.000991451004962 1.01377200 1.56700700 27.39286430
267 67 3 0.000988071845821 17.34354205 0.91769200 27.74717830
268 67 4 -0.00197952285078 0.24814900 1.58877100 27.81276330
269 68 2 0 12.39997200 12.20247200 28.07804930
270 68 3 0.000990781139246 13.06349600 11.58825600 27.76387230
271 68 3 0.000989287643554 11.63854200 12.03851500 27.52165530
272 68 4 -0.0019800687828 12.38743900 12.10285700 27.96660630
273 69 2 0 12.13002900 1.09927700 28.33719430
274 69 3 0.00098935854911 12.99724300 1.38319500 28.04811930
275 69 3 0.000990214056834 11.53462500 1.77161700 28.00600730
276 69 4 -0.00197957260594 12.16482400 1.22169000 28.25779330
277 70 2 0 4.82940600 12.94086300 28.46305530
278 70 3 0.000989099944871 5.04059100 12.13789100 28.93936330
279 70 3 0.00099109805318 3.90801500 13.10414900 28.66457030
280 70 4 -0.00198019799805 4.73849100 12.85897500 28.54982430
281 71 2 0 6.39772100 4.46443500 28.63961930
282 71 3 0.000990570395492 7.00222600 3.77491800 28.91416330
283 71 3 0.000989040900877 6.37638800 4.39875300 27.68491330
284 71 4 -0.00197961129637 6.47237400 4.36776000 28.55255030
285 72 2 0 1.91486700 13.23845100 28.66041730
286 72 3 0.000989922321504 1.83367200 12.46438900 28.10322130
287 72 3 0.000989581523015 1.06628100 13.67554600 28.58912830
288 72 4 -0.00197950384452 1.79584400 13.19531500 28.57996430
289 73 2 0 9.81651600 18.75151400 28.70247830
290 73 3 0.000989661760545 10.30103900 17.98385500 29.00607130
291 73 3 0.000989914389264 10.40674300 19.17743600 28.08082230
292 73 4 -0.00197957614981 9.95409700 18.70776800 28.66176230
293 74 2 0 11.38663600 16.46598000 28.87761430
294 74 3 0.000991103660083 12.14939100 16.00750800 28.52513730
295 74 3 0.000988805027055 11.22185300 16.04443800 29.72104830
296 74 4 -0.00197990868714 11.46318300 16.35332800 28.94046230
297 75 2 0 4.50752500 1.14806100 28.94505830
298 75 3 0.000990306303426 5.27861900 1.26247800 28.38958030
299 75 3 0.000989294640205 4.52803900 0.22481600 29.19690830
300 75 4 -0.00197960094363 4.60886100 1.04452100 28.90619030
301 76 2 0 10.16258100 5.47986400 28.95691530
302 76 3 0.000990273829105 9.46082900 5.86992400 29.47809630
303 76 3 0.00098934132888 10.78444500 5.14588700 29.60342630
304 76 4 -0.00197961515799 10.15235400 5.48704300 29.10639430
305 77 2 0 8.19492700 2.24313000 29.08671030
306 77 3 0.000990753236138 7.92380100 1.55035300 28.48439430
307 77 3 0.000989307624702 8.54768800 1.77743200 29.84494430
308 77 4 -0.00198006086084 8.20537700 2.09483100 29.10667030
309 78 2 0 15.05156300 19.31191500 29.12141530
310 78 3 0.000989558178829 14.47225600 19.29359700 29.88318930
311 78 3 0.00098963038397 15.35830900 20.21744000 29.07490830
312 78 4 -0.0019791885628 15.01667200 19.42548800 29.21297830
313 79 2 0 2.52582400 9.94933400 29.33243830
314 79 3 0.000989297910561 2.51448200 10.63251900 30.00278330
315 79 3 0.000989661462725 3.45518100 9.79256400 29.16525330
316 79 4 -0.00197895937329 2.64334100 10.01672100 29.39684930
317 80 2 0 7.65495200 9.21183300 29.36535130
318 80 3 0.000988790002086 8.27486400 9.81540900 29.77478630
319 80 3 0.000990353571256 7.81334800 9.30574300 28.42603130
320 80 4 -0.00197914357334 7.75458500 9.30111900 29.29751930
321 81 2 0 7.30022100 17.67514900 29.50165530
322 81 3 0.000990747526241 8.09221800 18.08947200 29.15915230
323 81 3 0.000988408156938 7.51513200 16.74326100 29.54201330
324 81 4 -0.00197915568318 7.42911700 17.60889400 29.46297730
325 82 1 -2.85990196757e-08 0.00000000 0.00000000 10.00000000
326 82 1 -5.3378156518e-08 1.47088817 2.54765304 10.00000000
327 82 1 -7.06159111168e-08 0.00000000 5.09530609 10.00000000
328 82 1 -9.84527637861e-08 1.47088817 7.64295913 10.00000000
329 82 1 -8.87065451364e-08 0.00000000 10.19061218 10.00000000
330 82 1 -8.23189132192e-08 1.47088817 12.73826522 10.00000000
331 82 1 -4.78762742086e-08 0.00000000 15.28591827 10.00000000
332 82 1 -3.88523416133e-08 1.47088817 17.83357131 10.00000000
333 82 1 -3.95627772324e-08 2.94177634 0.00000000 10.00000000
334 82 1 -5.66310851615e-08 4.41266451 2.54765304 10.00000000
335 82 1 -8.48073746362e-08 2.94177634 5.09530609 10.00000000
336 82 1 -1.05034017431e-07 4.41266451 7.64295913 10.00000000
337 82 1 -1.04721920831e-07 2.94177634 10.19061218 10.00000000
338 82 1 -8.26033336011e-08 4.41266451 12.73826522 10.00000000
339 82 1 -6.02034127778e-08 2.94177634 15.28591827 10.00000000
340 82 1 -3.52171627798e-08 4.41266451 17.83357131 10.00000000
341 82 1 -2.66817449731e-08 5.88355268 0.00000000 10.00000000
342 82 1 -4.04814719788e-08 7.35444085 2.54765304 10.00000000
343 82 1 -8.08241662992e-08 5.88355268 5.09530609 10.00000000
344 82 1 -9.03317780438e-08 7.35444085 7.64295913 10.00000000
345 82 1 -9.62137299735e-08 5.88355268 10.19061218 10.00000000
346 82 1 -5.71414794421e-08 7.35444085 12.73826522 10.00000000
347 82 1 -4.15800426732e-08 5.88355268 15.28591827 10.00000000
348 82 1 -8.11184551158e-09 7.35444085 17.83357131 10.00000000
349 82 1 -2.20145354229e-09 8.82532903 0.00000000 10.00000000
350 82 1 -2.20379722589e-08 10.29621720 2.54765304 10.00000000
351 82 1 -6.18317234273e-08 8.82532903 5.09530609 10.00000000
352 82 1 -6.90002459839e-08 10.29621720 7.64295913 10.00000000
353 82 1 -7.11747055166e-08 8.82532903 10.19061218 10.00000000
354 82 1 -3.24652835325e-08 10.29621720 12.73826522 10.00000000
355 82 1 -1.0593045834e-08 8.82532903 15.28591827 10.00000000
356 82 1 1.45855004388e-08 10.29621720 17.83357131 10.00000000
357 82 1 8.00494836244e-09 11.76710537 0.00000000 10.00000000
358 82 1 -2.01793265308e-08 13.23799354 2.54765304 10.00000000
359 82 1 -4.80896191376e-08 11.76710537 5.09530609 10.00000000
360 82 1 -6.30000895786e-08 13.23799354 7.64295913 10.00000000
361 82 1 -5.53945783785e-08 11.76710537 10.19061218 10.00000000
362 82 1 -3.30889295461e-08 13.23799354 12.73826522 10.00000000
363 82 1 6.03629482243e-10 11.76710537 15.28591827 10.00000000
364 82 1 9.71069246705e-09 13.23799354 17.83357131 10.00000000
365 82 1 -5.38393462947e-09 14.70888171 0.00000000 10.00000000
366 82 1 -3.56885667975e-08 16.17976988 2.54765304 10.00000000
367 82 1 -5.28628907526e-08 14.70888171 5.09530609 10.00000000
368 82 1 -7.77368176765e-08 16.17976988 7.64295913 10.00000000
369 82 1 -6.42665556578e-08 14.70888171 10.19061218 10.00000000
370 82 1 -5.75633188021e-08 16.17976988 12.73826522 10.00000000
371 82 1 -1.80102620838e-08 14.70888171 15.28591827 10.00000000
372 82 1 -1.65468079055e-08 16.17976988 17.83357131 10.00000000
373 82 1 -3.97194730301e-08 1.47088817 0.84921768 12.40195032
374 82 1 -9.14442563683e-08 2.94177634 3.39687073 12.40195032
375 82 1 -1.35326954025e-07 1.47088817 5.94452377 12.40195032
376 82 1 -1.84336747016e-07 2.94177634 8.49217681 12.40195032
377 82 1 -1.59203787352e-07 1.47088817 11.03982986 12.40195032
378 82 1 -1.25651779281e-07 2.94177634 13.58748290 12.40195032
379 82 1 -6.88540137621e-08 1.47088817 16.13513595 12.40195032
380 82 1 -4.12174817141e-08 2.94177634 18.68278899 12.40195032
381 82 1 -3.99548775476e-08 4.41266451 0.84921768 12.40195032
382 82 1 -7.88634551749e-08 5.88355268 3.39687073 12.40195032
383 82 1 -1.5302892958e-07 4.41266451 5.94452377 12.40195032
384 82 1 -1.72729726231e-07 5.88355268 8.49217681 12.40195032
385 82 1 -1.68033414281e-07 4.41266451 11.03982986 12.40195032
386 82 1 -8.34591621141e-08 5.88355268 13.58748290 12.40195032
387 82 1 -5.65816364568e-08 4.41266451 16.13513595 12.40195032
388 82 1 2.3829564101e-09 5.88355268 18.68278899 12.40195032
389 82 1 7.67455441956e-09 7.35444085 0.84921768 12.40195032
390 82 1 -3.62278820024e-08 8.82532903 3.39687073 12.40195032
391 82 1 -1.24131389449e-07 7.35444085 5.94452377 12.40195032
392 82 1 -1.2056774925e-07 8.82532903 8.49217681 12.40195032
393 82 1 -1.14836674818e-07 7.35444085 11.03982986 12.40195032
394 82 1 -7.36329542156e-09 8.82532903 13.58748290 12.40195032
395 82 1 1.90145234974e-08 7.35444085 16.13513595 12.40195032
396 82 1 7.30770032226e-08 8.82532903 18.68278899 12.40195032
397 82 1 5.34928973798e-08 10.29621720 0.84921768 12.40195032
398 82 1 -9.09422556303e-09 11.76710537 3.39687073 12.40195032
399 82 1 -8.04654297551e-08 10.29621720 5.94452377 12.40195032
400 82 1 -8.24565368153e-08 11.76710537 8.49217681 12.40195032
401 82 1 -5.59021049258e-08 10.29621720 11.03982986 12.40195032
402 82 1 2.35356393231e-08 11.76710537 13.58748290 12.40195032
403 82 1 7.91211211022e-08 10.29621720 16.13513595 12.40195032
404 82 1 9.55160067568e-08 11.76710537 18.68278899 12.40195032
405 82 1 4.96340676997e-08 13.23799354 0.84921768 12.40195032
406 82 1 -2.18623899222e-08 14.70888171 3.39687073 12.40195032
407 82 1 -6.54781432898e-08 13.23799354 5.94452377 12.40195032
408 82 1 -9.34557199283e-08 14.70888171 8.49217681 12.40195032
409 82 1 -4.94460498378e-08 13.23799354 11.03982986 12.40195032
410 82 1 -1.91173214282e-08 14.70888171 13.58748290 12.40195032
411 82 1 6.24609483971e-08 13.23799354 16.13513595 12.40195032
412 82 1 4.96579482158e-08 14.70888171 18.68278899 12.40195032
413 82 1 4.42644871609e-09 16.17976988 0.84921768 12.40195032
414 82 1 -6.1242328402e-08 0.00000000 3.39687073 12.40195032
415 82 1 -9.14049669635e-08 16.17976988 5.94452377 12.40195032
416 82 1 -1.43102665316e-07 0.00000000 8.49217681 12.40195032
417 82 1 -9.96568791694e-08 16.17976988 11.03982986 12.40195032
418 82 1 -9.18351265371e-08 0.00000000 13.58748290 12.40195032
419 82 1 -1.03049216505e-08 16.17976988 16.13513595 12.40195032
420 82 1 -1.65008310883e-08 0.00000000 18.68278899 12.40195032
421 82 1 -6.67843335717e-08 2.94177634 1.69843536 14.80390065
422 82 1 -1.94441914362e-07 4.41266451 4.24608841 14.80390065
423 82 1 -3.07362662468e-07 2.94177634 6.79374145 14.80390065
424 82 1 -3.66942895468e-07 4.41266451 9.34139450 14.80390065
425 82 1 -3.10606445174e-07 2.94177634 11.88904754 14.80390065
426 82 1 -1.70203643832e-07 4.41266451 14.43670058 14.80390065
427 82 1 -1.04489380549e-07 2.94177634 16.98435363 14.80390065
428 82 1 -1.61006755908e-08 4.41266451 19.53200667 14.80390065
429 82 1 -2.87408892643e-08 5.88355268 1.69843536 14.80390065
430 82 1 -1.33821967521e-07 7.35444085 4.24608841 14.80390065
431 82 1 -3.09897488808e-07 5.88355268 6.79374145 14.80390065
432 82 1 -2.73337209022e-07 7.35444085 9.34139450 14.80390065
433 82 1 -2.36752358278e-07 5.88355268 11.88904754 14.80390065
434 82 1 3.21656167173e-08 7.35444085 14.43670058 14.80390065
435 82 1 3.28903215601e-08 5.88355268 16.98435363 14.80390065
436 82 1 1.39730150474e-07 7.35444085 19.53200667 14.80390065
437 82 1 9.07258900622e-08 8.82532903 1.69843536 14.80390065
438 82 1 -4.16410530519e-08 10.29621720 4.24608841 14.80390065
439 82 1 -2.042174955e-07 8.82532903 6.79374145 14.80390065
440 82 1 -1.33090092669e-07 10.29621720 9.34139450 14.80390065
441 82 1 -5.92527978515e-08 8.82532903 11.88904754 14.80390065
442 82 1 1.85116884721e-07 10.29621720 14.43670058 14.80390065
443 82 1 2.42907759565e-07 8.82532903 16.98435363 14.80390065
444 82 1 2.66852025949e-07 10.29621720 19.53200667 14.80390065
445 82 1 1.40714745278e-07 11.76710537 1.69843536 14.80390065
446 82 1 -1.61852196658e-08 13.23799354 4.24608841 14.80390065
447 82 1 -1.1255215754e-07 11.76710537 6.79374145 14.80390065
448 82 1 -8.89746405761e-08 13.23799354 9.34139450 14.80390065
449 82 1 2.59447493406e-08 11.76710537 11.88904754 14.80390065
450 82 1 1.37241403774e-07 13.23799354 14.43670058 14.80390065
451 82 1 2.84965913423e-07 11.76710537 16.98435363 14.80390065
452 82 1 2.25672449657e-07 13.23799354 19.53200667 14.80390065
453 82 1 9.11485512123e-08 14.70888171 1.69843536 14.80390065
454 82 1 -5.8727908408e-08 16.17976988 4.24608841 14.80390065
455 82 1 -1.18102349096e-07 14.70888171 6.79374145 14.80390065
456 82 1 -1.75723537542e-07 16.17976988 9.34139450 14.80390065
457 82 1 -4.53589119797e-08 14.70888171 11.88904754 14.80390065
458 82 1 -3.90612293457e-08 16.17976988 14.43670058 14.80390065
459 82 1 1.3841027519e-07 14.70888171 16.98435363 14.80390065
460 82 1 8.51295841168e-08 16.17976988 19.53200667 14.80390065
461 82 1 6.37064648484e-10 0.00000000 1.69843536 14.80390065
462 82 1 -1.41449129178e-07 1.47088817 4.24608841 14.80390065
463 82 1 -2.06567480788e-07 0.00000000 6.79374145 14.80390065
464 82 1 -3.1234083035e-07 1.47088817 9.34139450 14.80390065
465 82 1 -2.05827482935e-07 0.00000000 11.88904754 14.80390065
466 82 1 -1.92309089768e-07 1.47088817 14.43670058 14.80390065
467 82 1 -4.21448441558e-08 0.00000000 16.98435363 14.80390065
468 82 1 -2.80786047417e-08 1.47088817 19.53200667 14.80390065
469 82 1 -1.16061151287e-07 4.41266451 2.54765304 17.20585097
470 82 1 -4.07753312173e-07 5.88355268 5.09530609 17.20585097
471 82 1 -6.91638437776e-07 4.41266451 7.64295913 17.20585097
472 82 1 -6.2710238446e-07 5.88355268 10.19061218 17.20585097
473 82 1 -5.07675436705e-07 4.41266451 12.73826522 17.20585097
474 82 1 8.12709976362e-09 5.88355268 15.28591827 17.20585097
475 82 1 -4.45906394269e-08 4.41266451 17.83357131 17.20585097
476 82 1 1.54069159213e-07 5.88355268 0.00000000 17.20585097
477 82 1 5.63555419054e-08 7.35444085 2.54765304 17.20585097
478 82 1 -2.1225906745e-07 8.82532903 5.09530609 17.20585097
479 82 1 -5.53903136448e-07 7.35444085 7.64295913 17.20585097
480 82 1 -2.87156769372e-07 8.82532903 10.19061218 17.20585097
481 82 1 -9.05504635967e-08 7.35444085 12.73826522 17.20585097
482 82 1 5.63732124676e-07 8.82532903 15.28591827 17.20585097
483 82 1 4.61772246901e-07 7.35444085 17.83357131 17.20585097
484 82 1 5.23348892468e-07 8.82532903 0.00000000 17.20585097
485 82 1 2.37374578705e-07 10.29621720 2.54765304 17.20585097
486 82 1 -7.84442239404e-08 11.76710537 5.09530609 17.20585097
487 82 1 -2.71052839289e-07 10.29621720 7.64295913 17.20585097
488 82 1 -3.97329952192e-08 11.76710537 10.19061218 17.20585097
489 82 1 2.60070020859e-07 10.29621720 12.73826522 17.20585097
490 82 1 6.283306679e-07 11.76710537 15.28591827 17.20585097
491 82 1 8.01784056934e-07 10.29621720 17.83357131 17.20585097
492 82 1 6.01604844819e-07 11.76710537 0.00000000 17.20585097
493 82 1 2.23660061737e-07 13.23799354 2.54765304 17.20585097
494 82 1 -7.19625951153e-08 14.70888171 5.09530609 17.20585097
495 82 1 -1.42187403532e-07 13.23799354 7.64295913 17.20585097
496 82 1 -9.09223031215e-08 14.70888171 10.19061218 17.20585097
497 82 1 2.17214044794e-07 13.23799354 12.73826522 17.20585097
498 82 1 2.52562721756e-07 14.70888171 15.28591827 17.20585097
499 82 1 5.98205254488e-07 13.23799354 17.83357131 17.20585097
500 82 1 3.85590124518e-07 14.70888171 0.00000000 17.20585097
501 82 1 1.3306565146e-07 16.17976988 2.54765304 17.20585097
502 82 1 -1.69359816761e-07 0.00000000 5.09530609 17.20585097
503 82 1 -2.57702192153e-07 16.17976988 7.64295913 17.20585097
504 82 1 -3.88596907516e-07 0.00000000 10.19061218 17.20585097
505 82 1 -1.01996840787e-07 16.17976988 12.73826522 17.20585097
506 82 1 -1.83498709911e-07 0.00000000 15.28591827 17.20585097
507 82 1 1.70687127909e-07 16.17976988 17.83357131 17.20585097
508 82 1 1.30783496301e-07 0.00000000 0.00000000 17.20585097
509 82 1 -1.31728482613e-08 1.47088817 2.54765304 17.20585097
510 82 1 -3.71202499955e-07 2.94177634 5.09530609 17.20585097
511 82 1 -5.1421667446e-07 1.47088817 7.64295913 17.20585097
512 82 1 -6.7742209645e-07 2.94177634 10.19061218 17.20585097
513 82 1 -4.67659496251e-07 1.47088817 12.73826522 17.20585097
514 82 1 -3.5848395591e-07 2.94177634 15.28591827 17.20585097
515 82 1 -1.24704645537e-07 1.47088817 17.83357131 17.20585097
516 82 1 -1.27602190496e-08 2.94177634 0.00000000 17.20585097
517 82 1 -2.35095107313e-08 5.88355268 3.39687073 19.60780130
518 82 1 -5.97631711241e-07 7.35444085 5.94452377 19.60780130
519 82 1 -1.11980509406e-06 5.88355268 8.49217681 19.60780130
520 82 1 -5.45620838548e-07 7.35444085 11.03982986 19.60780130
521 82 1 -1.98079780692e-07 5.88355268 13.58748290 19.60780130
522 82 1 1.12556967486e-06 7.35444085 16.13513595 19.60780130
523 82 1 6.68065883946e-07 5.88355268 18.68278899 19.60780130
524 82 1 8.45129846763e-07 7.35444085 0.84921768 19.60780130
525 82 1 3.35109802232e-07 8.82532903 3.39687073 19.60780130
526 82 1 -2.00551250831e-07 10.29621720 5.94452377 19.60780130
527 82 1 -6.17142525289e-07 8.82532903 8.49217681 19.60780130
528 82 1 1.2043952463e-07 10.29621720 11.03982986 19.60780130
529 82 1 8.54560377569e-07 8.82532903 13.58748290 19.60780130
530 82 1 1.80787326867e-06 10.29621720 16.13513595 19.60780130
531 82 1 1.63965069665e-06 8.82532903 18.68278899 19.60780130
532 82 1 1.2180507584e-06 10.29621720 0.84921768 19.60780130
533 82 1 3.90454514694e-07 11.76710537 3.39687073 19.60780130
534 82 1 -5.28116206704e-08 13.23799354 5.94452377 19.60780130
535 82 1 -8.20018474202e-08 11.76710537 8.49217681 19.60780130
536 82 1 3.20148883297e-07 13.23799354 11.03982986 19.60780130
537 82 1 1.01179118581e-06 11.76710537 13.58748290 19.60780130
538 82 1 1.21327505414e-06 13.23799354 16.13513595 19.60780130
539 82 1 1.65848117506e-06 11.76710537 18.68278899 19.60780130
540 82 1 1.0005757107e-06 13.23799354 0.84921768 19.60780130
541 82 1 3.39464632669e-07 14.70888171 3.39687073 19.60780130
542 82 1 -1.15835669753e-07 16.17976988 5.94452377 19.60780130
543 82 1 -5.47345783e-08 14.70888171 8.49217681 19.60780130
544 82 1 -2.61203530235e-08 16.17976988 11.03982986 19.60780130
545 82 1 4.8207134644e-07 14.70888171 13.58748290 19.60780130
546 82 1 2.76514959849e-07 16.17976988 16.13513595 19.60780130
547 82 1 9.55107907819e-07 14.70888171 18.68278899 19.60780130
548 82 1 6.87318432695e-07 16.17976988 0.84921768 19.60780130
549 82 1 3.15547909376e-07 0.00000000 3.39687073 19.60780130
550 82 1 -3.89830074201e-07 1.47088817 5.94452377 19.60780130
551 82 1 -4.82284492431e-07 0.00000000 8.49217681 19.60780130
552 82 1 -7.11503983404e-07 1.47088817 11.03982986 19.60780130
553 82 1 -2.75159793321e-07 0.00000000 13.58748290 19.60780130
554 82 1 -3.59894701901e-07 1.47088817 16.13513595 19.60780130
555 82 1 3.20365542272e-07 0.00000000 18.68278899 19.60780130
556 82 1 4.26793547096e-07 1.47088817 0.84921768 19.60780130
557 82 1 3.03443160071e-08 2.94177634 3.39687073 19.60780130
558 82 1 -7.64601924737e-07 4.41266451 5.94452377 19.60780130
559 82 1 -1.01380261184e-06 2.94177634 8.49217681 19.60780130
560 82 1 -1.05475934408e-06 4.41266451 11.03982986 19.60780130
561 82 1 -7.75477170406e-07 2.94177634 13.58748290 19.60780130
562 82 1 -1.34578505857e-07 4.41266451 16.13513595 19.60780130
563 82 1 8.18746209278e-08 2.94177634 18.68278899 19.60780130
564 82 1 3.33446324108e-07 4.41266451 0.84921768 19.60780130
