ITEM: TIMESTEP
3500
ITEM: NUMBER OF ATOMS
528
ITEM: BOX BOUNDS pp pp pp
0.0000000000000000e+00 1.7650658050000001e+01
0.0000000000000000e+00 2.0381224350000000e+01
0.0000000000000000e+00 1.4970000000000001e+01
ITEM: ATOMS id mol type q x y z
1 1 2 -1.10474 1.36854 10.8822 6.61898
2 1 3 0.553526 1.54445 9.91104 6.45824
3 1 3 0.551214 1.26115 11.3511 5.74227
4 2 2 -0.98192 3.04779 9.38816 8.90165
5 2 3 0.454959 2.36702 10.0024 9.30078
6 2 3 0.52696 3.96469 9.69919 9.15174
7 3 2 -0.956208 1.22147 11.1025 3.69415
8 3 3 0.486097 0.552823 10.8336 3.00087
9 3 3 0.470111 1.81614 11.8164 3.32454
10 4 2 -1.04094 15.7619 1.13782 1.8291
11 4 3 0.446985 15.7908 0.240149 1.38937
12 4 3 0.593953 15.868 1.85166 1.13687
13 5 2 -1.16372 2.79592 5.2452 9.45803
14 5 3 0.538457 2.73036 4.34443 9.88736
15 5 3 0.625259 2.90048 5.94463 10.165
16 6 2 -1.08259 3.8483 1.39171 4.86002
17 6 3 0.578759 3.01971 1.47703 4.3067
18 6 3 0.503827 4.65225 1.49888 4.27507
19 7 2 -0.937696 6.25565 5.58322 2.81269
20 7 3 0.511405 6.53874 6.24291 3.50888
21 7 3 0.426291 5.86008 6.06975 2.03371
22 8 2 -1.13531 17.5317 7.63712 9.67931
23 8 3 0.484877 0.800059 7.92187 9.4068
24 8 3 0.650432 17.0805 8.38652 10.1639
25 9 2 -1.09248 12.1088 19.8252 7.93252
26 9 3 0.490682 11.252 20.3405 7.91129
27 9 3 0.601794 12.7412 20.2018 7.25558
28 10 2 -1.17085 17.6092 7.74289 5.42732
29 10 3 0.61015 0.938891 7.80224 5.61567
30 10 3 0.560703 17.4611 7.2025 4.59905
31 11 2 -1.18876 9.75567 2.15 5.59545
32 11 3 0.637417 8.85026 2.5726 5.55491
33 11 3 0.551341 10.1828 2.36061 6.47479
34 12 2 -1.14507 7.47281 3.66242 5.09154
35 12 3 0.468176 7.21404 4.3291 4.39256
36 12 3 0.676892 7.0478 3.91025 5.96215
37 13 2 -1.37499 3.1065 10.5904 13.1319
38 13 3 0.665301 3.7715 9.92544 12.7919
39 13 3 0.709684 3.40999 10.9424 14.0174
40 14 2 -1.16775 2.0512 6.98043 14.0784
41 14 3 0.525531 2.48917 6.54762 14.8664
42 14 3 0.642216 1.09458 7.17589 14.2945
43 15 2 -1.01618 1.31143 1.70447 3.73894
44 15 3 0.538017 0.364194 1.85616 4.02134
45 15 3 0.478162 1.33188 1.41788 2.7811
46 16 2 -1.2146 3.16797 2.61617 10.5507
47 16 3 0.682701 2.59705 1.80636 10.6858
48 16 3 0.531896 3.11878 3.19795 11.3625
49 17 2 -1.01443 12.8706 13.8728 9.2484
50 17 3 0.34458 13.6723 13.6668 9.80948
51 17 3 0.669854 13.078 14.638 8.63894
52 18 2 -1.0466 5.66061 19.4909 10.6939
53 18 3 0.537368 5.43677 18.8941 11.4644
54 18 3 0.509232 6.42653 19.1016 10.1822
55 19 2 -1.24319 8.05977 9.84788 0.364011
56 19 3 0.620163 8.76571 9.4699 14.735
57 19 3 0.623028 8.40307 9.88361 1.30256
58 20 2 -0.94723 7.10242 10.7585 11.0204
59 20 3 0.429397 6.38245 10.8094 11.7125
60 20 3 0.517833 7.88834 11.3014 11.3164
61 21 2 -1.25896 2.64076 8.12411 6.36016
62 21 3 0.63797 3.06487 7.22403 6.26016
63 21 3 0.620991 2.72109 8.42679 7.30986
64 22 2 -1.00184 2.44222 5.10489 4.3279
65 22 3 0.521181 2.70851 5.07494 5.29133
66 22 3 0.480655 1.58334 4.60796 4.20386
67 23 2 -0.896913 10.9768 8.73522 8.15434
68 23 3 0.479188 11.0319 9.6668 7.79499
69 23 3 0.417725 11.5827 8.13857 7.62815
70 24 2 -1.05982 6.73544 4.59105 10.4746
71 24 3 0.548557 7.41123 4.22291 11.1131
72 24 3 0.511259 6.13928 3.85319 10.1581
73 25 2 -1.11291 6.69351 1.2185 12.8674
74 25 3 0.489351 6.78904 0.875873 11.9328
75 25 3 0.623558 5.74234 1.12432 13.1614
76 26 2 -1.1666 5.45885 2.47335 9.05769
77 26 3 0.492188 5.35082 1.8166 8.31135
78 26 3 0.674412 4.63629 2.46995 9.62636
79 27 2 -1.07217 5.69578 2.12441 2.74939
80 27 3 0.574084 5.10341 2.63664 2.12753
81 27 3 0.498086 6.32565 2.7541 3.2041
82 28 2 -1.08932 0.299538 10.3778 13.3435
83 28 3 0.669639 1.26906 10.2165 13.1591
84 28 3 0.419679 0.190871 11.254 13.8131
85 29 2 -1.16297 3.98265 9.21466 2.12242
86 29 3 0.554078 4.29373 9.30355 3.06864
87 29 3 0.60889 3.74267 10.117 1.76426
88 30 2 -1.18363 16.5991 9.87652 10.952
89 30 3 0.595645 17.0874 10.4933 10.3346
90 30 3 0.587989 16.7592 10.1568 11.8985
91 31 2 -1.15579 2.27985 0.219366 11.5191
92 31 3 0.57372 1.33395 0.314308 11.8294
93 31 3 0.582069 2.37484 19.7555 10.993
94 32 2 -1.18795 6.62314 4.50602 7.5235
95 32 3 0.56493 6.0348 3.87832 8.03326
96 32 3 0.623022 7.22831 4.98578 8.1588
97 33 2 -0.956747 11.2126 11.9238 8.00005
98 33 3 0.567243 11.9124 12.4439 8.48982
99 33 3 0.389504 10.9411 12.4231 7.17723
100 34 2 -0.950678 5.50506 5.40634 13.85
101 34 3 0.427432 5.10516 5.2609 12.945
102 34 3 0.523246 5.11303 6.2303 14.2592
103 35 2 -0.927106 2.43163 4.33636 12.8056
104 35 3 0.49942 2.45495 5.27288 13.1554
105 35 3 0.427687 2.65356 3.69919 13.5436
106 36 2 -1.19809 5.33182 9.01061 12.8084
107 36 3 0.608988 5.58844 8.60274 13.6847
108 36 3 0.589098 5.87814 8.60148 12.0776
109 37 2 -1.12015 8.81104 17.9362 10.3011
110 37 3 0.563318 9.58935 17.4797 9.86995
111 37 3 0.556828 7.99731 17.8161 9.73236
112 38 2 -0.943851 13.8656 9.33751 2.87205
113 38 3 0.448981 13.9475 10.127 2.26379
114 38 3 0.49487 13.0109 8.85542 2.67926
115 39 2 -1.08317 0.504486 11.4503 9.20688
116 39 3 0.593249 0.767978 11.2942 8.25494
117 39 3 0.489924 0.643428 12.4134 9.43752
118 40 2 -1.04313 0.75422 2.06688 14.5929
119 40 3 0.511288 0.305756 1.75105 13.7567
120 40 3 0.531841 0.589234 3.04619 14.7101
121 41 2 -1.30046 3.24448 12.8063 11.5668
122 41 3 0.687249 3.21714 11.9694 12.1134
123 41 3 0.613207 3.83125 12.6647 10.7695
124 42 2 -1.15106 4.66736 9.45423 4.91822
125 42 3 0.593085 3.91122 8.9062 5.27586
126 42 3 0.557976 4.69175 10.3361 5.38907
127 43 2 -1.13578 1.24554 20.2498 1.20989
128 43 3 0.5314 2.23041 20.0838 1.25946
129 43 3 0.604378 1.06645 0.626688 0.582832
130 44 2 -1.02026 16.454 10.32 5.91299
131 44 3 0.488312 17.3602 10.736 5.98957
132 44 3 0.531947 16.5406 9.40135 5.5274
133 45 2 -1.1602 10.8442 16.1315 9.7401
134 45 3 0.606434 10.8974 15.6678 10.6245
135 45 3 0.553763 10.2219 15.6309 9.13822
136 46 2 -1.24905 12.7459 18.0506 10.1195
137 46 3 0.618877 12.1438 17.2892 9.87888
138 46 3 0.630171 12.7011 18.7494 9.40565
139 47 2 -1.03668 2.5996 7.31981 11.4383
140 47 3 0.436313 3.29147 8.02992 11.3077
141 47 3 0.600366 2.40168 7.22272 12.4137
142 48 2 -1.00824 6.28613 9.16025 8.68028
143 48 3 0.484759 6.70429 9.85488 9.26564
144 48 3 0.523482 6.14384 8.32219 9.20697
145 49 2 -1.06076 11.3726 14.6896 12.0171
146 49 3 0.58468 12.1702 14.092 11.936
147 49 3 0.476079 11.4043 15.1709 12.8931
148 50 2 -0.892445 5.33788 15.4897 7.68465
149 50 3 0.446042 5.02894 15.7921 6.78291
150 50 3 0.446403 6.23551 15.0568 7.60162
151 51 2 -1.32927 4.05774 11.5447 0.573109
152 51 3 0.705803 3.66383 12.2608 1.14931
153 51 3 0.62347 5.01533 11.76 0.381639
154 52 2 -1.25711 2.88709 13.3062 2.17185
155 52 3 0.662505 2.12793 13.9082 1.92434
156 52 3 0.594609 3.25488 13.5815 3.06008
157 53 2 -1.07314 7.52709 15.8937 14.5145
158 53 3 0.614863 7.1197 15.5726 0.399452
159 53 3 0.458274 6.95673 15.6065 13.745
160 54 2 -1.01327 8.14702 1.54038 8.13501
161 54 3 0.562222 8.77342 1.14518 8.8069
162 54 3 0.451044 7.38829 1.98716 8.60904
163 55 2 -1.17673 11.3525 18.2233 3.54434
164 55 3 0.541603 11.8536 17.3754 3.37124
165 55 3 0.635131 11.9176 19.0045 3.27898
166 56 2 -1.23002 3.47493 14.0973 4.91978
167 56 3 0.641108 4.11512 14.8655 4.91321
168 56 3 0.588907 2.74922 14.2739 5.58475
169 57 2 -1.21283 0.831625 15.0729 1.56879
170 57 3 0.623226 1.13994 16.0144 1.70516
171 57 3 0.589608 17.5421 14.9793 1.89649
172 58 2 -1.17612 16.8835 17.8976 9.82132
173 58 3 0.585657 16.3866 18.7652 9.80367
174 58 3 0.590465 16.2776 17.173 10.1499
175 59 2 -1.09754 4.08162 16.5355 1.38984
176 59 3 0.458685 3.47707 16.4154 2.17731
177 59 3 0.638855 4.93892 16.0463 1.55009
178 60 2 -1.03596 4.19996 11.9849 6.52207
179 60 3 0.581846 4.04192 12.7855 5.94403
180 60 3 0.454111 3.32283 11.57 6.76393
181 61 2 -1.19257 17.1929 0.475109 12.1706
182 61 3 0.583864 16.2766 0.0755643 12.1442
183 61 3 0.608707 17.303 1.10756 11.4038
184 62 2 -1.2915 2.71366 16.9273 13.8033
185 62 3 0.606359 2.93729 16.5215 14.6895
186 62 3 0.685145 1.80072 17.3334 13.8435
187 63 2 -0.848591 9.80065 14.2218 0.685159
188 63 3 0.469135 9.03911 14.7117 0.260826
189 63 3 0.379456 9.67903 13.2381 0.553196
190 64 2 -1.15485 9.43916 17.5707 13.1982
191 64 3 0.627324 8.80533 17.0083 13.7292
192 64 3 0.527525 9.23657 17.4719 12.2239
193 65 2 -1.17059 0.422631 13.4362 11.6983
194 65 3 0.535164 1.34459 13.1608 11.4259
195 65 3 0.635426 0.474497 14.2552 12.2698
196 66 2 -1.15166 14.1899 2.44214 7.7431
197 66 3 0.60819 14.9187 3.11335 7.60763
198 66 3 0.543467 14.2901 1.70239 7.07771
199 67 2 -1.06022 6.64265 12.06 14.7994
200 67 3 0.418415 6.75871 12.5198 13.919
201 67 3 0.641801 7.34429 11.355 14.9023
202 68 2 -1.23841 3.91293 19.7382 8.62431
203 68 3 0.569254 3.18447 19.1289 8.93747
204 68 3 0.66916 4.63454 19.7778 9.31549
205 69 2 -1.27927 6.43514 15.1267 2.05327
206 69 3 0.590838 6.30317 14.1695 2.31059
207 69 3 0.688434 6.895 15.6116 2.79724
208 70 2 -1.0958 5.21144 16.3792 10.8609
209 70 3 0.536703 5.18403 16.4301 9.86257
210 70 3 0.559096 4.38914 15.9177 11.1939
211 71 2 -1.02143 4.78347 11.9249 9.35828
212 71 3 0.601271 4.97802 11.9062 8.37757
213 71 3 0.420158 5.64341 11.9353 9.86857
214 72 2 -1.17325 2.12597 18.106 10.1977
215 72 3 0.599342 1.13752 17.9937 10.0959
216 72 3 0.573909 2.48884 17.3665 10.7647
217 73 2 -1.1007 5.28476 17.7935 13.2644
218 73 3 0.628525 4.33849 17.5277 13.4485
219 73 3 0.472173 5.66612 17.1993 12.5562
220 74 2 -1.12743 8.96556 9.37799 3.01416
221 74 3 0.584086 8.428 8.68217 3.49045
222 74 3 0.543346 9.46849 9.92602 3.68254
223 75 2 -1.04472 6.74272 18.2531 8.40073
224 75 3 0.457742 6.02232 17.9485 7.77764
225 75 3 0.586982 7.49862 18.64 7.87262
226 76 2 -1.0889 17.2004 13.5985 6.46756
227 76 3 0.585826 0.47957 13.9664 6.47329
228 76 3 0.503079 16.749 13.8197 7.33205
229 77 2 -0.875302 6.94926 14.1936 11.9636
230 77 3 0.400983 7.78806 14.0364 11.4424
231 77 3 0.474319 6.44506 14.9577 11.5612
232 78 2 -1.26497 4.0512 18.9594 5.77121
233 78 3 0.679015 4.49056 19.708 5.27472
234 78 3 0.585953 4.08891 19.1434 6.75342
235 79 2 -1.19889 15.8754 12.47 13.0413
236 79 3 0.567979 15.9861 11.681 13.6457
237 79 3 0.630911 16.68 12.5551 12.4536
238 80 2 -0.974832 15.248 12.6026 4.50775
239 80 3 0.429139 15.7271 11.7482 4.30626
240 80 3 0.545693 15.7367 13.0973 5.2264
241 81 2 -1.16254 4.16894 0.381676 13.8942
242 81 3 0.561271 3.5108 0.19718 13.1643
243 81 3 0.601272 4.23566 19.9644 14.4925
244 82 2 -1.06473 0.943043 14.9402 9.18933
245 82 3 0.548895 1.62406 15.015 9.91777
246 82 3 0.515831 0.0256873 14.9705 9.58625
247 83 2 -1.18543 1.59875 18.016 5.11923
248 83 3 0.614459 2.48014 18.4041 5.38853
249 83 3 0.570966 0.938476 18.1429 5.85945
250 84 2 -1.16458 6.99603 7.92159 4.49287
251 84 3 0.571455 6.19968 8.52526 4.45519
252 84 3 0.59312 7.38361 7.93821 5.41456
253 85 2 -1.18183 8.73985 18.955 3.64075
254 85 3 0.625264 9.63746 18.531 3.76109
255 85 3 0.556564 8.83119 19.7735 3.0735
256 86 2 -0.779295 4.33063 14.3638 14.0583
257 86 3 0.402025 4.25312 13.6691 13.3431
258 86 3 0.37727 4.98777 14.06 14.7481
259 87 2 -1.00916 4.44091 3.14113 0.355509
260 87 3 0.469993 4.97088 3.7012 14.6888
261 87 3 0.53917 4.2359 2.25865 14.9022
262 88 2 -1.10346 1.42446 3.89599 7.38589
263 88 3 0.557567 2.07043 4.42743 7.93389
264 88 3 0.545892 1.72093 2.94148 7.35379
265 89 2 -0.918677 8.95576 8.29949 10.5345
266 89 3 0.479801 9.40755 7.81752 9.78376
267 89 3 0.438876 9.59419 8.95085 10.9445
268 90 2 -1.18883 11.8511 1.56305 4.03177
269 90 3 0.716662 10.9162 1.61367 4.38324
270 90 3 0.472165 12.0954 2.43504 3.60757
271 91 2 -1.14175 9.78718 0.032043 9.76174
272 91 3 0.586246 10.6824 0.145938 10.1927
273 91 3 0.555502 9.38063 19.55 10.0609
274 92 2 -1.03061 13.0233 19.9512 2.5588
275 92 3 0.481238 13.5876 20.2528 1.79035
276 92 3 0.549372 12.5699 0.360745 2.96999
277 93 2 -1.05483 16.9356 9.47417 2.28363
278 93 3 0.477019 16.2353 9.13463 2.91149
279 93 3 0.577814 0.132151 8.96066 2.42001
280 94 2 -1.09738 10.2503 4.59156 10.5993
281 94 3 0.569666 9.83867 3.92676 11.2227
282 94 3 0.527711 10.888 5.17243 11.1052
283 95 2 -1.07074 8.29657 3.40872 12.5148
284 95 3 0.588666 7.86305 2.58226 12.874
285 95 3 0.482075 8.17342 4.15898 13.1644
286 96 2 -1.14419 11.4543 7.85261 1.95346
287 96 3 0.637841 11.5014 6.86494 2.10276
288 96 3 0.506353 10.6537 8.22311 2.42434
289 97 2 -0.969076 2.71421 5.19659 1.44356
290 97 3 0.456955 3.55737 4.70919 1.21658
291 97 3 0.512121 2.61914 5.25322 2.43742
292 98 2 -1.10332 14.6138 4.33946 5.01866
293 98 3 0.531632 15.2759 4.3646 5.76772
294 98 3 0.571686 13.6877 4.29752 5.39358
295 99 2 -1.06389 11.3679 3.30095 8.22109
296 99 3 0.528088 12.2644 2.87988 8.35908
297 99 3 0.535802 10.9601 3.51514 9.10867
298 100 2 -0.94886 6.95257 19.0043 0.35103
299 100 3 0.368258 6.80932 19.9366 0.0188447
300 100 3 0.580603 6.48793 18.3592 14.7144
301 101 2 -1.14313 13.9024 10.2213 10.0845
302 101 3 0.600677 14.1801 10.5945 9.19931
303 101 3 0.542454 14.6884 9.7867 10.5244
304 102 2 -1.11628 16.2324 2.04108 4.40083
305 102 3 0.557679 16.0442 1.35852 3.69465
306 102 3 0.558601 15.5303 2.75255 4.37235
307 103 2 -0.987658 8.91394 5.88241 8.47685
308 103 3 0.575348 9.31696 5.47428 9.296
309 103 3 0.41231 9.203 5.36633 7.67056
310 104 2 -1.16097 13.3819 7.30563 6.91189
311 104 3 0.47343 13.1896 8.19829 6.50425
312 104 3 0.687541 14.3614 7.22798 7.09747
313 105 2 -1.06158 9.33133 20.3047 13.3735
314 105 3 0.468975 8.52685 0.435719 13.0727
315 105 3 0.592603 9.11464 19.3288 13.3994
316 106 2 -1.12025 12.0103 5.06507 6.01308
317 106 3 0.576815 12.4801 5.89327 6.31861
318 106 3 0.543439 11.7808 4.50032 6.80579
319 107 2 -1.04664 14.6914 5.59256 11.2673
320 107 3 0.498465 14.7387 5.86045 12.2296
321 107 3 0.548172 14.0735 6.20932 10.7796
322 108 2 -1.17537 5.83729 8.07912 0.372736
323 108 3 0.581229 5.05961 8.32928 0.949485
324 108 3 0.594143 6.59922 8.70142 0.552225
325 109 2 -1.0642 14.1882 0.980724 13.7132
326 109 3 0.573624 14.8046 1.69645 14.0415
327 109 3 0.490578 13.2835 1.10768 14.1198
328 110 2 -0.925272 16.9091 5.22938 3.7958
329 110 3 0.523344 15.9812 5.01012 4.09735
330 110 3 0.401928 16.9852 5.07294 2.81105
331 111 2 -1.18173 17.3284 4.8355 13.9951
332 111 3 0.520184 17.0606 5.77417 14.2123
333 111 3 0.661546 0.151671 4.81937 13.1147
334 112 2 -1.253 17.3757 18.5574 7.2497
335 112 3 0.594863 17.246 18.313 8.21068
336 112 3 0.658134 17.2906 19.5481 7.14326
337 113 2 -1.11134 11.2246 5.33733 2.74268
338 113 3 0.519976 11.6324 5.41561 3.6524
339 113 3 0.591365 10.6162 4.54406 2.71721
340 114 2 -1.22479 16.3135 4.18152 7.448
341 114 3 0.564898 16.0909 5.13165 7.66643
342 114 3 0.659888 17.2976 4.09712 7.29192
343 115 2 -1.08547 8.40396 8.4473 6.85394
344 115 3 0.527633 9.06563 7.86195 7.32252
345 115 3 0.557837 7.74698 8.80526 7.51745
346 116 2 -0.984158 14.4242 6.56786 14.2726
347 116 3 0.443615 13.8955 7.32001 14.6659
348 116 3 0.540543 14.1694 5.7111 14.721
349 117 2 -1.05234 8.77558 0.535805 1.55105
350 117 3 0.556822 8.28482 20.1412 1.15442
351 117 3 0.495523 9.36589 0.947128 0.856533
352 118 2 -1.04949 11.6713 6.7598 12.684
353 118 3 0.530293 11.2256 7.44008 13.2659
354 118 3 0.519195 12.1216 7.21954 11.9186
355 119 2 -1.13288 10.7564 4.39959 14.1822
356 119 3 0.54576 11.0092 5.24742 13.7161
357 119 3 0.58712 9.80928 4.46188 14.497
358 120 2 -0.987679 14.2715 2.71213 10.3945
359 120 3 0.485155 14.3988 3.60843 10.8193
360 120 3 0.502524 14.3258 2.80375 9.40019
361 121 2 -0.998529 0.0908145 2.4437 10.2989
362 121 3 0.565739 0.133433 3.41574 10.5298
363 121 3 0.43279 0.137098 2.33465 9.30594
364 122 2 -1.06517 12.0897 18.0291 12.8625
365 122 3 0.515984 12.0829 18.023 11.8625
366 122 3 0.549184 11.153 17.9465 13.2027
367 123 2 -1.00926 1.63848 7.89572 2.9187
368 123 3 0.553535 2.39802 8.24215 2.36817
369 123 3 0.45573 1.9246 7.06495 3.39616
370 124 2 -1.2128 2.25238 1.16779 7.29917
371 124 3 0.60961 2.72283 1.07825 6.42129
372 124 3 0.603189 2.75022 0.654257 7.99805
373 125 2 -1.03099 9.16403 3.22058 2.59406
374 125 3 0.492878 8.84595 3.33 3.53579
375 125 3 0.538113 9.25834 2.24722 2.38505
376 126 2 -1.21223 15.4366 3.26609 0.0242999
377 126 3 0.548318 14.5481 3.6754 0.231744
378 126 3 0.663909 16.059 3.973 14.6583
379 127 2 -1.06004 10.1244 10.5741 5.51908
380 127 3 0.508556 9.55277 10.0492 6.14972
381 127 3 0.551488 11.0788 10.523 5.81312
382 128 2 -1.04732 8.19346 4.8027 0.186489
383 128 3 0.505609 7.24804 4.96093 14.8716
384 128 3 0.541712 8.20513 4.45086 1.12248
385 129 2 -1.06444 11.1808 1.49154 14.6134
386 129 3 0.557523 10.6208 0.898248 14.0351
387 129 3 0.506915 10.954 2.44776 14.4284
388 130 2 -1.15655 6.36127 7.35735 10.9013
389 130 3 0.598154 6.49989 6.36951 10.831
390 130 3 0.5584 7.2485 7.81858 10.9114
391 131 2 -1.00508 5.82226 19.8889 3.47922
392 131 3 0.469378 6.72269 19.5119 3.26202
393 131 3 0.535707 5.749 0.432318 3.10561
394 132 2 -1.06278 0.111438 15.318 13.7072
395 132 3 0.513765 0.385111 14.999 14.6145
396 132 3 0.549011 17.0997 16.0613 13.8009
397 133 2 -1.1479 10.5315 8.7183 14.4997
398 133 3 0.590029 10.8345 8.37465 0.418533
399 133 3 0.557875 11.064 9.52911 14.2566
400 134 2 -1.19412 9.45898 13.4773 5.66835
401 134 3 0.66504 10.278 14.0333 5.52645
402 134 3 0.529076 9.68858 12.5107 5.55498
403 135 2 -1.00713 14.0746 12.1711 1.78497
404 135 3 0.485489 14.2419 13.0008 1.25243
405 135 3 0.521642 14.1211 12.3861 2.76048
406 136 2 -0.94693 9.35441 15.826 7.24519
407 136 3 0.465291 9.09374 14.9381 6.86622
408 136 3 0.481639 10.0623 16.2383 6.67176
409 137 2 -1.13018 17.0245 7.85669 13.999
410 137 3 0.617206 17.0815 8.84477 13.856
411 137 3 0.51297 16.0654 7.58733 14.0867
412 138 2 -0.978363 14.459 16.9415 3.91747
413 138 3 0.521312 14.9409 16.3164 3.30346
414 138 3 0.457051 14.9157 16.9531 4.80703
415 139 2 -0.937641 9.593 12.2753 10.939
416 139 3 0.463983 9.91002 12.0141 10.0272
417 139 3 0.473658 10.119 13.062 11.2621
418 140 2 -1.13655 13.2323 4.67018 0.812125
419 140 3 0.556294 12.8137 4.74424 1.71727
420 140 3 0.580254 12.5348 4.41625 0.142042
421 141 2 -1.08757 12.9 7.67994 10.1575
422 141 3 0.475912 12.6102 7.37499 9.2503
423 141 3 0.611663 13.0179 8.67296 10.1535
424 142 2 -0.939388 12.0484 0.629822 11.3775
425 142 3 0.436951 11.8776 0.37432 12.3292
426 142 3 0.502437 12.8389 1.24068 11.3331
427 143 2 -1.20724 17.1828 0.82368 6.8449
428 143 3 0.596074 16.9825 1.12359 5.91219
429 143 3 0.611162 0.424496 1.17796 7.12459
430 144 2 -1.16037 15.0719 14.3637 14.9403
431 144 3 0.569852 14.9724 15.2163 14.4272
432 144 3 0.59052 15.5281 13.6818 14.3685
433 145 2 -1.19741 13.5603 15.7628 7.50604
434 145 3 0.569758 12.9771 16.5627 7.36484
435 145 3 0.627656 14.4672 15.9397 7.12355
436 146 2 -0.947413 16.1081 18.2939 1.66851
437 146 3 0.444444 15.6144 18.382 2.53363
438 146 3 0.502969 16.9738 17.8186 1.8257
439 147 2 -1.04008 15.984 13.9399 9.17292
440 147 3 0.460576 16.1347 13.4089 10.0068
441 147 3 0.579505 15.4107 14.7322 9.38134
442 148 2 -1.05626 11.7733 17.5595 6.44648
443 148 3 0.506771 11.7247 17.822 5.48275
444 148 3 0.549489 11.4763 18.3259 7.01603
445 149 2 -1.07248 12.2525 15.0123 2.35695
446 149 3 0.56897 12.7145 15.6279 1.71846
447 149 3 0.503512 11.388 14.7062 1.95834
448 150 2 -1.12829 15.9689 16.2759 6.40708
449 150 3 0.529741 16.6764 15.6025 6.19261
450 150 3 0.598549 16.3982 17.1172 6.73558
451 151 2 -1.02146 0.370846 18.2943 13.7956
452 151 3 0.531386 17.5799 18.8465 13.0884
453 151 3 0.490069 0.247443 18.7324 14.686
454 152 2 -0.845669 6.3381 12.7002 3.70928
455 152 3 0.40646 6.36883 11.7089 3.58135
456 152 3 0.439209 6.43184 12.9139 4.68168
457 153 2 -1.0927 13.5824 0.399601 5.78607
458 153 3 0.619386 12.9519 0.806191 5.12489
459 153 3 0.473318 14.3236 20.3186 5.29921
460 154 2 -1.00963 8.70042 19.5321 6.63511
461 154 3 0.533377 8.78172 0.0958265 6.95217
462 154 3 0.476249 8.77567 19.5074 5.63825
463 155 2 -1.09836 15.8525 14.9287 2.57109
464 155 3 0.581811 15.3767 14.789 1.70272
465 155 3 0.516545 15.7975 14.0942 3.11936
466 156 2 -1.1539 14.9616 11.5194 7.9609
467 156 3 0.595674 15.5789 11.1231 7.28127
468 156 3 0.558226 15.375 12.3448 8.34548
469 157 2 -1.16372 11.6557 14.9418 5.06429
470 157 3 0.547164 12.2458 15.6343 5.4793
471 157 3 0.616553 11.9137 14.8146 4.10656
472 158 2 -1.10978 3.95132 5.75277 6.97682
473 158 3 0.581734 3.71105 5.54148 7.92425
474 158 3 0.528051 4.90405 5.49887 6.80997
475 159 2 -1.20473 1.64998 15.1929 6.62311
476 159 3 0.535655 1.78664 16.0635 6.15034
477 159 3 0.669076 1.59866 15.3534 7.60882
478 160 2 -1.11709 14.8258 16.1411 10.6208
479 160 3 0.514644 14.744 16.003 11.6078
480 160 3 0.602449 14.1447 16.8088 10.32
481 161 2 -0.865392 7.27506 12.9543 7.20875
482 161 3 0.345632 7.50865 12.3786 7.99233
483 161 3 0.51976 8.02987 12.9468 6.55283
484 162 2 -1.31853 2.70719 15.4718 11.5029
485 162 3 0.618152 2.87905 14.4868 11.5204
486 162 3 0.700382 2.73268 15.8313 12.4357
487 163 2 -1.20385 4.82223 16.4432 5.02784
488 163 3 0.547063 5.75249 16.4576 4.66122
489 163 3 0.656785 4.56046 17.3665 5.30905
490 164 2 -1.14384 14.7738 19.252 12.0633
491 164 3 0.602938 14.3491 19.9494 12.6406
492 164 3 0.5409 14.1656 19.0358 11.2996
493 165 2 -1.00895 15.6161 0.103454 9.144
494 165 3 0.518806 15.9237 0.490373 8.27469
495 165 3 0.490141 14.8383 0.630291 9.48676
496 166 2 -0.968853 13.0149 17.141 0.676418
497 166 3 0.43761 13.4233 17.8458 1.25654
498 166 3 0.531243 12.7972 17.5307 14.7516
499 167 2 -1.25808 1.14933 17.6847 2.43745
500 167 3 0.681539 1.45438 17.8067 3.38194
501 167 3 0.576538 1.03902 18.5794 2.0046
502 168 2 -1.02778 15.5604 10.3493 14.9084
503 168 3 0.445061 14.7639 10.9091 0.167055
504 168 3 0.582715 16.009 10.0483 0.779956
505 169 2 -1.02675 13.0169 10.1789 6.20681
506 169 3 0.560931 13.6213 10.5673 6.9024
507 169 3 0.465816 13.5447 9.97663 5.3819
508 170 2 -1.14141 13.2794 12.3933 11.9818
509 170 3 0.561782 13.3378 11.918 11.1039
510 170 3 0.579625 14.1809 12.4063 12.4144
511 171 2 -1.29915 15.9853 6.9806 7.53786
512 171 3 0.67275 16.5292 7.09969 8.36855
513 171 3 0.626405 16.537 7.22507 6.74039
514 172 2 -1.15915 7.66096 16.367 4.04721
515 172 3 0.521187 8.3945 15.8919 4.53315
516 172 3 0.637959 7.88091 17.3403 3.98091
517 173 2 -0.958508 11.7602 11.2946 14.1412
518 173 3 0.40925 12.1093 11.6213 0.0494699
519 173 3 0.549258 12.052 11.9164 13.4144
520 174 2 -1.12955 17.5715 5.28344 11.2689
521 174 3 0.543426 16.5787 5.31957 11.1547
522 174 3 0.586128 0.33488 6.08785 10.8429
523 175 2 -1.08832 15.2347 17.0049 13.7872
524 175 3 0.49066 15.0866 17.2912 14.7338
525 175 3 0.59766 14.9666 17.7441 13.1695
526 176 2 -1.12315 4.04455 19.2209 1.22517
527 176 3 0.611439 3.9925 18.2222 1.22214
528 176 3 0.511714 4.89538 19.509 1.66457
