LAMMPS (2 Sep 2026)
OMP_NUM_THREADS environment is not set. Defaulting to 1 thread.
  using 1 OpenMP thread(s) per MPI task
# Au(111) + SPC-FQ film dynamics, arm nometal (run_dyn_spc.py)
units           metal
atom_style      full
boundary        p p p
fix             pb all property/atom i_body ghost yes
read_data       data fix pb NULL RigidBodies
Reading data file ...
  orthogonal box = (0 0 0) to (17.650658 20.381224 14.97)
  1 by 1 by 1 MPI processor grid
  reading atoms ...
  528 atoms
Finding 1-2 1-3 1-4 neighbors ...
  special bond factors lj:    0        0        0       
  special bond factors coul:  0        0        0       
     0 = max # of 1-2 neighbors
     0 = max # of 1-3 neighbors
     0 = max # of 1-4 neighbors
     1 = max # of special neighbors
  special bonds CPU = 0.000 seconds
  read_data CPU = 0.003 seconds
group           water type 2 3
528 atoms in group water
group           fq    type 2 3
528 atoms in group fq
pair_style      hybrid/overlay lj/cut 12.0 coul/long 12.0 coul/shield/intra 12.0 all cbrt
pair_coeff      * * lj/cut 0.0 1.0
pair_coeff      2 2 lj/cut 0.01275 3.144
pair_coeff      1 2 lj/cut 0.05 3.0            # illustrative Au-O term (not a fitted gold-water potential)
pair_coeff      * * coul/long
pair_coeff      * * coul/shield/intra 1.11
kspace_style    pppm/samqeq 1.0e-6
kspace_modify   gewald 0.35 mesh 24 28 20   # pinned: all-zero start charges make the automatic mesh far too coarse
Updated KSpace settings:
  KSpace computation is turned:    ON
  Use MPI collective operations:   OFF
  Use MPI non-blocking operations: OFF
  Gewald manually set to:          0.35
neighbor        2.0 bin
neigh_modify    every 1 delay 0 check yes

# per-molecule constraints
fix             chg fq qeq/sam 1 0.0 12.0 1.0e-7 param
fix_modify      chg shield cbrt
samqeq: lr-solve shielding = cbrt J_shield (param 4th col = gamma); routed through compute_H + add_fixed_charge_field + the legacy gas path (calc_Hval)
fix_modify      chg energy yes

velocity        water create 298.0 4928459 mom yes rot yes dist gaussian
fix             rig water rigid/nvt/small custom i_body temp 298.0 298.0 0.02
Fix rigid/nvt/small setup ...
  create bodies CPU = 0.000 seconds
  176 rigid bodies with 528 atoms
  1.0000026 = max distance from body owner to body atom
compute         kew water ke
variable        Tw equal c_kew*2.0/((6*176-3)*8.617333e-5)
variable        aq atom abs(q)
compute         qmax fq reduce max v_aq
thermo_style    custom step v_Tw pe c_qmax
thermo          100
timestep        0.00025
run             2000            # gentle start from the grid (tight coupling, 0.25 fs)

CITE-CITE-CITE-CITE-CITE-CITE-CITE-CITE-CITE-CITE-CITE-CITE-CITE

Your simulation uses code contributions which should be cited:

- fix acks2/reaxff command: https://doi.org/10.1137/18M1224684

@Article{O'Hearn2020,
 author = {K. A. {O'Hearn} and A. Alperen and H. M. Aktulga},
 title = {Fast Solvers for Charge Distribution Models on Shared Memory Platforms},
 journal = {SIAM J.\ Sci.\ Comput.},
 year =    2020,
 volume =  42,
 number =  1,
 pages =   {1--22}
}

CITE-CITE-CITE-CITE-CITE-CITE-CITE-CITE-CITE-CITE-CITE-CITE-CITE

PPPM initialization ...
WARNING: Using kspace solver on system with no charge (src/kspace.cpp:317)
  using 12-bit tables for long-range coulomb
  G vector (1/distance) = 0.35
  grid = 24 30 20
  stencil order = 5
  estimated absolute RMS force accuracy = 0
  estimated relative force accuracy = 0
  using double precision FFTW3
  3d grid and FFT values/proc = 30969 14400
Generated 0 of 3 mixed pair_coeff terms from geometric mixing rule
samqeq: E_self = sum(chi q + 1/2 eta qs^2) INCLUDED in pe/etotal (fix_modify chg energy yes; eselfref qs = q - q0) -- pe + E_self is the energy the forces integrate
Neighbor list info ...
  update: every = 1 steps, delay = 0 steps, check = yes
  max neighbors/atom: 2000, page size: 100000
  master list distance cutoff = 14
  ghost atom cutoff = 14
  binsize = 7, bins = 3 3 3
  5 neighbor lists, perpetual/occasional/extra = 5 0 0
  (1) pair lj/cut, perpetual, half/full from (5)
      attributes: half, newton on
      pair build: halffull/newton
      stencil: none
      bin: none
  (2) pair coul/long, perpetual, copy from (1)
      attributes: half, newton on
      pair build: copy
      stencil: none
      bin: none
  (3) pair coul/shield/intra, perpetual, copy from (1)
      attributes: half, newton on
      pair build: copy
      stencil: none
      bin: none
  (4) fix qeq/sam, perpetual, half/full from (5)
      attributes: half, newton off
      pair build: halffull/newtoff
      stencil: none
      bin: none
  (5) fix qeq/sam, perpetual
      attributes: full, newton on
      pair build: full/bin
      stencil: full/bin/3d
      bin: standard
samqeq: recip_self ACTIVE at run start (step 0): not yet calibrated -- measured at the first solve by the K=16 deterministic-probe route
samqeq: calibrated grid reciprocal self-term recip_self=0.39457 +/- 0.00016 (raw, K=16 deterministic probes) = 5.6816 eV/e (subtracted so the QEq diagonal stays = eta)
samqeq SOLVER-DIAG step 0: CG 20 iters (=20 matvecs), resid/b=4.39e-08
Per MPI rank memory allocation (min/avg/max) = 45.22 | 45.22 | 45.22 Mbytes
   Step          v_Tw          PotEng         c_qmax    
         0   292.12146     -208.41437      1.4612247    
       100   294.72727     -208.14124      1.4623019    
samqeq SOLVER-DIAG step 200: CG 20 iters (=20 matvecs), resid/b=6.76e-08
       200   293.62085     -209.45704      1.5480943    
       300   274.19924     -208.78647      1.4513624    
samqeq SOLVER-DIAG step 400: CG 20 iters (=20 matvecs), resid/b=5.81e-08
       400   280.89374     -207.88972      1.4690672    
       500   312.16569     -207.77646      1.5061364    
samqeq SOLVER-DIAG step 600: CG 20 iters (=20 matvecs), resid/b=5.20e-08
       600   278.35351     -206.86168      1.4230545    
       700   292.07147     -207.41883      1.4043661    
samqeq SOLVER-DIAG step 800: CG 20 iters (=20 matvecs), resid/b=6.64e-08
       800   323.33348     -206.67894      1.4923552    
       900   304.63148     -206.64537      1.4566268    
samqeq SOLVER-DIAG step 1000: CG 20 iters (=20 matvecs), resid/b=4.39e-08
      1000   301.36779     -207.86511      1.4535948    
      1100   285.42723     -207.46149      1.4528175    
samqeq SOLVER-DIAG step 1200: CG 20 iters (=20 matvecs), resid/b=4.98e-08
      1200   309.77652     -208.05244      1.4488239    
      1300   299.15825     -207.65926      1.4257318    
samqeq SOLVER-DIAG step 1400: CG 20 iters (=20 matvecs), resid/b=5.28e-08
      1400   305.62715     -207.67541      1.41155      
      1500   300.63431     -208.25056      1.5105802    
samqeq SOLVER-DIAG step 1600: CG 20 iters (=20 matvecs), resid/b=4.64e-08
      1600   288.379       -207.95919      1.5568388    
      1700   293.27688     -207.57576      1.4531594    
samqeq SOLVER-DIAG step 1800: CG 20 iters (=20 matvecs), resid/b=4.39e-08
      1800   330.45687     -208.76184      1.3811794    
      1900   289.75681     -208.01396      1.4302955    
samqeq SOLVER-DIAG step 2000: CG 20 iters (=20 matvecs), resid/b=3.36e-08
      2000   289.4152      -207.06678      1.4175273    
Loop time of 61.3403 on 1 procs for 2000 steps with 528 atoms

Performance: 0.704 ns/day, 34.078 hours/ns, 32.605 timesteps/s, 17.215 katom-step/s
100.0% CPU use with 1 MPI tasks x 1 OpenMP threads

MPI task timing breakdown:
Section |  min time  |  avg time  |  max time  |%varavg| %total
---------------------------------------------------------------
Pair    | 15.491     | 15.491     | 15.491     |   0.0 | 25.25
Bond    | 0.00050893 | 0.00050893 | 0.00050893 |   0.0 |  0.00
Kspace  | 1.2856     | 1.2856     | 1.2856     |   0.0 |  2.10
Neigh   | 0.1741     | 0.1741     | 0.1741     |   0.0 |  0.28
Comm    | 0.070316   | 0.070316   | 0.070316   |   0.0 |  0.11
Output  | 0.00085076 | 0.00085076 | 0.00085076 |   0.0 |  0.00
Modify  | 44.302     | 44.302     | 44.302     |   0.0 | 72.22
Other   |            | 0.0162     |            |       |  0.03

Nlocal:            528 ave         528 max         528 min
Histogram: 1 0 0 0 0 0 0 0 0 0
Nghost:           8793 ave        8793 max        8793 min
Histogram: 1 0 0 0 0 0 0 0 0 0
Neighs:         297127 ave      297127 max      297127 min
Histogram: 1 0 0 0 0 0 0 0 0 0
FullNghs:       594254 ave      594254 max      594254 min
Histogram: 1 0 0 0 0 0 0 0 0 0

Total # of neighbors = 594254
Ave neighs/atom = 1125.4811
Ave special neighs/atom = 0
Neighbor list builds = 18
Dangerous builds = 0
unfix           rig
fix             rig water rigid/nvt/small custom i_body temp 298.0 298.0 0.1
Fix rigid/nvt/small setup ...
  create bodies CPU = 0.000 seconds
  176 rigid bodies with 528 atoms
  1.0000026 = max distance from body owner to body atom
timestep        0.001
run             1500
PPPM initialization ...
  using 12-bit tables for long-range coulomb
WARNING: For better accuracy use 'pair_modify table 0' (src/kspace.cpp:368)
  G vector (1/distance) = 0.35
  grid = 24 30 20
  stencil order = 5
  estimated absolute RMS force accuracy = 2.9002533e-05
  estimated relative force accuracy = 2.0141144e-06
  using double precision FFTW3
  3d grid and FFT values/proc = 30969 14400
Generated 0 of 3 mixed pair_coeff terms from geometric mixing rule
samqeq: E_self = sum(chi q + 1/2 eta qs^2) INCLUDED in pe/etotal (fix_modify chg energy yes; eselfref qs = q - q0) -- pe + E_self is the energy the forces integrate
samqeq: recip_self ACTIVE at run start (step 2000): 0.39457 raw = 5.6816 eV/e, K=16 deterministic-probe route, calibration #1 at step 0 on the 24x30x20 mesh; first at this mesh 0.39457 (step 0), drift +0.000%
samqeq: setup solve SKIPPED at run-boundary step 2000 (2nd+ run / restart): the setup forces use the STORED atom->q (the first in-loop step re-solves) -- use `reset_timestep 0` before the run to force a solve
Per MPI rank memory allocation (min/avg/max) = 45.32 | 45.32 | 45.32 Mbytes
   Step          v_Tw          PotEng         c_qmax    
      2000   289.4152      -207.06678      1.4175273    
      2100   310.91988     -207.77797      1.4915304    
samqeq SOLVER-DIAG step 2200: CG 19 iters (=19 matvecs), resid/b=9.82e-08
      2200   289.58697     -207.01513      1.4524484    
      2300   315.32305     -208.53286      1.4439734    
samqeq SOLVER-DIAG step 2400: CG 19 iters (=19 matvecs), resid/b=9.90e-08
      2400   306.48409     -208.52784      1.4605104    
      2500   300.01549     -208.64506      1.3805937    
samqeq SOLVER-DIAG step 2600: CG 20 iters (=20 matvecs), resid/b=4.26e-08
      2600   301.44626     -208.94003      1.4189851    
      2700   306.15939     -209.80502      1.3948091    
samqeq SOLVER-DIAG step 2800: CG 19 iters (=19 matvecs), resid/b=8.88e-08
      2800   282.51137     -209.28451      1.3824446    
      2900   292.06467     -209.88811      1.3651833    
samqeq SOLVER-DIAG step 3000: CG 20 iters (=20 matvecs), resid/b=5.76e-08
      3000   313.7576      -209.25408      1.4171537    
      3100   314.76128     -208.09376      1.4128401    
samqeq SOLVER-DIAG step 3200: CG 20 iters (=20 matvecs), resid/b=5.13e-08
      3200   297.15275     -207.97361      1.3973574    
      3300   296.28721     -208.5351       1.3752341    
samqeq SOLVER-DIAG step 3400: CG 20 iters (=20 matvecs), resid/b=4.01e-08
      3400   301.58278     -207.95701      1.3638999    
      3500   289.41983     -207.06812      1.3749851    
Loop time of 47.1788 on 1 procs for 1500 steps with 528 atoms

Performance: 2.747 ns/day, 8.737 hours/ns, 31.794 timesteps/s, 16.787 katom-step/s
100.0% CPU use with 1 MPI tasks x 1 OpenMP threads

MPI task timing breakdown:
Section |  min time  |  avg time  |  max time  |%varavg| %total
---------------------------------------------------------------
Pair    | 11.801     | 11.801     | 11.801     |   0.0 | 25.01
Bond    | 0.00035496 | 0.00035496 | 0.00035496 |   0.0 |  0.00
Kspace  | 1.0283     | 1.0283     | 1.0283     |   0.0 |  2.18
Neigh   | 0.52106    | 0.52106    | 0.52106    |   0.0 |  1.10
Comm    | 0.0584     | 0.0584     | 0.0584     |   0.0 |  0.12
Output  | 0.00067833 | 0.00067833 | 0.00067833 |   0.0 |  0.00
Modify  | 33.756     | 33.756     | 33.756     |   0.0 | 71.55
Other   |            | 0.01257    |            |       |  0.03

Nlocal:            528 ave         528 max         528 min
Histogram: 1 0 0 0 0 0 0 0 0 0
Nghost:           8611 ave        8611 max        8611 min
Histogram: 1 0 0 0 0 0 0 0 0 0
Neighs:         296783 ave      296783 max      296783 min
Histogram: 1 0 0 0 0 0 0 0 0 0
FullNghs:       593566 ave      593566 max      593566 min
Histogram: 1 0 0 0 0 0 0 0 0 0

Total # of neighbors = 593566
Ave neighs/atom = 1124.178
Ave special neighs/atom = 0
Neighbor list builds = 52
Dangerous builds = 0
dump            dq all custom 500 charges.lammpstrj id mol type q x y z
dump_modify     dq sort id
run             100
PPPM initialization ...
  using 12-bit tables for long-range coulomb
WARNING: For better accuracy use 'pair_modify table 0' (src/kspace.cpp:368)
  G vector (1/distance) = 0.35
  grid = 24 30 20
  stencil order = 5
  estimated absolute RMS force accuracy = 2.846471e-05
  estimated relative force accuracy = 1.9767647e-06
  using double precision FFTW3
  3d grid and FFT values/proc = 30969 14400
Generated 0 of 3 mixed pair_coeff terms from geometric mixing rule
samqeq: E_self = sum(chi q + 1/2 eta qs^2) INCLUDED in pe/etotal (fix_modify chg energy yes; eselfref qs = q - q0) -- pe + E_self is the energy the forces integrate
samqeq: recip_self ACTIVE at run start (step 3500): 0.39457 raw = 5.6816 eV/e, K=16 deterministic-probe route, calibration #1 at step 0 on the 24x30x20 mesh; first at this mesh 0.39457 (step 0), drift +0.000%
Per MPI rank memory allocation (min/avg/max) = 45.37 | 45.37 | 45.37 Mbytes
   Step          v_Tw          PotEng         c_qmax    
      3500   289.41983     -207.06812      1.3749851    
samqeq SOLVER-DIAG step 3600: CG 19 iters (=19 matvecs), resid/b=9.66e-08
      3600   300.13701     -207.88685      1.3848616    
Loop time of 3.12322 on 1 procs for 100 steps with 528 atoms

Performance: 2.766 ns/day, 8.676 hours/ns, 32.018 timesteps/s, 16.906 katom-step/s
99.9% CPU use with 1 MPI tasks x 1 OpenMP threads

MPI task timing breakdown:
Section |  min time  |  avg time  |  max time  |%varavg| %total
---------------------------------------------------------------
Pair    | 0.7929     | 0.7929     | 0.7929     |   0.0 | 25.39
Bond    | 2.4477e-05 | 2.4477e-05 | 2.4477e-05 |   0.0 |  0.00
Kspace  | 0.068161   | 0.068161   | 0.068161   |   0.0 |  2.18
Neigh   | 0.039943   | 0.039943   | 0.039943   |   0.0 |  1.28
Comm    | 0.0037636  | 0.0037636  | 0.0037636  |   0.0 |  0.12
Output  | 4.207e-05  | 4.207e-05  | 4.207e-05  |   0.0 |  0.00
Modify  | 2.2176     | 2.2176     | 2.2176     |   0.0 | 71.00
Other   |            | 0.0008152  |            |       |  0.03

Nlocal:            528 ave         528 max         528 min
Histogram: 1 0 0 0 0 0 0 0 0 0
Nghost:           8586 ave        8586 max        8586 min
Histogram: 1 0 0 0 0 0 0 0 0 0
Neighs:         296824 ave      296824 max      296824 min
Histogram: 1 0 0 0 0 0 0 0 0 0
FullNghs:       593648 ave      593648 max      593648 min
Histogram: 1 0 0 0 0 0 0 0 0 0

Total # of neighbors = 593648
Ave neighs/atom = 1124.3333
Ave special neighs/atom = 0
Neighbor list builds = 4
Dangerous builds = 0
print           "DYN_DONE" file done.txt screen no
Total wall time: 0:01:51
