LAMMPS (4 Jul 2026 - Development - patch_4Jul2026-542-g4e5eb25ab6-modified)
  using 1 OpenMP thread(s) per MPI task
# TIP4P-FQ liquid, FAITHFUL-RICK structure: lr_ewald=1 (INTRA-Slater + BARE-inter, his exact
# electrostatics per mdtpn.f) — the mu-gap root cause was lr_ewald=2's all-pair shielding.
# PREDICTION: mu -> ~2.63 (Rick 2.637). Stability rides XL (Rick's own stability = EL adiabaticity).
# Base: TRUE SLATER-OVERLAP kernel deck (`shield slater`): Rick's raw zetas,
# NO refit. Target: close the gauss-kernel port's -4% mu (2.53 vs Rick 2.637) — the deviation was
# the intermolecular J at intermediate r, exactly what the exact kernel fixes.
# Derived from in.tip4pfq_xl (KERNEL-REFIT gauss port); 256-molecule box built from Rick's own equilibrated
# mdtpn.dat config (build_box.py), vol=7660.31 A^3, rho=1.0 g/cc, fixed (NVT).
# Kernel: gaussian/pqeq erf(a_ij r)/r, fit EXACTLY to Rick's jrab() J_HH(1.5139)
# and J_OH(r_MH=0.8735) (see fit_j.py) -- the physically-operative rigid-body
# distances. Single `run` command (multi-run is a known samQEq calibration
# artifact); tail-window ave/time blocks report thermalized averages.
units           metal
atom_style      full
boundary        p p p
read_data       tip4pfq_liquid.data
Reading data file ...
  orthogonal box = (0 0 0) to (19.712825 19.712825 19.712825)
  2 by 2 by 4 MPI processor grid
  reading atoms ...
  1024 atoms
  scanning bonds ...
  2 = max bonds/atom
  scanning angles ...
  1 = max angles/atom
  orthogonal box = (0 0 0) to (19.712825 19.712825 19.712825)
  2 by 2 by 4 MPI processor grid
  reading bonds ...
  512 bonds
  reading angles ...
  256 angles
Finding 1-2 1-3 1-4 neighbors ...
  special bond factors lj:    0        0        0       
  special bond factors coul:  0        0        0       
     2 = max # of 1-2 neighbors
     1 = max # of 1-3 neighbors
     1 = max # of 1-4 neighbors
     2 = max # of special neighbors
  special bonds CPU = 0.002 seconds
  read_data CPU = 0.013 seconds

group           watO  type 1
256 atoms in group watO
group           watH  type 2
512 atoms in group watH
group           watM  type 3
256 atoms in group watM
group           fq    type 2 3
768 atoms in group fq

# LJ on O-O only (Table I): eps=0.2862 kcal/mol=0.012412 eV, sigma=3.159 A
pair_style      hybrid/overlay lj/cut 10.0 coul/long 10.0 coul/shield/intra 5.0 slater 2s 1 3
pair_coeff      1 1 lj/cut 0.012412 3.159
pair_coeff      1 2 lj/cut 0.0 1.0
pair_coeff      1 3 lj/cut 0.0 1.0
pair_coeff      2 2 lj/cut 0.0 1.0
pair_coeff      2 3 lj/cut 0.0 1.0
pair_coeff      3 3 lj/cut 0.0 1.0
pair_coeff      * * coul/long
pair_coeff      1 1 coul/shield/intra 3.0803    # zeta_O (2s), 1/Angstrom
pair_coeff      2 2 coul/shield/intra 1.7007    # zeta_H (1s)
pair_coeff      3 3 coul/shield/intra 3.0803    # zeta_M (borrows O's 2s form factor)
pair_coeff      1 2 coul/shield/intra 2.288813
pair_coeff      1 3 coul/shield/intra 3.080300
pair_coeff      2 3 coul/shield/intra 2.288813
# ^ FIX: hybrid/overlay contributes ZERO for unset sub-style cross pairs (no auto init_one
#   mixing, no warning) — the unset M-H pair hid a +3.2 eV/mol pe error (U_bind -82 naive / -13.6
#   'corrected' -> -9.90 = Rick EXACT once fixed). Cross values: sqrt-mixed (used by cbrt mode;
#   pqeq/slater kernels read type diagonals only). See ubind/DIAGNOSIS_UBIND.md.

special_bonds   lj/coul 1.0e-8 1.0e-8 1.0
Finding 1-2 1-3 1-4 neighbors ...
  special bond factors lj:    1e-08    1e-08    1       
  special bond factors coul:  1e-08    1e-08    1       
     2 = max # of 1-2 neighbors
     1 = max # of 1-3 neighbors
     2 = max # of special neighbors
  special bonds CPU = 0.001 seconds
kspace_style    pppm/samqeq 1.0e-5

neighbor        2.0 bin
neigh_modify    every 1 delay 0 check yes

fix             chg fq qeq/sam 1 0.0 10.0 1.0e-5 water4_liquid_slater_lr1.param
fix_modify      chg shield slater 2s 1 3
samqeq: lr-solve shielding = Slater J(r) (Rick JCP101,6141) (param 4th col = zeta (Slater exponent, 1/Angstrom)); routed through compute_H + add_fixed_charge_field + the legacy gas path (calc_Hval)
fix_modify      chg energy yes
fix_modify      chg xl 2.6e-6 1.0
samqeq: extended-Lagrangian charge dynamics ON (q_mass=2.6e-06 eV ps^2/e^2, q_tdamp=1 ps); pure friction (T_q=0); charges propagate by velocity-Verlet (no per-step solve)
# ROOT CAUSE (found via a dt-scan diagnostic, in.diag_dt.tmp/in.diag_dt2.tmp, logs
# log.diag_dt/log.diag_dt2): dt=0.5 fs (the task's suggested value) is NOT a stable
# integration step for this system -- the intramolecular M-H charge oscillator is very
# stiff (r_MH=0.87 A, eta_M/H~16/15 eV) and the rigid-body torque response amplifies any
# discretization error into a genuine near-critical SCF catastrophe within a few hundred
# steps (confirmed: NEITHER an offset-quartic wall NOR the rnd charge-freeze safeguard
# cured it at dt=0.5fs -- both only delayed/relocated the same blow-up, proof this is an
# INTEGRATION-timestep problem, not a kernel-fit or Hessian-singularity problem). At
# dt=0.1 and dt=0.2 fs the SAME deck (no stabilizers needed at all) is fully stable over
# the tested window with mu/qM/qH/T all physically sane and drifting toward the targets.
# Using dt=0.2 fs (4x smaller than the task's suggested 0.5 fs) here.

compute         qMpa watM property/atom q
compute         qMc  watM reduce ave c_qMpa
compute         qHpa watH property/atom q
compute         qHc  watH reduce ave c_qHpa
compute         dip all dipole/samqeq
variable        mu   equal c_dip
variable        qM   equal c_qMc
variable        qH   equal c_qHc
variable        pemol equal pe/256.0
variable        T equal temp
variable        P equal press

timestep        0.00025
velocity        all create 298.0 4928459 mom yes rot yes dist gaussian
fix             rig all rigid/nvt/small molecule temp 298.0 298.0 0.02
Fix rigid/nvt/small setup ...
  create bodies CPU = 0.000 seconds
  256 rigid bodies with 1024 atoms
  0.87348128 = max distance from body owner to body atom
thermo_style    custom step temp v_mu
thermo          400
run             80000

CITE-CITE-CITE-CITE-CITE-CITE-CITE-CITE-CITE-CITE-CITE-CITE-CITE

Your simulation uses code contributions which should be cited:

- fix acks2/reaxff command: https://doi.org/10.1137/18M1224684

@Article{O'Hearn2020,
 author = {K. A. {O'Hearn} and A. Alperen and H. M. Aktulga},
 title = {Fast Solvers for Charge Distribution Models on Shared Memory Platforms},
 journal = {SIAM J.\ Sci.\ Comput.},
 year =    2020,
 volume =  42,
 number =  1,
 pages =   {1--22}
}

CITE-CITE-CITE-CITE-CITE-CITE-CITE-CITE-CITE-CITE-CITE-CITE-CITE

PPPM initialization ...
  using 12-bit tables for long-range coulomb
  G vector (1/distance) = 0.31499941
  grid = 20 20 20
  stencil order = 5
  estimated absolute RMS force accuracy = 0.0001309434
  estimated relative force accuracy = 9.0935157e-06
  using double precision FFTW3
  3d grid and FFT values/proc = 3468 500
samqeq: pair coul/shield/intra Slater-overlap J(r) tables built (6 unique type pairs, 2000 pts each, r in [0.02,5])
Generated 0 of 3 mixed pair_coeff terms from geometric mixing rule
WARNING: Bonds are defined but no bond style is set (src/force.cpp:198)
WARNING: Likewise 1-2 special neighbor interactions != 1.0 (src/force.cpp:200)
WARNING: Angles are defined but no angle style is set (src/force.cpp:203)
WARNING: Likewise 1-3 special neighbor interactions != 1.0 (src/force.cpp:205)
samqeq: E_self = sum(chi q + 1/2 eta qs^2) INCLUDED in pe/etotal (fix_modify chg energy yes; eselfref qs = q - q0 - redox_dp) -- pe + E_self is the energy the forces integrate
samqeq: Slater-overlap J(r) tables built (6 unique type pairs, 2000 pts each, r in [0.02,10])
Neighbor list info ...
  update: every = 1 steps, delay = 0 steps, check = yes
  max neighbors/atom: 2000, page size: 100000
  master list distance cutoff = 12
  ghost atom cutoff = 12
  binsize = 6, bins = 4 4 4
  5 neighbor lists, perpetual/occasional/extra = 5 0 0
  (1) pair lj/cut, perpetual, copy from (2)
      attributes: half, newton on, cut 12
      pair build: copy
      stencil: none
      bin: none
  (2) pair coul/long, perpetual, half/full from (5)
      attributes: half, newton on, cut 12
      pair build: halffull/newton
      stencil: none
      bin: none
  (3) pair coul/shield/intra, perpetual, copy from (1)
      attributes: half, newton on
      pair build: copy
      stencil: none
      bin: none
  (4) fix qeq/sam, perpetual, half/full from (5)
      attributes: half, newton off
      pair build: halffull/newtoff
      stencil: none
      bin: none
  (5) fix qeq/sam, perpetual
      attributes: full, newton on
      pair build: full/bin
      stencil: full/bin/3d
      bin: standard
Per MPI rank memory allocation (min/avg/max) = 20.69 | 20.97 | 21.15 Mbytes
   Step          Temp           v_mu     
WARNING: compute dipole/samqeq: molecule 22 has net charge -0.000001; its dipole is origin-dependent (src/SAMQEQ/compute_dipole_samqeq.cpp:165)
         0   290.88828      2.652567     
samqeq: calibrated grid reciprocal self-term recip_self=0.35523 +/- 0.00000 (raw, K=16 deterministic probes) = 5.1152 eV/e (subtracted so the QEq diagonal stays = eta)
       400   293.68419      2.6381348    
       800   320.84958      2.6428191    
      1200   309.95751      2.6208087    
      1600   289.48811      2.6199684    
      2000   287.09715      2.6267363    
      2400   297.78676      2.6217332    
      2800   301.81682      2.6252759    
      3200   293.69846      2.6216175    
      3600   283.26962      2.6299954    
      4000   306.74384      2.6386604    
      4400   283.29708      2.6327217    
      4800   297.2774       2.6403436    
      5200   272.13505      2.6503548    
      5600   288.34952      2.6644011    
      6000   312.84646      2.6510275    
      6400   270.47928      2.6402694    
      6800   290.03599      2.6779042    
      7200   306.28542      2.6814793    
      7600   302.687        2.669669     
      8000   301.81494      2.666697     
      8400   301.00689      2.6826472    
      8800   292.90459      2.6593035    
      9200   285.31457      2.6310903    
      9600   296.8295       2.6220428    
     10000   297.69889      2.6115513    
     10400   301.65793      2.6447206    
     10800   282.84854      2.6330087    
     11200   298.7546       2.6307756    
     11600   312.95066      2.6244021    
     12000   291.34371      2.6257012    
     12400   297.95276      2.6066418    
     12800   315.84525      2.6006132    
     13200   287.46432      2.6215688    
     13600   305.80798      2.6376156    
     14000   309.57067      2.6215627    
     14400   299.50391      2.6324374    
     14800   294.35289      2.6414572    
     15200   313.64657      2.6270702    
     15600   313.59682      2.6325115    
     16000   308.63201      2.6304514    
     16400   305.372        2.6263826    
     16800   294.88104      2.6252835    
     17200   307.10254      2.6049006    
     17600   286.40565      2.6336872    
     18000   302.46493      2.6310258    
     18400   306.69474      2.6370325    
     18800   303.96884      2.6329533    
     19200   319.56502      2.6308487    
     19600   297.4388       2.6157756    
     20000   310.31115      2.6284022    
     20400   301.23911      2.6281139    
     20800   307.14702      2.619975     
     21200   307.36271      2.6043873    
     21600   293.26647      2.6002153    
     22000   295.7389       2.6068432    
     22400   289.75759      2.5899777    
     22800   288.35159      2.5842682    
     23200   292.42505      2.5778711    
     23600   293.88025      2.5808713    
     24000   303.95306      2.5814449    
     24400   302.94777      2.6018303    
     24800   305.15988      2.6250706    
     25200   295.08342      2.6226466    
     25600   292.34479      2.601114     
     26000   299.47494      2.6113656    
     26400   274.24018      2.625689     
     26800   299.50152      2.6390198    
     27200   300.25069      2.6159582    
     27600   297.04794      2.6233919    
     28000   294.72226      2.6400987    
     28400   301.98673      2.6649151    
     28800   305.07825      2.6551326    
     29200   303.80473      2.6397497    
     29600   308.64188      2.6170222    
     30000   316.52956      2.6313463    
     30400   290.02121      2.6194962    
     30800   305.87683      2.6376432    
     31200   293.93308      2.6230732    
     31600   293.66752      2.600052     
     32000   294.3256       2.6209938    
     32400   289.81029      2.6295955    
     32800   286.70262      2.6290995    
     33200   300.18644      2.6310633    
     33600   296.02764      2.626411     
     34000   302.33409      2.6167107    
     34400   299.52581      2.6282908    
     34800   278.0134       2.6328619    
     35200   295.75064      2.6111351    
     35600   291.94883      2.6151963    
     36000   312.94436      2.6224358    
     36400   305.47066      2.6356427    
     36800   287.60441      2.6453918    
     37200   294.47382      2.6358606    
     37600   276.34923      2.6411067    
     38000   293.93086      2.6371224    
     38400   286.8212       2.626823     
     38800   312.18785      2.6080168    
     39200   280.78798      2.5767558    
     39600   294.13949      2.592192     
     40000   303.48378      2.5999264    
     40400   311.2885       2.603643     
     40800   287.39047      2.6339161    
     41200   307.397        2.617084     
     41600   308.73259      2.5989695    
     42000   296.07452      2.582467     
     42400   298.38454      2.6047162    
     42800   283.92885      2.6184778    
     43200   307.47452      2.621407     
     43600   299.48754      2.6063099    
     44000   294.30916      2.6031449    
     44400   284.98616      2.6243197    
     44800   287.82002      2.6273373    
     45200   311.23389      2.6407633    
     45600   289.98362      2.6132764    
     46000   309.63313      2.6197177    
     46400   305.51302      2.634522     
     46800   289.84188      2.6292038    
     47200   298.97971      2.6167242    
     47600   312.68073      2.6067201    
     48000   303.9069       2.6208238    
     48400   305.2723       2.6460659    
     48800   290.24068      2.6245316    
     49200   295.90363      2.6031339    
     49600   292.8495       2.5891992    
     50000   300.41427      2.6062631    
     50400   313.28675      2.593029     
     50800   307.54261      2.6221832    
     51200   292.99691      2.6088817    
     51600   294.30034      2.5966371    
     52000   285.51415      2.6182402    
     52400   298.61287      2.6220585    
     52800   297.23868      2.661365     
     53200   286.46175      2.6873364    
     53600   318.61384      2.6351228    
     54000   296.09175      2.6419742    
     54400   306.34163      2.6516552    
     54800   300.90304      2.6414157    
     55200   309.10413      2.6270513    
     55600   302.42648      2.6247958    
     56000   287.57818      2.649164     
     56400   291.64879      2.6346855    
     56800   298.35927      2.6447048    
     57200   303.91293      2.6406118    
     57600   292.79031      2.6255767    
     58000   305.92348      2.6119375    
     58400   288.13689      2.6097359    
     58800   300.50123      2.6219759    
     59200   294.98447      2.6090771    
     59600   320.45942      2.618436     
     60000   300.76476      2.6108628    
     60400   303.57151      2.6258668    
     60800   307.79492      2.6407421    
     61200   299.07246      2.6221972    
     61600   286.09837      2.6257096    
     62000   306.27821      2.6322669    
     62400   292.67646      2.6121852    
     62800   300.47426      2.6105128    
     63200   293.01037      2.6040124    
     63600   315.13324      2.6147669    
     64000   318.47348      2.6075585    
     64400   290.18827      2.6293702    
     64800   302.26418      2.6152727    
     65200   293.82775      2.6145871    
     65600   299.71542      2.5806269    
     66000   309.87526      2.6029766    
     66400   286.13842      2.5988208    
     66800   280.80064      2.600357     
     67200   298.13744      2.6049266    
     67600   300.3718       2.5846144    
     68000   307.08568      2.6105856    
     68400   313.97134      2.6310507    
     68800   304.07534      2.6412599    
     69200   281.43472      2.6333861    
     69600   304.69227      2.6194475    
     70000   305.89956      2.6273537    
     70400   308.46026      2.6162719    
     70800   275.49844      2.6248042    
     71200   317.34425      2.6322897    
     71600   316.67115      2.6222218    
     72000   298.86527      2.6392508    
     72400   309.99124      2.6299562    
     72800   287.01417      2.6319436    
     73200   284.19901      2.6260233    
     73600   312.91043      2.6397152    
     74000   300.09647      2.6399637    
     74400   298.92975      2.6055835    
     74800   290.56751      2.6264045    
     75200   281.89124      2.6104124    
     75600   296.00362      2.6078414    
     76000   290.89379      2.6221199    
     76400   293.02049      2.6120281    
     76800   276.33318      2.6096385    
     77200   279.96302      2.6063317    
     77600   297.83322      2.6212338    
     78000   317.146        2.6175978    
     78400   297.84125      2.603281     
     78800   297.63558      2.6133935    
     79200   290.49791      2.6123833    
     79600   298.42948      2.6085344    
     80000   299.39833      2.610107     
Loop time of 309.67 on 16 procs for 80000 steps with 1024 atoms

Performance: 5.580 ns/day, 4.301 hours/ns, 258.339 timesteps/s, 264.539 katom-step/s
84.4% CPU use with 16 MPI tasks x 1 OpenMP threads

MPI task timing breakdown:
Section |  min time  |  avg time  |  max time  |%varavg| %total
---------------------------------------------------------------
Pair    | 56.307     | 59.719     | 61.966     |  18.6 | 19.28
Bond    | 0.0042487  | 0.0047465  | 0.0059526  |   0.6 |  0.00
Kspace  | 55.915     | 57.989     | 61.398     |  19.1 | 18.73
Neigh   | 1.2174     | 1.2842     | 1.3431     |   2.8 |  0.41
Comm    | 19.819     | 19.945     | 20.117     |   2.0 |  6.44
Output  | 0.029388   | 0.029643   | 0.030772   |   0.2 |  0.01
Modify  | 168.87     | 168.97     | 169.09     |   0.5 | 54.56
Other   |            | 1.73       |            |       |  0.56

Nlocal:             64 ave          73 max          50 min
Histogram: 1 1 1 1 1 1 3 1 5 1
Nghost:        4343.69 ave        4442 max        4266 min
Histogram: 2 2 2 1 3 0 3 2 0 1
Neighs:        30949.4 ave       35538 max       24065 min
Histogram: 1 1 1 1 1 1 3 3 3 1
FullNghs:      61898.9 ave       70429 max       48632 min
Histogram: 1 1 1 1 1 1 3 1 5 1

Total # of neighbors = 990382
Ave neighs/atom = 967.16992
Ave special neighs/atom = 1.5
Neighbor list builds = 764
Dangerous builds = 0
unfix           rig
fix             rig all rigid/nvt/small molecule temp 298.0 298.0 0.1
Fix rigid/nvt/small setup ...
  create bodies CPU = 0.000 seconds
  256 rigid bodies with 1024 atoms
  0.87348128 = max distance from body owner to body atom
reset_timestep  0
run             400000
PPPM initialization ...
  using 12-bit tables for long-range coulomb
  G vector (1/distance) = 0.31485238
  grid = 20 20 20
  stencil order = 5
  estimated absolute RMS force accuracy = 0.00012760304
  estimated relative force accuracy = 8.8615408e-06
  using double precision FFTW3
  3d grid and FFT values/proc = 3468 500
samqeq: pair coul/shield/intra Slater-overlap J(r) tables built (6 unique type pairs, 2000 pts each, r in [0.02,5])
Generated 0 of 3 mixed pair_coeff terms from geometric mixing rule
WARNING: Bonds are defined but no bond style is set (src/force.cpp:198)
WARNING: Likewise 1-2 special neighbor interactions != 1.0 (src/force.cpp:200)
WARNING: Angles are defined but no angle style is set (src/force.cpp:203)
WARNING: Likewise 1-3 special neighbor interactions != 1.0 (src/force.cpp:205)
samqeq: E_self = sum(chi q + 1/2 eta qs^2) INCLUDED in pe/etotal (fix_modify chg energy yes; eselfref qs = q - q0 - redox_dp) -- pe + E_self is the energy the forces integrate
samqeq: Slater-overlap J(r) tables built (6 unique type pairs, 2000 pts each, r in [0.02,10])
Per MPI rank memory allocation (min/avg/max) = 20.56 | 20.97 | 21.21 Mbytes
   Step          Temp           v_mu     
         0   299.39833      2.610107     
       400   295.90977      2.6045611    
       800   320.28574      2.6210095    
      1200   314.07095      2.6032766    
      1600   300.3475       2.5943768    
      2000   285.54758      2.5871342    
      2400   287.54025      2.6176814    
      2800   291.74972      2.6096949    
      3200   311.33878      2.6171851    
      3600   301.54384      2.6159927    
      4000   300.73794      2.621875     
      4400   298.66888      2.6226405    
      4800   307.54681      2.6327414    
      5200   301.10179      2.6292148    
      5600   295.02603      2.640335     
      6000   286.7552       2.6377569    
      6400   290.63008      2.6179764    
      6800   308.10068      2.6353769    
      7200   303.20835      2.6246446    
      7600   302.68503      2.6199454    
      8000   305.50325      2.6397485    
      8400   306.56477      2.6322678    
      8800   286.40714      2.6288939    
      9200   301.88729      2.6227743    
      9600   295.47898      2.6398464    
     10000   287.42017      2.6476951    
     10400   295.37683      2.6425289    
     10800   279.70826      2.6493588    
     11200   291.96167      2.6557095    
     11600   310.52792      2.6410926    
     12000   317.47134      2.6604836    
     12400   303.49225      2.6554793    
     12800   287.6627       2.6593032    
     13200   298.4493       2.6643785    
     13600   300.39662      2.666515     
     14000   284.94066      2.6383528    
     14400   303.44156      2.6483898    
     14800   307.87764      2.6320589    
     15200   305.65089      2.6455732    
     15600   301.05775      2.6519637    
     16000   302.01596      2.6305224    
     16400   297.26033      2.6330347    
     16800   299.78516      2.6353451    
     17200   302.89542      2.6380058    
     17600   323.97729      2.6360001    
     18000   303.3312       2.6385549    
     18400   298.63256      2.6378453    
     18800   297.0507       2.6445734    
     19200   309.53035      2.6188797    
     19600   318.82398      2.6404611    
     20000   301.42368      2.6247229    
     20400   282.98638      2.6239975    
     20800   298.74472      2.6393275    
     21200   299.18224      2.6285635    
     21600   289.17911      2.6269074    
     22000   318.38989      2.6386278    
     22400   297.69745      2.6432658    
     22800   287.23658      2.6513684    
     23200   312.43627      2.6478014    
     23600   276.72357      2.6503398    
     24000   296.63342      2.6483673    
     24400   305.59434      2.6407036    
     24800   303.04795      2.6445068    
     25200   292.12406      2.6409614    
     25600   300.26525      2.6362579    
     26000   302.31232      2.6323683    
     26400   292.09818      2.6491185    
     26800   313.07076      2.6215971    
     27200   316.93887      2.6333371    
     27600   318.0375       2.6436176    
     28000   304.35838      2.6382017    
     28400   286.32181      2.646516     
     28800   297.20255      2.6491024    
     29200   299.47473      2.6513063    
     29600   309.00955      2.6562712    
     30000   305.25387      2.6760176    
     30400   301.16771      2.6651033    
     30800   294.45578      2.6586773    
     31200   301.66352      2.6758437    
     31600   310.50618      2.6519346    
     32000   298.26305      2.642833     
     32400   314.65473      2.6623782    
     32800   302.14431      2.6405693    
     33200   270.68848      2.6467359    
     33600   280.89812      2.664297     
     34000   294.8389       2.6404596    
     34400   299.79129      2.64375      
     34800   302.86121      2.6542522    
     35200   309.97308      2.6541819    
     35600   269.95733      2.6450771    
     36000   293.17869      2.6396697    
     36400   322.74077      2.6496628    
     36800   310.44414      2.6436694    
     37200   301.87227      2.6397136    
     37600   292.20375      2.6527477    
     38000   289.40203      2.6623268    
     38400   293.99532      2.6611113    
     38800   300.9771       2.6570129    
     39200   300.52084      2.6375267    
     39600   282.06729      2.6191343    
     40000   296.68706      2.6240623    
     40400   301.92864      2.6479174    
     40800   312.04205      2.6274553    
     41200   328.10631      2.6182214    
     41600   310.86645      2.6341417    
     42000   292.59041      2.6456315    
     42400   287.74436      2.6294698    
     42800   284.75218      2.6488344    
     43200   279.31758      2.6429143    
     43600   294.79772      2.6268745    
     44000   302.07791      2.6217041    
     44400   302.16649      2.6241129    
     44800   317.81718      2.6299711    
     45200   288.3807       2.619684     
     45600   298.7377       2.6151678    
     46000   303.49926      2.5958623    
     46400   310.86319      2.6176133    
     46800   313.45107      2.6008548    
     47200   306.24847      2.6415857    
     47600   299.02017      2.6335352    
     48000   292.41606      2.6295595    
     48400   313.08517      2.6315663    
     48800   307.3854       2.6065505    
     49200   309.43228      2.6253449    
     49600   309.03626      2.6505542    
     50000   291.41985      2.6265592    
     50400   302.52234      2.6404871    
     50800   290.96659      2.6303391    
     51200   308.94983      2.6445565    
     51600   293.24807      2.6463491    
     52000   306.97457      2.6318577    
     52400   290.27611      2.6353344    
     52800   303.83506      2.6331048    
     53200   302.47302      2.6561442    
     53600   295.65524      2.647112     
     54000   326.97533      2.6501701    
     54400   291.31589      2.6467432    
     54800   292.10223      2.6411883    
     55200   308.26034      2.64324      
     55600   291.60668      2.6733234    
     56000   311.67977      2.6485567    
     56400   302.21373      2.6447327    
     56800   309.27895      2.6558908    
     57200   301.63116      2.6685302    
     57600   312.00338      2.6596586    
     58000   299.60382      2.652263     
     58400   305.66674      2.6755511    
     58800   308.17058      2.6497106    
     59200   279.50901      2.6382058    
     59600   317.23047      2.6702174    
     60000   311.15028      2.649905     
     60400   313.44925      2.6618702    
     60800   304.21528      2.6565026    
     61200   298.90603      2.6562143    
     61600   318.49167      2.661636     
     62000   307.99206      2.6810045    
     62400   314.62841      2.6778466    
     62800   297.73826      2.6550558    
     63200   295.29413      2.6646       
     63600   293.09627      2.6668564    
     64000   299.09655      2.6720374    
     64400   294.42489      2.6609341    
     64800   288.88883      2.6308805    
     65200   301.51733      2.641975     
     65600   307.74942      2.6378364    
     66000   300.6217       2.6338279    
     66400   268.22227      2.6501898    
     66800   273.90606      2.6244236    
     67200   316.47482      2.6491938    
     67600   320.59751      2.6420815    
     68000   292.41811      2.6313005    
     68400   289.84245      2.6326661    
     68800   276.50481      2.6381253    
     69200   287.05339      2.6270132    
     69600   289.3469       2.6238769    
     70000   303.39421      2.6467766    
     70400   294.02181      2.6290623    
     70800   286.87478      2.6287203    
     71200   305.35381      2.6106017    
     71600   323.86562      2.6459125    
     72000   311.3337       2.6286603    
     72400   308.70357      2.6372617    
     72800   297.22357      2.6398997    
     73200   294.2177       2.6416096    
     73600   295.45814      2.6407938    
     74000   291.98028      2.6327756    
     74400   318.3663       2.6339787    
     74800   308.00962      2.6223914    
     75200   294.72293      2.6122749    
     75600   287.06389      2.6288686    
     76000   300.44332      2.628424     
     76400   293.42316      2.6228186    
     76800   299.82978      2.6300229    
     77200   327.78221      2.6319925    
     77600   311.88505      2.6456392    
     78000   294.9179       2.6514133    
     78400   294.42513      2.6573522    
     78800   309.65561      2.6549004    
     79200   305.78386      2.6564058    
     79600   304.39395      2.6686135    
     80000   280.50932      2.6416746    
     80400   289.08463      2.6329994    
     80800   300.88347      2.6436595    
     81200   311.44515      2.6302042    
     81600   312.99802      2.6289503    
     82000   282.05696      2.6333595    
     82400   294.57561      2.6554978    
     82800   284.95008      2.6310079    
     83200   299.51997      2.6164338    
     83600   313.12184      2.6269462    
     84000   322.07325      2.6300839    
     84400   300.77184      2.6310497    
     84800   301.55785      2.6450958    
     85200   291.84672      2.6600639    
     85600   283.27888      2.6484835    
     86000   288.65466      2.6476494    
     86400   303.58331      2.6802585    
     86800   295.06469      2.6697778    
     87200   288.45816      2.6451043    
     87600   309.02902      2.6523531    
     88000   300.42906      2.6415143    
     88400   283.54669      2.6445165    
     88800   277.19641      2.6208668    
     89200   301.7683       2.6461016    
     89600   298.27163      2.6362602    
     90000   292.16908      2.6438257    
     90400   280.38329      2.6276689    
     90800   295.01791      2.6575896    
     91200   295.61103      2.6346611    
     91600   307.8755       2.6660611    
     92000   298.82972      2.6740727    
     92400   305.03271      2.6284849    
     92800   305.31713      2.652177     
     93200   283.17958      2.6232233    
     93600   284.52221      2.6387594    
     94000   320.83587      2.6513141    
     94400   302.97886      2.6284874    
     94800   278.25105      2.6403621    
     95200   296.75973      2.6364035    
     95600   300.72935      2.6512746    
     96000   294.83929      2.642271     
     96400   285.27951      2.6282274    
     96800   310.45727      2.6291124    
     97200   315.73588      2.6362515    
     97600   303.68079      2.6139967    
     98000   280.88325      2.6230572    
     98400   289.61543      2.646354     
     98800   294.51575      2.6372694    
     99200   298.73269      2.6240367    
     99600   291.8223       2.6408382    
    100000   292.60176      2.6302726    
    100400   307.95518      2.6554702    
    100800   291.33967      2.633953     
    101200   290.72106      2.6306768    
    101600   303.45429      2.6194892    
    102000   306.19287      2.6373658    
    102400   319.54569      2.6138684    
    102800   294.1862       2.619415     
    103200   305.65502      2.6238764    
    103600   295.05519      2.6148898    
    104000   313.22852      2.6517944    
    104400   287.89664      2.6389611    
    104800   302.43036      2.6340743    
    105200   296.07862      2.6443668    
    105600   281.3265       2.6490153    
    106000   285.73282      2.6215965    
    106400   320.9729       2.6429127    
    106800   301.98066      2.6148479    
    107200   285.86819      2.5960142    
    107600   288.35969      2.6287239    
    108000   308.16224      2.6150827    
    108400   301.33538      2.6227047    
    108800   300.54221      2.6476228    
    109200   298.84663      2.6311719    
    109600   315.43957      2.6487469    
    110000   293.88991      2.6552755    
    110400   292.73239      2.6673897    
    110800   306.92021      2.6961596    
    111200   301.83022      2.6889339    
    111600   290.07226      2.6911761    
    112000   302.60421      2.6972127    
    112400   276.74323      2.6695689    
    112800   296.17737      2.6635719    
    113200   308.81815      2.6609267    
    113600   318.73234      2.6402195    
    114000   287.83326      2.6536348    
    114400   301.76713      2.677189     
    114800   295.87298      2.6690594    
    115200   291.7286       2.6569119    
    115600   299.05614      2.6307918    
    116000   307.349        2.6407915    
    116400   318.62468      2.6584862    
    116800   294.20896      2.6623948    
    117200   307.00477      2.6654193    
    117600   300.20045      2.648512     
    118000   296.72535      2.6343984    
    118400   319.05198      2.67222      
    118800   305.00584      2.6638616    
    119200   282.49495      2.6566272    
    119600   282.08437      2.6683338    
    120000   288.67821      2.6569792    
    120400   306.43721      2.6647673    
    120800   313.16549      2.6535472    
    121200   292.45252      2.6342863    
    121600   290.2906       2.6412165    
    122000   288.97445      2.6460985    
    122400   304.92362      2.6544936    
    122800   302.82599      2.6700629    
    123200   307.17275      2.6553757    
    123600   298.07744      2.6475681    
    124000   308.55907      2.6563484    
    124400   289.17743      2.6409887    
    124800   288.26704      2.647186     
    125200   303.66866      2.6378269    
    125600   334.31518      2.6394087    
    126000   296.81005      2.6214831    
    126400   297.1597       2.6325491    
    126800   305.64504      2.6304398    
    127200   306.9415       2.6464544    
    127600   282.95032      2.6462509    
    128000   282.94175      2.6461252    
    128400   302.12649      2.6306058    
    128800   308.95919      2.6507839    
    129200   313.51736      2.6551345    
    129600   300.68733      2.6475065    
    130000   287.18436      2.6593712    
    130400   292.29532      2.6586449    
    130800   306.86846      2.6709976    
    131200   292.77774      2.6529684    
    131600   307.08281      2.6464004    
    132000   300.96802      2.627158     
    132400   309.28253      2.6434949    
    132800   302.95826      2.6494969    
    133200   308.78854      2.645457     
    133600   290.22303      2.6448316    
    134000   295.71495      2.6672631    
    134400   290.46627      2.6414211    
    134800   293.67784      2.6491492    
    135200   310.28501      2.6368731    
    135600   298.80377      2.6578885    
    136000   307.87155      2.644913     
    136400   293.00266      2.6548049    
    136800   306.93804      2.6513073    
    137200   303.40675      2.6587206    
    137600   282.72486      2.6432431    
    138000   292.60641      2.640577     
    138400   316.48255      2.6516172    
    138800   296.06343      2.6457943    
    139200   298.47921      2.6373573    
    139600   274.51768      2.6529879    
    140000   292.80128      2.6733154    
    140400   284.64219      2.6799198    
    140800   281.95653      2.6534864    
    141200   300.44884      2.6461159    
    141600   306.95681      2.6431031    
    142000   308.00964      2.6426696    
    142400   304.03545      2.6799218    
    142800   273.55653      2.6531949    
    143200   293.85443      2.6535347    
    143600   301.01174      2.6414355    
    144000   307.51813      2.6379379    
    144400   309.49758      2.6423067    
    144800   297.72411      2.6391123    
    145200   288.27788      2.6488659    
    145600   299.22661      2.6501346    
    146000   285.91022      2.6444195    
    146400   305.62078      2.6427863    
    146800   311.08137      2.6487848    
    147200   296.45652      2.6417846    
    147600   303.12421      2.6583651    
    148000   290.88247      2.6452485    
    148400   295.74931      2.6648976    
    148800   276.31414      2.6798967    
    149200   290.48248      2.6690944    
    149600   295.80522      2.6695698    
    150000   318.39584      2.6816586    
    150400   304.8395       2.6717499    
    150800   294.57544      2.6540643    
    151200   299.47502      2.671683     
    151600   280.75281      2.6618712    
    152000   290.69306      2.6645957    
    152400   301.75293      2.6604526    
    152800   296.00845      2.6708359    
    153200   317.03354      2.6847389    
    153600   273.03173      2.6652199    
    154000   289.03687      2.6697445    
    154400   309.22447      2.6693588    
    154800   310.10343      2.6502541    
    155200   299.03471      2.6587597    
    155600   277.37251      2.6777686    
    156000   291.7094       2.6651797    
    156400   296.18953      2.6624273    
    156800   301.82515      2.6739473    
    157200   276.75174      2.6455232    
    157600   304.14989      2.6626707    
    158000   306.76969      2.6533243    
    158400   309.46174      2.64385      
    158800   296.48521      2.6537442    
    159200   301.68939      2.642871     
    159600   306.10332      2.6531488    
    160000   297.52101      2.653249     
    160400   296.78839      2.6440678    
    160800   311.78354      2.6626317    
    161200   299.81719      2.6742649    
    161600   298.93202      2.6836734    
    162000   304.13242      2.6827036    
    162400   289.27031      2.6553834    
    162800   306.35937      2.6754059    
    163200   300.52298      2.6616475    
    163600   298.5252       2.6376339    
    164000   297.35687      2.6467273    
    164400   295.25934      2.6543506    
    164800   295.29669      2.6467465    
    165200   282.33705      2.6660584    
    165600   302.76853      2.672122     
    166000   315.06936      2.6445914    
    166400   299.46894      2.643588     
    166800   289.05332      2.6341018    
    167200   298.96587      2.6431959    
    167600   312.42961      2.6486142    
    168000   304.22465      2.6339285    
    168400   303.91792      2.6418607    
    168800   291.77761      2.635466     
    169200   308.11868      2.6588329    
    169600   294.19941      2.640615     
    170000   297.22786      2.6434124    
    170400   317.77352      2.6494543    
    170800   295.24672      2.6338881    
    171200   292.38085      2.6623203    
    171600   293.37507      2.6724176    
    172000   297.14823      2.6537822    
    172400   304.42362      2.637433     
    172800   300.29318      2.6378895    
    173200   299.93619      2.6143949    
    173600   306.39164      2.6155178    
    174000   313.83654      2.618315     
    174400   295.45834      2.603809     
    174800   317.39352      2.6078019    
    175200   304.75056      2.6095301    
    175600   286.6296       2.6322717    
    176000   298.11907      2.6224245    
    176400   292.89235      2.6412818    
    176800   306.03598      2.6168154    
    177200   307.86253      2.6302343    
    177600   301.92075      2.6287036    
    178000   296.15766      2.6280361    
    178400   291.6472       2.6316661    
    178800   305.73657      2.6411637    
    179200   290.96057      2.6365478    
    179600   286.8388       2.6423161    
    180000   293.13262      2.6480516    
    180400   307.73936      2.6336467    
    180800   300.01247      2.6279954    
    181200   312.33719      2.6392905    
    181600   290.39042      2.6266322    
    182000   295.32181      2.6327016    
    182400   303.78173      2.6612838    
    182800   298.76108      2.6473742    
    183200   297.14329      2.655383     
    183600   301.18913      2.6581636    
    184000   288.13281      2.639606     
    184400   316.4793       2.6396448    
    184800   320.08577      2.6552872    
    185200   294.35496      2.6483511    
    185600   286.74995      2.6517383    
    186000   300.19439      2.6635655    
    186400   321.25715      2.6484921    
    186800   307.55025      2.6741776    
    187200   296.60723      2.66593      
    187600   296.50609      2.6614846    
    188000   274.9247       2.6368328    
    188400   308.5296       2.6375796    
    188800   306.28789      2.6419213    
    189200   305.8097       2.6364262    
    189600   276.99778      2.6420811    
    190000   287.43369      2.6616771    
    190400   296.72604      2.6699121    
    190800   273.83975      2.6549452    
    191200   296.35483      2.6281671    
    191600   297.88237      2.6397409    
    192000   310.37522      2.6415111    
    192400   298.23626      2.62971      
    192800   317.89386      2.6263782    
    193200   316.49969      2.6343977    
    193600   293.43282      2.6517765    
    194000   293.55628      2.6538859    
    194400   286.04589      2.6560818    
    194800   307.37488      2.6493802    
    195200   315.04397      2.6443939    
    195600   286.47104      2.6202574    
    196000   293.35825      2.6478904    
    196400   289.30895      2.64732      
    196800   308.66958      2.6478198    
    197200   310.51247      2.621688     
    197600   307.20215      2.6396827    
    198000   285.02577      2.6459241    
    198400   312.87258      2.6544986    
    198800   278.44404      2.6604714    
    199200   297.89282      2.6643419    
    199600   313.76571      2.6969752    
    200000   318.27343      2.6538582    
    200400   301.91402      2.6495703    
    200800   306.09191      2.6439747    
    201200   316.39952      2.6538046    
    201600   289.02818      2.6491842    
    202000   299.06184      2.6748871    
    202400   287.69422      2.6789221    
    202800   311.20928      2.6541314    
    203200   286.11248      2.6630357    
    203600   301.61177      2.6602333    
    204000   304.35112      2.6633484    
    204400   327.18278      2.6791743    
    204800   283.22533      2.6605221    
    205200   299.87401      2.6646028    
    205600   282.85597      2.6561145    
    206000   304.6246       2.6688984    
    206400   297.73911      2.6604276    
    206800   299.23298      2.6546676    
    207200   300.33069      2.6639648    
    207600   300.75987      2.6596315    
    208000   289.7602       2.6639053    
    208400   282.74099      2.6299557    
    208800   294.83103      2.6330599    
    209200   312.07001      2.6598074    
    209600   304.19273      2.658863     
    210000   298.8224       2.663394     
    210400   288.29328      2.6655523    
    210800   277.06976      2.646647     
    211200   295.17241      2.6657966    
    211600   302.88029      2.6547228    
    212000   296.02042      2.6479829    
    212400   297.40326      2.6283542    
    212800   295.26327      2.6259511    
    213200   305.51106      2.6502758    
    213600   305.93714      2.6316085    
    214000   300.9493       2.6195023    
    214400   287.76877      2.6169887    
    214800   290.39413      2.6370043    
    215200   293.85537      2.6416334    
    215600   281.39728      2.646861     
    216000   291.79893      2.6274886    
    216400   315.98755      2.6476592    
    216800   297.57537      2.6332693    
    217200   300.85296      2.6380411    
    217600   290.84751      2.6245192    
    218000   284.7978       2.6327945    
    218400   291.62071      2.6374589    
    218800   286.93486      2.6317661    
    219200   311.0567       2.6329664    
    219600   302.41434      2.6321762    
    220000   289.81083      2.630561     
    220400   297.621        2.6441938    
    220800   306.24295      2.6366185    
    221200   303.60589      2.6421942    
    221600   286.85945      2.6460578    
    222000   300.60678      2.6224953    
    222400   296.37879      2.6422014    
    222800   291.57827      2.6480536    
    223200   296.91516      2.6438686    
    223600   277.89318      2.6435697    
    224000   300.9666       2.635259     
    224400   297.71458      2.6379284    
    224800   298.69094      2.6290964    
    225200   308.22287      2.6388025    
    225600   293.42327      2.6319343    
    226000   309.03832      2.6438887    
    226400   300.12133      2.6422689    
    226800   295.31128      2.6301807    
    227200   299.38805      2.6316573    
    227600   303.02859      2.6260641    
    228000   305.0129       2.6223599    
    228400   296.564        2.6424138    
    228800   291.89418      2.6252069    
    229200   297.1601       2.6314544    
    229600   310.99101      2.6425312    
    230000   296.39132      2.6159731    
    230400   298.02336      2.6331224    
    230800   288.37814      2.6348461    
    231200   293.85645      2.6466424    
    231600   276.11778      2.6473263    
    232000   297.94606      2.6413351    
    232400   307.81106      2.6410553    
    232800   304.34419      2.6397365    
    233200   296.65135      2.6371434    
    233600   283.43834      2.6215044    
    234000   330.33268      2.6424105    
    234400   315.25511      2.6154016    
    234800   304.79316      2.6206128    
    235200   299.03466      2.6296746    
    235600   285.67272      2.6222147    
    236000   292.37227      2.6276613    
    236400   322.51188      2.6226675    
    236800   319.54431      2.6312915    
    237200   289.78142      2.6257696    
    237600   290.81612      2.6308654    
    238000   285.1119       2.6134666    
    238400   303.78035      2.6274873    
    238800   311.78707      2.6258336    
    239200   312.94778      2.634659     
    239600   295.45692      2.6368408    
    240000   287.63205      2.6354937    
    240400   318.25136      2.6378441    
    240800   310.39931      2.6207754    
    241200   306.0976       2.6241582    
    241600   305.06984      2.6172668    
    242000   305.82204      2.6124425    
    242400   293.38504      2.6424684    
    242800   295.25285      2.6498963    
    243200   290.60469      2.6500048    
    243600   288.43037      2.6386606    
    244000   292.3907       2.6350919    
    244400   310.83855      2.6378117    
    244800   302.93052      2.6480782    
    245200   300.35632      2.6395039    
    245600   291.60068      2.6383474    
    246000   295.60653      2.6561481    
    246400   298.62827      2.6568798    
    246800   306.68091      2.6421463    
    247200   307.68455      2.6506761    
    247600   280.48184      2.6381197    
    248000   307.82751      2.6644667    
    248400   309.92944      2.6767757    
    248800   301.98978      2.675836     
    249200   292.78573      2.6556821    
    249600   286.49001      2.6560893    
    250000   317.1306       2.6720193    
    250400   297.24089      2.6528413    
    250800   297.39123      2.6602903    
    251200   289.94925      2.6725795    
    251600   273.63795      2.653636     
    252000   292.36189      2.6762591    
    252400   315.53624      2.6691826    
    252800   307.16842      2.6701757    
    253200   293.92947      2.6538163    
    253600   285.59789      2.6618153    
    254000   301.60804      2.671425     
    254400   300.12458      2.6412566    
    254800   323.66429      2.663729     
    255200   301.25622      2.6554193    
    255600   307.61365      2.6647434    
    256000   303.56442      2.6467747    
    256400   300.77688      2.6393439    
    256800   324.22401      2.662592     
    257200   308.96372      2.6556237    
    257600   275.47466      2.6573367    
    258000   304.13517      2.6559588    
    258400   281.24025      2.6505799    
    258800   292.74525      2.63697      
    259200   308.2574       2.6347666    
    259600   311.74568      2.6186831    
    260000   305.6568       2.6274334    
    260400   291.55292      2.6223244    
    260800   290.2731       2.6325979    
    261200   292.04799      2.6287852    
    261600   311.22823      2.6392747    
    262000   296.72138      2.621995     
    262400   320.62683      2.6317906    
    262800   305.23259      2.641388     
    263200   299.16736      2.6419584    
    263600   280.46534      2.6388051    
    264000   281.58515      2.6351199    
    264400   308.20549      2.6593429    
    264800   307.97747      2.643363     
    265200   289.76196      2.642835     
    265600   294.37201      2.6409454    
    266000   306.63945      2.6512163    
    266400   305.69753      2.6539407    
    266800   283.53891      2.632763     
    267200   296.97797      2.6748894    
    267600   291.79258      2.6769178    
    268000   289.18594      2.6708996    
    268400   287.26421      2.6499706    
    268800   318.84044      2.6615123    
    269200   293.19393      2.668268     
    269600   295.07547      2.6577513    
    270000   307.28088      2.6555614    
    270400   296.06306      2.6407728    
    270800   302.67106      2.6504462    
    271200   311.84584      2.6521851    
    271600   291.89835      2.6259023    
    272000   290.14893      2.6413059    
    272400   283.9384       2.6138825    
    272800   296.34776      2.6473602    
    273200   287.49661      2.6360699    
    273600   300.01143      2.6493057    
    274000   333.3984       2.6675887    
    274400   321.32852      2.6567815    
    274800   298.81564      2.6350227    
    275200   297.59272      2.6458825    
    275600   298.81871      2.6208008    
    276000   303.33124      2.62168      
    276400   321.70032      2.6259308    
    276800   321.59759      2.6206423    
    277200   298.6123       2.5915765    
    277600   285.65853      2.5895815    
    278000   304.14858      2.6160276    
    278400   296.14937      2.6122656    
    278800   300.36322      2.6152667    
    279200   291.25302      2.6252374    
    279600   295.08741      2.6175452    
    280000   299.94914      2.6363672    
    280400   314.79906      2.6359893    
    280800   278.63979      2.6212368    
    281200   283.38964      2.6451907    
    281600   293.6823       2.6370492    
    282000   300.79036      2.649951     
    282400   286.47113      2.6526196    
    282800   295.52502      2.6558259    
    283200   291.8539       2.6394579    
    283600   322.73219      2.651698     
    284000   295.74144      2.6398034    
    284400   306.33623      2.6370521    
    284800   298.52521      2.6277046    
    285200   299.1427       2.6533864    
    285600   321.87564      2.6549268    
    286000   293.06465      2.6209091    
    286400   296.52774      2.626883     
    286800   296.76239      2.6123091    
    287200   294.43293      2.6192046    
    287600   301.81988      2.6388418    
    288000   293.57684      2.626359     
    288400   294.46548      2.6399418    
    288800   296.95216      2.6325895    
    289200   324.5699       2.6337981    
    289600   305.10564      2.626273     
    290000   292.99719      2.6357589    
    290400   298.32175      2.6493033    
    290800   302.40193      2.6503458    
    291200   289.21897      2.6331169    
    291600   320.31122      2.6388567    
    292000   301.33015      2.6243531    
    292400   291.0594       2.6167186    
    292800   297.84341      2.615941     
    293200   300.33693      2.6325726    
    293600   302.22338      2.6472503    
    294000   299.59731      2.618849     
    294400   298.47341      2.6183577    
    294800   292.50882      2.5916923    
    295200   296.669        2.6080574    
    295600   301.28094      2.6268231    
    296000   301.42958      2.6351899    
    296400   301.29182      2.6432284    
    296800   295.26782      2.6329199    
    297200   300.63242      2.6424599    
    297600   309.79119      2.6476892    
    298000   305.04759      2.6290036    
    298400   314.9295       2.6313422    
    298800   291.74104      2.6124984    
    299200   266.67939      2.6060003    
    299600   309.2555       2.6317588    
    300000   317.35003      2.6168726    
    300400   305.04146      2.6304237    
    300800   327.17675      2.6449714    
    301200   289.74061      2.6432278    
    301600   284.1814       2.6535729    
    302000   294.26316      2.6683606    
    302400   297.56547      2.6723641    
    302800   286.49179      2.6475458    
    303200   317.53154      2.6566743    
    303600   295.23405      2.6661786    
    304000   299.6617       2.634942     
    304400   308.98204      2.6624406    
    304800   302.21206      2.6474617    
    305200   294.7317       2.654001     
    305600   308.25374      2.6521838    
    306000   321.40086      2.646028     
    306400   316.59986      2.6194921    
    306800   302.90558      2.6362399    
    307200   307.25483      2.6344023    
    307600   307.49525      2.6360554    
    308000   291.4982       2.6295136    
    308400   294.51867      2.6335837    
    308800   307.63516      2.6506262    
    309200   304.10298      2.6343791    
    309600   289.25103      2.6204443    
    310000   298.78562      2.6213512    
    310400   302.72094      2.6465416    
    310800   292.52136      2.6421456    
    311200   305.63206      2.6611483    
    311600   297.32981      2.6499959    
    312000   292.63567      2.6691577    
    312400   295.08013      2.662578     
    312800   310.34035      2.6451878    
    313200   307.48051      2.6352746    
    313600   305.46156      2.6502993    
    314000   311.39229      2.6487328    
    314400   304.63706      2.637499     
    314800   305.82128      2.6312983    
    315200   291.13872      2.6233113    
    315600   298.8416       2.6466022    
    316000   315.60607      2.6469995    
    316400   293.69058      2.6383375    
    316800   281.49526      2.6427891    
    317200   303.36964      2.6635295    
    317600   293.79936      2.663847     
    318000   303.41618      2.6619446    
    318400   296.74205      2.6674492    
    318800   279.79636      2.6723153    
    319200   301.38767      2.6853074    
    319600   287.53207      2.6722243    
    320000   302.80847      2.6557564    
    320400   308.47761      2.6348419    
    320800   303.76315      2.6424965    
    321200   305.95302      2.6332505    
    321600   285.02297      2.6282757    
    322000   318.93065      2.6290905    
    322400   312.17392      2.6491852    
    322800   294.66087      2.6567854    
    323200   291.19753      2.6600526    
    323600   302.73893      2.6505799    
    324000   297.47566      2.6599365    
    324400   287.68735      2.6452761    
    324800   306.93482      2.6616691    
    325200   283.80099      2.6263953    
    325600   287.55544      2.627308     
    326000   296.48991      2.6292724    
    326400   285.1004       2.6614647    
    326800   288.67941      2.6384653    
    327200   312.96397      2.652653     
    327600   292.21371      2.6272679    
    328000   293.2589       2.6256686    
    328400   315.59048      2.6415326    
    328800   312.24661      2.626348     
    329200   293.64744      2.6185036    
    329600   313.28176      2.6483791    
    330000   308.00517      2.6499201    
    330400   285.861        2.6647487    
    330800   284.56178      2.6730868    
    331200   288.32049      2.635791     
    331600   304.82058      2.6540348    
    332000   305.70952      2.6309667    
    332400   299.28724      2.6417703    
    332800   296.2334       2.6486865    
    333200   295.87415      2.6645464    
    333600   274.69862      2.6444278    
    334000   299.17712      2.6527441    
    334400   303.99013      2.6323407    
    334800   281.01144      2.6243839    
    335200   308.41934      2.6305684    
    335600   295.57712      2.6285752    
    336000   294.3388       2.624177     
    336400   289.12828      2.6429433    
    336800   296.32357      2.6585696    
    337200   291.12331      2.6412743    
    337600   273.33739      2.6365258    
    338000   299.38123      2.6366281    
    338400   315.60284      2.639611     
    338800   298.42771      2.6370474    
    339200   300.56487      2.6483113    
    339600   301.04727      2.6527632    
    340000   284.73601      2.6594579    
    340400   286.35625      2.6716591    
    340800   291.77347      2.6721434    
    341200   328.92079      2.6590873    
    341600   306.47835      2.669095     
    342000   280.77015      2.668115     
    342400   273.28564      2.6616302    
    342800   293.55418      2.6718647    
    343200   290.27344      2.6693455    
    343600   313.99124      2.6654424    
    344000   302.30914      2.6460882    
    344400   304.40475      2.638862     
    344800   279.95928      2.6662405    
    345200   275.63008      2.656125     
    345600   296.50173      2.6810795    
    346000   311.94621      2.6891819    
    346400   285.69111      2.6618862    
    346800   287.00819      2.6633023    
    347200   304.24705      2.6910594    
    347600   291.2822       2.6695452    
    348000   296.76758      2.6541805    
    348400   295.11823      2.6644083    
    348800   334.08098      2.6565971    
    349200   298.1063       2.646472     
    349600   294.3663       2.6589125    
    350000   296.44455      2.658151     
    350400   297.07365      2.6471923    
    350800   314.10573      2.655551     
    351200   313.60062      2.6412694    
    351600   287.5077       2.6344198    
    352000   270.09608      2.6432456    
    352400   290.65392      2.6429792    
    352800   290.7269       2.6377574    
    353200   301.9927       2.6538843    
    353600   292.33956      2.6564383    
    354000   282.66816      2.636134     
    354400   294.00248      2.6567242    
    354800   302.11472      2.6538547    
    355200   312.80697      2.6695029    
    355600   299.31067      2.6498815    
    356000   318.19789      2.6721983    
    356400   322.72006      2.6579644    
    356800   312.83887      2.6459048    
    357200   302.32195      2.6462403    
    357600   293.49881      2.6559544    
    358000   284.65245      2.6567776    
    358400   311.33123      2.6683788    
    358800   304.71272      2.6586252    
    359200   292.16552      2.6506257    
    359600   284.42392      2.6293638    
    360000   292.49843      2.628351     
    360400   295.09482      2.6205585    
    360800   291.34738      2.6185172    
    361200   314.21922      2.6436524    
    361600   322.41937      2.6336974    
    362000   313.80454      2.6310036    
    362400   318.07254      2.6502173    
    362800   276.59697      2.6423936    
    363200   290.81434      2.6674089    
    363600   289.69161      2.6451934    
    364000   310.97845      2.6614901    
    364400   317.71351      2.6398319    
    364800   304.82989      2.670503     
    365200   297.27083      2.6842139    
    365600   300.11759      2.6748124    
    366000   296.78059      2.6658865    
    366400   297.78797      2.6671166    
    366800   282.97571      2.6564463    
    367200   302.53471      2.6585831    
    367600   318.53961      2.6443447    
    368000   292.83217      2.6383533    
WARNING: System is not charge neutral, net charge = -1.0000028e-05
For more information see https://docs.lammps.org/err0029 (src/kspace.cpp:329)
    368400   298.24517      2.6449609    
    368800   302.95251      2.6340539    
    369200   296.32712      2.6643955    
    369600   292.57908      2.6624274    
    370000   298.26766      2.6603325    
    370400   293.85494      2.6581513    
    370800   308.94784      2.655429     
    371200   288.09796      2.6575299    
    371600   286.62787      2.6421405    
    372000   296.6639       2.6437942    
    372400   291.64977      2.635834     
    372800   297.69099      2.6170877    
    373200   309.08375      2.6285426    
    373600   303.01053      2.6199369    
    374000   302.6936       2.6282316    
    374400   301.26922      2.6257682    
    374800   293.01422      2.6137004    
    375200   285.24608      2.6348621    
    375600   283.37395      2.6516535    
    376000   302.63148      2.6628638    
    376400   299.76583      2.6317297    
    376800   284.05695      2.645927     
    377200   286.92363      2.6332105    
    377600   297.98885      2.635681     
    378000   311.16777      2.6508174    
    378400   294.7407       2.6387224    
    378800   280.77576      2.6395787    
    379200   287.699        2.6341304    
    379600   302.23116      2.6368649    
    380000   306.2283       2.6551019    
    380400   294.55782      2.6463757    
    380800   283.45185      2.6617114    
    381200   287.14604      2.6682197    
    381600   282.27156      2.6553939    
    382000   291.62135      2.6766235    
    382400   309.72433      2.6464251    
    382800   305.11636      2.6515441    
    383200   300.53107      2.6331539    
    383600   292.60384      2.6293786    
    384000   304.19282      2.6328536    
    384400   296.37663      2.6093186    
    384800   269.0525       2.6136687    
    385200   306.03798      2.6367313    
    385600   308.35749      2.6161463    
    386000   296.84695      2.6229013    
    386400   305.5436       2.631171     
    386800   304.31901      2.6372861    
    387200   304.79994      2.6432793    
    387600   289.36493      2.6194224    
    388000   295.81804      2.6231404    
    388400   310.80578      2.6490009    
    388800   284.71088      2.6454981    
    389200   295.135        2.6546963    
    389600   297.89038      2.6521409    
    390000   307.85443      2.6604033    
    390400   312.30198      2.6451556    
    390800   294.97062      2.6517664    
    391200   296.52763      2.6623167    
    391600   288.46724      2.6659464    
    392000   271.51371      2.6306523    
    392400   271.14006      2.6436441    
    392800   305.19212      2.6325088    
    393200   288.90596      2.6303939    
    393600   290.79488      2.6177145    
    394000   300.19539      2.6181059    
    394400   301.81574      2.6174645    
    394800   300.32677      2.6109464    
    395200   323.53767      2.6166547    
    395600   322.9696       2.6058185    
    396000   290.01631      2.6097603    
    396400   292.94329      2.617059     
    396800   295.59301      2.6217345    
    397200   311.48829      2.6175291    
    397600   298.3587       2.624303     
    398000   309.00245      2.6456712    
    398400   290.48719      2.6450954    
    398800   287.27657      2.6428139    
    399200   290.19714      2.630068     
    399600   321.97036      2.645069     
    400000   303.97618      2.6195786    
Loop time of 1554.83 on 16 procs for 400000 steps with 1024 atoms

Performance: 5.557 ns/day, 4.319 hours/ns, 257.262 timesteps/s, 263.437 katom-step/s
84.6% CPU use with 16 MPI tasks x 1 OpenMP threads

MPI task timing breakdown:
Section |  min time  |  avg time  |  max time  |%varavg| %total
---------------------------------------------------------------
Pair    | 296.49     | 302.71     | 311.63     |  27.2 | 19.47
Bond    | 0.021055   | 0.023953   | 0.030193   |   1.5 |  0.00
Kspace  | 280.33     | 290.09     | 295.72     |  29.3 | 18.66
Neigh   | 6.2553     | 6.4131     | 6.6125     |   4.2 |  0.41
Comm    | 99.032     | 99.843     | 100.44     |   3.5 |  6.42
Output  | 0.14461    | 0.14628    | 0.15211    |   0.4 |  0.01
Modify  | 844.93     | 845.44     | 845.89     |   0.8 | 54.38
Other   |            | 10.17      |            |       |  0.65

Nlocal:             64 ave          73 max          53 min
Histogram: 1 1 1 1 1 3 2 4 0 2
Nghost:        4335.38 ave        4417 max        4269 min
Histogram: 2 1 3 1 0 3 3 2 0 1
Neighs:        30945.2 ave       35530 max       25584 min
Histogram: 1 1 1 2 2 2 3 2 0 2
FullNghs:      61890.5 ave       70695 max       51478 min
Histogram: 1 1 1 2 2 2 3 2 0 2

Total # of neighbors = 990248
Ave neighs/atom = 967.03906
Ave special neighs/atom = 1.5
Neighbor list builds = 3798
Dangerous builds = 0
print           "PORT_DONE" file done.txt screen no
Total wall time: 0:31:06
