LAMMPS (4 Jul 2026 - Development - patch_4Jul2026-542-g4e5eb25ab6-modified)
  using 1 OpenMP thread(s) per MPI task
# TIP4P-FQ liquid, FAITHFUL-RICK structure: lr_ewald=1 (INTRA-Slater + BARE-inter, his exact
# electrostatics per mdtpn.f) — the mu-gap root cause was lr_ewald=2's all-pair shielding.
# PREDICTION: mu -> ~2.63 (Rick 2.637). Stability rides XL (Rick's own stability = EL adiabaticity).
# Base: TRUE SLATER-OVERLAP kernel deck (`shield slater`): Rick's raw zetas,
# NO refit. Target: close the gauss-kernel port's -4% mu (2.53 vs Rick 2.637) — the deviation was
# the intermolecular J at intermediate r, exactly what the exact kernel fixes.
# Derived from in.tip4pfq_xl (KERNEL-REFIT gauss port); 256-molecule box built from Rick's own equilibrated
# mdtpn.dat config (build_box.py), vol=7660.31 A^3, rho=1.0 g/cc, fixed (NVT).
# Kernel: gaussian/pqeq erf(a_ij r)/r, fit EXACTLY to Rick's jrab() J_HH(1.5139)
# and J_OH(r_MH=0.8735) (see fit_j.py) -- the physically-operative rigid-body
# distances. Single `run` command (multi-run is a known samQEq calibration
# artifact); tail-window ave/time blocks report thermalized averages.
units           metal
atom_style      full
boundary        p p p
read_data       tip4pfq_liquid.data
Reading data file ...
  orthogonal box = (0 0 0) to (19.712825 19.712825 19.712825)
  2 by 2 by 4 MPI processor grid
  reading atoms ...
  1024 atoms
  scanning bonds ...
  2 = max bonds/atom
  scanning angles ...
  1 = max angles/atom
  orthogonal box = (0 0 0) to (19.712825 19.712825 19.712825)
  2 by 2 by 4 MPI processor grid
  reading bonds ...
  512 bonds
  reading angles ...
  256 angles
Finding 1-2 1-3 1-4 neighbors ...
  special bond factors lj:    0        0        0       
  special bond factors coul:  0        0        0       
     2 = max # of 1-2 neighbors
     1 = max # of 1-3 neighbors
     1 = max # of 1-4 neighbors
     2 = max # of special neighbors
  special bonds CPU = 0.001 seconds
  read_data CPU = 0.010 seconds

group           watO  type 1
256 atoms in group watO
group           watH  type 2
512 atoms in group watH
group           watM  type 3
256 atoms in group watM
group           fq    type 2 3
768 atoms in group fq

# LJ on O-O only (Table I): eps=0.2862 kcal/mol=0.012412 eV, sigma=3.159 A
pair_style      hybrid/overlay lj/cut 10.0 coul/long 10.0 coul/shield/intra 5.0 slater 2s 1 3
pair_coeff      1 1 lj/cut 0.012412 3.159
pair_coeff      1 2 lj/cut 0.0 1.0
pair_coeff      1 3 lj/cut 0.0 1.0
pair_coeff      2 2 lj/cut 0.0 1.0
pair_coeff      2 3 lj/cut 0.0 1.0
pair_coeff      3 3 lj/cut 0.0 1.0
pair_coeff      * * coul/long
pair_coeff      1 1 coul/shield/intra 3.0803    # zeta_O (2s), 1/Angstrom
pair_coeff      2 2 coul/shield/intra 1.7007    # zeta_H (1s)
pair_coeff      3 3 coul/shield/intra 3.0803    # zeta_M (borrows O's 2s form factor)
pair_coeff      1 2 coul/shield/intra 2.288813
pair_coeff      1 3 coul/shield/intra 3.080300
pair_coeff      2 3 coul/shield/intra 2.288813
# ^ FIX: hybrid/overlay contributes ZERO for unset sub-style cross pairs (no auto init_one
#   mixing, no warning) — the unset M-H pair hid a +3.2 eV/mol pe error (U_bind -82 naive / -13.6
#   'corrected' -> -9.90 = Rick EXACT once fixed). Cross values: sqrt-mixed (used by cbrt mode;
#   pqeq/slater kernels read type diagonals only). See ubind/DIAGNOSIS_UBIND.md.

special_bonds   lj/coul 1.0e-8 1.0e-8 1.0
Finding 1-2 1-3 1-4 neighbors ...
  special bond factors lj:    1e-08    1e-08    1       
  special bond factors coul:  1e-08    1e-08    1       
     2 = max # of 1-2 neighbors
     1 = max # of 1-3 neighbors
     2 = max # of special neighbors
  special bonds CPU = 0.001 seconds
kspace_style    pppm/samqeq 1.0e-5

neighbor        2.0 bin
neigh_modify    every 1 delay 0 check yes

fix             chg fq qeq/sam 1 0.0 10.0 1.0e-5 water4_liquid_slater_lr1.param
fix_modify      chg shield slater 2s 1 3
samqeq: lr-solve shielding = Slater J(r) (Rick JCP101,6141) (param 4th col = zeta (Slater exponent, 1/Angstrom)); routed through compute_H + add_fixed_charge_field + the legacy gas path (calc_Hval)
fix_modify      chg energy yes
fix_modify      chg xl 2.6e-6 1.0
samqeq: extended-Lagrangian charge dynamics ON (q_mass=2.6e-06 eV ps^2/e^2, q_tdamp=1 ps); pure friction (T_q=0); charges propagate by velocity-Verlet (no per-step solve)
# ROOT CAUSE (found via a dt-scan diagnostic, in.diag_dt.tmp/in.diag_dt2.tmp, logs
# log.diag_dt/log.diag_dt2): dt=0.5 fs (the task's suggested value) is NOT a stable
# integration step for this system -- the intramolecular M-H charge oscillator is very
# stiff (r_MH=0.87 A, eta_M/H~16/15 eV) and the rigid-body torque response amplifies any
# discretization error into a genuine near-critical SCF catastrophe within a few hundred
# steps (confirmed: NEITHER an offset-quartic wall NOR the rnd charge-freeze safeguard
# cured it at dt=0.5fs -- both only delayed/relocated the same blow-up, proof this is an
# INTEGRATION-timestep problem, not a kernel-fit or Hessian-singularity problem). At
# dt=0.1 and dt=0.2 fs the SAME deck (no stabilizers needed at all) is fully stable over
# the tested window with mu/qM/qH/T all physically sane and drifting toward the targets.
# Using dt=0.2 fs (4x smaller than the task's suggested 0.5 fs) here.

compute         qMpa watM property/atom q
compute         qMc  watM reduce ave c_qMpa
compute         qHpa watH property/atom q
compute         qHc  watH reduce ave c_qHpa
compute         dip all dipole/samqeq
variable        mu   equal c_dip
variable        qM   equal c_qMc
variable        qH   equal c_qHc
variable        pemol equal pe/256.0
variable        T equal temp
variable        P equal press

timestep        0.00025
velocity        all create 298.0 4928459 mom yes rot yes dist gaussian
fix             rig all rigid/nvt/small molecule temp 298.0 298.0 0.02
Fix rigid/nvt/small setup ...
  create bodies CPU = 0.000 seconds
  256 rigid bodies with 1024 atoms
  0.87348128 = max distance from body owner to body atom
thermo_style    custom step temp v_mu
thermo          400
run             80000

CITE-CITE-CITE-CITE-CITE-CITE-CITE-CITE-CITE-CITE-CITE-CITE-CITE

Your simulation uses code contributions which should be cited:

- fix acks2/reaxff command: https://doi.org/10.1137/18M1224684

@Article{O'Hearn2020,
 author = {K. A. {O'Hearn} and A. Alperen and H. M. Aktulga},
 title = {Fast Solvers for Charge Distribution Models on Shared Memory Platforms},
 journal = {SIAM J.\ Sci.\ Comput.},
 year =    2020,
 volume =  42,
 number =  1,
 pages =   {1--22}
}

CITE-CITE-CITE-CITE-CITE-CITE-CITE-CITE-CITE-CITE-CITE-CITE-CITE

PPPM initialization ...
  using 12-bit tables for long-range coulomb
  G vector (1/distance) = 0.31499941
  grid = 20 20 20
  stencil order = 5
  estimated absolute RMS force accuracy = 0.0001309434
  estimated relative force accuracy = 9.0935157e-06
  using double precision FFTW3
  3d grid and FFT values/proc = 3468 500
samqeq: pair coul/shield/intra Slater-overlap J(r) tables built (6 unique type pairs, 2000 pts each, r in [0.02,5])
Generated 0 of 3 mixed pair_coeff terms from geometric mixing rule
WARNING: Bonds are defined but no bond style is set (src/force.cpp:198)
WARNING: Likewise 1-2 special neighbor interactions != 1.0 (src/force.cpp:200)
WARNING: Angles are defined but no angle style is set (src/force.cpp:203)
WARNING: Likewise 1-3 special neighbor interactions != 1.0 (src/force.cpp:205)
samqeq: E_self = sum(chi q + 1/2 eta qs^2) INCLUDED in pe/etotal (fix_modify chg energy yes; eselfref qs = q - q0 - redox_dp) -- pe + E_self is the energy the forces integrate
samqeq: Slater-overlap J(r) tables built (6 unique type pairs, 2000 pts each, r in [0.02,10])
Neighbor list info ...
  update: every = 1 steps, delay = 0 steps, check = yes
  max neighbors/atom: 2000, page size: 100000
  master list distance cutoff = 12
  ghost atom cutoff = 12
  binsize = 6, bins = 4 4 4
  5 neighbor lists, perpetual/occasional/extra = 5 0 0
  (1) pair lj/cut, perpetual, copy from (2)
      attributes: half, newton on, cut 12
      pair build: copy
      stencil: none
      bin: none
  (2) pair coul/long, perpetual, half/full from (5)
      attributes: half, newton on, cut 12
      pair build: halffull/newton
      stencil: none
      bin: none
  (3) pair coul/shield/intra, perpetual, copy from (1)
      attributes: half, newton on
      pair build: copy
      stencil: none
      bin: none
  (4) fix qeq/sam, perpetual, half/full from (5)
      attributes: half, newton off
      pair build: halffull/newtoff
      stencil: none
      bin: none
  (5) fix qeq/sam, perpetual
      attributes: full, newton on
      pair build: full/bin
      stencil: full/bin/3d
      bin: standard
Per MPI rank memory allocation (min/avg/max) = 20.69 | 20.97 | 21.15 Mbytes
   Step          Temp           v_mu     
WARNING: compute dipole/samqeq: molecule 22 has net charge -0.000001; its dipole is origin-dependent (src/SAMQEQ/compute_dipole_samqeq.cpp:165)
         0   290.88828      2.652567     
samqeq: calibrated grid reciprocal self-term recip_self=0.35523 +/- 0.00000 (raw, K=16 deterministic probes) = 5.1152 eV/e (subtracted so the QEq diagonal stays = eta)
       400   293.68419      2.6381348    
       800   320.84958      2.6428191    
      1200   309.95751      2.6208087    
      1600   289.48811      2.6199684    
      2000   287.09715      2.6267363    
      2400   297.78676      2.6217332    
      2800   301.81682      2.6252759    
      3200   293.69846      2.6216175    
      3600   283.26962      2.6299954    
      4000   306.74384      2.6386604    
      4400   283.29708      2.6327217    
      4800   297.2774       2.6403436    
      5200   272.13505      2.6503548    
      5600   288.34952      2.6644011    
      6000   312.84646      2.6510275    
      6400   270.47928      2.6402694    
      6800   290.03599      2.6779042    
      7200   306.28542      2.6814793    
      7600   302.687        2.669669     
      8000   301.81494      2.666697     
      8400   301.00689      2.6826472    
      8800   292.90459      2.6593035    
      9200   285.31457      2.6310903    
      9600   296.8295       2.6220428    
     10000   297.69889      2.6115513    
     10400   301.65793      2.6447206    
     10800   282.84854      2.6330087    
     11200   298.7546       2.6307756    
     11600   312.95066      2.6244021    
     12000   291.34371      2.6257012    
     12400   297.95276      2.6066418    
     12800   315.84525      2.6006132    
     13200   287.46432      2.6215688    
     13600   305.80798      2.6376156    
     14000   309.57067      2.6215627    
     14400   299.50391      2.6324374    
     14800   294.35289      2.6414572    
     15200   313.64657      2.6270702    
     15600   313.59682      2.6325115    
     16000   308.63201      2.6304514    
     16400   305.372        2.6263826    
     16800   294.88104      2.6252835    
     17200   307.10254      2.6049006    
     17600   286.40565      2.6336872    
     18000   302.46493      2.6310258    
     18400   306.69474      2.6370325    
     18800   303.96884      2.6329533    
     19200   319.56502      2.6308487    
     19600   297.4388       2.6157756    
     20000   310.31115      2.6284022    
     20400   301.23911      2.6281139    
     20800   307.14702      2.619975     
     21200   307.36271      2.6043873    
     21600   293.26647      2.6002153    
     22000   295.7389       2.6068432    
     22400   289.75759      2.5899777    
     22800   288.35159      2.5842682    
     23200   292.42505      2.5778711    
     23600   293.88025      2.5808713    
     24000   303.95306      2.5814449    
     24400   302.94777      2.6018303    
     24800   305.15988      2.6250706    
     25200   295.08342      2.6226466    
     25600   292.34479      2.601114     
     26000   299.47494      2.6113656    
     26400   274.24018      2.625689     
     26800   299.50152      2.6390198    
     27200   300.25069      2.6159582    
     27600   297.04794      2.6233919    
     28000   294.72226      2.6400987    
     28400   301.98673      2.6649151    
     28800   305.07825      2.6551326    
     29200   303.80473      2.6397497    
     29600   308.64188      2.6170222    
     30000   316.52956      2.6313463    
     30400   290.02121      2.6194962    
     30800   305.87683      2.6376432    
     31200   293.93308      2.6230732    
     31600   293.66752      2.600052     
     32000   294.3256       2.6209938    
     32400   289.81029      2.6295955    
     32800   286.70262      2.6290995    
     33200   300.18644      2.6310633    
     33600   296.02764      2.626411     
     34000   302.33409      2.6167107    
     34400   299.52581      2.6282908    
     34800   278.0134       2.6328619    
     35200   295.75064      2.6111351    
     35600   291.94883      2.6151963    
     36000   312.94436      2.6224358    
     36400   305.47066      2.6356427    
     36800   287.60441      2.6453918    
     37200   294.47382      2.6358606    
     37600   276.34923      2.6411067    
     38000   293.93086      2.6371224    
     38400   286.8212       2.626823     
     38800   312.18785      2.6080168    
     39200   280.78798      2.5767558    
     39600   294.13949      2.592192     
     40000   303.48378      2.5999264    
     40400   311.2885       2.603643     
     40800   287.39047      2.6339161    
     41200   307.397        2.617084     
     41600   308.73259      2.5989695    
     42000   296.07452      2.582467     
     42400   298.38454      2.6047162    
     42800   283.92885      2.6184778    
     43200   307.47452      2.621407     
     43600   299.48754      2.6063099    
     44000   294.30916      2.6031449    
     44400   284.98616      2.6243197    
     44800   287.82002      2.6273373    
     45200   311.23389      2.6407633    
     45600   289.98362      2.6132764    
     46000   309.63313      2.6197177    
     46400   305.51302      2.634522     
     46800   289.84188      2.6292038    
     47200   298.97971      2.6167242    
     47600   312.68073      2.6067201    
     48000   303.9069       2.6208238    
     48400   305.2723       2.6460659    
     48800   290.24068      2.6245316    
     49200   295.90363      2.6031339    
     49600   292.8495       2.5891992    
     50000   300.41427      2.6062631    
     50400   313.28675      2.593029     
     50800   307.54261      2.6221832    
     51200   292.99691      2.6088817    
     51600   294.30034      2.5966371    
     52000   285.51415      2.6182402    
     52400   298.61287      2.6220585    
     52800   297.23868      2.661365     
     53200   286.46175      2.6873364    
     53600   318.61384      2.6351228    
     54000   296.09175      2.6419742    
     54400   306.34163      2.6516552    
     54800   300.90304      2.6414157    
     55200   309.10413      2.6270513    
     55600   302.42648      2.6247958    
     56000   287.57818      2.649164     
     56400   291.64879      2.6346855    
     56800   298.35927      2.6447048    
     57200   303.91293      2.6406118    
     57600   292.79031      2.6255767    
     58000   305.92348      2.6119375    
     58400   288.13689      2.6097359    
     58800   300.50123      2.6219759    
     59200   294.98447      2.6090771    
     59600   320.45942      2.618436     
     60000   300.76476      2.6108628    
     60400   303.57151      2.6258668    
     60800   307.79492      2.6407421    
     61200   299.07246      2.6221972    
     61600   286.09837      2.6257096    
     62000   306.27821      2.6322669    
     62400   292.67646      2.6121852    
     62800   300.47426      2.6105128    
     63200   293.01037      2.6040124    
     63600   315.13324      2.6147669    
     64000   318.47348      2.6075585    
     64400   290.18827      2.6293702    
     64800   302.26418      2.6152727    
     65200   293.82775      2.6145871    
     65600   299.71542      2.5806269    
     66000   309.87526      2.6029766    
     66400   286.13842      2.5988208    
     66800   280.80064      2.600357     
     67200   298.13744      2.6049266    
     67600   300.3718       2.5846144    
     68000   307.08568      2.6105856    
     68400   313.97134      2.6310507    
     68800   304.07534      2.6412599    
     69200   281.43472      2.6333861    
     69600   304.69227      2.6194475    
     70000   305.89956      2.6273537    
     70400   308.46026      2.6162719    
     70800   275.49844      2.6248042    
     71200   317.34425      2.6322897    
     71600   316.67115      2.6222218    
     72000   298.86527      2.6392508    
     72400   309.99124      2.6299562    
     72800   287.01417      2.6319436    
     73200   284.19901      2.6260233    
     73600   312.91043      2.6397152    
     74000   300.09647      2.6399637    
     74400   298.92975      2.6055835    
     74800   290.56751      2.6264045    
     75200   281.89124      2.6104124    
     75600   296.00362      2.6078414    
     76000   290.89379      2.6221199    
     76400   293.02049      2.6120281    
     76800   276.33318      2.6096385    
     77200   279.96302      2.6063317    
     77600   297.83322      2.6212338    
     78000   317.146        2.6175978    
     78400   297.84125      2.603281     
     78800   297.63558      2.6133935    
     79200   290.49791      2.6123833    
     79600   298.42948      2.6085344    
     80000   299.39833      2.610107     
Loop time of 309.667 on 16 procs for 80000 steps with 1024 atoms

Performance: 5.580 ns/day, 4.301 hours/ns, 258.342 timesteps/s, 264.543 katom-step/s
84.6% CPU use with 16 MPI tasks x 1 OpenMP threads

MPI task timing breakdown:
Section |  min time  |  avg time  |  max time  |%varavg| %total
---------------------------------------------------------------
Pair    | 55.398     | 59.627     | 62         |  18.3 | 19.26
Bond    | 0.0040051  | 0.0044428  | 0.0052815  |   0.5 |  0.00
Kspace  | 55.514     | 58.019     | 62.197     |  18.5 | 18.74
Neigh   | 1.21       | 1.2711     | 1.3221     |   2.5 |  0.41
Comm    | 19.527     | 19.659     | 19.814     |   2.4 |  6.35
Output  | 0.030059   | 0.030669   | 0.032213   |   0.3 |  0.01
Modify  | 168.56     | 168.72     | 168.86     |   0.6 | 54.48
Other   |            | 2.337      |            |       |  0.75

Nlocal:             64 ave          73 max          50 min
Histogram: 1 1 1 1 1 1 3 1 5 1
Nghost:        4343.69 ave        4442 max        4266 min
Histogram: 2 2 2 1 3 0 3 2 0 1
Neighs:        30949.4 ave       35538 max       24065 min
Histogram: 1 1 1 1 1 1 3 3 3 1
FullNghs:      61898.9 ave       70429 max       48632 min
Histogram: 1 1 1 1 1 1 3 1 5 1

Total # of neighbors = 990382
Ave neighs/atom = 967.16992
Ave special neighs/atom = 1.5
Neighbor list builds = 764
Dangerous builds = 0
unfix           rig
fix             rig all rigid/nvt/small molecule temp 298.0 298.0 0.02
Fix rigid/nvt/small setup ...
  create bodies CPU = 0.000 seconds
  256 rigid bodies with 1024 atoms
  0.87348128 = max distance from body owner to body atom
reset_timestep  0
run             400000
PPPM initialization ...
  using 12-bit tables for long-range coulomb
  G vector (1/distance) = 0.31485238
  grid = 20 20 20
  stencil order = 5
  estimated absolute RMS force accuracy = 0.00012760304
  estimated relative force accuracy = 8.8615408e-06
  using double precision FFTW3
  3d grid and FFT values/proc = 3468 500
samqeq: pair coul/shield/intra Slater-overlap J(r) tables built (6 unique type pairs, 2000 pts each, r in [0.02,5])
Generated 0 of 3 mixed pair_coeff terms from geometric mixing rule
WARNING: Bonds are defined but no bond style is set (src/force.cpp:198)
WARNING: Likewise 1-2 special neighbor interactions != 1.0 (src/force.cpp:200)
WARNING: Angles are defined but no angle style is set (src/force.cpp:203)
WARNING: Likewise 1-3 special neighbor interactions != 1.0 (src/force.cpp:205)
samqeq: E_self = sum(chi q + 1/2 eta qs^2) INCLUDED in pe/etotal (fix_modify chg energy yes; eselfref qs = q - q0 - redox_dp) -- pe + E_self is the energy the forces integrate
samqeq: Slater-overlap J(r) tables built (6 unique type pairs, 2000 pts each, r in [0.02,10])
Per MPI rank memory allocation (min/avg/max) = 20.56 | 20.97 | 21.21 Mbytes
   Step          Temp           v_mu     
         0   299.39833      2.610107     
       400   297.41349      2.5968113    
       800   304.05871      2.6170171    
      1200   291.2426       2.6085579    
      1600   295.84566      2.6022517    
      2000   311.00095      2.5996386    
      2400   300.44134      2.5966722    
      2800   298.66071      2.6175367    
      3200   296.04764      2.6291485    
      3600   298.09545      2.6298811    
      4000   320.63454      2.6301149    
      4400   298.81894      2.6301182    
      4800   298.03804      2.6311618    
      5200   298.49342      2.6466688    
      5600   279.86657      2.6327762    
      6000   307.9775       2.610576     
      6400   295.54521      2.6196819    
      6800   285.19871      2.6105698    
      7200   281.33975      2.624328     
      7600   307.52539      2.6376021    
      8000   304.17976      2.6122445    
      8400   289.80333      2.6237522    
      8800   288.63292      2.6280228    
      9200   307.04614      2.6058712    
      9600   286.33649      2.6068771    
     10000   301.88911      2.6160071    
     10400   298.97927      2.6208077    
     10800   315.69867      2.6289422    
     11200   295.20455      2.6199       
     11600   310.25122      2.6174425    
     12000   304.35889      2.6174597    
     12400   283.19427      2.6189465    
     12800   303.36245      2.6456913    
     13200   284.9172       2.6277393    
     13600   293.48932      2.6422842    
     14000   314.43257      2.6504395    
     14400   307.47427      2.6527827    
     14800   281.93254      2.6382419    
     15200   312.93453      2.6083864    
     15600   311.38672      2.6216483    
     16000   304.39583      2.6499411    
     16400   294.18907      2.6675725    
     16800   294.22997      2.6568645    
     17200   288.75694      2.6702488    
     17600   289.23956      2.6534817    
     18000   288.4979       2.642892     
     18400   293.62557      2.6546487    
     18800   281.97463      2.6279033    
     19200   295.31695      2.6615758    
     19600   291.17199      2.6538587    
     20000   298.58375      2.6417111    
     20400   285.81352      2.6166271    
     20800   294.25443      2.6112107    
     21200   284.14498      2.5976055    
     21600   289.76629      2.6191319    
     22000   291.93028      2.6461532    
     22400   303.77526      2.6218983    
     22800   286.1412       2.6275159    
     23200   292.69964      2.6610122    
     23600   297.74278      2.6376602    
     24000   301.10765      2.6095251    
     24400   301.77508      2.6329973    
     24800   292.90424      2.6647777    
     25200   291.33524      2.6485354    
     25600   280.14278      2.6425803    
     26000   291.90519      2.6519047    
     26400   291.32191      2.6325722    
     26800   300.13348      2.6411198    
     27200   298.32137      2.6426498    
     27600   272.79828      2.647221     
     28000   296.03422      2.6336814    
     28400   305.25987      2.6199622    
     28800   277.92992      2.6092163    
     29200   294.39528      2.6214163    
     29600   301.05354      2.6224187    
     30000   304.88038      2.6126307    
     30400   302.91933      2.6201338    
     30800   310.0697       2.6238868    
     31200   317.06215      2.6403794    
     31600   299.47614      2.644491     
     32000   296.34178      2.6473234    
     32400   295.48471      2.6300441    
     32800   295.95656      2.6290939    
     33200   303.58701      2.6146762    
     33600   300.72422      2.6245771    
     34000   302.69551      2.60909      
     34400   293.75105      2.6336091    
     34800   306.82813      2.6421487    
     35200   323.59653      2.6267517    
     35600   312.01142      2.6124066    
     36000   307.85569      2.6210864    
     36400   292.91799      2.6364044    
     36800   315.71118      2.6358884    
     37200   299.71913      2.6476301    
     37600   306.95446      2.6270746    
     38000   298.20342      2.6347737    
     38400   309.91372      2.6314894    
     38800   295.69708      2.6359327    
     39200   291.4625       2.642914     
     39600   278.81092      2.6263141    
     40000   276.49779      2.5997428    
     40400   286.18849      2.6088077    
     40800   318.88459      2.6532736    
     41200   275.08516      2.6247972    
     41600   295.11463      2.6476937    
     42000   302.6734       2.6482841    
     42400   294.0958       2.6265834    
     42800   308.65457      2.6586469    
     43200   308.9144       2.6190754    
     43600   278.94119      2.6366303    
     44000   292.15872      2.6395474    
     44400   303.30449      2.6318354    
     44800   297.45943      2.6303012    
     45200   293.35972      2.6350927    
     45600   313.00531      2.6378906    
     46000   312.75952      2.6353683    
     46400   293.23156      2.6380776    
     46800   288.80402      2.6568786    
     47200   295.9877       2.6540938    
     47600   298.93116      2.6493358    
     48000   278.70664      2.6473508    
     48400   295.48388      2.6546016    
     48800   300.75377      2.6520588    
     49200   305.74792      2.6616521    
     49600   297.16305      2.6636819    
     50000   297.76378      2.6657946    
     50400   315.0844       2.6602563    
     50800   301.21324      2.6604045    
     51200   287.07886      2.6623607    
     51600   287.82047      2.632686     
     52000   294.95949      2.6598577    
     52400   301.53705      2.6530919    
     52800   302.63853      2.6458114    
     53200   310.47634      2.6392379    
     53600   288.20636      2.6386264    
     54000   296.62974      2.6421261    
     54400   301.44841      2.642036     
     54800   293.69834      2.6524482    
     55200   300.57705      2.6498429    
     55600   298.5626       2.6384544    
     56000   308.77245      2.6273457    
     56400   275.27358      2.643109     
     56800   285.85872      2.6416724    
     57200   289.35628      2.647613     
     57600   295.01001      2.6352662    
     58000   292.27538      2.6457885    
     58400   308.78438      2.6420687    
     58800   295.89334      2.6343911    
     59200   302.06372      2.6515937    
     59600   308.50815      2.6753968    
     60000   312.89186      2.6568258    
     60400   288.25447      2.6501346    
     60800   307.56111      2.6425381    
     61200   307.41075      2.6445093    
     61600   297.97166      2.6503653    
     62000   294.79073      2.636375     
     62400   312.8956       2.6500733    
     62800   290.66696      2.6575504    
     63200   304.54657      2.6552125    
     63600   287.80891      2.6579034    
     64000   299.11753      2.6443215    
     64400   305.781        2.6820654    
     64800   300.61758      2.6728408    
     65200   301.68685      2.6568361    
     65600   301.34529      2.6643756    
     66000   307.76665      2.6740257    
     66400   304.83223      2.6641609    
     66800   303.04286      2.671714     
     67200   319.26372      2.6905637    
     67600   297.92079      2.6713681    
     68000   302.77945      2.6729924    
     68400   301.48977      2.6567203    
     68800   284.2158       2.6624403    
     69200   295.44599      2.6513279    
     69600   299.00209      2.6311325    
     70000   297.48771      2.631932     
     70400   273.9163       2.6454546    
     70800   301.3349       2.6487119    
     71200   299.53685      2.6514727    
     71600   290.31927      2.6601514    
     72000   299.09775      2.6609098    
     72400   297.82228      2.6615438    
     72800   292.11058      2.6675038    
     73200   294.59501      2.6843309    
     73600   298.92028      2.6840478    
     74000   288.74852      2.6504136    
     74400   301.14701      2.6336993    
     74800   306.29918      2.6317539    
     75200   282.43632      2.6244381    
     75600   288.35824      2.6519169    
     76000   297.73093      2.6502761    
     76400   303.7785       2.6723483    
     76800   297.76148      2.661561     
     77200   305.91464      2.6461257    
     77600   306.31561      2.6241621    
     78000   293.32344      2.6405953    
     78400   283.8789       2.670005     
     78800   295.69377      2.6479304    
     79200   288.23794      2.6252699    
     79600   307.31923      2.6627991    
     80000   305.36509      2.6362457    
     80400   306.27255      2.6571774    
     80800   309.18481      2.6524614    
     81200   292.41204      2.6746689    
     81600   304.00651      2.6652914    
     82000   301.67853      2.6379489    
     82400   299.16107      2.6458623    
     82800   299.74885      2.6376641    
     83200   323.71226      2.6451019    
     83600   291.194        2.6697559    
     84000   301.8829       2.6726191    
     84400   303.06181      2.6650207    
     84800   268.58636      2.6584868    
     85200   281.34177      2.6695896    
     85600   324.64431      2.6640699    
     86000   300.02199      2.6682253    
     86400   314.16783      2.6797913    
     86800   298.51033      2.6519135    
     87200   301.0354       2.6778195    
     87600   284.03844      2.6846146    
     88000   291.24542      2.6747871    
     88400   291.21139      2.6708905    
     88800   309.67165      2.6319382    
     89200   292.90073      2.6280864    
     89600   297.20275      2.6272591    
     90000   304.45779      2.6359733    
     90400   299.67697      2.6511183    
     90800   303.62902      2.6237801    
     91200   297.99031      2.6092901    
     91600   293.01224      2.6297948    
     92000   289.86866      2.6352668    
     92400   295.88339      2.6213969    
     92800   299.85054      2.6277574    
     93200   283.91632      2.6173383    
     93600   266.65186      2.6499828    
     94000   294.08273      2.6304765    
     94400   292.82528      2.6287018    
     94800   297.80414      2.6203422    
     95200   310.18906      2.6367831    
     95600   319.31319      2.6448644    
     96000   317.37822      2.6570918    
     96400   301.3409       2.630934     
     96800   294.95647      2.6337271    
     97200   289.32999      2.6349095    
     97600   295.90533      2.6237393    
     98000   294.92664      2.6533118    
     98400   291.75594      2.6560177    
     98800   306.93828      2.6410482    
     99200   312.91444      2.6375152    
     99600   291.79697      2.6339631    
    100000   312.86451      2.6343333    
    100400   302.56333      2.6319034    
    100800   282.1256       2.6243437    
    101200   314.35236      2.6425486    
    101600   293.64202      2.6407424    
    102000   298.38878      2.6527875    
    102400   297.07424      2.6615637    
    102800   301.66859      2.6643166    
    103200   293.23094      2.6447638    
    103600   304.76916      2.6535829    
    104000   309.36391      2.6554824    
    104400   297.18306      2.6424839    
    104800   299.54909      2.6359147    
    105200   292.4062       2.6430788    
    105600   284.75652      2.66913      
    106000   316.52933      2.6742289    
    106400   323.80332      2.68427      
    106800   312.38475      2.6618784    
    107200   293.62591      2.6726437    
    107600   299.13394      2.6501357    
    108000   305.79751      2.6574687    
    108400   309.76707      2.668895     
    108800   294.46469      2.6646027    
    109200   302.20097      2.6460311    
    109600   307.85832      2.6373585    
    110000   290.2957       2.6380003    
    110400   315.7117       2.6574357    
    110800   301.32248      2.6510351    
    111200   298.28501      2.6653988    
    111600   305.39909      2.6356497    
    112000   306.26664      2.65497      
    112400   287.53543      2.6540512    
    112800   296.58655      2.6559818    
    113200   290.76745      2.6577127    
    113600   302.21518      2.6401788    
    114000   293.22641      2.6359044    
    114400   292.23663      2.6595638    
    114800   304.41641      2.6547452    
    115200   292.28685      2.6620175    
    115600   291.61542      2.6346763    
    116000   329.86981      2.6448023    
    116400   306.09457      2.643893     
    116800   322.30653      2.6323245    
    117200   313.17065      2.6385407    
    117600   309.90781      2.6404053    
    118000   296.95874      2.634197     
    118400   286.72347      2.6311036    
    118800   296.72796      2.6337612    
    119200   300.62055      2.6508632    
    119600   319.45218      2.6317977    
    120000   287.78618      2.6421785    
    120400   305.35264      2.6336048    
    120800   308.35863      2.6291152    
    121200   304.47949      2.6254179    
    121600   288.25826      2.607784     
    122000   302.67624      2.6158922    
    122400   290.52552      2.6087808    
    122800   300.97439      2.628079     
    123200   295.10117      2.603145     
    123600   317.07518      2.6071737    
    124000   274.52053      2.6291025    
    124400   278.1706       2.6341281    
    124800   274.83808      2.652315     
    125200   297.58379      2.6603044    
    125600   297.84765      2.6436028    
    126000   310.47266      2.6453068    
    126400   302.89507      2.636503     
    126800   302.03788      2.6266582    
    127200   273.03928      2.6170034    
    127600   282.09913      2.6215713    
    128000   312.55707      2.6234142    
    128400   311.74439      2.6330858    
    128800   300.91155      2.6376008    
    129200   290.94097      2.6337997    
    129600   293.86293      2.6303395    
    130000   306.16447      2.6225462    
    130400   312.33622      2.642095     
    130800   282.61354      2.6443295    
    131200   292.96503      2.6420313    
    131600   301.81942      2.6488708    
    132000   292.23637      2.6322696    
    132400   291.25634      2.6246762    
    132800   294.43219      2.6205632    
    133200   298.83914      2.6280428    
    133600   278.22047      2.6156778    
    134000   286.39519      2.6425048    
    134400   299.152        2.6095292    
    134800   301.58035      2.6376303    
    135200   293.22952      2.6370867    
    135600   297.64278      2.6186154    
    136000   292.73799      2.6312222    
    136400   304.48511      2.6052511    
    136800   293.74822      2.6403122    
    137200   303.14633      2.6236016    
    137600   304.27416      2.6138486    
    138000   289.98707      2.6382945    
    138400   308.63761      2.6088217    
    138800   308.08691      2.6287743    
    139200   308.91452      2.6244574    
    139600   307.60275      2.6161628    
    140000   292.47649      2.6091495    
    140400   295.68169      2.5875506    
    140800   303.57669      2.6095939    
    141200   297.24571      2.6280459    
    141600   307.16582      2.6108903    
    142000   289.47378      2.6072286    
    142400   298.73793      2.6367673    
    142800   309.09034      2.6197728    
    143200   307.84372      2.6212872    
    143600   303.88847      2.641904     
    144000   291.16184      2.6358978    
    144400   298.86814      2.636386     
    144800   289.07624      2.6042514    
    145200   310.2848       2.6156593    
    145600   292.95077      2.6077477    
    146000   306.46889      2.6199203    
    146400   294.83378      2.6182688    
    146800   299.90159      2.604329     
    147200   293.29687      2.5971221    
    147600   311.88732      2.6297726    
    148000   294.50391      2.635955     
    148400   305.79683      2.6224358    
    148800   287.05671      2.6259218    
    149200   297.66628      2.6145283    
    149600   318.53286      2.6261703    
    150000   289.99983      2.6164755    
    150400   313.58635      2.6059376    
    150800   314.2111       2.6100365    
    151200   292.86258      2.6082634    
    151600   286.25195      2.6171026    
    152000   295.7096       2.6182326    
    152400   321.15693      2.6354505    
    152800   301.92031      2.6411995    
    153200   303.885        2.6345743    
    153600   313.69915      2.6322879    
    154000   302.39867      2.6115518    
    154400   292.43119      2.5902517    
    154800   300.41803      2.5885657    
    155200   296.99208      2.6288645    
    155600   297.76423      2.6136473    
    156000   290.77286      2.6224497    
    156400   291.13827      2.6331216    
    156800   319.42015      2.6228255    
    157200   295.42353      2.6080213    
    157600   289.08562      2.5856909    
    158000   308.18831      2.5914059    
    158400   295.60479      2.6040325    
    158800   292.54295      2.5989566    
    159200   297.90659      2.5977054    
    159600   324.83745      2.6192262    
    160000   301.37447      2.6187599    
    160400   301.55484      2.6053604    
    160800   291.36065      2.6405024    
    161200   286.37943      2.6210525    
    161600   280.19649      2.6180728    
    162000   308.14559      2.632965     
    162400   312.89817      2.6366728    
    162800   309.70856      2.6437206    
    163200   296.23846      2.6634442    
    163600   327.46507      2.6530022    
    164000   296.76741      2.6705215    
    164400   290.13844      2.6663743    
    164800   299.84897      2.6575387    
    165200   302.32083      2.6203262    
    165600   284.08331      2.6217082    
    166000   295.87417      2.6308391    
    166400   292.69163      2.6237308    
    166800   313.49552      2.6246342    
    167200   284.7164       2.6182013    
    167600   289.70295      2.6386435    
    168000   304.26152      2.6634025    
    168400   310.00483      2.6351956    
    168800   298.00727      2.6397975    
    169200   309.29868      2.6408628    
    169600   296.17969      2.6434353    
    170000   306.45049      2.6160141    
    170400   309.68736      2.6267641    
    170800   299.94549      2.6321587    
    171200   277.9396       2.6259789    
    171600   293.60036      2.624383     
    172000   298.55241      2.621559     
    172400   293.014        2.6121854    
    172800   310.05193      2.6119162    
    173200   284.90409      2.6195037    
    173600   297.92498      2.6159969    
    174000   298.89517      2.6180336    
    174400   316.61053      2.6343098    
    174800   299.49327      2.6041128    
    175200   285.20676      2.6208414    
    175600   301.36479      2.6120236    
    176000   301.26283      2.5966889    
    176400   293.65789      2.584874     
    176800   298.64497      2.5976349    
    177200   291.79492      2.612214     
    177600   288.89018      2.6204998    
    178000   318.96625      2.6247474    
    178400   305.69995      2.628575     
    178800   296.649        2.6069589    
    179200   304.14318      2.6361389    
    179600   287.92996      2.6316898    
    180000   312.66833      2.6230747    
    180400   294.27294      2.6319594    
    180800   298.07676      2.6326762    
    181200   287.81326      2.6247852    
    181600   295.44393      2.6276218    
    182000   295.27102      2.6224432    
    182400   325.57442      2.6137991    
    182800   297.70497      2.618596     
    183200   296.14918      2.6130701    
    183600   304.30759      2.6495736    
    184000   290.88351      2.6399244    
    184400   283.80994      2.6218631    
    184800   282.99326      2.6160697    
    185200   288.73614      2.6197652    
    185600   290.12936      2.6456821    
    186000   294.96737      2.6111613    
    186400   295.81201      2.6165936    
    186800   299.86658      2.6313315    
    187200   303.46691      2.6189068    
    187600   315.38362      2.6378272    
    188000   308.4234       2.607839     
    188400   308.39073      2.6100617    
    188800   292.75239      2.6232328    
    189200   307.97925      2.653477     
    189600   324.82166      2.6362904    
    190000   311.2768       2.6043152    
    190400   300.24411      2.6309232    
    190800   332.37         2.6466832    
    191200   299.56792      2.6298072    
    191600   311.19689      2.6310702    
    192000   301.30832      2.6757634    
    192400   300.16015      2.6748087    
    192800   287.45159      2.6435516    
    193200   285.99492      2.6443711    
    193600   288.27392      2.6289846    
    194000   304.4212       2.6315131    
    194400   299.11777      2.6544665    
    194800   297.94947      2.6356544    
    195200   291.2788       2.6319293    
    195600   311.17561      2.6424369    
    196000   301.46913      2.6468031    
    196400   301.48776      2.6229769    
    196800   298.88289      2.6307691    
    197200   311.00326      2.6459296    
    197600   303.33341      2.6596953    
    198000   269.93228      2.6550592    
    198400   300.46768      2.6620545    
    198800   283.11537      2.6663033    
    199200   319.48141      2.6436108    
    199600   300.45824      2.6290888    
    200000   299.72292      2.6282932    
    200400   310.55932      2.6407658    
    200800   308.12862      2.6407844    
    201200   300.94353      2.6395911    
    201600   318.86957      2.6468151    
    202000   295.48434      2.650262     
    202400   306.06767      2.6200627    
    202800   307.37607      2.6312395    
    203200   308.47687      2.6304265    
    203600   293.34913      2.6491561    
    204000   311.03286      2.6328662    
    204400   280.98829      2.6424846    
    204800   293.15058      2.6433636    
    205200   294.09972      2.6491877    
    205600   291.73041      2.6182686    
    206000   302.05421      2.6400967    
    206400   282.88245      2.6612452    
    206800   289.6278       2.6551508    
    207200   300.80325      2.6495675    
    207600   299.07091      2.6222839    
    208000   304.06848      2.6346833    
    208400   309.3906       2.6571006    
    208800   299.02444      2.6521014    
    209200   313.30852      2.6227173    
    209600   284.8636       2.6398785    
    210000   310.97665      2.6368146    
    210400   307.43063      2.641669     
    210800   289.33467      2.6520457    
    211200   317.92442      2.6387037    
    211600   326.87715      2.6285965    
    212000   326.31427      2.6330413    
    212400   280.16203      2.6349202    
    212800   280.30555      2.6584916    
    213200   279.81808      2.6378069    
    213600   279.85923      2.6249248    
    214000   308.77867      2.6430752    
    214400   286.42208      2.6733739    
    214800   298.84194      2.6587267    
    215200   306.15363      2.6496336    
    215600   282.392        2.646274     
    216000   287.9372       2.6170077    
    216400   302.86253      2.6257045    
    216800   294.88844      2.6251353    
    217200   291.93213      2.6322356    
    217600   284.51017      2.6390592    
    218000   294.3703       2.6509789    
    218400   289.01986      2.6305273    
    218800   292.23521      2.6454508    
    219200   287.83842      2.6505029    
    219600   299.78134      2.6377257    
    220000   294.17362      2.6272252    
    220400   295.44665      2.6636963    
    220800   288.00837      2.6340322    
    221200   315.28059      2.6515545    
    221600   303.12496      2.6578437    
    222000   272.03463      2.6419642    
    222400   292.44037      2.6497363    
    222800   305.34111      2.6753877    
    223200   300.35522      2.6612905    
    223600   290.55201      2.6661687    
    224000   291.57632      2.6574381    
    224400   294.74017      2.6738198    
    224800   299.01677      2.6930498    
    225200   297.88961      2.6865886    
    225600   287.24254      2.682851     
    226000   278.85224      2.6807143    
    226400   308.93534      2.6643278    
    226800   296.57905      2.6738212    
    227200   292.46631      2.6905514    
    227600   282.91377      2.6815742    
    228000   279.87664      2.6997653    
    228400   281.04409      2.7019012    
    228800   300.23504      2.6798719    
    229200   303.83065      2.6657402    
    229600   294.74092      2.6544312    
    230000   306.10003      2.6466265    
    230400   289.46756      2.6672078    
    230800   285.34776      2.6649649    
    231200   282.60431      2.6589582    
    231600   320.02515      2.6346476    
    232000   282.30925      2.6536612    
    232400   290.90317      2.6271259    
    232800   292.07428      2.6196913    
    233200   298.86592      2.6261371    
    233600   304.59321      2.6358469    
    234000   303.68579      2.6424357    
    234400   306.4204       2.635675     
    234800   292.80258      2.6206542    
    235200   294.63859      2.6317782    
    235600   294.1505       2.6359992    
    236000   284.75611      2.6142865    
    236400   285.21406      2.6273859    
    236800   313.53713      2.6347178    
    237200   275.94203      2.6505676    
    237600   285.53543      2.6248843    
    238000   293.41782      2.6621562    
    238400   294.73776      2.6423543    
    238800   318.95999      2.6621402    
    239200   294.22254      2.6186147    
    239600   293.62907      2.5977469    
    240000   284.71191      2.6283102    
    240400   316.08027      2.6266354    
    240800   293.93697      2.6199321    
    241200   291.58607      2.6165627    
    241600   312.5211       2.6159714    
    242000   300.61451      2.629502     
    242400   308.87234      2.6263321    
    242800   303.6856       2.6382301    
    243200   302.51388      2.6307903    
    243600   290.42274      2.6430178    
    244000   304.78999      2.641818     
    244400   306.61265      2.6435892    
    244800   306.42497      2.6481137    
    245200   298.22318      2.63874      
    245600   273.13261      2.6502064    
    246000   326.49978      2.6655651    
    246400   309.83777      2.6466311    
    246800   318.41881      2.6542052    
    247200   306.10895      2.6480997    
    247600   315.77088      2.6545682    
    248000   298.68946      2.6707465    
    248400   293.2003       2.665609     
    248800   301.96246      2.7057525    
    249200   288.12952      2.7000268    
    249600   295.98769      2.6845511    
    250000   298.63389      2.6706146    
    250400   272.5623       2.6575569    
    250800   292.00547      2.6650502    
    251200   325.7446       2.6663789    
    251600   312.04619      2.6604578    
    252000   282.31834      2.6557295    
    252400   283.57453      2.6732668    
    252800   287.81096      2.6712119    
    253200   317.50621      2.6562912    
    253600   293.19564      2.6671849    
    254000   289.79846      2.6679199    
    254400   308.54002      2.6427242    
    254800   304.68373      2.6531783    
    255200   283.52058      2.6732764    
    255600   308.02788      2.6753695    
    256000   314.10595      2.6702455    
    256400   305.06661      2.6651367    
    256800   303.64575      2.6385733    
    257200   299.29873      2.6407533    
    257600   309.81924      2.6765712    
    258000   289.91311      2.6659754    
    258400   304.63978      2.635206     
    258800   312.21796      2.6294684    
    259200   303.94082      2.644522     
    259600   293.8745       2.6766808    
    260000   291.40185      2.6528468    
    260400   303.37158      2.6440597    
    260800   308.18424      2.6458599    
    261200   299.84865      2.6485186    
    261600   296.97526      2.640071     
    262000   278.83884      2.6684717    
    262400   296.4674       2.6311663    
    262800   304.04148      2.6354112    
    263200   306.51766      2.657315     
    263600   279.95108      2.6513205    
    264000   286.75665      2.6474622    
    264400   312.55641      2.6140517    
    264800   308.98443      2.6193418    
    265200   288.06161      2.6338598    
    265600   305.47058      2.6412515    
    266000   295.30192      2.6323966    
    266400   298.44844      2.6487751    
    266800   309.54809      2.6268647    
    267200   289.7361       2.6440599    
    267600   314.66141      2.649857     
    268000   301.73263      2.6429747    
    268400   291.20415      2.6785134    
    268800   288.66858      2.662192     
    269200   305.78997      2.6536465    
    269600   303.85098      2.649086     
    270000   279.60579      2.6592449    
    270400   291.17379      2.6445356    
    270800   295.11268      2.6502934    
    271200   307.25002      2.6369547    
    271600   306.34433      2.6390468    
    272000   308.08918      2.6312516    
    272400   285.14788      2.6346141    
    272800   294.25893      2.6389477    
    273200   301.90478      2.6326874    
    273600   294.08264      2.6292249    
    274000   299.03748      2.6239963    
    274400   297.24018      2.6263756    
    274800   295.45897      2.6312       
    275200   303.49903      2.6432703    
    275600   303.3815       2.6525217    
    276000   303.16533      2.6471497    
    276400   307.16195      2.656869     
    276800   278.735        2.6487349    
    277200   283.63169      2.6680302    
    277600   295.76342      2.6308085    
    278000   298.33188      2.6415691    
    278400   292.28425      2.6568326    
    278800   306.76345      2.6623472    
    279200   294.78997      2.6564394    
    279600   295.24845      2.6400902    
    280000   287.2428       2.6468997    
    280400   303.46578      2.6421311    
    280800   305.09269      2.6551716    
    281200   317.35614      2.6512378    
    281600   304.72378      2.6310737    
    282000   290.2022       2.624384     
    282400   303.49995      2.6373537    
    282800   310.6796       2.6441218    
    283200   294.2815       2.6135681    
    283600   303.38281      2.6292809    
    284000   317.84194      2.6436287    
    284400   300.47031      2.6506283    
    284800   282.22786      2.6433188    
    285200   306.54497      2.6580401    
    285600   287.72283      2.6333346    
    286000   297.37332      2.6312945    
    286400   284.0749       2.6113044    
    286800   304.62977      2.6482339    
    287200   288.93841      2.6462978    
    287600   321.49026      2.6362743    
    288000   306.82412      2.6351695    
    288400   295.59255      2.6251216    
    288800   300.79674      2.639678     
    289200   298.47545      2.6509449    
    289600   308.20004      2.6389908    
    290000   305.85944      2.6481848    
    290400   299.71973      2.6343306    
    290800   307.04475      2.6581417    
    291200   276.39857      2.6403353    
    291600   293.55001      2.6090966    
    292000   305.6999       2.6277672    
    292400   316.91132      2.6424835    
    292800   310.96241      2.6549822    
    293200   295.6024       2.6335393    
    293600   272.92517      2.6416447    
    294000   285.06869      2.6356991    
    294400   301.63295      2.606774     
    294800   321.14319      2.6223674    
    295200   296.17815      2.6218482    
    295600   290.68983      2.6052004    
    296000   314.77334      2.618153     
    296400   277.78348      2.611273     
    296800   303.2866       2.6301442    
    297200   305.78173      2.6178082    
    297600   305.78308      2.6205404    
    298000   309.81267      2.6140108    
    298400   293.8513       2.6294032    
    298800   282.7069       2.6175294    
    299200   286.2457       2.6337125    
    299600   289.47474      2.6350519    
    300000   308.00524      2.6455291    
    300400   289.33784      2.6219335    
    300800   295.65465      2.6407674    
    301200   312.19801      2.6441972    
    301600   296.76304      2.662616     
    302000   299.02337      2.6608618    
    302400   299.37644      2.6203951    
    302800   309.2181       2.636398     
    303200   292.2976       2.6163346    
    303600   284.88806      2.6160371    
    304000   300.18349      2.6264892    
    304400   294.54908      2.6470555    
    304800   289.63693      2.6309065    
    305200   289.51838      2.6369479    
    305600   286.99256      2.6387507    
    306000   313.39802      2.6375746    
    306400   294.07954      2.6314738    
    306800   297.18242      2.625904     
    307200   284.27281      2.6031183    
    307600   313.69617      2.6151846    
    308000   313.21733      2.6074107    
    308400   296.11882      2.6183225    
    308800   297.50596      2.6344065    
    309200   312.76382      2.6176942    
    309600   313.09661      2.6350915    
    310000   317.52156      2.6165558    
    310400   297.91797      2.6342843    
    310800   281.90915      2.6388745    
    311200   317.24976      2.6324602    
    311600   288.60606      2.6356317    
    312000   316.59481      2.6391122    
    312400   302.18089      2.6532847    
    312800   312.22993      2.6368948    
    313200   312.88375      2.6495553    
    313600   299.33862      2.6271281    
    314000   302.90756      2.6386936    
    314400   284.37164      2.635175     
    314800   297.98186      2.6388009    
    315200   298.59257      2.6362439    
    315600   299.22907      2.6386704    
    316000   292.08422      2.6319458    
    316400   312.36805      2.6519584    
    316800   287.75056      2.6326554    
    317200   286.45632      2.6462104    
    317600   313.06138      2.635348     
    318000   281.58724      2.6598824    
    318400   297.05894      2.6611897    
    318800   305.4406       2.6607587    
    319200   313.14492      2.648876     
    319600   299.62079      2.6459694    
    320000   325.51867      2.6310458    
    320400   299.39959      2.6227003    
    320800   286.72739      2.6243993    
    321200   325.17509      2.631705     
    321600   317.52115      2.6409903    
    322000   289.67038      2.6465699    
    322400   300.52229      2.6382659    
    322800   288.7756       2.6576871    
    323200   302.32321      2.6451721    
    323600   301.36777      2.6359283    
    324000   287.15113      2.6156069    
    324400   309.31058      2.6453259    
    324800   305.63044      2.6302307    
    325200   324.39264      2.6319638    
    325600   290.89861      2.6525314    
    326000   294.347        2.6654011    
    326400   316.96181      2.6684075    
    326800   293.85525      2.6948136    
    327200   295.7014       2.673355     
    327600   287.99781      2.6593191    
    328000   309.76594      2.6681022    
    328400   289.08735      2.6667706    
    328800   297.59931      2.6451659    
    329200   298.97367      2.6261244    
    329600   303.93101      2.6195639    
    330000   275.57092      2.6449858    
    330400   296.75761      2.6504349    
    330800   306.84568      2.6367434    
    331200   275.96054      2.6463171    
    331600   286.51368      2.6353241    
    332000   294.19728      2.6458366    
    332400   296.04523      2.6307945    
    332800   296.52418      2.659828     
    333200   283.1704       2.6482757    
    333600   283.83129      2.6438527    
    334000   314.85279      2.6333038    
    334400   303.7379       2.6224232    
    334800   302.60405      2.6293111    
    335200   295.71595      2.6212472    
    335600   289.74683      2.6413835    
    336000   293.96498      2.633992     
    336400   305.5818       2.6185042    
    336800   302.27797      2.6055897    
    337200   284.08344      2.6078344    
    337600   301.36009      2.6357687    
    338000   300.32379      2.6361924    
    338400   298.70697      2.6293485    
    338800   288.06037      2.6185277    
    339200   304.26194      2.6176759    
    339600   299.39525      2.6364573    
    340000   282.62338      2.6409637    
    340400   311.58235      2.6322539    
    340800   287.96985      2.6400621    
    341200   291.72687      2.6474821    
    341600   288.05018      2.6447725    
    342000   287.76481      2.6299871    
    342400   280.29172      2.637747     
    342800   302.67701      2.6042264    
    343200   300.88839      2.6000479    
    343600   300.40593      2.6092463    
    344000   311.70423      2.6211171    
    344400   307.64856      2.624005     
    344800   310.08305      2.6185965    
    345200   292.79226      2.6263047    
    345600   318.02216      2.6161926    
    346000   294.06514      2.6461927    
    346400   291.95338      2.6494711    
    346800   300.72763      2.6416422    
    347200   297.6418       2.6352202    
    347600   304.50631      2.6417804    
    348000   300.04773      2.6328705    
    348400   319.6611       2.6312696    
    348800   293.8973       2.6307073    
    349200   294.54297      2.6362226    
    349600   290.05762      2.6302128    
    350000   285.79613      2.6310141    
    350400   302.75209      2.664042     
    350800   302.98253      2.6370693    
    351200   310.13948      2.6406941    
    351600   285.71177      2.6537492    
    352000   307.29536      2.6433164    
    352400   309.87569      2.6371831    
    352800   317.28417      2.6291923    
    353200   310.35086      2.6567721    
    353600   300.63676      2.6478137    
    354000   286.43641      2.6608704    
    354400   315.39153      2.6653514    
    354800   298.56367      2.655452     
    355200   287.80631      2.6658002    
    355600   303.32226      2.6349788    
    356000   305.95604      2.6485239    
    356400   293.4425       2.6505302    
    356800   275.54085      2.638296     
    357200   319.879        2.6090425    
    357600   292.57356      2.6364652    
    358000   282.41128      2.6310626    
    358400   293.04637      2.629629     
    358800   293.2949       2.6402989    
    359200   295.57708      2.6323246    
    359600   315.68857      2.6375157    
    360000   315.27979      2.6391298    
    360400   300.1123       2.6437865    
    360800   282.58458      2.6413878    
    361200   302.48163      2.6370126    
    361600   291.90091      2.6618341    
    362000   301.78515      2.6453988    
    362400   297.75729      2.6512454    
    362800   302.03271      2.6839871    
    363200   282.71979      2.6642006    
    363600   309.18169      2.6429429    
    364000   305.02456      2.6268735    
    364400   314.23935      2.6619553    
    364800   291.19471      2.6442577    
    365200   296.54191      2.6503955    
    365600   294.19281      2.6541807    
    366000   279.86344      2.6646432    
    366400   295.27286      2.6305178    
    366800   288.47401      2.6266457    
    367200   291.4775       2.6412927    
    367600   313.96339      2.6383909    
    368000   287.48264      2.633297     
WARNING: System is not charge neutral, net charge = -1.0000006e-05
For more information see https://docs.lammps.org/err0029 (src/kspace.cpp:329)
    368400   281.50328      2.6262666    
    368800   302.0311       2.6225186    
    369200   290.80518      2.6448571    
    369600   319.84621      2.6488241    
    370000   312.28355      2.65882      
    370400   314.75806      2.640214     
    370800   302.97021      2.6365006    
    371200   301.23454      2.6510553    
    371600   301.8528       2.6435056    
    372000   294.44569      2.6251735    
    372400   302.28509      2.640256     
    372800   286.1535       2.6335024    
    373200   318.59674      2.6491651    
    373600   264.90154      2.6312516    
    374000   286.07046      2.6252444    
    374400   288.3292       2.6708885    
    374800   287.96556      2.6389739    
    375200   285.84109      2.6354426    
    375600   291.78745      2.6388177    
    376000   316.33725      2.6309246    
    376400   285.84126      2.6482714    
    376800   303.42711      2.6461463    
    377200   302.44495      2.6421294    
    377600   301.60456      2.6640975    
    378000   310.88314      2.6537201    
    378400   298.58293      2.6645054    
    378800   295.06753      2.6423345    
    379200   291.40723      2.6462353    
    379600   310.70439      2.6419248    
    380000   289.81621      2.6512088    
    380400   286.78604      2.6554094    
    380800   309.22191      2.6418148    
    381200   324.39398      2.6322742    
    381600   301.91477      2.6538312    
    382000   291.85522      2.6553938    
    382400   300.01814      2.652462     
    382800   299.13749      2.647976     
    383200   318.84284      2.651118     
    383600   296.64092      2.6574168    
    384000   291.16262      2.6432387    
    384400   298.2789       2.6593452    
    384800   301.95488      2.6699599    
    385200   302.13338      2.6573512    
    385600   291.80085      2.6457178    
    386000   299.98105      2.6386441    
    386400   313.24504      2.6410255    
    386800   284.65235      2.6389583    
    387200   295.22851      2.6502572    
    387600   311.46719      2.6418826    
    388000   279.54151      2.6549776    
    388400   297.94446      2.6305577    
    388800   292.8936       2.6572452    
    389200   312.90903      2.6310374    
    389600   285.32748      2.6328605    
    390000   292.07764      2.6485976    
    390400   291.57064      2.6472719    
    390800   294.65493      2.6612555    
    391200   307.42418      2.6493237    
    391600   296.34562      2.6535351    
    392000   299.87726      2.6619361    
    392400   310.59994      2.6507675    
    392800   292.73017      2.6456814    
    393200   299.1689       2.6524886    
    393600   279.71116      2.6486076    
    394000   299.24881      2.6480518    
    394400   295.33592      2.6582724    
    394800   300.67985      2.6762149    
    395200   287.80086      2.6412306    
    395600   308.36525      2.6401041    
    396000   315.21745      2.645186     
    396400   293.09079      2.6406223    
    396800   294.33389      2.6403942    
    397200   296.47573      2.6562502    
    397600   294.30297      2.6600618    
    398000   307.22562      2.644423     
    398400   319.97136      2.638717     
    398800   300.54095      2.639662     
    399200   301.683        2.6558549    
    399600   291.45412      2.6430505    
    400000   305.34915      2.656534     
Loop time of 1552.4 on 16 procs for 400000 steps with 1024 atoms

Performance: 5.566 ns/day, 4.312 hours/ns, 257.665 timesteps/s, 263.849 katom-step/s
84.8% CPU use with 16 MPI tasks x 1 OpenMP threads

MPI task timing breakdown:
Section |  min time  |  avg time  |  max time  |%varavg| %total
---------------------------------------------------------------
Pair    | 298.13     | 302.59     | 312.67     |  21.7 | 19.49
Bond    | 0.020061   | 0.022306   | 0.026071   |   1.0 |  0.00
Kspace  | 280.16     | 289.71     | 295.76     |  23.8 | 18.66
Neigh   | 6.1188     | 6.3346     | 6.4699     |   3.8 |  0.41
Comm    | 97.967     | 98.79      | 99.706     |   5.4 |  6.36
Output  | 0.15283    | 0.15572    | 0.16323    |   0.6 |  0.01
Modify  | 843.17     | 843.7      | 844.18     |   1.0 | 54.35
Other   |            | 11.11      |            |       |  0.72

Nlocal:             64 ave          74 max          55 min
Histogram: 2 1 2 1 3 1 3 2 0 1
Nghost:        4378.06 ave        4445 max        4311 min
Histogram: 2 0 3 1 3 1 2 0 2 2
Neighs:        30957.1 ave       36390 max       26397 min
Histogram: 2 2 2 0 4 0 3 2 0 1
FullNghs:      61914.1 ave       71592 max       53091 min
Histogram: 2 1 2 1 3 1 3 1 1 1

Total # of neighbors = 990626
Ave neighs/atom = 967.4082
Ave special neighs/atom = 1.5
Neighbor list builds = 3782
Dangerous builds = 0
print           "PORT_DONE" file done.txt screen no
Total wall time: 0:31:05
