ITEM: TIMESTEP
0
ITEM: NUMBER OF ATOMS
240
ITEM: BOX BOUNDS pp pp ff
0.0000000000000000e+00 1.7650658050000001e+01
0.0000000000000000e+00 2.0381224350000000e+01
0.0000000000000000e+00 6.0000000000000000e+01
ITEM: ATOMS id type q
1 1 -0.0681411960706
2 1 -0.0681405115049
3 1 -0.0681402849823
4 1 -0.0681407331357
5 1 -0.0681411939058
6 1 -0.0681405101312
7 1 -0.0681402851388
8 1 -0.0681407347935
9 1 -0.0681411937987
10 1 -0.0681405083956
11 1 -0.0681402827104
12 1 -0.0681407300263
13 1 -0.0681411916339
14 1 -0.0681405070219
15 1 -0.0681402828669
16 1 -0.0681407316842
17 1 -0.0681411906954
18 1 -0.0681405061279
19 1 -0.0681402796071
20 1 -0.0681407277587
21 1 -0.0681411885305
22 1 -0.0681405047543
23 1 -0.0681402797635
24 1 -0.0681407294166
25 1 -0.0681411898655
26 1 -0.0681405069583
27 1 -0.0681402787772
28 1 -0.068140728589
29 1 -0.0681411877007
30 1 -0.0681405055846
31 1 -0.0681402789337
32 1 -0.0681407302469
33 1 -0.0681411921335
34 1 -0.0681405100617
35 1 -0.0681402810452
36 1 -0.0681407316925
37 1 -0.0681411899687
38 1 -0.0681405086881
39 1 -0.0681402812017
40 1 -0.0681407333504
41 1 -0.0681411952427
42 1 -0.0681405123333
43 1 -0.0681402841544
44 1 -0.068140733964
45 1 -0.0681411930779
46 1 -0.0681405109596
47 1 -0.0681402843109
48 1 -0.0681407356219
49 1 0.0719276024847
50 1 0.0719281435613
51 1 0.0719277579773
52 1 0.0719274733247
53 1 0.0719276039632
54 1 0.0719281442294
55 1 0.0719277574438
56 1 0.0719274719048
57 1 0.0719276046267
58 1 0.0719281456918
59 1 0.0719277601192
60 1 0.0719274754552
61 1 0.0719276061052
62 1 0.0719281463599
63 1 0.0719277595857
64 1 0.0719274740353
65 1 0.0719276061751
66 1 0.0719281462549
67 1 0.0719277616676
68 1 0.0719274760184
69 1 0.0719276076536
70 1 0.071928146923
71 1 0.0719277611341
72 1 0.0719274745984
73 1 0.0719276056113
74 1 0.071928144706
75 1 0.0719277611039
76 1 0.0719274744695
77 1 0.0719276070898
78 1 0.0719281453741
79 1 0.0719277605704
80 1 0.0719274730496
81 1 0.0719276034807
82 1 0.0719281425642
83 1 0.0719277589732
84 1 0.0719274723277
85 1 0.0719276049592
86 1 0.0719281432323
87 1 0.0719277584397
88 1 0.0719274709078
89 1 0.0719276018979
90 1 0.071928141978
91 1 0.0719277573904
92 1 0.0719274717415
93 1 0.0719276033764
94 1 0.0719281426461
95 1 0.0719277568569
96 1 0.0719274703216
97 1 -0.00536238273766
98 1 -0.00536230961434
99 1 -0.00536245520975
100 1 -0.00536251874855
101 1 -0.00536238277098
102 1 -0.00536230957955
103 1 -0.00536245516482
104 1 -0.0053625187556
105 1 -0.00536238292965
106 1 -0.00536230975345
107 1 -0.00536245540174
108 1 -0.00536251888766
109 1 -0.00536238296297
110 1 -0.00536230971866
111 1 -0.00536245535681
112 1 -0.00536251889471
113 1 -0.00536238298024
114 1 -0.00536230970353
115 1 -0.00536245545234
116 1 -0.00536251883774
117 1 -0.00536238301356
118 1 -0.00536230966874
119 1 -0.0053624554074
120 1 -0.00536251884479
121 1 -0.00536238284162
122 1 -0.00536230951172
123 1 -0.00536245531371
124 1 -0.00536251864593
125 1 -0.00536238287494
126 1 -0.00536230947693
127 1 -0.00536245526878
128 1 -0.00536251865298
129 1 -0.00536238264811
130 1 -0.0053623093689
131 1 -0.0053624551202
132 1 -0.00536251850311
133 1 -0.00536238268143
134 1 -0.00536230933411
135 1 -0.00536245507527
136 1 -0.00536251851016
137 1 -0.00536238259533
138 1 -0.00536230942101
139 1 -0.00536245506742
140 1 -0.00536251855522
141 1 -0.00536238262865
142 1 -0.00536230938622
143 1 -0.00536245502249
144 1 -0.00536251856227
145 1 -0.06371047426
146 1 -0.063710404019
147 1 -0.0637106505003
148 1 -0.0637109623609
149 1 -0.0637104753068
150 1 -0.0637104037879
151 1 -0.0637106492343
152 1 -0.0637109607575
153 1 -0.0637104760886
154 1 -0.0637104046869
155 1 -0.0637106523289
156 1 -0.0637109630288
157 1 -0.0637104771354
158 1 -0.0637104044558
159 1 -0.0637106510629
160 1 -0.0637109614254
161 1 -0.0637104754213
162 1 -0.0637104028587
163 1 -0.0637106516617
164 1 -0.0637109612007
165 1 -0.0637104764682
166 1 -0.0637104026277
167 1 -0.0637106503956
168 1 -0.0637109595972
169 1 -0.0637104729167
170 1 -0.0637104003485
171 1 -0.063710649157
172 1 -0.0637109586904
173 1 -0.0637104739635
174 1 -0.0637104001174
175 1 -0.063710647891
176 1 -0.063710957087
177 1 -0.0637104710665
178 1 -0.0637103996645
179 1 -0.0637106473069
180 1 -0.0637109580064
181 1 -0.0637104721134
182 1 -0.0637103994334
183 1 -0.0637106460408
184 1 -0.063710956403
185 1 -0.0637104717499
186 1 -0.0637104015142
187 1 -0.0637106479903
188 1 -0.0637109598561
189 1 -0.0637104727968
190 1 -0.0637104012831
191 1 -0.0637106467242
192 1 -0.0637109582527
193 1 0.065286429377
194 1 0.0652860127918
195 1 0.0652856209177
196 1 0.0652858068499
197 1 0.065286428485
198 1 0.0652860136472
199 1 0.0652856229751
200 1 0.0652858089481
201 1 0.0652864284729
202 1 0.0652860136954
203 1 0.0652856200136
204 1 0.0652858077535
205 1 0.0652864275809
206 1 0.0652860145508
207 1 0.065285622071
208 1 0.0652858098517
209 1 0.0652864309475
210 1 0.0652860170907
211 1 0.0652856224882
212 1 0.0652858111487
213 1 0.0652864300555
214 1 0.065286017946
215 1 0.0652856245456
216 1 0.065285813247
217 1 0.065286434355
218 1 0.0652860195829
219 1 0.0652856258957
220 1 0.065285813641
221 1 0.065286433463
222 1 0.0652860204382
223 1 0.0652856279531
224 1 0.0652858157392
225 1 0.0652864352642
226 1 0.0652860186742
227 1 0.0652856268049
228 1 0.0652858127322
229 1 0.0652864343723
230 1 0.0652860195295
231 1 0.0652856288623
232 1 0.0652858148305
233 1 0.0652864327723
234 1 0.0652860152667
235 1 0.0652856243131
236 1 0.0652858093248
237 1 0.0652864318804
238 1 0.0652860161221
239 1 0.0652856263705
240 1 0.065285811423
