ITEM: TIMESTEP
500
ITEM: NUMBER OF ATOMS
1600
ITEM: BOX BOUNDS pp pp pp
0.0000000000000000e+00 3.6149999999999999e+01
0.0000000000000000e+00 3.6149999999999999e+01
0.0000000000000000e+00 1.5834399999999999e+02
ITEM: ATOMS id mol z q
1 90001 25.8357 -0.000457286
2 90001 25.9538 2.57607e-05
3 90001 27.6912 0.000777627
4 90001 27.8284 0.000185793
5 90001 29.6143 -0.000706923
6 90001 29.5556 0.00362385
7 90001 31.5518 0.0110932
8 90001 31.3675 0.0162215
9 90001 26.1115 0.000817044
10 90001 26.1538 -0.000940609
11 90001 27.8309 -0.00234953
12 90001 27.7527 -0.00035477
13 90001 29.6556 0.00105761
14 90001 29.6499 0.00221171
15 90001 31.455 0.0107122
16 90001 31.3103 0.0103663
17 90001 26.1473 -0.000303952
18 90001 26.0755 -0.000941145
19 90001 27.7755 0.000243985
20 90001 27.8233 0.00110514
21 90001 29.6972 0.000397268
22 90001 29.6651 -0.00171632
23 90001 31.4544 0.0256584
24 90001 31.6443 -0.0126983
25 90001 25.7877 -1.48428e-05
26 90001 26.0071 -0.000593895
27 90001 27.8053 -0.000235264
28 90001 27.7197 -0.000546418
29 90001 29.5977 0.00283072
30 90001 29.44 0.00128795
31 90001 31.3922 0.000388966
32 90001 31.4635 0.00755232
33 90001 25.954 0.00027793
34 90001 25.945 0.000968642
35 90001 27.7591 0.00228141
36 90001 27.8995 -0.00091038
37 90001 29.5795 -0.00193825
38 90001 29.7711 -0.000455209
39 90001 31.5508 -0.0120458
40 90001 31.3734 -0.010438
41 90001 25.91 0.000811832
42 90001 25.8597 0.00150323
43 90001 27.7486 0.000180386
44 90001 27.7985 -0.00111857
45 90001 29.7468 -0.00186404
46 90001 29.6527 -0.000801783
47 90001 31.541 -0.0137292
48 90001 31.4431 -0.0148905
49 90001 26.0581 -0.000739845
50 90001 25.8849 -0.00146813
51 90001 27.7638 5.34658e-05
52 90001 27.7723 -0.000117752
53 90001 29.5513 -3.82907e-05
54 90001 29.4842 -0.001988
55 90001 31.3817 -0.001383
56 90001 31.4459 -0.00395883
57 90001 25.8368 -0.00168373
58 90001 25.9299 -0.00157305
59 90001 27.629 -0.000639324
60 90001 27.7374 0.000943199
61 90001 29.6284 0.000320244
62 90001 29.5564 0.000518955
63 90001 31.3493 0.0294259
64 90001 31.3533 0.00845072
65 90001 25.9396 4.22659e-05
66 90001 25.9625 0.000548029
67 90001 27.7242 -0.000549875
68 90001 27.7464 -0.000903641
69 90001 29.5437 0.00345142
70 90001 29.5707 -0.00273381
71 90001 31.3598 0.0188657
72 90001 31.345 0.0470843
73 90001 25.9321 0.000260604
74 90001 25.9207 -0.000326578
75 90001 27.7592 -0.000677228
76 90001 27.6235 -0.000155058
77 90001 29.5912 0.00263951
78 90001 29.6469 0.000425394
79 90001 31.4069 -0.00172135
80 90001 31.3372 -0.00418343
81 90001 26.045 -0.000371872
82 90001 25.8479 -0.00146101
83 90001 27.6861 -0.000426802
84 90001 27.6917 -1.47743e-05
85 90001 29.5886 0.00121002
86 90001 29.6578 0.00163939
87 90001 31.4438 0.0287715
88 90001 31.3896 -0.00424733
89 90001 25.9918 -0.00120083
90 90001 25.9472 -0.00181355
91 90001 27.8236 -3.01308e-05
92 90001 27.8918 -0.000317055
93 90001 29.5937 0.00232465
94 90001 29.5054 0.00126804
95 90001 31.3232 -0.001615
96 90001 31.4251 0.0112766
97 90001 26.1164 -0.00264541
98 90001 26.1081 -0.000954078
99 90001 27.7947 0.00110356
100 90001 27.8921 0.000651012
101 90001 29.6693 -0.00197768
102 90001 29.5793 -0.0014734
103 90001 31.3683 -0.000229464
104 90001 31.3948 -0.016216
105 90001 25.8469 -0.0019397
106 90001 25.9102 0.000710388
107 90001 27.791 -0.00166914
108 90001 27.7378 0.000725277
109 90001 29.6303 0.00375295
110 90001 29.7103 -0.00307524
111 90001 31.408 -0.00948119
112 90001 31.4929 0.00913356
113 90001 26.0263 0.000374505
114 90001 26.1438 -0.00176046
115 90001 27.9109 -0.000194647
116 90001 27.8329 0.00184024
117 90001 29.6562 -0.00232247
118 90001 29.7145 -0.000125261
119 90001 31.3822 -0.00738439
120 90001 31.5811 -0.0283015
121 90001 25.9664 -0.000966419
122 90001 26.1099 0.00108666
123 90001 27.7583 -0.0018295
124 90001 27.7254 -0.00229676
125 90001 29.6879 0.00112197
126 90001 29.5881 0.00126133
127 90001 31.6295 -0.010587
128 90001 31.4212 0.0031025
129 90001 25.9172 0.00041683
130 90001 25.9205 0.000941238
131 90001 27.8359 -0.000488074
132 90001 27.8855 -0.00240552
133 90001 29.6192 -0.00135189
134 90001 29.7039 0.000610839
135 90001 31.4038 0.00330054
136 90001 31.4394 0.00651073
137 90001 26.0075 9.60914e-06
138 90001 25.9567 -7.33566e-05
139 90001 27.8013 0.00119446
140 90001 27.8114 -0.00054307
141 90001 29.5187 0.000601447
142 90001 29.6504 0.000275129
143 90001 31.3714 0.0373884
144 90001 31.3482 0.014355
145 90001 25.9325 -9.81253e-05
146 90001 25.9679 0.00036285
147 90001 27.7942 9.1701e-06
148 90001 27.8629 -0.00215134
149 90001 29.5318 -0.00230978
150 90001 29.6063 0.000183546
151 90001 31.3848 0.0095345
152 90001 31.3453 0.0232761
153 90001 25.9527 -0.000163754
154 90001 26.0351 -0.000501171
155 90001 27.7167 -0.000949916
156 90001 27.7088 0.00051574
157 90001 29.5914 -0.00151467
158 90001 29.6153 -0.00204789
159 90001 31.5303 0.0405408
160 90001 31.345 -0.00375981
161 90001 25.9009 -8.76811e-05
162 90001 25.716 -0.000701064
163 90001 27.8323 0.000555379
164 90001 27.6905 0.00188205
165 90001 29.5166 -0.00177472
166 90001 29.6105 -0.000377101
167 90001 31.388 -0.00143141
168 90001 31.2986 -0.0205038
169 90001 26.0837 0.000567728
170 90001 26.0345 -0.000518817
171 90001 27.6529 -0.000195132
172 90001 27.7008 0.000253917
173 90001 29.5893 0.000132051
174 90001 29.4568 0.00221316
175 90001 31.3851 0.00195338
176 90001 31.2911 -0.00614809
177 90001 26.1099 -0.000182127
178 90001 26.0709 -0.00110041
179 90001 27.7578 0.00283061
180 90001 27.7575 -0.000371481
181 90001 29.5872 7.85526e-05
182 90001 29.6427 -0.000825412
183 90001 31.4468 -0.0216948
184 90001 31.5134 -0.0101771
185 90001 25.8429 -0.00173366
186 90001 26.0096 0.000180349
187 90001 27.7439 -0.00106614
188 90001 27.745 -0.000433116
189 90001 29.5547 -0.00129655
190 90001 29.5966 -0.000452428
191 90001 31.3402 -0.0291501
192 90001 31.3989 -0.0269084
193 90001 25.9676 0.000935173
194 90001 25.8987 0.000662148
195 90001 27.8191 0.00183798
196 90001 27.744 -0.000681472
197 90001 29.6245 -0.00172593
198 90001 29.6078 -0.000194643
199 90001 31.3845 -0.0184464
200 90001 31.4355 -0.0185215
201 90001 26.0951 -0.00212111
202 90001 25.916 -5.68868e-06
203 90001 27.7935 0.000829218
204 90001 27.8072 -0.00074076
205 90001 29.4581 6.70808e-05
206 90001 29.7052 -0.00119963
207 90001 31.2743 -0.00637588
208 90001 31.4392 -0.0200196
209 90001 26.0735 0.0010594
210 90001 26.1671 -0.000555915
211 90001 27.8309 -0.0011242
212 90001 27.829 -0.000488453
213 90001 29.747 0.00215653
214 90001 29.6438 0.000471422
215 90001 31.4047 0.0101385
216 90001 31.6524 0.0157999
217 90001 25.9934 -0.000121498
218 90001 26.0107 -0.00026603
219 90001 27.8747 -0.00113283
220 90001 27.8132 0.000201892
221 90001 29.7862 -0.000770109
222 90001 29.6268 6.37015e-05
223 90001 31.6167 0.0134582
224 90001 31.4943 0.00603746
225 90001 26.0366 0.000952466
226 90001 25.9778 -0.000556218
227 90001 27.828 -0.000355114
228 90001 27.7246 -0.00131312
229 90001 29.6233 -0.00117829
230 90001 29.6869 -0.001863
231 90001 31.3115 -0.00369395
232 90001 31.4131 0.00350541
233 90001 25.8534 -0.00125803
234 90001 25.916 -0.00040208
235 90001 27.5722 2.45968e-05
236 90001 27.7346 -0.000177375
237 90001 29.5641 -0.0013568
238 90001 29.5229 -0.00040096
239 90001 31.3657 -0.0186127
240 90001 31.4049 -0.0187071
241 90001 25.927 0.000282136
242 90001 26.1514 -0.00105181
243 90001 27.7295 0.000849972
244 90001 27.9325 -0.00141555
245 90001 29.5412 0.00136797
246 90001 29.6034 -0.00166672
247 90001 31.3879 -0.0143404
248 90001 31.4222 -0.0289612
249 90001 26.143 -0.000426422
250 90001 26.0018 0.00080208
251 90001 27.7895 0.000148724
252 90001 27.8156 0.000385283
253 90001 29.3893 0.000543537
254 90001 29.6231 -0.00135766
255 90001 31.1792 -0.00816869
256 90001 31.2577 -0.0111288
257 90001 25.9423 -5.69725e-06
258 90001 25.9006 -0.00169822
259 90001 27.8156 0.00150932
260 90001 27.6692 -3.87567e-05
261 90001 29.571 -0.000815004
262 90001 29.6841 0.00064523
263 90001 31.5074 0.00130612
264 90001 31.6393 -0.0185319
265 90001 25.9929 -0.00308593
266 90001 26.021 -0.00158077
267 90001 27.7463 -0.000666468
268 90001 27.7693 0.000499629
269 90001 29.6799 0.000868357
270 90001 29.4836 0.0012414
271 90001 31.2059 -0.00830549
272 90001 31.4162 -0.0135368
273 90001 26.0919 0.00184042
274 90001 25.9859 0.00115188
275 90001 27.7867 -0.000398061
276 90001 27.8631 -0.00172459
277 90001 29.5623 0.00169267
278 90001 29.6207 -0.000716828
279 90001 31.4535 -0.0231792
280 90001 31.1081 -0.00399661
281 90001 26.0466 8.19476e-05
282 90001 26.0305 -0.000554393
283 90001 27.8685 -0.000641903
284 90001 27.8169 0.00103792
285 90001 29.7177 -0.00352378
286 90001 29.6856 0.00133709
287 90001 31.4092 0.0029305
288 90001 31.4924 -0.00366922
289 90001 25.8737 -0.000382842
290 90001 26.1655 0.00167376
291 90001 27.8414 -0.00149342
292 90001 27.7738 -0.000852142
293 90001 29.7917 0.00134986
294 90001 29.6879 0.000185632
295 90001 31.5136 0.00462077
296 90001 31.4042 -2.77622e-05
297 90001 26.1054 0.000487091
298 90001 26.0777 8.29775e-05
299 90001 27.8576 -0.000948367
300 90001 27.8464 -0.000468816
301 90001 29.6325 -0.000284582
302 90001 29.5518 0.00108782
303 90001 31.4978 0.00546985
304 90001 31.4553 0.00604629
305 90001 25.8673 0.000522864
306 90001 25.8935 0.001165
307 90001 27.8303 -0.000152706
308 90001 27.7266 -0.00203989
309 90001 29.6856 0.000490687
310 90001 29.5887 -0.00121304
311 90001 31.5178 -0.0304071
312 90001 31.391 -0.0283453
313 90001 26.1241 -0.000270959
314 90001 26.0134 0.00236917
315 90001 27.7453 -0.00104426
316 90001 27.7828 -0.000816619
317 90001 29.555 0.00119908
318 90001 29.6708 0.00036406
319 90001 31.4728 -0.00918199
320 90001 31.3941 -0.0113239
321 90001 25.982 0.00173946
322 90001 26.1412 -0.000113024
323 90001 27.8416 0.000970498
324 90001 27.6839 0.00172785
325 90001 29.5929 -0.00280684
326 90001 29.5117 -0.00168497
327 90001 31.502 -0.0222238
328 90001 31.4502 -0.0272237
329 90001 26.1032 -0.000242099
330 90001 26.1093 -0.0005343
331 90001 27.7619 -0.000652003
332 90001 27.7767 1.7578e-05
333 90001 29.6011 0.000191958
334 90001 29.6691 0.00208217
335 90001 31.4629 -0.00828282
336 90001 31.5955 -0.0121104
337 90001 25.8435 -0.000147223
338 90001 25.8782 -0.000204624
339 90001 27.7335 -0.000580948
340 90001 27.7964 0.000155928
341 90001 29.6318 -0.00107264
342 90001 29.6032 -0.00140734
343 90001 31.3542 -0.0269531
344 90001 31.4192 -0.0259441
345 90001 25.9558 -0.0011534
346 90001 26.0153 -0.000143346
347 90001 27.7813 0.000640881
348 90001 27.7672 0.000967385
349 90001 29.5898 -9.67127e-05
350 90001 29.4425 -0.000276324
351 90001 31.242 -0.00583329
352 90001 31.4098 -0.0225818
353 90001 26.0559 -0.00118184
354 90001 26.0635 -0.000606183
355 90001 27.7795 0.00107353
356 90001 27.7747 -0.000986144
357 90001 29.4931 0.000749268
358 90001 29.6921 4.21795e-05
359 90001 31.4084 0.00408681
360 90001 31.2227 -0.000677172
361 90001 26.0187 -0.00029931
362 90001 25.9515 -7.32262e-05
363 90001 27.8143 -7.57874e-05
364 90001 27.7776 0.000377281
365 90001 29.6712 0.00169249
366 90001 29.6508 0.00106044
367 90001 31.4335 0.0124586
368 90001 31.3648 0.035533
369 90001 26.0974 0.000632772
370 90001 26.0887 5.47822e-05
371 90001 27.932 -0.00124803
372 90001 27.9113 6.67492e-05
373 90001 29.6145 -0.000785323
374 90001 29.7285 0.000959059
375 90001 31.4361 0.0128553
376 90001 31.5232 -9.42364e-05
377 90001 26.2313 -0.00152517
378 90001 26.1075 -0.00179836
379 90001 27.7901 -0.00115377
380 90001 27.8887 0.000432634
381 90001 29.6617 0.00153861
382 90001 29.645 0.00139557
383 90001 31.263 0.000600116
384 90001 31.4901 0.0220564
385 90001 25.8801 -0.000542872
386 90001 26.1525 -0.000841224
387 90001 27.666 -0.000730616
388 90001 27.7307 -0.000210887
389 90001 29.6048 0.00143587
390 90001 29.3831 0.000898159
391 90001 31.1255 -0.0108026
392 90001 31.4235 -0.00662237
393 90001 25.9503 -0.0012232
394 90001 25.7862 0.000813652
395 90001 27.828 -0.0016025
396 90001 27.7489 0.00020964
397 90001 29.4964 0.000717344
398 90001 29.5077 0.000618641
399 90001 31.4516 -0.0283593
400 90001 31.2822 -0.0118124
401 90001 25.8637 -0.0024267
402 90001 25.8923 -0.0013326
403 90001 27.6241 0.000206127
404 90001 27.7323 0.000345725
405 90001 29.5905 -0.0018683
406 90001 29.6911 -0.00289675
407 90001 31.4456 -0.00520683
408 90001 31.4748 0.00867743
409 90001 25.8994 6.0531e-05
410 90001 26.0382 0.000309997
411 90001 27.8191 -0.000210621
412 90001 27.839 0.000744918
413 90001 29.6298 -0.000619763
414 90001 29.7431 -0.000868855
415 90001 31.5332 0.00269245
416 90001 31.4082 -0.0057026
417 90001 26.0931 -0.00116679
418 90001 26.0063 -0.00047445
419 90001 27.7177 -0.00121219
420 90001 27.8232 -0.000777383
421 90001 29.6116 0.00096177
422 90001 29.5313 -0.000350687
423 90001 31.3712 -0.0437618
424 90001 31.4965 -0.0217268
425 90001 25.9199 0.00167264
426 90001 25.9929 0.00145536
427 90001 27.737 -0.000833338
428 90001 27.6779 0.00183129
429 90001 29.5831 -0.00162637
430 90001 29.5754 2.69545e-05
431 90001 31.5531 -0.0202462
432 90001 31.4642 0.0217354
433 90001 26.0447 -0.000507943
434 90001 26.2212 -0.00288788
435 90001 27.8022 -0.000230689
436 90001 27.7521 -0.00198661
437 90001 29.5463 -0.000391677
438 90001 29.5329 0.000389921
439 90001 31.3471 0.00484464
440 90001 31.2424 -0.0117893
441 90001 26.0887 -0.000977929
442 90001 26.1035 -0.000507209
443 90001 27.7877 0.00020392
444 90001 27.8555 -0.000934087
445 90001 29.5275 -0.00019707
446 90001 29.7088 0.00466441
447 90001 31.4143 0.0221262
448 90001 31.4245 0.0191707
449 90001 25.9919 -0.000489666
450 90001 26.0969 0.0001262
451 90001 27.7831 -0.000322241
452 90001 27.9291 -0.00206807
453 90001 29.7325 0.00297469
454 90001 29.7097 0.00118914
455 90001 31.4868 0.00768398
456 90001 31.5583 0.00399338
457 90001 26.1002 -0.0001737
458 90001 25.9662 -0.00214332
459 90001 27.7334 -0.000917924
460 90001 27.7568 0.000447045
461 90001 29.644 0.000678281
462 90001 29.6438 0.00142216
463 90001 31.4454 0.00855838
464 90001 31.6388 0.0135205
465 90001 25.8352 0.000513304
466 90001 25.9855 -0.00258139
467 90001 27.7071 0.0029362
468 90001 27.8435 0.0013375
469 90001 29.6193 -0.0010356
470 90001 29.5998 0.000244616
471 90001 31.4076 -0.00660785
472 90001 31.3371 0.0132717
473 90001 25.8968 -0.000434812
474 90001 25.8791 -0.00107769
475 90001 27.7249 0.00136895
476 90001 27.7955 0.00237814
477 90001 29.5575 -0.00318651
478 90001 29.5453 -0.00294369
479 90001 31.3455 -0.00489799
480 90001 31.3412 0.0273235
481 90001 25.8933 0.00062772
482 90001 25.9394 0.000891471
483 90001 27.705 0.0014971
484 90001 27.81 -0.00174372
485 90001 29.4818 -0.000879467
486 90001 29.6183 -7.11134e-06
487 90001 31.25 -0.00127707
488 90001 31.4026 0.0144044
489 90001 26.1891 0.000335445
490 90001 26.059 -0.00040434
491 90001 27.7987 -6.46307e-05
492 90001 27.7738 -0.000209835
493 90001 29.5363 -0.000629095
494 90001 29.5438 -0.00146437
495 90001 31.3544 -0.0133315
496 90001 31.4994 -0.0165876
497 90001 26.108 -0.00141912
498 90001 26.1648 -0.000565767
499 90001 27.8016 0.00123354
500 90001 27.7143 -0.000802579
501 90001 29.5552 -0.000450246
502 90001 29.6267 -0.00141898
503 90001 31.4311 -0.015266
504 90001 31.4111 -0.0189654
505 90001 25.9524 -0.000157086
506 90001 26.0363 -0.0006117
507 90001 27.6826 -0.00161561
508 90001 27.8855 -0.000351193
509 90001 29.7437 -0.000367572
510 90001 29.5853 -0.00080541
511 90001 31.4476 8.30059e-05
512 90001 31.4205 -0.018874
513 90001 25.8779 -0.00149878
514 90001 26.0888 0.00158456
515 90001 27.8707 -0.00113584
516 90001 27.8072 0.00135224
517 90001 29.5572 0.0015737
518 90001 29.6034 -0.00291314
519 90001 31.3508 0.000860459
520 90001 31.3487 0.00266988
521 90001 26.0103 0.000557626
522 90001 26.1198 -0.00292931
523 90001 27.8856 0.000526336
524 90001 27.9128 -0.000421332
525 90001 29.7803 -0.000329402
526 90001 29.6282 0.00324122
527 90001 31.422 0.00876643
528 90001 31.402 -0.01512
529 90001 26.0167 -0.000722713
530 90001 25.9549 -0.000594262
531 90001 27.6888 0.00146647
532 90001 27.7447 -3.59177e-05
533 90001 29.5915 -0.00123441
534 90001 29.55 0.00117162
535 90001 31.4241 0.0130569
536 90001 31.4716 0.0619139
537 90001 26.012 -0.000669016
538 90001 26.0066 -0.00246411
539 90001 27.8934 0.000645621
540 90001 27.7585 0.00105487
541 90001 29.6147 -0.000161489
542 90001 29.5433 0.00278367
543 90001 31.3155 0.0163988
544 90001 31.3445 0.0196386
545 90001 26 -0.00271379
546 90001 25.788 -0.00146769
547 90001 27.8172 0.00199262
548 90001 27.6508 0.000629961
549 90001 29.6107 -4.98162e-05
550 90001 29.6052 -0.000370376
551 90001 31.3942 0.0557281
552 90001 31.459 -0.00965118
553 90001 25.9827 -0.00310419
554 90001 25.9662 -0.00128327
555 90001 27.8209 0.000304493
556 90001 27.593 0.00143926
557 90001 29.5492 0.00823095
558 90001 29.6805 0.00360603
559 90001 31.3154 0.0252248
560 90001 31.4107 0.0650495
561 90001 26.1467 2.90587e-05
562 90001 25.977 0.00249455
563 90001 27.7798 0.000704573
564 90001 27.8422 -0.000804929
565 90001 29.5423 -0.000462289
566 90001 29.6047 -0.00223583
567 90001 31.3532 -0.000385474
568 90001 31.3553 -0.00138467
569 90001 26.0453 0.00202185
570 90001 26.061 -0.000550505
571 90001 27.7619 -0.000235669
572 90001 27.859 0.000856654
573 90001 29.5801 -0.00124037
574 90001 29.7207 -0.00114917
575 90001 31.3163 -0.00343022
576 90001 31.3223 -0.0104305
577 90001 26.0486 0.000826724
578 90001 25.9664 -5.49801e-05
579 90001 27.8713 6.53893e-05
580 90001 27.7802 -0.000583838
581 90001 29.6491 -0.000967632
582 90001 29.7333 -0.000142957
583 90001 31.377 -0.0103357
584 90001 31.5388 -0.00186359
585 90001 26.2078 3.7587e-05
586 90001 25.9347 0.00188095
587 90001 27.86 -0.00154967
588 90001 27.7795 -0.00137516
589 90001 29.5416 -0.00128735
590 90001 29.7777 0.00043228
591 90001 31.3333 -0.0119342
592 90001 31.5934 0.00160612
593 90001 26.0547 0.000476821
594 90001 26.054 0.00110853
595 90001 27.8085 -0.000131709
596 90001 27.8346 -0.00151965
597 90001 29.514 -0.00156117
598 90001 29.6283 -0.00184944
599 90001 31.4154 -0.0117489
600 90001 31.5114 0.0430695
601 90001 25.9478 5.32926e-05
602 90001 26.0776 0.00253808
603 90001 27.8707 -0.000847794
604 90001 27.8349 0.000536474
605 90001 29.6954 -0.00228718
606 90001 29.5709 0.00384155
607 90001 31.4534 0.0181172
608 90001 31.5074 0.0179366
609 90001 25.929 -0.00129887
610 90001 26.0241 0.00022232
611 90001 27.7122 -0.000988178
612 90001 27.8085 -0.000687423
613 90001 29.733 0.00531697
614 90001 29.4975 -0.0018133
615 90001 31.5133 0.0532895
616 90001 31.4021 0.0425194
617 90001 26.0456 0.000579197
618 90001 26.0385 -0.00118207
619 90001 27.8566 0.000913312
620 90001 27.7618 0.000232275
621 90001 29.5877 0.00341708
622 90001 29.6348 -0.000433431
623 90001 31.4157 0.000130389
624 90001 31.3741 -0.00136549
625 90001 25.9246 -0.000972983
626 90001 25.9681 -0.000938113
627 90001 27.6896 -0.00114969
628 90001 27.733 -0.000499913
629 90001 29.6277 0.00219513
630 90001 29.6217 -0.000697339
631 90001 31.3816 0.00767687
632 90001 31.557 0.0454627
633 90001 25.8739 0.00122149
634 90001 26.0591 -0.00149633
635 90001 27.7845 0.00081225
636 90001 27.7681 0.00242451
637 90001 29.5001 -0.00116214
638 90001 29.6721 -0.000963518
639 90001 31.531 0.0508944
640 90001 31.2931 0.0109085
641 90001 26.1543 -0.000332071
642 90001 26.1371 0.00152815
643 90001 27.8026 -0.000728557
644 90001 27.8228 0.000683616
645 90001 29.5542 -0.00146153
646 90001 29.5986 -0.0060629
647 90001 31.2027 -0.0286465
648 90001 31.2704 -0.0195379
649 90001 26.0844 -0.000922519
650 90001 26.0935 -0.00239774
651 90001 27.8064 -0.000781074
652 90001 27.832 0.00124828
653 90001 29.5151 -0.00193295
654 90001 29.6034 0.000604992
655 90001 31.5712 0.00983463
656 90001 31.4243 -0.0175459
657 90001 25.9049 -0.00139916
658 90001 25.9206 -0.00011028
659 90001 27.8423 9.15309e-06
660 90001 27.767 0.00135459
661 90001 29.7479 0.0010617
662 90001 29.7109 -0.000471025
663 90001 31.5153 0.0241592
664 90001 31.5983 0.0106175
665 90001 26.0228 0.00203243
666 90001 26.0189 -0.00167638
667 90001 27.8893 3.57613e-05
668 90001 27.8156 -0.00124867
669 90001 29.7448 0.000576927
670 90001 29.6955 0.00152096
671 90001 31.5406 0.0465367
672 90001 31.4068 0.0427514
673 90001 25.9988 -0.00209656
674 90001 25.9751 -0.0017522
675 90001 27.8278 0.00108647
676 90001 27.7407 0.000510503
677 90001 29.6868 0.00531512
678 90001 29.6737 0.000413627
679 90001 31.3846 0.0718211
680 90001 31.5578 0.0625354
681 90001 25.9813 -0.000259017
682 90001 26.1082 -0.00155057
683 90001 27.7314 0.000188883
684 90001 27.8026 -0.000215468
685 90001 29.6353 0.000812269
686 90001 29.6205 0.000396966
687 90001 31.4694 0.0524294
688 90001 31.3417 0.00466574
689 90001 26.0786 0.000169018
690 90001 26.0638 -0.00143556
691 90001 27.663 0.00107101
692 90001 27.8698 -0.00110303
693 90001 29.5336 0.00135421
694 90001 29.3371 0.000948105
695 90001 31.3453 -0.0113043
696 90001 31.453 -0.0289701
697 90001 25.845 -0.00309175
698 90001 26.0348 -0.00123671
699 90001 27.8165 0.00174938
700 90001 27.6582 0.00206936
701 90001 29.5859 -0.00164908
702 90001 29.6478 -0.00499781
703 90001 31.3209 -0.0520916
704 90001 31.4313 -0.0261237
705 90001 25.9175 -0.00181238
706 90001 26.0032 0.000932621
707 90001 27.848 0.000809998
708 90001 27.8839 0.000838775
709 90001 29.6854 -0.00253284
710 90001 29.598 -0.000302904
711 90001 31.5416 -0.011698
712 90001 31.5312 -0.0382508
713 90001 26.0864 -0.00181548
714 90001 26.0245 -0.000277895
715 90001 27.8514 -0.00120043
716 90001 27.7549 0.00117967
717 90001 29.5386 0.000654017
718 90001 29.543 -0.000333032
719 90001 31.2402 0.00340342
720 90001 31.4236 -0.00685192
721 90001 25.9089 -0.00146047
722 90001 25.9245 -0.00120094
723 90001 27.852 0.00116705
724 90001 27.7731 0.000372558
725 90001 29.5393 -0.0118972
726 90001 29.7155 -0.001795
727 90001 31.3806 -0.0353009
728 90001 31.5007 -0.0407858
729 90001 25.8519 -0.00175496
730 90001 26.0853 0.00231718
731 90001 27.8028 -0.000775855
732 90001 27.9252 -0.00011472
733 90001 29.6665 -0.000513432
734 90001 29.6105 0.002669
735 90001 31.2945 0.0110951
736 90001 31.2654 -0.000262032
737 90001 26.1617 -0.00145233
738 90001 26.1928 -0.000585249
739 90001 27.855 0.00138097
740 90001 27.8441 -0.0021248
741 90001 29.69 0.00100177
742 90001 29.6168 -0.000109714
743 90001 31.3988 0.00806379
744 90001 31.56 -0.00113031
745 90001 25.9331 -0.000634101
746 90001 26.0785 -0.00213782
747 90001 27.8821 0.000247618
748 90001 27.8538 0.001148
749 90001 29.6943 0.000156053
750 90001 29.713 -5.47825e-05
751 90001 31.4166 0.0110173
752 90001 31.3737 0.0169471
753 90001 26.039 -0.00312021
754 90001 25.8276 0.000409779
755 90001 27.7741 0.000467243
756 90001 27.8789 0.000208383
757 90001 29.6855 0.00107756
758 90001 29.7008 1.78373e-05
759 90001 31.4165 0.0253634
760 90001 31.3413 0.00436527
761 90001 26.1311 -0.000408347
762 90001 26.1127 -0.00044165
763 90001 27.8475 -0.000561935
764 90001 27.8684 -0.000830337
765 90001 29.7004 -0.000999425
766 90001 29.6948 0.000497006
767 90001 31.3024 -0.0231876
768 90001 31.4404 -0.0127295
769 90001 26.2076 0.0017129
770 90001 25.9287 -0.000296342
771 90001 27.68 -0.0015907
772 90001 27.8074 -0.000124296
773 90001 29.5515 -0.00124149
774 90001 29.5557 -0.00248103
775 90001 31.3047 -0.0320923
776 90001 31.3125 -0.0226464
777 90001 25.9462 -0.000194871
778 90001 25.8766 -0.00237361
779 90001 27.6963 0.00155808
780 90001 27.6227 0.000441997
781 90001 29.4301 0.000676218
782 90001 29.4662 0.00056953
783 90001 31.3924 -0.0279336
784 90001 31.3317 -0.0155872
785 90001 26.0075 -0.00129177
786 90001 25.9544 -0.000297618
787 90001 27.8352 0.00137222
788 90001 27.8469 0.0015283
789 90001 29.6114 -0.00201399
790 90001 29.4893 -0.00157626
791 90001 31.277 -0.00540891
792 90001 31.2712 -0.00331159
793 90001 25.996 -0.000769322
794 90001 25.9557 -0.00142102
795 90001 27.7394 0.00121341
796 90001 27.7134 -0.000552202
797 90001 29.5357 0.000683183
798 90001 29.5298 -0.00418476
799 90001 31.2958 -0.0297187
800 90001 31.2629 0.0075945
801 90002 132.435 0.000856422
802 90002 132.259 0.00110193
803 90002 130.543 -0.00162035
804 90002 130.491 -0.00133907
805 90002 128.769 0.000987936
806 90002 128.752 0.000709265
807 90002 126.93 0.0304334
808 90002 127.065 0.00622472
809 90002 132.451 0.000862322
810 90002 132.424 -0.000661535
811 90002 130.605 -0.00151117
812 90002 130.622 -0.000990609
813 90002 128.711 -0.000193251
814 90002 128.798 -6.5323e-05
815 90002 126.952 -0.00712566
816 90002 126.884 0.00646419
817 90002 132.401 7.35232e-05
818 90002 132.45 0.000594365
819 90002 130.623 -0.000483953
820 90002 130.665 -0.00026775
821 90002 128.827 -0.00161924
822 90002 128.7 -0.00748956
823 90002 126.893 -0.0179046
824 90002 126.92 -0.0352727
825 90002 132.461 0.00057467
826 90002 132.286 0.000176301
827 90002 130.555 0.00123941
828 90002 130.575 0.000157479
829 90002 128.829 -0.0017033
830 90002 128.76 -0.000489362
831 90002 126.853 -0.0155884
832 90002 127.047 -0.024223
833 90002 132.34 0.00264992
834 90002 132.302 -0.00035027
835 90002 130.469 0.00142438
836 90002 130.599 -0.000802833
837 90002 128.697 -0.0019869
838 90002 128.682 -0.00200347
839 90002 127.03 -0.0127051
840 90002 126.985 -0.00133923
841 90002 132.37 0.000974634
842 90002 132.378 0.000219368
843 90002 130.629 -0.000246676
844 90002 130.462 0.000312351
845 90002 128.784 -0.00258237
846 90002 128.807 -0.0018434
847 90002 127.035 -0.0107706
848 90002 126.978 -0.0231615
849 90002 132.413 0.000498007
850 90002 132.318 -0.000527985
851 90002 130.577 -0.00189618
852 90002 130.509 0.000641492
853 90002 128.649 0.00216299
854 90002 128.689 -0.000938338
855 90002 126.92 -0.00480922
856 90002 126.949 -0.00433831
857 90002 132.128 0.000773571
858 90002 132.231 -0.000341755
859 90002 130.595 -5.27716e-05
860 90002 130.449 0.000409347
861 90002 128.787 0.000569709
862 90002 128.734 -0.00306412
863 90002 126.915 -0.028267
864 90002 126.938 -0.0239838
865 90002 132.271 0.000773913
866 90002 132.42 0.000604263
867 90002 130.619 0.00159215
868 90002 130.585 0.000577981
869 90002 128.774 -0.00181854
870 90002 128.672 -0.0029009
871 90002 126.984 -0.0220407
872 90002 126.872 -0.0431873
873 90002 132.332 0.000917467
874 90002 132.429 -4.07854e-05
875 90002 130.453 0.000860098
876 90002 130.485 0.00260316
877 90002 128.635 -0.00582787
878 90002 128.667 -0.000498278
879 90002 126.82 -0.00347913
880 90002 127.026 -0.0228485
881 90002 132.296 0.000611331
882 90002 132.282 -0.000660566
883 90002 130.587 0.000373781
884 90002 130.516 0.000183038
885 90002 128.773 0.000996013
886 90002 128.686 -0.00156135
887 90002 126.989 -0.0107241
888 90002 126.971 0.00500251
889 90002 132.397 0.00175623
890 90002 132.404 -0.000919464
891 90002 130.624 -0.000104141
892 90002 130.537 0.000739223
893 90002 128.788 -0.000844062
894 90002 128.707 -0.00103201
895 90002 127.061 -0.00937571
896 90002 126.994 -0.0216266
897 90002 132.446 0.00127184
898 90002 132.269 -0.000213314
899 90002 130.52 0.0021357
900 90002 130.485 -0.00128365
901 90002 128.801 -0.000401144
902 90002 128.88 0.0030114
903 90002 126.998 -0.0196911
904 90002 126.849 0.00849623
905 90002 132.349 -0.00138544
906 90002 132.316 -0.00116875
907 90002 130.519 -0.000351884
908 90002 130.527 -0.000600554
909 90002 128.844 -0.0016275
910 90002 128.697 -0.000971903
911 90002 127.165 -0.00351422
912 90002 126.949 -0.00425283
913 90002 132.344 -0.000402534
914 90002 132.381 -0.000920056
915 90002 130.54 0.00127299
916 90002 130.611 -0.000147915
917 90002 128.83 0.0012313
918 90002 128.799 -0.000759328
919 90002 126.976 -0.0391689
920 90002 127.029 -0.00688778
921 90002 132.245 0.000622852
922 90002 132.263 -1.44452e-05
923 90002 130.448 -0.00013782
924 90002 130.565 0.0008032
925 90002 128.798 -0.0037162
926 90002 128.761 -0.00253578
927 90002 127.057 -0.00187221
928 90002 127.065 -0.0144273
929 90002 132.224 0.00131912
930 90002 132.327 0.0010682
931 90002 130.424 0.00208602
932 90002 130.456 0.0015853
933 90002 128.758 -0.000849754
934 90002 128.762 -0.00017035
935 90002 126.924 -0.00894454
936 90002 127.039 -0.000761687
937 90002 132.147 -0.000633922
938 90002 132.125 0.000327509
939 90002 130.553 0.00125791
940 90002 130.332 0.00277286
941 90002 128.689 -0.00571907
942 90002 128.796 -0.00050367
943 90002 126.916 -0.0225527
944 90002 127.087 0.000328755
945 90002 132.065 -5.0999e-05
946 90002 132.304 -0.000975061
947 90002 130.571 0.00087172
948 90002 130.495 0.000958852
949 90002 128.876 -0.0030406
950 90002 128.791 -0.00108667
951 90002 127.006 -0.0238185
952 90002 126.951 -0.040446
953 90002 132.225 0.000735944
954 90002 132.324 0.000392356
955 90002 130.6 -0.00095901
956 90002 130.508 -0.000336088
957 90002 128.727 -0.000422499
958 90002 128.809 -0.00113761
959 90002 127.078 0.00335985
960 90002 127.048 -0.000727387
961 90002 132.292 0.000122138
962 90002 132.226 0.00108488
963 90002 130.607 0.00160951
964 90002 130.48 -0.000659397
965 90002 128.688 -0.00182149
966 90002 128.794 0.00349986
967 90002 126.955 -0.0125364
968 90002 126.905 0.00668645
969 90002 132.218 -0.000627664
970 90002 132.346 0.000372437
971 90002 130.443 -0.000960997
972 90002 130.478 -0.000868215
973 90002 128.775 -0.00478277
974 90002 128.824 -0.0032568
975 90002 126.868 -0.0229291
976 90002 127.054 0.0262255
977 90002 132.356 -0.000855772
978 90002 132.37 0.000814441
979 90002 130.633 0.00125793
980 90002 130.591 -0.000676034
981 90002 128.766 0.000575273
982 90002 128.768 0.00026647
983 90002 126.975 0.0398722
984 90002 127.038 -0.0227651
985 90002 132.388 0.00153328
986 90002 132.346 0.00212357
987 90002 130.594 0.000985406
988 90002 130.509 0.00133338
989 90002 128.78 -0.00132861
990 90002 128.667 -0.00180934
991 90002 126.889 0.00718738
992 90002 127.05 0.00584519
993 90002 132.371 -0.000715469
994 90002 132.2 0.000841606
995 90002 130.576 -0.000484321
996 90002 130.527 1.62163e-05
997 90002 128.748 1.5819e-05
998 90002 128.895 -0.000869507
999 90002 126.846 -0.0102419
1000 90002 127.124 -0.00348016
1001 90002 132.381 0.000409521
1002 90002 132.401 0.000781264
1003 90002 130.523 -0.000608233
1004 90002 130.659 -0.00074615
1005 90002 128.777 0.000277413
1006 90002 128.779 0.000585571
1007 90002 126.974 -0.0117385
1008 90002 127.136 -0.019551
1009 90002 132.271 -0.000283848
1010 90002 132.439 0.00217419
1011 90002 130.48 0.00173756
1012 90002 130.546 -5.45568e-05
1013 90002 128.691 -0.00289575
1014 90002 128.687 -0.00406974
1015 90002 127 -0.0566323
1016 90002 126.859 -0.0398545
1017 90002 132.265 0.000984288
1018 90002 132.381 -0.000425943
1019 90002 130.489 -0.000898743
1020 90002 130.496 -0.000188622
1021 90002 128.627 -0.00177507
1022 90002 128.808 0.000786511
1023 90002 127.025 -0.0137347
1024 90002 127.011 -0.0477126
1025 90002 132.261 0.000688023
1026 90002 132.454 7.87764e-05
1027 90002 130.626 0.000703357
1028 90002 130.522 -0.000719523
1029 90002 128.84 0.000615781
1030 90002 128.747 -0.00426923
1031 90002 126.937 -0.0170803
1032 90002 126.888 -0.0326368
1033 90002 132.225 0.000416978
1034 90002 132.308 0.00014563
1035 90002 130.503 0.00072883
1036 90002 130.639 0.00159788
1037 90002 128.849 0.000185294
1038 90002 128.757 -0.00096316
1039 90002 127.131 0.0146875
1040 90002 127.019 0.0124101
1041 90002 132.277 0.0011753
1042 90002 132.167 -0.000170528
1043 90002 130.458 -0.00196394
1044 90002 130.404 0.000352372
1045 90002 128.7 0.000340961
1046 90002 128.78 0.00153005
1047 90002 127.098 0.033526
1048 90002 126.965 0.0046312
1049 90002 132.242 -0.00068037
1050 90002 132.268 -0.000539809
1051 90002 130.533 0.0010424
1052 90002 130.555 0.00126332
1053 90002 128.813 0.00455566
1054 90002 128.837 -0.00174288
1055 90002 126.887 -0.0185601
1056 90002 126.888 0.0237466
1057 90002 132.333 -0.000878066
1058 90002 132.334 0.0016537
1059 90002 130.525 0.00125696
1060 90002 130.548 -0.00137205
1061 90002 128.769 -0.000990264
1062 90002 128.563 -0.000771237
1063 90002 126.87 0.0107423
1064 90002 126.801 -0.0137797
1065 90002 132.256 0.00197332
1066 90002 132.202 -4.79364e-05
1067 90002 130.476 0.0002335
1068 90002 130.404 -0.000999189
1069 90002 128.736 -0.00123122
1070 90002 128.648 -0.000512938
1071 90002 126.938 0.00198785
1072 90002 126.952 0.0175938
1073 90002 132.349 0.000135961
1074 90002 132.287 0.00011552
1075 90002 130.603 4.39803e-05
1076 90002 130.332 -0.00138918
1077 90002 128.63 -0.000866164
1078 90002 128.813 -5.91718e-05
1079 90002 127.145 0.00834077
1080 90002 126.992 0.00398559
1081 90002 132.355 0.00258541
1082 90002 132.448 0.000642779
1083 90002 130.539 0.000683507
1084 90002 130.502 0.00151349
1085 90002 128.885 -0.000993696
1086 90002 128.827 -0.002045
1087 90002 126.852 -0.0190156
1088 90002 126.887 0.00309779
1089 90002 132.318 0.00115302
1090 90002 132.385 -0.000392043
1091 90002 130.571 0.000904799
1092 90002 130.642 0.00065188
1093 90002 128.78 -0.000710821
1094 90002 128.773 -0.00204536
1095 90002 126.83 -0.0578294
1096 90002 126.933 -0.0387583
1097 90002 132.284 0.00094312
1098 90002 132.26 6.36668e-05
1099 90002 130.545 -0.00220737
1100 90002 130.588 -3.40501e-05
1101 90002 128.655 0.00168498
1102 90002 128.821 -9.78079e-05
1103 90002 126.846 -0.0240321
1104 90002 126.926 -0.0187133
1105 90002 132.292 -0.00128147
1106 90002 132.254 0.00217756
1107 90002 130.458 0.00126335
1108 90002 130.53 0.00158873
1109 90002 128.72 -0.0054941
1110 90002 128.701 -0.0012731
1111 90002 126.816 -0.00294513
1112 90002 126.762 0.00420294
1113 90002 132.519 0.00188845
1114 90002 132.463 0.000894524
1115 90002 130.604 -0.000141825
1116 90002 130.611 0.000441061
1117 90002 128.712 0.000841242
1118 90002 128.709 -0.00146004
1119 90002 126.863 0.00706952
1120 90002 126.773 0.02355
1121 90002 132.253 -7.63563e-05
1122 90002 132.102 0.000938884
1123 90002 130.452 -0.000238922
1124 90002 130.358 -0.000511911
1125 90002 128.742 0.000136372
1126 90002 128.641 8.42001e-05
1127 90002 127.001 -0.00415297
1128 90002 127.043 -0.013849
1129 90002 132.299 -0.000303428
1130 90002 132.309 2.75535e-05
1131 90002 130.471 0.000156724
1132 90002 130.397 0.000664471
1133 90002 128.669 -0.00144128
1134 90002 128.478 -0.000732194
1135 90002 126.779 0.0035279
1136 90002 126.749 -0.0275695
1137 90002 132.282 0.00120765
1138 90002 132.134 -0.000110156
1139 90002 130.444 -0.00200874
1140 90002 130.39 0.000533203
1141 90002 128.599 -0.00164738
1142 90002 128.627 -0.000459959
1143 90002 126.924 0.0033367
1144 90002 126.881 0.0195971
1145 90002 132.28 0.00138602
1146 90002 132.296 -0.00086494
1147 90002 130.512 -0.00151894
1148 90002 130.399 8.24578e-05
1149 90002 128.659 0.00175156
1150 90002 128.703 0.00141252
1151 90002 126.883 0.0114954
1152 90002 126.858 0.0120784
1153 90002 132.378 0.00160342
1154 90002 132.365 0.00101128
1155 90002 130.492 -0.000402203
1156 90002 130.662 -0.00116605
1157 90002 128.686 0.00314057
1158 90002 128.621 -0.00131837
1159 90002 127.016 -0.00613487
1160 90002 126.943 0.0209907
1161 90002 132.286 0.000871666
1162 90002 132.353 -0.000231247
1163 90002 130.564 0.00129164
1164 90002 130.446 0.00126728
1165 90002 128.693 -0.00593306
1166 90002 128.604 0.00329222
1167 90002 126.892 -0.0131891
1168 90002 127.008 -0.00406884
1169 90002 132.313 -0.00169926
1170 90002 132.167 -0.000452092
1171 90002 130.571 0.000670793
1172 90002 130.462 -0.000501031
1173 90002 128.662 -0.00199349
1174 90002 128.668 -0.00230189
1175 90002 126.92 0.00736908
1176 90002 126.851 0.0265802
1177 90002 132.309 0.000498317
1178 90002 132.327 0.00143101
1179 90002 130.469 -0.00125071
1180 90002 130.496 0.000466703
1181 90002 128.715 -0.00103377
1182 90002 128.635 0.0023724
1183 90002 126.855 -0.00715762
1184 90002 127.018 -0.00453068
1185 90002 132.343 0.00247108
1186 90002 132.309 0.00173407
1187 90002 130.598 0.00142477
1188 90002 130.541 -0.0014683
1189 90002 128.64 0.0008601
1190 90002 128.892 -0.00459658
1191 90002 126.939 0.0206143
1192 90002 126.997 0.0236485
1193 90002 132.282 0.00136825
1194 90002 132.278 -0.0010105
1195 90002 130.509 0.000391567
1196 90002 130.567 5.04384e-05
1197 90002 128.708 -0.00117818
1198 90002 128.687 -0.00233693
1199 90002 126.801 -0.00500536
1200 90002 126.912 0.00622085
1201 90002 132.046 0.000873098
1202 90002 132.218 0.00133822
1203 90002 130.384 -0.000689385
1204 90002 130.531 -0.000626125
1205 90002 128.823 -0.00112441
1206 90002 128.566 0.00416461
1207 90002 126.917 0.00391248
1208 90002 126.964 -0.000114491
1209 90002 132.202 0.0012015
1210 90002 132.246 0.000707838
1211 90002 130.46 0.00032726
1212 90002 130.349 -0.000349825
1213 90002 128.556 0.00118812
1214 90002 128.683 0.000391881
1215 90002 126.832 0.0163642
1216 90002 126.831 0.0659673
1217 90002 132.232 0.000147043
1218 90002 132.383 0.000761451
1219 90002 130.519 -0.000671161
1220 90002 130.581 0.000274025
1221 90002 128.762 0.0002283
1222 90002 128.856 0.00159127
1223 90002 126.946 0.0339062
1224 90002 127.063 0.0130454
1225 90002 132.32 -0.00132991
1226 90002 132.29 0.00178599
1227 90002 130.482 -3.53279e-05
1228 90002 130.512 -8.62579e-05
1229 90002 128.702 -0.000157784
1230 90002 128.695 -0.00203863
1231 90002 126.82 0.0268574
1232 90002 127.11 0.0261528
1233 90002 132.287 0.00140898
1234 90002 132.403 0.000801776
1235 90002 130.608 -2.41786e-05
1236 90002 130.594 -0.000336769
1237 90002 128.737 -0.00176158
1238 90002 128.627 -0.000517198
1239 90002 126.811 0.00628782
1240 90002 126.894 0.00414905
1241 90002 132.155 -7.81835e-05
1242 90002 132.092 0.00064703
1243 90002 130.41 0.000694256
1244 90002 130.385 0.000337628
1245 90002 128.681 1.72857e-05
1246 90002 128.71 0.00128668
1247 90002 127.031 0.015073
1248 90002 126.964 0.0110822
1249 90002 132.299 0.00115735
1250 90002 132.326 0.000171399
1251 90002 130.564 -0.000220776
1252 90002 130.471 0.00038344
1253 90002 128.834 0.00117552
1254 90002 128.512 -0.00201462
1255 90002 126.768 0.0154725
1256 90002 126.978 0.0136935
1257 90002 132.424 0.00166271
1258 90002 132.411 0.00157119
1259 90002 130.541 -0.00117128
1260 90002 130.525 0.00156252
1261 90002 128.579 -0.000727962
1262 90002 128.546 0.00211554
1263 90002 126.886 0.0198814
1264 90002 126.79 0.0112004
1265 90002 132.23 0.000255254
1266 90002 132.352 0.000258654
1267 90002 130.643 0.000432647
1268 90002 130.553 0.000682827
1269 90002 128.746 0.000732105
1270 90002 128.826 -0.00180333
1271 90002 126.975 -0.0115131
1272 90002 126.864 0.0249496
1273 90002 132.459 -0.0011826
1274 90002 132.252 0.00114701
1275 90002 130.403 0.00125391
1276 90002 130.523 0.000402037
1277 90002 128.667 -0.00312091
1278 90002 128.789 -0.000213406
1279 90002 127.063 -0.0191269
1280 90002 127.061 -0.00293786
1281 90002 132.256 -0.00048371
1282 90002 132.261 -0.000857355
1283 90002 130.512 -0.00227512
1284 90002 130.582 0.000374051
1285 90002 128.741 -0.0016646
1286 90002 128.775 0.000456911
1287 90002 126.774 0.00759602
1288 90002 126.886 -0.0225602
1289 90002 132.204 -0.000364817
1290 90002 132.383 -0.000694179
1291 90002 130.577 -0.000478789
1292 90002 130.556 -0.00046102
1293 90002 128.703 0.00193719
1294 90002 128.751 -0.000490605
1295 90002 126.91 0.0053879
1296 90002 126.976 0.00417955
1297 90002 132.288 -6.86308e-05
1298 90002 132.246 -0.000451508
1299 90002 130.569 -0.00205466
1300 90002 130.717 -0.000880388
1301 90002 128.799 -0.000582756
1302 90002 128.892 -0.000666932
1303 90002 127.033 0.0146398
1304 90002 126.985 8.44737e-05
1305 90002 132.304 0.000377491
1306 90002 132.146 0.00129655
1307 90002 130.531 0.00194317
1308 90002 130.567 0.000308501
1309 90002 128.648 0.000405996
1310 90002 128.773 0.00450261
1311 90002 126.868 0.0341494
1312 90002 127.039 0.0540666
1313 90002 132.395 0.000548262
1314 90002 132.379 0.00102565
1315 90002 130.495 -0.00056785
1316 90002 130.543 -0.00118612
1317 90002 128.68 -0.00139232
1318 90002 128.713 -0.00106192
1319 90002 126.913 0.0214128
1320 90002 127.022 0.0134577
1321 90002 132.179 -0.000287992
1322 90002 132.109 -0.000570877
1323 90002 130.433 -0.000657548
1324 90002 130.554 -0.000999515
1325 90002 128.782 -0.0004791
1326 90002 128.674 0.00246661
1327 90002 126.923 0.0207347
1328 90002 126.887 0.0166139
1329 90002 132.371 0.00067285
1330 90002 132.303 -0.00139668
1331 90002 130.381 0.00213058
1332 90002 130.355 0.00091633
1333 90002 128.524 -0.000571593
1334 90002 128.539 -0.00170246
1335 90002 126.627 0.0118264
1336 90002 127.019 -0.0054397
1337 90002 132.315 0.000871554
1338 90002 132.183 4.36405e-05
1339 90002 130.517 0.00177464
1340 90002 130.494 0.000887091
1341 90002 128.647 -0.00142735
1342 90002 128.821 -0.000531066
1343 90002 126.866 0.0245548
1344 90002 126.811 0.00142353
1345 90002 132.434 0.00123919
1346 90002 132.285 0.00114853
1347 90002 130.636 -0.000646927
1348 90002 130.476 -0.00116176
1349 90002 128.754 0.00105515
1350 90002 128.76 0.000391909
1351 90002 127.024 0.00602576
1352 90002 126.959 0.00121251
1353 90002 132.454 0.00172096
1354 90002 132.382 0.00154067
1355 90002 130.647 0.00079604
1356 90002 130.612 -0.00128415
1357 90002 128.746 0.000903332
1358 90002 128.742 0.000428397
1359 90002 126.954 -0.020019
1360 90002 126.831 0.000246926
1361 90002 132.412 0.000654465
1362 90002 132.396 0.00147158
1363 90002 130.501 -0.000614687
1364 90002 130.508 -0.00141712
1365 90002 128.745 -1.64429e-05
1366 90002 128.737 0.000149554
1367 90002 126.946 0.00486629
1368 90002 126.875 -0.00377334
1369 90002 132.415 0.000484504
1370 90002 132.274 0.000199899
1371 90002 130.581 -0.000671407
1372 90002 130.653 -0.000999567
1373 90002 128.775 0.00142904
1374 90002 128.745 0.00427303
1375 90002 127.145 0.0249173
1376 90002 126.963 0.0320992
1377 90002 132.222 0.000242405
1378 90002 132.474 0.00124765
1379 90002 130.617 -0.00160354
1380 90002 130.622 -0.000919752
1381 90002 128.944 0.000968552
1382 90002 128.774 0.00233504
1383 90002 126.82 0.0381605
1384 90002 126.945 0.0508019
1385 90002 132.439 0.00174524
1386 90002 132.328 0.000820341
1387 90002 130.664 -0.00167789
1388 90002 130.732 -0.000113195
1389 90002 128.934 -0.000182682
1390 90002 128.85 -0.00133012
1391 90002 127.043 0.0284632
1392 90002 126.946 0.0167073
1393 90002 132.284 0.00137716
1394 90002 132.226 -0.00135008
1395 90002 130.606 -0.00115499
1396 90002 130.606 -0.00135867
1397 90002 128.765 -0.00192943
1398 90002 128.834 -0.00824914
1399 90002 126.92 -0.00433726
1400 90002 127.154 0.0242851
1401 90002 132.16 0.00173707
1402 90002 132.288 0.000157827
1403 90002 130.411 0.000369273
1404 90002 130.574 -0.000191539
1405 90002 128.777 0.000745292
1406 90002 128.619 -0.00082855
1407 90002 127.097 -0.00519335
1408 90002 126.909 -0.0134084
1409 90002 132.184 -7.54338e-05
1410 90002 132.281 0.000124043
1411 90002 130.52 0.000993509
1412 90002 130.559 0.000156981
1413 90002 128.734 -0.0030205
1414 90002 128.64 -0.0016702
1415 90002 126.945 -0.0312595
1416 90002 126.845 -0.0238154
1417 90002 132.247 -4.39304e-05
1418 90002 132.333 0.000474636
1419 90002 130.519 -6.84665e-05
1420 90002 130.55 0.00076137
1421 90002 128.701 -0.00121703
1422 90002 128.691 0.000867217
1423 90002 126.965 -0.0187729
1424 90002 126.882 -0.00852633
1425 90002 132.228 -0.00026657
1426 90002 132.229 -0.00192088
1427 90002 130.472 0.00120519
1428 90002 130.318 -7.35527e-05
1429 90002 128.639 0.000513363
1430 90002 128.672 0.000696827
1431 90002 126.842 0.0021054
1432 90002 126.747 0.000407487
1433 90002 132.273 0.000565571
1434 90002 132.327 0.000506267
1435 90002 130.396 1.51657e-05
1436 90002 130.455 0.000461386
1437 90002 128.631 0.000144763
1438 90002 128.688 -0.00223857
1439 90002 126.873 -0.0338009
1440 90002 126.903 -0.0145964
1441 90002 132.544 0.00154492
1442 90002 132.37 -0.00124992
1443 90002 130.595 -0.000946124
1444 90002 130.48 0.000138833
1445 90002 128.751 0.000595679
1446 90002 128.864 0.00070541
1447 90002 126.935 0.0141497
1448 90002 126.896 0.000697797
1449 90002 132.242 5.70174e-05
1450 90002 132.285 -0.000788978
1451 90002 130.439 -0.000925188
1452 90002 130.525 -0.000170751
1453 90002 128.834 0.00162776
1454 90002 128.76 0.000420975
1455 90002 127.025 0.0333669
1456 90002 126.973 0.0206212
1457 90002 132.343 0.0019468
1458 90002 132.262 0.000951871
1459 90002 130.642 -0.00099693
1460 90002 130.495 -0.000694455
1461 90002 128.668 0.00053416
1462 90002 128.63 0.00157626
1463 90002 126.992 0.0211526
1464 90002 126.875 0.00815655
1465 90002 132.416 -3.85711e-05
1466 90002 132.338 0.000104693
1467 90002 130.519 -0.000703131
1468 90002 130.495 -0.00152918
1469 90002 128.764 -0.000447735
1470 90002 128.742 0.000891455
1471 90002 126.996 0.00642316
1472 90002 126.929 0.0081737
1473 90002 132.373 -0.000535462
1474 90002 132.439 9.38198e-05
1475 90002 130.612 0.000740754
1476 90002 130.466 -0.00064636
1477 90002 128.812 0.00100486
1478 90002 128.724 -0.000689685
1479 90002 127.051 0.0236822
1480 90002 126.989 -0.00473302
1481 90002 132.302 -0.000526991
1482 90002 132.35 0.00101129
1483 90002 130.585 0.000428649
1484 90002 130.589 -0.00103703
1485 90002 128.734 -0.00208244
1486 90002 128.763 -0.000249295
1487 90002 126.911 0.0310942
1488 90002 126.809 0.00597079
1489 90002 132.367 0.000471799
1490 90002 132.341 -0.00153764
1491 90002 130.51 0.00110078
1492 90002 130.527 0.000225357
1493 90002 128.597 0.00357731
1494 90002 128.835 0.00492722
1495 90002 126.884 -0.0103191
1496 90002 127.006 0.0436426
1497 90002 132.388 0.00137921
1498 90002 132.384 0.000862241
1499 90002 130.459 -0.00024892
1500 90002 130.51 0.000623933
1501 90002 128.625 0.000752281
1502 90002 128.63 -0.000243034
1503 90002 126.814 0.00493671
1504 90002 126.993 0.00321017
1505 90002 132.221 -0.00135566
1506 90002 132.447 0.00101527
1507 90002 130.435 0.000793244
1508 90002 130.544 0.000903711
1509 90002 128.609 0.000996611
1510 90002 128.673 -0.00207106
1511 90002 126.861 0.0027583
1512 90002 126.847 -0.0125265
1513 90002 132.41 0.000670393
1514 90002 132.448 0.00141181
1515 90002 130.543 0.00103407
1516 90002 130.663 -0.00128745
1517 90002 128.694 -0.00141019
1518 90002 128.667 0.00106825
1519 90002 126.902 -0.000868122
1520 90002 126.902 -0.0038712
1521 90002 132.318 -0.000693694
1522 90002 132.37 0.000903625
1523 90002 130.606 -0.000100341
1524 90002 130.582 -0.00134779
1525 90002 128.813 0.00120407
1526 90002 128.797 0.000221309
1527 90002 126.967 0.000857318
1528 90002 127.016 0.0137898
1529 90002 132.376 -0.00147402
1530 90002 132.356 -0.00021241
1531 90002 130.557 -0.0002239
1532 90002 130.626 0.00101913
1533 90002 128.828 -0.000528632
1534 90002 128.927 0.000714202
1535 90002 127.027 -0.00114014
1536 90002 126.956 0.0019663
1537 90002 132.366 0.000615519
1538 90002 132.263 0.000740155
1539 90002 130.61 -0.000631731
1540 90002 130.572 -0.00188051
1541 90002 128.766 0.00029429
1542 90002 128.792 0.000290022
1543 90002 126.996 0.00827259
1544 90002 127.056 -0.00348373
1545 90002 132.39 -0.00119884
1546 90002 132.303 0.000459654
1547 90002 130.431 -0.000257886
1548 90002 130.62 -0.000780455
1549 90002 128.763 -0.000315896
1550 90002 128.834 -0.00222393
1551 90002 127.091 0.000158883
1552 90002 126.91 -0.00931328
1553 90002 132.277 0.000932492
1554 90002 132.316 0.00168367
1555 90002 130.577 -3.49787e-05
1556 90002 130.449 0.00154186
1557 90002 128.695 -0.0012767
1558 90002 128.746 -0.000693269
1559 90002 126.846 -0.0192574
1560 90002 126.895 -0.00102677
1561 90002 132.294 0.000775236
1562 90002 132.435 0.000208497
1563 90002 130.603 -0.00167846
1564 90002 130.561 0.00132929
1565 90002 128.551 -0.000632366
1566 90002 128.75 -8.47208e-05
1567 90002 126.864 0.00985743
1568 90002 126.899 -0.0197446
1569 90002 132.408 -0.000821109
1570 90002 132.242 -2.96999e-05
1571 90002 130.542 0.000224859
1572 90002 130.575 -0.00144114
1573 90002 128.752 0.00174694
1574 90002 128.831 0.000640015
1575 90002 127.114 0.0308909
1576 90002 126.89 0.0504362
1577 90002 132.324 -0.000396933
1578 90002 132.408 0.000580954
1579 90002 130.63 0.00154714
1580 90002 130.632 8.09626e-05
1581 90002 128.646 -0.00346848
1582 90002 128.804 -0.00239511
1583 90002 126.862 -0.0478672
1584 90002 126.932 -0.0322677
1585 90002 132.493 0.000558377
1586 90002 132.377 0.00042073
1587 90002 130.615 0.0011366
1588 90002 130.599 0.00024159
1589 90002 128.76 0.000854243
1590 90002 128.756 -0.00119587
1591 90002 126.963 -0.0110491
1592 90002 126.863 -0.0160644
1593 90002 132.404 -3.92886e-05
1594 90002 132.411 2.5763e-05
1595 90002 130.582 -0.00108958
1596 90002 130.532 0.000200155
1597 90002 128.805 0.000136491
1598 90002 128.656 -0.00045232
1599 90002 126.95 -0.0024381
1600 90002 126.897 -0.00870168
