ITEM: TIMESTEP
0
ITEM: NUMBER OF ATOMS
240
ITEM: BOX BOUNDS pp pp ff
0.0000000000000000e+00 1.7650658050000001e+01
0.0000000000000000e+00 2.0381224350000000e+01
0.0000000000000000e+00 6.0000000000000000e+01
ITEM: ATOMS id type q
1 1 -0.0192020894247
2 1 -0.0192020871412
3 1 -0.0192020838984
4 1 -0.0192020856413
5 1 -0.0192020894335
6 1 -0.0192020871452
7 1 -0.0192020838954
8 1 -0.0192020856329
9 1 -0.0192020894274
10 1 -0.0192020871453
11 1 -0.0192020839012
12 1 -0.0192020856454
13 1 -0.0192020894363
14 1 -0.0192020871493
15 1 -0.0192020838981
16 1 -0.019202085637
17 1 -0.019202089432
18 1 -0.0192020871489
19 1 -0.0192020839057
20 1 -0.019202085649
21 1 -0.0192020894408
22 1 -0.0192020871529
23 1 -0.0192020839026
24 1 -0.0192020856406
25 1 -0.0192020894333
26 1 -0.0192020871475
27 1 -0.019202083907
28 1 -0.0192020856476
29 1 -0.0192020894421
30 1 -0.0192020871515
31 1 -0.019202083904
32 1 -0.0192020856392
33 1 -0.0192020894297
34 1 -0.019202087143
35 1 -0.0192020839035
36 1 -0.0192020856431
37 1 -0.0192020894386
38 1 -0.019202087147
39 1 -0.0192020839004
40 1 -0.0192020856347
41 1 -0.0192020894256
42 1 -0.0192020871402
43 1 -0.0192020838994
44 1 -0.0192020856404
45 1 -0.0192020894345
46 1 -0.0192020871442
47 1 -0.0192020838963
48 1 -0.0192020856319
49 1 -0.00516802179665
50 1 -0.00516801751755
51 1 -0.0051680165105
52 1 -0.00516802078402
53 1 -0.00516802180184
54 1 -0.00516801751858
55 1 -0.00516801650679
56 1 -0.00516802077769
57 1 -0.00516802179939
58 1 -0.00516801752062
59 1 -0.00516801651324
60 1 -0.0051680207871
61 1 -0.00516802180458
62 1 -0.00516801752166
63 1 -0.00516801650954
64 1 -0.00516802078076
65 1 -0.00516802180185
66 1 -0.00516801752156
67 1 -0.0051680165157
68 1 -0.00516802078804
69 1 -0.00516802180703
70 1 -0.0051680175226
71 1 -0.00516801651199
72 1 -0.00516802078171
73 1 -0.0051680218009
74 1 -0.00516801751911
75 1 -0.00516801651475
76 1 -0.00516802078559
77 1 -0.00516802180609
78 1 -0.00516801752015
79 1 -0.00516801651105
80 1 -0.00516802077925
81 1 -0.00516802179783
82 1 -0.00516801751637
83 1 -0.00516801651168
84 1 -0.00516802078284
85 1 -0.00516802180302
86 1 -0.0051680175174
87 1 -0.00516801650798
88 1 -0.00516802077651
89 1 -0.00516802179607
90 1 -0.00516801751578
91 1 -0.00516801650991
92 1 -0.00516802078226
93 1 -0.00516802180125
94 1 -0.00516801751682
95 1 -0.00516801650621
96 1 -0.00516802077592
97 1 3.2810686044e-06
98 1 3.28131568626e-06
99 1 3.28106691272e-06
100 1 3.28081920972e-06
101 1 3.28106815592e-06
102 1 3.28131668202e-06
103 1 3.28106876608e-06
104 1 3.28082078119e-06
105 1 3.28106860419e-06
106 1 3.28131568576e-06
107 1 3.28106691251e-06
108 1 3.28081920923e-06
109 1 3.28106815571e-06
110 1 3.28131668152e-06
111 1 3.28106876587e-06
112 1 3.28082078069e-06
113 1 3.28106860392e-06
114 1 3.28131568602e-06
115 1 3.28106691225e-06
116 1 3.28081920949e-06
117 1 3.28106815544e-06
118 1 3.28131668177e-06
119 1 3.28106876561e-06
120 1 3.28082078096e-06
121 1 3.28106860443e-06
122 1 3.28131568624e-06
123 1 3.28106691275e-06
124 1 3.2808192097e-06
125 1 3.28106815594e-06
126 1 3.28131668198e-06
127 1 3.2810687661e-06
128 1 3.28082078117e-06
129 1 3.28106860419e-06
130 1 3.28131568586e-06
131 1 3.28106691251e-06
132 1 3.28081920933e-06
133 1 3.2810681557e-06
134 1 3.28131668161e-06
135 1 3.28106876586e-06
136 1 3.28082078079e-06
137 1 3.28106860402e-06
138 1 3.28131568603e-06
139 1 3.28106691235e-06
140 1 3.28081920949e-06
141 1 3.28106815554e-06
142 1 3.28131668178e-06
143 1 3.2810687657e-06
144 1 3.28082078096e-06
145 1 0.00518106246093
146 1 0.00518106143943
147 1 0.00518105719458
148 1 0.00518105821165
149 1 0.00518106246365
150 1 0.00518106144085
151 1 0.00518105719366
152 1 0.005181058209
153 1 0.00518106246338
154 1 0.00518106144036
155 1 0.00518105719702
156 1 0.00518105821258
157 1 0.00518106246609
158 1 0.00518106144178
159 1 0.0051810571961
160 1 0.00518105820993
161 1 0.00518106246244
162 1 0.00518106143792
163 1 0.00518105719609
164 1 0.00518105821014
165 1 0.00518106246515
166 1 0.00518106143934
167 1 0.00518105719517
168 1 0.00518105820749
169 1 0.00518106245937
170 1 0.00518106143518
171 1 0.00518105719302
172 1 0.0051810582074
173 1 0.00518106246209
174 1 0.0051810614366
175 1 0.0051810571921
176 1 0.00518105820475
177 1 0.00518106245761
178 1 0.0051810614346
179 1 0.00518105719125
180 1 0.00518105820682
181 1 0.00518106246032
182 1 0.00518106143602
183 1 0.00518105719033
184 1 0.00518105820416
185 1 0.00518106245819
186 1 0.00518106143636
187 1 0.00518105719184
188 1 0.00518105820858
189 1 0.00518106246091
190 1 0.00518106143778
191 1 0.00518105719092
192 1 0.00518105820593
193 1 0.0191857677006
194 1 0.0191857639047
195 1 0.0191857621612
196 1 0.0191857654105
197 1 0.0191857677042
198 1 0.0191857639054
199 1 0.0191857621583
200 1 0.0191857654059
201 1 0.019185767702
202 1 0.0191857639033
203 1 0.0191857621626
204 1 0.0191857654091
205 1 0.0191857677056
206 1 0.019185763904
207 1 0.0191857621597
208 1 0.0191857654045
209 1 0.0191857676984
210 1 0.0191857638988
211 1 0.019185762159
212 1 0.0191857654045
213 1 0.019185767702
214 1 0.0191857638994
215 1 0.0191857621561
216 1 0.0191857654
217 1 0.0191857676942
218 1 0.019185763896
219 1 0.0191857621549
220 1 0.0191857654018
221 1 0.0191857676979
222 1 0.0191857638967
223 1 0.019185762152
224 1 0.0191857653972
225 1 0.0191857676933
226 1 0.019185763897
227 1 0.019185762154
228 1 0.0191857654027
229 1 0.0191857676969
230 1 0.0191857638976
231 1 0.019185762151
232 1 0.0191857653982
233 1 0.019185767696
234 1 0.0191857639011
235 1 0.0191857621567
236 1 0.0191857654069
237 1 0.0191857676997
238 1 0.0191857639018
239 1 0.0191857621538
240 1 0.0191857654023
