ITEM: TIMESTEP
0
ITEM: NUMBER OF ATOMS
3000
ITEM: BOX BOUNDS pp pp pp
0.0000000000000000e+00 3.1043045599999999e+01
0.0000000000000000e+00 3.1043045599999999e+01
0.0000000000000000e+00 3.1043045599999999e+01
ITEM: ATOMS id type q
1 1 -0.752752553184503
2 2 0.371826949474007
3 2 0.415777917468328
4 1 -0.72571108183846
5 2 0.309501975146896
6 2 0.340142428337209
7 1 -0.754096121716142
8 2 0.40004471148651
9 2 0.379759107067807
10 1 -0.741448685633811
11 2 0.358681777706626
12 2 0.361932136668391
13 1 -0.718236022706297
14 2 0.332165257136175
15 2 0.366431641720577
16 1 -0.729489863072423
17 2 0.384041495762577
18 2 0.381317423574421
19 1 -0.732832592212181
20 2 0.38313999578019
21 2 0.369575606487261
22 1 -0.730557026176325
23 2 0.338022171403571
24 2 0.315721327298529
25 1 -0.688274326505705
26 2 0.376634631364432
27 2 0.390807887056752
28 1 -0.655527789092961
29 2 0.380354862440185
30 2 0.373135964384272
31 1 -0.707016486064977
32 2 0.372249340248679
33 2 0.363536490853643
34 1 -0.691030311751091
35 2 0.348457508479849
36 2 0.322119670346807
37 1 -0.682933697757193
38 2 0.404089760334899
39 2 0.358613626823342
40 1 -0.692988509550749
41 2 0.345969894804737
42 2 0.346251514926045
43 1 -0.768956873784014
44 2 0.351708470718862
45 2 0.36392178881928
46 1 -0.715937120174008
47 2 0.379493100567647
48 2 0.318782096689691
49 1 -0.73440757882342
50 2 0.376806548482271
51 2 0.364263015266338
52 1 -0.753993354813046
53 2 0.369213792030006
54 2 0.396773961907048
55 1 -0.694270976550138
56 2 0.354609348609162
57 2 0.371359189334837
58 1 -0.699090833981693
59 2 0.350812155574656
60 2 0.364389239615697
61 1 -0.719154885927039
62 2 0.390220797557834
63 2 0.371425040183543
64 1 -0.710315185245151
65 2 0.360831126488338
66 2 0.384109099099153
67 1 -0.757218925403188
68 2 0.373694589860479
69 2 0.354372424186106
70 1 -0.719091642508232
71 2 0.377230277561332
72 2 0.370270679972993
73 1 -0.756948986980804
74 2 0.407323600803348
75 2 0.38204418368099
76 1 -0.744462772479236
77 2 0.410614502839895
78 2 0.368621795100713
79 1 -0.704729985997996
80 2 0.328296005217987
81 2 0.346438442668295
82 1 -0.776711081593813
83 2 0.374361463157117
84 2 0.348975299178511
85 1 -0.721761724985396
86 2 0.378283533916887
87 2 0.383265148982493
88 1 -0.739744268594459
89 2 0.38746245081287
90 2 0.388349509262769
91 1 -0.691769173910562
92 2 0.381323915207563
93 2 0.379762873724864
94 1 -0.732152905695979
95 2 0.35587311144177
96 2 0.365253077112603
97 1 -0.750715888900446
98 2 0.39763037430369
99 2 0.364738292501327
100 1 -0.719171255675095
101 2 0.366424942130347
102 2 0.364924406031668
103 1 -0.754565561880843
104 2 0.35380122292241
105 2 0.380220783578095
106 1 -0.704868195653715
107 2 0.349711494100659
108 2 0.361684708107957
109 1 -0.759773200335594
110 2 0.354789126053531
111 2 0.348658704473699
112 1 -0.736109489866686
113 2 0.349319306069375
114 2 0.358286425078011
115 1 -0.7496568092829
116 2 0.341959833222152
117 2 0.394559167115973
118 1 -0.719729378306894
119 2 0.37458573512282
120 2 0.351545359913705
121 1 -0.720507743426364
122 2 0.368194094099666
123 2 0.335696917360376
124 1 -0.728092687785043
125 2 0.3788627860908
126 2 0.374221389472878
127 1 -0.715781566069804
128 2 0.364939799708785
129 2 0.35259158109332
130 1 -0.709351733861552
131 2 0.372445903658566
132 2 0.337499322531092
133 1 -0.730769099157869
134 2 0.390477960040281
135 2 0.390200042552969
136 1 -0.71055426455884
137 2 0.360109145260507
138 2 0.377478613562791
139 1 -0.771733602290628
140 2 0.346132919680339
141 2 0.328191834810178
142 1 -0.741590988391415
143 2 0.365071177099554
144 2 0.362430025187982
145 1 -0.724566382974488
146 2 0.369599916619515
147 2 0.37708605855533
148 1 -0.635239037046807
149 2 0.39863784870265
150 2 0.402681404973503
151 1 -0.729110770123551
152 2 0.339928923336346
153 2 0.372377757715275
154 1 -0.718450451273965
155 2 0.363109373705724
156 2 0.378149161095569
157 1 -0.718529446682014
158 2 0.362125988770239
159 2 0.386498318256203
160 1 -0.730330171415423
161 2 0.371996432905453
162 2 0.367960123277094
163 1 -0.742781301877398
164 2 0.377926224876886
165 2 0.373013965981378
166 1 -0.777986615604954
167 2 0.359398298212276
168 2 0.397781282162804
169 1 -0.774631648509963
170 2 0.388827896255338
171 2 0.354555730466505
172 1 -0.718749744619955
173 2 0.305622032800283
174 2 0.345968613124304
175 1 -0.712564861100626
176 2 0.395348223458654
177 2 0.384209815820233
178 1 -0.679845942619219
179 2 0.369833853623947
180 2 0.366297141111794
181 1 -0.747306251252168
182 2 0.370364233728667
183 2 0.348288756323573
184 1 -0.726098416673693
185 2 0.340465205555184
186 2 0.371060710375777
187 1 -0.778136208743773
188 2 0.381159534101998
189 2 0.364963834120661
190 1 -0.76440342020761
191 2 0.364267254307289
192 2 0.378636078075528
193 1 -0.712870353494318
194 2 0.341399664060723
195 2 0.381912838723817
196 1 -0.745486965420285
197 2 0.393530372102488
198 2 0.404164617556447
199 1 -0.672593249111045
200 2 0.354983576179469
201 2 0.385051906772775
202 1 -0.69246598325916
203 2 0.364073173261738
204 2 0.360418416432733
205 1 -0.731862704209315
206 2 0.338296278804762
207 2 0.353222873632481
208 1 -0.729346727031206
209 2 0.378902130700974
210 2 0.362266604851221
211 1 -0.692062274052115
212 2 0.375075070227972
213 2 0.353314931986108
214 1 -0.738196327375523
215 2 0.364618107136697
216 2 0.374073027716687
217 1 -0.707026651746495
218 2 0.394898645119048
219 2 0.376230554127556
220 1 -0.73383260563208
221 2 0.312241760864214
222 2 0.327787339378833
223 1 -0.704328567370587
224 2 0.350804802866707
225 2 0.359005329072993
226 1 -0.747220333893298
227 2 0.380689548286549
228 2 0.402635377322629
229 1 -0.731421321910455
230 2 0.371054186481834
231 2 0.379911934869369
232 1 -0.719354181086709
233 2 0.342268660912977
234 2 0.378253574624331
235 1 -0.691851279001271
236 2 0.339920720460743
237 2 0.361178310536672
238 1 -0.725265609745412
239 2 0.319188368450998
240 2 0.334851804674127
241 1 -0.735498837847115
242 2 0.369858871709468
243 2 0.369438689746595
244 1 -0.695217450001755
245 2 0.327292691743275
246 2 0.382235490367351
247 1 -0.707641365750439
248 2 0.33978265867334
249 2 0.367912104268937
250 1 -0.739313147643933
251 2 0.37998344687426
252 2 0.387012349503906
253 1 -0.730645821885619
254 2 0.354009878433172
255 2 0.399451751225187
256 1 -0.755288416142276
257 2 0.398624618272423
258 2 0.36302763197151
259 1 -0.739076795620162
260 2 0.352287421384843
261 2 0.331237176069534
262 1 -0.728232941784962
263 2 0.364384140746907
264 2 0.365643844028375
265 1 -0.727925049567545
266 2 0.339989982951369
267 2 0.364719394097751
268 1 -0.763342049478747
269 2 0.388508093705231
270 2 0.409324710215157
271 1 -0.732850640395013
272 2 0.356971652687489
273 2 0.366159401431062
274 1 -0.735678572914224
275 2 0.383899216124124
276 2 0.357928851803359
277 1 -0.747061941037796
278 2 0.404896897423261
279 2 0.39636520523379
280 1 -0.767432283080012
281 2 0.358424370672233
282 2 0.383603296159786
283 1 -0.756727611348405
284 2 0.355712146602581
285 2 0.345739290472717
286 1 -0.761653631534838
287 2 0.350393441162241
288 2 0.369699787824327
289 1 -0.688899368198252
290 2 0.370437785054692
291 2 0.35750873181088
292 1 -0.769308824691632
293 2 0.377409106250105
294 2 0.376771766334753
295 1 -0.758676672896111
296 2 0.383908211625199
297 2 0.38050477906115
298 1 -0.726266219483365
299 2 0.371128970634571
300 2 0.392789514530527
301 1 -0.784324513615426
302 2 0.369221014857587
303 2 0.386082336956473
304 1 -0.74899840815115
305 2 0.3749377399217
306 2 0.391160018600117
307 1 -0.753133625219291
308 2 0.380535174602723
309 2 0.371769791295653
310 1 -0.742975604562608
311 2 0.396810998391745
312 2 0.362968274647408
313 1 -0.72860996033873
314 2 0.357086805695053
315 2 0.391826856413252
316 1 -0.748155232692967
317 2 0.376609497408827
318 2 0.364605615567883
319 1 -0.752891699301489
320 2 0.341475615372703
321 2 0.388396986242819
322 1 -0.715221186370793
323 2 0.371958086788274
324 2 0.378039682232957
325 1 -0.720326079350784
326 2 0.358324023925282
327 2 0.387589860213222
328 1 -0.682850782141298
329 2 0.382460068200854
330 2 0.381129142677475
331 1 -0.734191960941649
332 2 0.348345077646272
333 2 0.325947269469741
334 1 -0.691940449802345
335 2 0.384367341709047
336 2 0.377493924217888
337 1 -0.732770612396251
338 2 0.345535540515969
339 2 0.332128000215734
340 1 -0.755184380660256
341 2 0.337354820003163
342 2 0.368694936822548
343 1 -0.670595304610999
344 2 0.327093595076512
345 2 0.335469734993084
346 1 -0.733919709034949
347 2 0.388318499464696
348 2 0.35848924371998
349 1 -0.724383189707424
350 2 0.399696934586963
351 2 0.354761484906856
352 1 -0.68879104537336
353 2 0.357762307982083
354 2 0.359163267992541
355 1 -0.740874486255718
356 2 0.343863542561281
357 2 0.400031730310456
358 1 -0.747657692444165
359 2 0.333701451761937
360 2 0.365669263482137
361 1 -0.720206080045196
362 2 0.351388165976795
363 2 0.377109618553868
364 1 -0.702915435499413
365 2 0.358476221932267
366 2 0.336628570635472
367 1 -0.727103241543722
368 2 0.373849701950816
369 2 0.377011977557786
370 1 -0.77486298415979
371 2 0.361169808453333
372 2 0.382677488580064
373 1 -0.730214250434761
374 2 0.371006001682651
375 2 0.359855650976938
376 1 -0.717087129870377
377 2 0.37212229160071
378 2 0.359538134200649
379 1 -0.753077062576289
380 2 0.382890892711877
381 2 0.370935765040847
382 1 -0.755274034697897
383 2 0.368158872716616
384 2 0.356513375479501
385 1 -0.712796912754308
386 2 0.360215785428095
387 2 0.33951404243877
388 1 -0.755108746051827
389 2 0.388634314868817
390 2 0.406555516002731
391 1 -0.719033575095748
392 2 0.343696320150886
393 2 0.35197478432729
394 1 -0.747228359107519
395 2 0.371940034848303
396 2 0.412759537042798
397 1 -0.702035215399476
398 2 0.320045745079254
399 2 0.385291064240598
400 1 -0.744150996258578
401 2 0.363966415862255
402 2 0.354346298980244
403 1 -0.745163009176374
404 2 0.383014422801335
405 2 0.400577333048649
406 1 -0.724898273979322
407 2 0.357373472624122
408 2 0.3361514912509
409 1 -0.737798375277343
410 2 0.371040786638649
411 2 0.365269239736436
412 1 -0.72247911606966
413 2 0.381947134474112
414 2 0.350261252919014
415 1 -0.742729971838562
416 2 0.408972586042546
417 2 0.373822397363759
418 1 -0.703999765841683
419 2 0.411553104265914
420 2 0.383689451932653
421 1 -0.673187343575328
422 2 0.39557144801887
423 2 0.324093107997412
424 1 -0.7292934061535
425 2 0.377339425080626
426 2 0.415075199054652
427 1 -0.72658856159515
428 2 0.349909185621706
429 2 0.373690280074136
430 1 -0.65456602906362
431 2 0.364896131089799
432 2 0.353218143791396
433 1 -0.744966729043206
434 2 0.360604230353368
435 2 0.379312175264048
436 1 -0.696289261316585
437 2 0.380697847128944
438 2 0.362628026770644
439 1 -0.735826241862732
440 2 0.378568198648769
441 2 0.367148345339927
442 1 -0.751152067097769
443 2 0.343212307785029
444 2 0.338284620528951
445 1 -0.72055674635008
446 2 0.35165226399349
447 2 0.361917228841209
448 1 -0.703178819525767
449 2 0.352618370401176
450 2 0.363198841134775
451 1 -0.774790850656286
452 2 0.375109565903761
453 2 0.384643587396189
454 1 -0.747246233359773
455 2 0.389382965496656
456 2 0.401560783806869
457 1 -0.764994514369664
458 2 0.382122500269488
459 2 0.384167007308035
460 1 -0.733068049410597
461 2 0.377266095932024
462 2 0.343007334876913
463 1 -0.719284507444535
464 2 0.333459197836164
465 2 0.392817576030517
466 1 -0.714224962847721
467 2 0.362030166791425
468 2 0.374478240108753
469 1 -0.758313704032586
470 2 0.346063276899018
471 2 0.384866695174302
472 1 -0.722468694236224
473 2 0.355347474038999
474 2 0.359461573365835
475 1 -0.725248101743911
476 2 0.36931743969244
477 2 0.368389896767012
478 1 -0.771537302631281
479 2 0.351432537647074
480 2 0.370391977913744
481 1 -0.73686482250607
482 2 0.377325639971313
483 2 0.307176433802925
484 1 -0.724780535603737
485 2 0.389172306219194
486 2 0.34851992140847
487 1 -0.759626985439118
488 2 0.335133846574778
489 2 0.382426927101211
490 1 -0.689232265885238
491 2 0.368028480331569
492 2 0.321638213881261
493 1 -0.727533308769703
494 2 0.380748839112137
495 2 0.401807170443545
496 1 -0.757165060179173
497 2 0.374747040098253
498 2 0.305541489400669
499 1 -0.741920414270566
500 2 0.395632051105781
501 2 0.349012930006287
502 1 -0.735718620842583
503 2 0.358526764733373
504 2 0.329154420323881
505 1 -0.698601088487537
506 2 0.373363777513307
507 2 0.340738745770701
508 1 -0.725660960396735
509 2 0.352713187936516
510 2 0.388289352101664
511 1 -0.745123901294249
512 2 0.384124259752228
513 2 0.353313143749207
514 1 -0.750756047783961
515 2 0.370663183821347
516 2 0.363560230605061
517 1 -0.720669332044587
518 2 0.386595254046748
519 2 0.36530743045604
520 1 -0.719090660780482
521 2 0.393247727831985
522 2 0.373667321849257
523 1 -0.720800987058954
524 2 0.379251279451302
525 2 0.357678366577606
526 1 -0.716751434105284
527 2 0.376060858216356
528 2 0.371946010623573
529 1 -0.703752436366971
530 2 0.370729298390866
531 2 0.35122519514161
532 1 -0.705180687888478
533 2 0.391426985377757
534 2 0.356873888123942
535 1 -0.693512205435691
536 2 0.373148334159343
537 2 0.376179927344221
538 1 -0.687387831163156
539 2 0.397211153960446
540 2 0.388430271111354
541 1 -0.724037760334128
542 2 0.354296074892085
543 2 0.341323661083843
544 1 -0.750727175851413
545 2 0.379834093567991
546 2 0.393822783007882
547 1 -0.723121314287045
548 2 0.397425500177838
549 2 0.386181463126235
550 1 -0.742807528222175
551 2 0.315961176399809
552 2 0.311573406857225
553 1 -0.747828102332234
554 2 0.361776177285739
555 2 0.332486614970966
556 1 -0.711204170006305
557 2 0.372781395141007
558 2 0.34524186323032
559 1 -0.768027573921808
560 2 0.413276320741603
561 2 0.379470324663011
562 1 -0.694426989317707
563 2 0.353607824747446
564 2 0.386205394563168
565 1 -0.708895213516258
566 2 0.327544119277768
567 2 0.407146764061675
568 1 -0.717322980006571
569 2 0.387833644003118
570 2 0.377911128234027
571 1 -0.713419963202961
572 2 0.357239586213801
573 2 0.371545210853601
574 1 -0.735650343888708
575 2 0.338638831215921
576 2 0.322141531535694
577 1 -0.711275082623019
578 2 0.397138894557196
579 2 0.395473574061489
580 1 -0.712061203927737
581 2 0.374603609855192
582 2 0.368308487645571
583 1 -0.738129753648218
584 2 0.339975445767641
585 2 0.370965700346009
586 1 -0.68760482521125
587 2 0.321228537392917
588 2 0.363827778189845
589 1 -0.730556756345813
590 2 0.340997237403793
591 2 0.396405801473402
592 1 -0.745583813859
593 2 0.368216418721108
594 2 0.341306902291134
595 1 -0.756825003512712
596 2 0.400078913571158
597 2 0.368388590931153
598 1 -0.745482484884057
599 2 0.386563095704709
600 2 0.376167425800282
601 1 -0.73361813299129
602 2 0.367050341580176
603 2 0.352431395632167
604 1 -0.732341112976391
605 2 0.360691108610411
606 2 0.363850972781253
607 1 -0.678703983106815
608 2 0.366752405441655
609 2 0.337263328525148
610 1 -0.756701327066105
611 2 0.38633239308118
612 2 0.347383701060198
613 1 -0.729308172251668
614 2 0.374073830199954
615 2 0.385652818209963
616 1 -0.691743004474365
617 2 0.37623149876807
618 2 0.383714893644242
619 1 -0.718977414111267
620 2 0.40245954832506
621 2 0.348058688515989
622 1 -0.757502364297895
623 2 0.358809808586923
624 2 0.353876310371089
625 1 -0.680700650936198
626 2 0.396219667019433
627 2 0.386429121866855
628 1 -0.752003883135611
629 2 0.364301256194545
630 2 0.363089402291522
631 1 -0.734546029128735
632 2 0.363231882378813
633 2 0.375725490475932
634 1 -0.675635443533425
635 2 0.359614394993128
636 2 0.359462784068566
637 1 -0.750293467306876
638 2 0.375758110101673
639 2 0.347758038539513
640 1 -0.747735897640727
641 2 0.359671378394368
642 2 0.395428649685444
643 1 -0.737898926798656
644 2 0.364272958586517
645 2 0.360222102532656
646 1 -0.741440158070011
647 2 0.375674763127303
648 2 0.392871290951242
649 1 -0.734356234351573
650 2 0.382785786098589
651 2 0.392867962508001
652 1 -0.713262692015633
653 2 0.376004914782344
654 2 0.347696844643472
655 1 -0.739231473310395
656 2 0.392556950599394
657 2 0.37129399885459
658 1 -0.692231418353924
659 2 0.404320356204927
660 2 0.371789949726267
661 1 -0.743461644848256
662 2 0.370403032172194
663 2 0.38517445538796
664 1 -0.788415836901298
665 2 0.353058264514269
666 2 0.318109786516027
667 1 -0.732868233176458
668 2 0.390193837137189
669 2 0.352416337665999
670 1 -0.740021970894873
671 2 0.381698813779167
672 2 0.362101814353904
673 1 -0.723630312485988
674 2 0.355796940776795
675 2 0.378744770312897
676 1 -0.76505741173139
677 2 0.363962838979167
678 2 0.330449166451468
679 1 -0.738843317349887
680 2 0.402837404589818
681 2 0.364439199888579
682 1 -0.697466241186429
683 2 0.388511189133532
684 2 0.390989454970934
685 1 -0.761853208698767
686 2 0.37420947678223
687 2 0.38011177163626
688 1 -0.727553340618163
689 2 0.357668060154266
690 2 0.366933527383246
691 1 -0.716340744582488
692 2 0.373620157767447
693 2 0.373559040915456
694 1 -0.717062680107794
695 2 0.371246911209145
696 2 0.360549658049149
697 1 -0.673726711159618
698 2 0.384852696711878
699 2 0.391281393984277
700 1 -0.724284288691241
701 2 0.392224662549833
702 2 0.376514708977543
703 1 -0.736571586031025
704 2 0.343979247726265
705 2 0.384250236396845
706 1 -0.775774924305795
707 2 0.361971965866468
708 2 0.36488646391581
709 1 -0.753218332328613
710 2 0.382044299465296
711 2 0.395736377540881
712 1 -0.764095876514363
713 2 0.381007296869391
714 2 0.364047605373275
715 1 -0.729975680394363
716 2 0.356320885032466
717 2 0.383207263173575
718 1 -0.700074404789833
719 2 0.359736596177186
720 2 0.388834312236154
721 1 -0.750182767348584
722 2 0.385506113629788
723 2 0.343375942067555
724 1 -0.74511996331211
725 2 0.339145949396143
726 2 0.366860667722321
727 1 -0.757988978801181
728 2 0.325605720325302
729 2 0.372042248937482
730 1 -0.75440941683536
731 2 0.367115058569114
732 2 0.366082172974873
733 1 -0.729391618426717
734 2 0.378850861383318
735 2 0.347887421183878
736 1 -0.74994169880111
737 2 0.37155136509822
738 2 0.338814561363672
739 1 -0.753540937865547
740 2 0.378133650032127
741 2 0.374349533408075
742 1 -0.699110749260018
743 2 0.363212765571472
744 2 0.364931481328021
745 1 -0.749572241263846
746 2 0.334525752657518
747 2 0.338762056087476
748 1 -0.730185238359268
749 2 0.342573128071192
750 2 0.349179908236088
751 1 -0.742781759561745
752 2 0.37057924922793
753 2 0.383981493512888
754 1 -0.646827133287082
755 2 0.383397157216313
756 2 0.384100766635184
757 1 -0.736165040820222
758 2 0.383966463257741
759 2 0.396166711959661
760 1 -0.723838681089811
761 2 0.330074490232096
762 2 0.360256843229377
763 1 -0.727478845331391
764 2 0.370223492785786
765 2 0.362085001893159
766 1 -0.781914012054934
767 2 0.418032177306999
768 2 0.358894339128931
769 1 -0.721237079831272
770 2 0.305148386910418
771 2 0.372580740691088
772 1 -0.769984450212104
773 2 0.370125575915424
774 2 0.35871160525496
775 1 -0.718141864905654
776 2 0.336870798629416
777 2 0.365258328567231
778 1 -0.7353047837446
779 2 0.366307273673766
780 2 0.360945436881625
781 1 -0.710531493234799
782 2 0.380689989206997
783 2 0.338297840006792
784 1 -0.723028113520452
785 2 0.377193844794002
786 2 0.360279986633321
787 1 -0.716555276441078
788 2 0.365077763102217
789 2 0.32201391101314
790 1 -0.756395277119515
791 2 0.363783003982737
792 2 0.381621967485352
793 1 -0.714604778902787
794 2 0.34907207389212
795 2 0.385773423393584
796 1 -0.76356893095326
797 2 0.402974601097748
798 2 0.380610429327236
799 1 -0.760501930718261
800 2 0.35710101870268
801 2 0.393561229479185
802 1 -0.722405275326821
803 2 0.360607305654363
804 2 0.336954476570446
805 1 -0.702222024818151
806 2 0.360582810369172
807 2 0.35677665285612
808 1 -0.754272509283002
809 2 0.375792505445682
810 2 0.346224006641873
811 1 -0.695475558481816
812 2 0.365442564306096
813 2 0.373678297619427
814 1 -0.74049309780587
815 2 0.351023378703927
816 2 0.367744854043958
817 1 -0.711453849216399
818 2 0.38826301087052
819 2 0.361282567725822
820 1 -0.725536936120353
821 2 0.352095122850488
822 2 0.343200242697142
823 1 -0.735158995045676
824 2 0.357580050144189
825 2 0.34630806703716
826 1 -0.773272780236768
827 2 0.38533905099399
828 2 0.36959391401214
829 1 -0.734326125446657
830 2 0.359568578961771
831 2 0.329874257412613
832 1 -0.696733557381881
833 2 0.358839565876293
834 2 0.375299330831213
835 1 -0.739948868961403
836 2 0.379442634510173
837 2 0.371003460037854
838 1 -0.746610036603551
839 2 0.380275686783121
840 2 0.384777428982121
841 1 -0.741010392679108
842 2 0.341191632906166
843 2 0.371838804775237
844 1 -0.746469586579049
845 2 0.367598057206345
846 2 0.354445746527859
847 1 -0.746252555884769
848 2 0.353150156100848
849 2 0.325885726411621
850 1 -0.687148506461193
851 2 0.366129264460985
852 2 0.364519104619086
853 1 -0.735204272285797
854 2 0.364956356092385
855 2 0.337518980888279
856 1 -0.728004948352931
857 2 0.381242154007213
858 2 0.34450351249855
859 1 -0.750238633697961
860 2 0.397384459470217
861 2 0.406512125076442
862 1 -0.723128042928331
863 2 0.371018913317862
864 2 0.362214055831918
865 1 -0.750453934463793
866 2 0.379748644997327
867 2 0.313711025253812
868 1 -0.732059815951709
869 2 0.385706478370823
870 2 0.378728834777407
871 1 -0.724916719166696
872 2 0.351367857234973
873 2 0.318690158946122
874 1 -0.767209298952221
875 2 0.346288631821486
876 2 0.375776842610479
877 1 -0.727981855396127
878 2 0.345332911774702
879 2 0.327850913185788
880 1 -0.704552732963698
881 2 0.376111349391201
882 2 0.35386362238754
883 1 -0.775644876107884
884 2 0.337052934517884
885 2 0.363431765137928
886 1 -0.743385034342069
887 2 0.369468454936705
888 2 0.373203927738806
889 1 -0.766855268140808
890 2 0.368116996129044
891 2 0.352747314599832
892 1 -0.751484920987568
893 2 0.379467933549874
894 2 0.343745661549716
895 1 -0.772541096905185
896 2 0.390603309283965
897 2 0.396679906681993
898 1 -0.715458934902724
899 2 0.381270573299046
900 2 0.385513720834801
901 1 -0.719550611811293
902 2 0.373925976912633
903 2 0.380811598306955
904 1 -0.66718722551926
905 2 0.381255912704429
906 2 0.354945586476692
907 1 -0.722509969091293
908 2 0.379610414213888
909 2 0.335007191982128
910 1 -0.742817757310674
911 2 0.322698067574151
912 2 0.378635952009344
913 1 -0.716709486742667
914 2 0.36570506308413
915 2 0.333254323337892
916 1 -0.718493333051199
917 2 0.370087865971667
918 2 0.372417072940056
919 1 -0.753124610253571
920 2 0.371544233674791
921 2 0.395670606045186
922 1 -0.767970759754855
923 2 0.328690798098703
924 2 0.359260191015266
925 1 -0.720441274054096
926 2 0.335857170947193
927 2 0.351103826745598
928 1 -0.748503961880387
929 2 0.357551770977138
930 2 0.359517870387522
931 1 -0.810892601904889
932 2 0.389287757420701
933 2 0.377679496688924
934 1 -0.705506626583724
935 2 0.37926191029369
936 2 0.358024553247768
937 1 -0.733139778935606
938 2 0.371936033889089
939 2 0.378894636871016
940 1 -0.759933311931084
941 2 0.330115790416773
942 2 0.359045553576805
943 1 -0.738860220788456
944 2 0.326456384621992
945 2 0.357566764418887
946 1 -0.706699887572381
947 2 0.392539457441127
948 2 0.397254170312759
949 1 -0.737877679669631
950 2 0.339311060275896
951 2 0.335223899213213
952 1 -0.742116464040362
953 2 0.36027026607211
954 2 0.320022794416089
955 1 -0.788901182817863
956 2 0.385571009772778
957 2 0.402003543356055
958 1 -0.746100438678178
959 2 0.348475293236692
960 2 0.375511048003516
961 1 -0.766422324967845
962 2 0.368574774196184
963 2 0.410226542273451
964 1 -0.744586965314771
965 2 0.376707272184717
966 2 0.402835531728275
967 1 -0.803416614278832
968 2 0.368649241118609
969 2 0.376819470594167
970 1 -0.731467000312451
971 2 0.325674338998574
972 2 0.38958468067135
973 1 -0.787755713769624
974 2 0.36570754079306
975 2 0.376826323922295
976 1 -0.765006830450997
977 2 0.356615175910235
978 2 0.349866689924956
979 1 -0.674823993444369
980 2 0.376220185851044
981 2 0.324309506897357
982 1 -0.738270193740744
983 2 0.380349092615569
984 2 0.37589948716776
985 1 -0.781153575739476
986 2 0.360839388986894
987 2 0.390020178927797
988 1 -0.739805834098151
989 2 0.352219262098671
990 2 0.350682717212284
991 1 -0.761828171237906
992 2 0.376100087166019
993 2 0.3980064237651
994 1 -0.71059567788339
995 2 0.314411629554644
996 2 0.378941650109829
997 1 -0.750194123870004
998 2 0.340415275689728
999 2 0.376733909844924
1000 1 -0.730761562914656
1001 2 0.339099412852249
1002 2 0.368318357466876
1003 1 -0.733741017798994
1004 2 0.369223827942037
1005 2 0.374249251785149
1006 1 -0.747304442271223
1007 2 0.339638244699293
1008 2 0.361996366595771
1009 1 -0.679337663216689
1010 2 0.358481115662624
1011 2 0.319597397654817
1012 1 -0.769158769219949
1013 2 0.365056195966103
1014 2 0.347190082027822
1015 1 -0.726255443414447
1016 2 0.383587693666245
1017 2 0.345255124448486
1018 1 -0.724402914929098
1019 2 0.375340082321041
1020 2 0.331277108524563
1021 1 -0.754567374605254
1022 2 0.380510112717113
1023 2 0.396539451768205
1024 1 -0.747323408584152
1025 2 0.347407801040939
1026 2 0.387813976995017
1027 1 -0.774020543510568
1028 2 0.36283023536435
1029 2 0.363574102212148
1030 1 -0.720908015287361
1031 2 0.352557465783213
1032 2 0.360593578756635
1033 1 -0.742392943028657
1034 2 0.382015958773093
1035 2 0.354301131575401
1036 1 -0.675511889070456
1037 2 0.390838304026965
1038 2 0.379266058905011
1039 1 -0.719160459999164
1040 2 0.368251797625
1041 2 0.393811958555435
1042 1 -0.755740857332483
1043 2 0.374878320160315
1044 2 0.384436319994289
1045 1 -0.702932562887912
1046 2 0.330900736932652
1047 2 0.368596483977957
1048 1 -0.778508148067069
1049 2 0.376187451225626
1050 2 0.367142597293141
1051 1 -0.751062245923995
1052 2 0.370911106382622
1053 2 0.373552081035014
1054 1 -0.71438269435667
1055 2 0.35434540085958
1056 2 0.379728661017933
1057 1 -0.737182859012061
1058 2 0.371707842666393
1059 2 0.368248573367956
1060 1 -0.778345763961292
1061 2 0.393405877733765
1062 2 0.360375476775302
1063 1 -0.74973006104916
1064 2 0.338800497671719
1065 2 0.361240265389045
1066 1 -0.693083389021314
1067 2 0.375552704681284
1068 2 0.384761764603892
1069 1 -0.771263372921043
1070 2 0.402419786418718
1071 2 0.36370166152534
1072 1 -0.75077180254968
1073 2 0.350085919955007
1074 2 0.336887820613543
1075 1 -0.654991620434348
1076 2 0.359255237918514
1077 2 0.34358044547453
1078 1 -0.711613510289843
1079 2 0.412029994420983
1080 2 0.350583868384633
1081 1 -0.726230143643839
1082 2 0.357255101506741
1083 2 0.344334415968982
1084 1 -0.740444463104941
1085 2 0.337644654475291
1086 2 0.32722466396599
1087 1 -0.771213770752749
1088 2 0.349867623932327
1089 2 0.353015149177553
1090 1 -0.741706870704538
1091 2 0.353481796923311
1092 2 0.356988145711825
1093 1 -0.756103900990261
1094 2 0.386640296449928
1095 2 0.35064709485199
1096 1 -0.727291609362286
1097 2 0.368046241470596
1098 2 0.348381970478878
1099 1 -0.692458640300196
1100 2 0.376280733580019
1101 2 0.380344314737159
1102 1 -0.724850348589147
1103 2 0.372306506376071
1104 2 0.415284177379552
1105 1 -0.675188569574577
1106 2 0.399134779955358
1107 2 0.375101491860738
1108 1 -0.735099896600772
1109 2 0.39603448986348
1110 2 0.322841258341649
1111 1 -0.751952950174162
1112 2 0.381492037262315
1113 2 0.32793920606517
1114 1 -0.703953716622383
1115 2 0.380691052948906
1116 2 0.356468072293169
1117 1 -0.751428269001432
1118 2 0.362719796949995
1119 2 0.388352491329465
1120 1 -0.764370576083515
1121 2 0.366024051709282
1122 2 0.399508272620124
1123 1 -0.740066704062323
1124 2 0.36079365595566
1125 2 0.359504478021736
1126 1 -0.772685247802896
1127 2 0.342682734734954
1128 2 0.374021928638055
1129 1 -0.744027193222455
1130 2 0.349064110096179
1131 2 0.373989559417077
1132 1 -0.786843072015823
1133 2 0.4055262858087
1134 2 0.362393171727547
1135 1 -0.710969525317515
1136 2 0.407674518089015
1137 2 0.367701243630849
1138 1 -0.761465707998659
1139 2 0.337035857515561
1140 2 0.347462469801276
1141 1 -0.708654174885053
1142 2 0.384806255164004
1143 2 0.352757497643006
1144 1 -0.728939147364065
1145 2 0.332331633538309
1146 2 0.347926315380249
1147 1 -0.754566718332531
1148 2 0.343540894324911
1149 2 0.403929028279777
1150 1 -0.73448528451581
1151 2 0.361729102420015
1152 2 0.335183733622349
1153 1 -0.709098099857225
1154 2 0.346614552649897
1155 2 0.390482305659059
1156 1 -0.736935384084497
1157 2 0.396935977914246
1158 2 0.369918110923181
1159 1 -0.775724281636818
1160 2 0.357943648722324
1161 2 0.371098222857665
1162 1 -0.772939158115177
1163 2 0.351230334304159
1164 2 0.372035316883049
1165 1 -0.771801087416749
1166 2 0.368187815484236
1167 2 0.379231801498108
1168 1 -0.717266437707541
1169 2 0.353214949989468
1170 2 0.372036962736327
1171 1 -0.688434921127837
1172 2 0.353557050297992
1173 2 0.383685539177261
1174 1 -0.711749634282637
1175 2 0.383634202332472
1176 2 0.399786953135993
1177 1 -0.72133744616457
1178 2 0.387608700772881
1179 2 0.396605183514165
1180 1 -0.706733396952686
1181 2 0.386693769251162
1182 2 0.36320579117097
1183 1 -0.737217480636348
1184 2 0.370141087640127
1185 2 0.372308587526797
1186 1 -0.717623751207439
1187 2 0.354752935690596
1188 2 0.359125056334024
1189 1 -0.715445709699098
1190 2 0.366488742175505
1191 2 0.348405601626563
1192 1 -0.751472825755796
1193 2 0.380521401910876
1194 2 0.349953383404212
1195 1 -0.706344482023562
1196 2 0.350727305843248
1197 2 0.407727472011789
1198 1 -0.737858624522185
1199 2 0.361527603453063
1200 2 0.388723124637751
1201 1 -0.734386973418294
1202 2 0.387673561941516
1203 2 0.373155236994144
1204 1 -0.738316520446441
1205 2 0.383779859423399
1206 2 0.408413266366525
1207 1 -0.726856407752739
1208 2 0.36388530737871
1209 2 0.364412687799
1210 1 -0.736354762686547
1211 2 0.407789386825763
1212 2 0.383359447382945
1213 1 -0.742327438534619
1214 2 0.356054647449846
1215 2 0.363006598881387
1216 1 -0.726048853133938
1217 2 0.379132838358596
1218 2 0.38295770498822
1219 1 -0.746361934266875
1220 2 0.340872727825541
1221 2 0.371422598912338
1222 1 -0.757524140857113
1223 2 0.375532452955182
1224 2 0.370021255127575
1225 1 -0.735211407301312
1226 2 0.378736709202214
1227 2 0.386948575541746
1228 1 -0.724546963516673
1229 2 0.365596198412106
1230 2 0.348972992814777
1231 1 -0.735121144225681
1232 2 0.344137302752509
1233 2 0.382008831580305
1234 1 -0.701813841957173
1235 2 0.36000304403688
1236 2 0.415914177224868
1237 1 -0.731172694645147
1238 2 0.344812694703919
1239 2 0.348118161584072
1240 1 -0.751808014334394
1241 2 0.383169605124769
1242 2 0.348191401594737
1243 1 -0.73174873664707
1244 2 0.374788098012429
1245 2 0.391550557852898
1246 1 -0.75123743786488
1247 2 0.384786265993669
1248 2 0.37127201039996
1249 1 -0.771768001514719
1250 2 0.399285491393564
1251 2 0.363904244325258
1252 1 -0.693379811539651
1253 2 0.357171336686795
1254 2 0.37116435227935
1255 1 -0.753474320514801
1256 2 0.380514643526958
1257 2 0.359329824630274
1258 1 -0.752804298194769
1259 2 0.36066101472696
1260 2 0.379481753248439
1261 1 -0.780271864108701
1262 2 0.392801175319036
1263 2 0.36177176465696
1264 1 -0.725007533294452
1265 2 0.388613259709326
1266 2 0.334906377510842
1267 1 -0.725331370847752
1268 2 0.376398854027176
1269 2 0.38170033917653
1270 1 -0.761672505804794
1271 2 0.322840733530472
1272 2 0.316515209955367
1273 1 -0.751029113743633
1274 2 0.33728821440841
1275 2 0.368377798336427
1276 1 -0.754691175570537
1277 2 0.363403087094179
1278 2 0.336814237560025
1279 1 -0.720476765309319
1280 2 0.353761908113147
1281 2 0.354337167139519
1282 1 -0.726334110100793
1283 2 0.389899137461503
1284 2 0.372966258044586
1285 1 -0.72050710674325
1286 2 0.346283667898572
1287 2 0.393281059342387
1288 1 -0.710110803510209
1289 2 0.365330059846915
1290 2 0.38098443056052
1291 1 -0.717341196308302
1292 2 0.380690090024075
1293 2 0.35874827962353
1294 1 -0.758718724899755
1295 2 0.380088672341631
1296 2 0.366073875111925
1297 1 -0.780388698395047
1298 2 0.334414947400162
1299 2 0.356620774977551
1300 1 -0.748224292317574
1301 2 0.40908767226623
1302 2 0.357387908431771
1303 1 -0.787275634810885
1304 2 0.361069967611809
1305 2 0.394806085899414
1306 1 -0.732744807525158
1307 2 0.345033856705571
1308 2 0.346525404081182
1309 1 -0.774111434135116
1310 2 0.369124101063022
1311 2 0.359184486228355
1312 1 -0.730311654205972
1313 2 0.350123047379713
1314 2 0.399115301396066
1315 1 -0.706735455458473
1316 2 0.35091196050338
1317 2 0.364270716892221
1318 1 -0.73829212814086
1319 2 0.363775652484388
1320 2 0.339847341425977
1321 1 -0.658643209223489
1322 2 0.330335513581333
1323 2 0.32231447311415
1324 1 -0.745753579506731
1325 2 0.354965583377962
1326 2 0.384580859911961
1327 1 -0.792257391297516
1328 2 0.382580059263647
1329 2 0.33682471777036
1330 1 -0.784961795900803
1331 2 0.355004280118367
1332 2 0.375576795374017
1333 1 -0.7523659465118
1334 2 0.278212143837332
1335 2 0.364062446746718
1336 1 -0.748097184662881
1337 2 0.393983125748275
1338 2 0.355234081656961
1339 1 -0.715058735991879
1340 2 0.386260931788177
1341 2 0.360311588145421
1342 1 -0.683088288889106
1343 2 0.373233562598852
1344 2 0.344317676825945
1345 1 -0.740777283986392
1346 2 0.374264114378798
1347 2 0.35768036385004
1348 1 -0.70635876507575
1349 2 0.3611444492934
1350 2 0.325007627750143
1351 1 -0.718445818698291
1352 2 0.360988574954697
1353 2 0.362615887071444
1354 1 -0.747447195134275
1355 2 0.34231140092734
1356 2 0.342919417022851
1357 1 -0.724751433883941
1358 2 0.353212365174875
1359 2 0.356829450663204
1360 1 -0.674800166880794
1361 2 0.376045343924647
1362 2 0.358246457391426
1363 1 -0.728131302115686
1364 2 0.364851450148725
1365 2 0.397138566708297
1366 1 -0.746133841268101
1367 2 0.368410888728159
1368 2 0.352968877728002
1369 1 -0.742561797780941
1370 2 0.349838356569582
1371 2 0.379228218640028
1372 1 -0.722716243596518
1373 2 0.374548697601635
1374 2 0.384368532253678
1375 1 -0.749271168909206
1376 2 0.369775297014456
1377 2 0.361451794265836
1378 1 -0.724077101210497
1379 2 0.372409214298632
1380 2 0.354194773395867
1381 1 -0.702171683788102
1382 2 0.379904938690453
1383 2 0.348754773753081
1384 1 -0.719758218596246
1385 2 0.332690617584132
1386 2 0.384756749351218
1387 1 -0.725542622672398
1388 2 0.369252314632036
1389 2 0.368408568812631
1390 1 -0.74076031245934
1391 2 0.372903921302336
1392 2 0.371025831775956
1393 1 -0.716673087062662
1394 2 0.375616172665176
1395 2 0.387509954085122
1396 1 -0.681612094530254
1397 2 0.372878368156141
1398 2 0.361703872756295
1399 1 -0.737682971785005
1400 2 0.399082981987586
1401 2 0.386268806107879
1402 1 -0.690907001086659
1403 2 0.401330077393006
1404 2 0.367016852968269
1405 1 -0.717122517369024
1406 2 0.358894234216337
1407 2 0.335845932048779
1408 1 -0.781535127134342
1409 2 0.359543924666647
1410 2 0.366478945984436
1411 1 -0.707262125541929
1412 2 0.374296491757071
1413 2 0.340360931918957
1414 1 -0.733604172374933
1415 2 0.35501931754396
1416 2 0.375333549159185
1417 1 -0.704447710359177
1418 2 0.333325566131609
1419 2 0.355016380171728
1420 1 -0.76839904913516
1421 2 0.395768178571454
1422 2 0.371386490112129
1423 1 -0.763884483191158
1424 2 0.393311012174369
1425 2 0.37723404883406
1426 1 -0.732520722309969
1427 2 0.368573124930472
1428 2 0.388113226554162
1429 1 -0.737554775260148
1430 2 0.369628335880109
1431 2 0.390065162140448
1432 1 -0.668474354785978
1433 2 0.383228033205001
1434 2 0.398515175634985
1435 1 -0.721903791999595
1436 2 0.381248871732828
1437 2 0.349913180494329
1438 1 -0.764002899203073
1439 2 0.338140236362451
1440 2 0.336663046395417
1441 1 -0.732631455471857
1442 2 0.366799981494447
1443 2 0.383741322708704
1444 1 -0.679839900488439
1445 2 0.385481593101137
1446 2 0.356850632712951
1447 1 -0.780842460380381
1448 2 0.395984099258028
1449 2 0.340683998126893
1450 1 -0.745527243788029
1451 2 0.375057783391196
1452 2 0.37139127046681
1453 1 -0.751452173969814
1454 2 0.352061197032502
1455 2 0.376939621410757
1456 1 -0.691239180113172
1457 2 0.336084969909128
1458 2 0.335469256625214
1459 1 -0.76091603053599
1460 2 0.410843049252407
1461 2 0.379879021383387
1462 1 -0.752738062974448
1463 2 0.37001240694031
1464 2 0.365879056864353
1465 1 -0.706975426469355
1466 2 0.392463457906258
1467 2 0.359544558798034
1468 1 -0.720684006985289
1469 2 0.39157457677425
1470 2 0.39396426971067
1471 1 -0.705602424041102
1472 2 0.35797357412121
1473 2 0.363581415225632
1474 1 -0.733856413497296
1475 2 0.373173232100398
1476 2 0.341205003182356
1477 1 -0.715773504321429
1478 2 0.417619344274278
1479 2 0.332779868016893
1480 1 -0.743218499347581
1481 2 0.362737944556833
1482 2 0.325375532510213
1483 1 -0.763201166379265
1484 2 0.403833270369646
1485 2 0.379927983400457
1486 1 -0.745697271154082
1487 2 0.349578647032218
1488 2 0.356926579705683
1489 1 -0.739090274225979
1490 2 0.318271713469098
1491 2 0.349646095697463
1492 1 -0.733166725330526
1493 2 0.319215393986709
1494 2 0.360730294816893
1495 1 -0.746981714933643
1496 2 0.360636488506968
1497 2 0.386928331573507
1498 1 -0.727450639407231
1499 2 0.384995578471547
1500 2 0.357409549139149
1501 1 -0.692874805134164
1502 2 0.327512430652484
1503 2 0.373314908813988
1504 1 -0.738140001156586
1505 2 0.335514291046069
1506 2 0.374286612949196
1507 1 -0.754374219966736
1508 2 0.395992172991502
1509 2 0.387709573040102
1510 1 -0.750877465745849
1511 2 0.396742431795462
1512 2 0.377891754616457
1513 1 -0.724303327877313
1514 2 0.339337260790388
1515 2 0.348544829722887
1516 1 -0.67067937824771
1517 2 0.350277984983257
1518 2 0.37297626297898
1519 1 -0.744229979717665
1520 2 0.350817678559569
1521 2 0.388550525451831
1522 1 -0.758919714965986
1523 2 0.356171166939855
1524 2 0.37292051929183
1525 1 -0.759924033101831
1526 2 0.393765044477517
1527 2 0.401005791169963
1528 1 -0.751495977116262
1529 2 0.389463676925132
1530 2 0.37575040307407
1531 1 -0.703745534376626
1532 2 0.416767172712645
1533 2 0.392957506098986
1534 1 -0.720795194613618
1535 2 0.348160033296408
1536 2 0.290205263995789
1537 1 -0.737777392280202
1538 2 0.327446389580364
1539 2 0.381536922156366
1540 1 -0.696173487290339
1541 2 0.366344475647779
1542 2 0.355723503291836
1543 1 -0.760391067658712
1544 2 0.372611746074277
1545 2 0.335479967752778
1546 1 -0.736976224085872
1547 2 0.391664706780903
1548 2 0.401236721048303
1549 1 -0.743932535893717
1550 2 0.359453216062447
1551 2 0.410609896280092
1552 1 -0.759132523763512
1553 2 0.337597280581185
1554 2 0.350621863663226
1555 1 -0.734179398624627
1556 2 0.346080430057017
1557 2 0.388363997210621
1558 1 -0.709827821056826
1559 2 0.350399549242614
1560 2 0.370608392016748
1561 1 -0.724420673922985
1562 2 0.40113528295403
1563 2 0.41763964916304
1564 1 -0.687780486053104
1565 2 0.361227789409505
1566 2 0.377861587920866
1567 1 -0.743185106940708
1568 2 0.368339629366368
1569 2 0.362878865202957
1570 1 -0.758938553381262
1571 2 0.383883203345683
1572 2 0.403403367936409
1573 1 -0.725232804500979
1574 2 0.35863203984577
1575 2 0.3605246109201
1576 1 -0.664101781488713
1577 2 0.395415635574955
1578 2 0.380192002626162
1579 1 -0.730791144323185
1580 2 0.366602294872632
1581 2 0.340450560746787
1582 1 -0.696333665115778
1583 2 0.383307584739318
1584 2 0.373381057738013
1585 1 -0.756091997270665
1586 2 0.379139845670586
1587 2 0.387170008940917
1588 1 -0.702247147908279
1589 2 0.355855300156921
1590 2 0.392993321102505
1591 1 -0.728821675118659
1592 2 0.3713914730296
1593 2 0.3629474695593
1594 1 -0.754170697445329
1595 2 0.362445559595425
1596 2 0.389077751577759
1597 1 -0.688792418935541
1598 2 0.356159587234828
1599 2 0.341091218953225
1600 1 -0.7784130385511
1601 2 0.32358181339269
1602 2 0.357482229636292
1603 1 -0.723523030784599
1604 2 0.3578423773229
1605 2 0.351117532811852
1606 1 -0.782744405275154
1607 2 0.349502923283566
1608 2 0.384157719905412
1609 1 -0.732094705406365
1610 2 0.376311255439303
1611 2 0.358633174844283
1612 1 -0.738149670729107
1613 2 0.362116006299715
1614 2 0.366630180609471
1615 1 -0.701952468061344
1616 2 0.36508008331689
1617 2 0.372992438753938
1618 1 -0.72150955061119
1619 2 0.308654991074691
1620 2 0.33603974684297
1621 1 -0.76435427174487
1622 2 0.379586450034939
1623 2 0.335537359765807
1624 1 -0.739564182187665
1625 2 0.347740067827856
1626 2 0.322291179851205
1627 1 -0.722729820040942
1628 2 0.356834142725753
1629 2 0.402074136026624
1630 1 -0.725470222625859
1631 2 0.368616825394896
1632 2 0.381671203045384
1633 1 -0.729670884245039
1634 2 0.369221778642025
1635 2 0.364603577739753
1636 1 -0.734785168547569
1637 2 0.36806406488428
1638 2 0.380621807182237
1639 1 -0.723733305814484
1640 2 0.354136750600889
1641 2 0.340735613539772
1642 1 -0.771049081737635
1643 2 0.345777557069045
1644 2 0.354301742491971
1645 1 -0.729755229517884
1646 2 0.352479576766631
1647 2 0.360758723938138
1648 1 -0.687312870356686
1649 2 0.3699379685202
1650 2 0.350353042520188
1651 1 -0.782850855851387
1652 2 0.35794757251315
1653 2 0.358831728308088
1654 1 -0.727779688444327
1655 2 0.370932007532143
1656 2 0.38027153020673
1657 1 -0.753908982193695
1658 2 0.375980205779396
1659 2 0.381439899094586
1660 1 -0.75442801929609
1661 2 0.358064241960421
1662 2 0.356186011302752
1663 1 -0.718348985569829
1664 2 0.362387083330355
1665 2 0.347986672804146
1666 1 -0.748044430249731
1667 2 0.34316854834643
1668 2 0.382048125683432
1669 1 -0.779738183971052
1670 2 0.355377338369474
1671 2 0.37906433377077
1672 1 -0.732530441314653
1673 2 0.364152027709853
1674 2 0.376078573088825
1675 1 -0.754952007532104
1676 2 0.34671698982749
1677 2 0.379290362504666
1678 1 -0.745423447608663
1679 2 0.394156130981429
1680 2 0.377974597982339
1681 1 -0.711950989639877
1682 2 0.359128406537852
1683 2 0.336095288995396
1684 1 -0.728145087617172
1685 2 0.367949861584408
1686 2 0.352405446098131
1687 1 -0.717194485917269
1688 2 0.385210262724554
1689 2 0.353664278766051
1690 1 -0.732613914544534
1691 2 0.398633386556206
1692 2 0.365223659009054
1693 1 -0.720288456603327
1694 2 0.375208531601488
1695 2 0.357698121138297
1696 1 -0.699063084276839
1697 2 0.356659833667837
1698 2 0.378356935368808
1699 1 -0.72931333781813
1700 2 0.341746515511582
1701 2 0.371592065977871
1702 1 -0.734451738799198
1703 2 0.352138928525325
1704 2 0.346841491853291
1705 1 -0.746197413193568
1706 2 0.352839262692805
1707 2 0.3447825717126
1708 1 -0.728049171648909
1709 2 0.377595092229773
1710 2 0.331643213594198
1711 1 -0.688191383946445
1712 2 0.374295157736467
1713 2 0.36317403422676
1714 1 -0.708022792286521
1715 2 0.365922626736323
1716 2 0.348986899726485
1717 1 -0.710243677105172
1718 2 0.359884410214606
1719 2 0.413395406666069
1720 1 -0.679790408337559
1721 2 0.365559921765007
1722 2 0.314088463775022
1723 1 -0.702913425428174
1724 2 0.341342944795744
1725 2 0.359992032358784
1726 1 -0.726472884450706
1727 2 0.367645341871444
1728 2 0.35557948067801
1729 1 -0.662448201399212
1730 2 0.391223078879116
1731 2 0.353888414780479
1732 1 -0.745330756923842
1733 2 0.36895718770854
1734 2 0.394574260955274
1735 1 -0.751134002120842
1736 2 0.378694891406542
1737 2 0.325723717851772
1738 1 -0.789151360541543
1739 2 0.388017946510758
1740 2 0.381913897845775
1741 1 -0.732056012820955
1742 2 0.37733806580813
1743 2 0.37765062728528
1744 1 -0.734486061891629
1745 2 0.371838111130525
1746 2 0.40922753138892
1747 1 -0.769771937501117
1748 2 0.39932439690871
1749 2 0.380695649000084
1750 1 -0.765219618173065
1751 2 0.365204349580969
1752 2 0.382167425777782
1753 1 -0.750223927738845
1754 2 0.383919090723503
1755 2 0.3887190893238
1756 1 -0.75920025976561
1757 2 0.336497581041367
1758 2 0.363384646671074
1759 1 -0.70207222781343
1760 2 0.335848203176172
1761 2 0.330336769563632
1762 1 -0.748365140035228
1763 2 0.354926301515397
1764 2 0.357882620725352
1765 1 -0.768381873217842
1766 2 0.410122681675654
1767 2 0.361002556692313
1768 1 -0.748211048413054
1769 2 0.364207779426771
1770 2 0.351703872238102
1771 1 -0.699453945460415
1772 2 0.365757166030715
1773 2 0.375748743424215
1774 1 -0.738088351531645
1775 2 0.379306975635671
1776 2 0.36598699862909
1777 1 -0.740666880666042
1778 2 0.340142692234132
1779 2 0.33985166950963
1780 1 -0.667277979458813
1781 2 0.372995286990321
1782 2 0.349659915226633
1783 1 -0.673357153522586
1784 2 0.361214499659218
1785 2 0.382814305399905
1786 1 -0.72694773861181
1787 2 0.365065850536628
1788 2 0.373003332735916
1789 1 -0.707888302703488
1790 2 0.399593935089965
1791 2 0.408413237220627
1792 1 -0.737382144323641
1793 2 0.415726426859908
1794 2 0.386592314068101
1795 1 -0.768707019311233
1796 2 0.356523685709145
1797 2 0.390859711563408
1798 1 -0.741432527802294
1799 2 0.401807618454621
1800 2 0.412634060885719
1801 1 -0.743950156869036
1802 2 0.34706164755872
1803 2 0.352264762482365
1804 1 -0.737110575531098
1805 2 0.373109837204724
1806 2 0.340740681114368
1807 1 -0.71708420576647
1808 2 0.357079670509848
1809 2 0.370015684271339
1810 1 -0.688993161365587
1811 2 0.356091679444583
1812 2 0.345871002846654
1813 1 -0.694422661796636
1814 2 0.340982637612633
1815 2 0.365566896247597
1816 1 -0.740395739855887
1817 2 0.338633515450992
1818 2 0.362310509059975
1819 1 -0.723845347728715
1820 2 0.348354065600276
1821 2 0.35318143401596
1822 1 -0.738696188940414
1823 2 0.352597759041051
1824 2 0.400997763038928
1825 1 -0.694021685490648
1826 2 0.351313275004059
1827 2 0.367399190584506
1828 1 -0.748482172055245
1829 2 0.359942934036167
1830 2 0.345623704424105
1831 1 -0.721634561869688
1832 2 0.358410283499391
1833 2 0.352218869992137
1834 1 -0.721619055255173
1835 2 0.372079233394353
1836 2 0.391875490779175
1837 1 -0.713647464723127
1838 2 0.364266017351723
1839 2 0.360791755576848
1840 1 -0.691524961526896
1841 2 0.397908754541682
1842 2 0.367254899500215
1843 1 -0.731351209066601
1844 2 0.37595759047467
1845 2 0.400372067539732
1846 1 -0.762894894393497
1847 2 0.355499730174751
1848 2 0.402062500031037
1849 1 -0.758265583626541
1850 2 0.343686267938998
1851 2 0.375578145949095
1852 1 -0.760916979299025
1853 2 0.38557973468766
1854 2 0.360466330828841
1855 1 -0.744129511229211
1856 2 0.378008625972207
1857 2 0.34776417868062
1858 1 -0.713556949773718
1859 2 0.376622850811691
1860 2 0.362595267937874
1861 1 -0.729489994352267
1862 2 0.376256771897395
1863 2 0.368547104360241
1864 1 -0.756190718168011
1865 2 0.378466038069406
1866 2 0.368885872566204
1867 1 -0.727036045729943
1868 2 0.382601375018915
1869 2 0.406826745263348
1870 1 -0.748071911436849
1871 2 0.37742901431631
1872 2 0.361432883491664
1873 1 -0.77645063956762
1874 2 0.344536160938333
1875 2 0.307632614253461
1876 1 -0.711224674318399
1877 2 0.321120437896175
1878 2 0.376362996792276
1879 1 -0.725812118760576
1880 2 0.363305638832161
1881 2 0.373091409040067
1882 1 -0.729623405014577
1883 2 0.35294898763285
1884 2 0.358732052975578
1885 1 -0.759051634376644
1886 2 0.391343715053666
1887 2 0.344011032496209
1888 1 -0.752310450288549
1889 2 0.371543868203598
1890 2 0.378264694677293
1891 1 -0.715113136618605
1892 2 0.33559072317815
1893 2 0.370369285771913
1894 1 -0.730850547750537
1895 2 0.336338087164295
1896 2 0.338666992936164
1897 1 -0.742837033717299
1898 2 0.356048171041369
1899 2 0.350068141269088
1900 1 -0.750171131458445
1901 2 0.35317913820307
1902 2 0.377424137619149
1903 1 -0.697926941433491
1904 2 0.367249239247685
1905 2 0.364187685422008
1906 1 -0.767909406417103
1907 2 0.33404048159918
1908 2 0.343897556943122
1909 1 -0.728529737851231
1910 2 0.373255938159409
1911 2 0.363332584841336
1912 1 -0.741044894386367
1913 2 0.39777220278647
1914 2 0.388477438071805
1915 1 -0.769268700009659
1916 2 0.336139913880937
1917 2 0.32831715778135
1918 1 -0.741554761774998
1919 2 0.385353600719236
1920 2 0.355707985515556
1921 1 -0.707955154277758
1922 2 0.343626239955614
1923 2 0.338981930804996
1924 1 -0.724043141413241
1925 2 0.340959863885215
1926 2 0.31717167701373
1927 1 -0.712261052331817
1928 2 0.367443739802325
1929 2 0.373043622252489
1930 1 -0.714671653000796
1931 2 0.373407835890968
1932 2 0.344211168088512
1933 1 -0.754892551131974
1934 2 0.351676567917763
1935 2 0.365468466020936
1936 1 -0.708566998327947
1937 2 0.39163085319187
1938 2 0.362798126647937
1939 1 -0.721357722770988
1940 2 0.351607622024678
1941 2 0.385491171918785
1942 1 -0.688382257065429
1943 2 0.328048603630166
1944 2 0.370093461640307
1945 1 -0.764029510597271
1946 2 0.343193697443675
1947 2 0.357038626405217
1948 1 -0.749533890422884
1949 2 0.35927427514685
1950 2 0.382114998173627
1951 1 -0.793281401424964
1952 2 0.379237514852427
1953 2 0.406460391276381
1954 1 -0.74644212982615
1955 2 0.323457549934175
1956 2 0.343398213748994
1957 1 -0.748492320398512
1958 2 0.347507545085738
1959 2 0.356767931044074
1960 1 -0.74577762917572
1961 2 0.367206927956256
1962 2 0.336766051401258
1963 1 -0.72978182793108
1964 2 0.40187886482416
1965 2 0.36027165834881
1966 1 -0.705980481913116
1967 2 0.351786954977079
1968 2 0.350028611024183
1969 1 -0.718609408830795
1970 2 0.366314361911475
1971 2 0.343783393528655
1972 1 -0.700471891877705
1973 2 0.391844460189466
1974 2 0.39124353278056
1975 1 -0.77478900944392
1976 2 0.350691396068436
1977 2 0.362272395166056
1978 1 -0.768450523071495
1979 2 0.358524321779841
1980 2 0.353053065815604
1981 1 -0.696094164861194
1982 2 0.354233928680252
1983 2 0.339947096980342
1984 1 -0.697836921681638
1985 2 0.337364901401622
1986 2 0.354872914954416
1987 1 -0.710823037286832
1988 2 0.363409259605996
1989 2 0.344540754577605
1990 1 -0.758003048275134
1991 2 0.384596404046825
1992 2 0.360516879260853
1993 1 -0.78544738888698
1994 2 0.380394099411456
1995 2 0.366111353398377
1996 1 -0.726407625693313
1997 2 0.366635994653744
1998 2 0.380927879151571
1999 1 -0.736428469903121
2000 2 0.312749303757026
2001 2 0.367835107089498
2002 1 -0.703785215802617
2003 2 0.387810222282009
2004 2 0.378516998454411
2005 1 -0.73670439262869
2006 2 0.382604213168064
2007 2 0.364134925287307
2008 1 -0.713192425264323
2009 2 0.355371191619645
2010 2 0.353341746977443
2011 1 -0.747100293974699
2012 2 0.395847309559603
2013 2 0.394232256586023
2014 1 -0.712140939942146
2015 2 0.363637101157644
2016 2 0.374789704378542
2017 1 -0.734923746636381
2018 2 0.366800176086501
2019 2 0.415617766364571
2020 1 -0.777208645848245
2021 2 0.353825008502169
2022 2 0.374741947211761
2023 1 -0.736054537001384
2024 2 0.323281717323523
2025 2 0.354941562498858
2026 1 -0.760008872433145
2027 2 0.369973407352954
2028 2 0.372887260534796
2029 1 -0.782839222557568
2030 2 0.380776742950531
2031 2 0.393045576021973
2032 1 -0.716704968028494
2033 2 0.372319371855676
2034 2 0.36058365533935
2035 1 -0.748507737079474
2036 2 0.353691898605269
2037 2 0.383620874230051
2038 1 -0.724780985972447
2039 2 0.386019996361013
2040 2 0.348418633219398
2041 1 -0.711677154459117
2042 2 0.381328397825319
2043 2 0.388050082365962
2044 1 -0.765418140207342
2045 2 0.368433377891036
2046 2 0.375042139838207
2047 1 -0.707766396741426
2048 2 0.33591704682168
2049 2 0.350882217478714
2050 1 -0.730360142890231
2051 2 0.353223312942541
2052 2 0.364157322736458
2053 1 -0.737669303898742
2054 2 0.379909156634802
2055 2 0.390624369249349
2056 1 -0.721993185706841
2057 2 0.365065828727314
2058 2 0.340096566798041
2059 1 -0.736381974129466
2060 2 0.381632785301114
2061 2 0.325382130817065
2062 1 -0.752336229440419
2063 2 0.382094176784599
2064 2 0.349820749140771
2065 1 -0.682151685830829
2066 2 0.387430436323731
2067 2 0.370862844902413
2068 1 -0.728080491022656
2069 2 0.385209237895441
2070 2 0.388821155142146
2071 1 -0.746914134744386
2072 2 0.388915678401176
2073 2 0.395238184772942
2074 1 -0.774146060796495
2075 2 0.402849317323612
2076 2 0.379155577196521
2077 1 -0.691126675547941
2078 2 0.368965737916308
2079 2 0.395831802612839
2080 1 -0.714976150648378
2081 2 0.371624287755248
2082 2 0.367315243345304
2083 1 -0.702620746795953
2084 2 0.365719683608667
2085 2 0.381227365511776
2086 1 -0.705596208500731
2087 2 0.381329894765812
2088 2 0.379721401771869
2089 1 -0.704968653033532
2090 2 0.31416566410477
2091 2 0.350926245737938
2092 1 -0.754666798699303
2093 2 0.352804595748578
2094 2 0.36354159103148
2095 1 -0.708318475093804
2096 2 0.352816306465162
2097 2 0.3261660390257
2098 1 -0.716242311274447
2099 2 0.355899390738216
2100 2 0.363228534983968
2101 1 -0.743551305351964
2102 2 0.374104026662643
2103 2 0.371754921794457
2104 1 -0.721660384966615
2105 2 0.349572419796421
2106 2 0.388910926642838
2107 1 -0.768033749988909
2108 2 0.39155709096924
2109 2 0.368419959207985
2110 1 -0.727123585841562
2111 2 0.350656406337179
2112 2 0.357496227108693
2113 1 -0.745321859446917
2114 2 0.362947830664887
2115 2 0.362396525159054
2116 1 -0.774677250858897
2117 2 0.341660017249351
2118 2 0.370326987069929
2119 1 -0.748995483166556
2120 2 0.359754564847631
2121 2 0.385855671810568
2122 1 -0.766439346263314
2123 2 0.333284387863117
2124 2 0.381771571695858
2125 1 -0.725640788080541
2126 2 0.353109558011065
2127 2 0.383113560351455
2128 1 -0.748876853518096
2129 2 0.346558530043073
2130 2 0.327494389941057
2131 1 -0.779453190085778
2132 2 0.400492564348819
2133 2 0.385709166421886
2134 1 -0.727383067839365
2135 2 0.377078011713166
2136 2 0.373532653092542
2137 1 -0.707045453216031
2138 2 0.365745661013475
2139 2 0.379282749786214
2140 1 -0.759109896116394
2141 2 0.347417443875781
2142 2 0.382897823644284
2143 1 -0.758045035826093
2144 2 0.335523723156676
2145 2 0.353409832463389
2146 1 -0.721040727478714
2147 2 0.370382914723277
2148 2 0.376510060113693
2149 1 -0.741486447436532
2150 2 0.363557308539048
2151 2 0.358928984773189
2152 1 -0.728403289763033
2153 2 0.348148977648262
2154 2 0.364201829492136
2155 1 -0.727852137092739
2156 2 0.352888339567803
2157 2 0.347337696984934
2158 1 -0.761196682924246
2159 2 0.338236093769396
2160 2 0.358741713280179
2161 1 -0.727420896967242
2162 2 0.349706941106333
2163 2 0.364723576032865
2164 1 -0.753522115179177
2165 2 0.361874790164501
2166 2 0.363354292227986
2167 1 -0.741747744915173
2168 2 0.375071599624932
2169 2 0.372834686402196
2170 1 -0.763496625178606
2171 2 0.343267793092048
2172 2 0.32563330113099
2173 1 -0.734046231602226
2174 2 0.383630879076779
2175 2 0.369570390934738
2176 1 -0.75614145913093
2177 2 0.375774310788276
2178 2 0.356759537831574
2179 1 -0.735769342998492
2180 2 0.370496881406013
2181 2 0.361306546600891
2182 1 -0.75543215420633
2183 2 0.361234964778975
2184 2 0.381077916827016
2185 1 -0.720266202614612
2186 2 0.380860461392664
2187 2 0.391994016161569
2188 1 -0.745941611215306
2189 2 0.371843705282248
2190 2 0.360151048374057
2191 1 -0.730832714770166
2192 2 0.366589869610881
2193 2 0.372341937846025
2194 1 -0.770052960558709
2195 2 0.371916756431976
2196 2 0.38258530840967
2197 1 -0.732701986104666
2198 2 0.386956460867669
2199 2 0.333011007117995
2200 1 -0.708061321697047
2201 2 0.371148583032718
2202 2 0.353982866911088
2203 1 -0.752582377316782
2204 2 0.335024450878622
2205 2 0.358165647385481
2206 1 -0.74319316253469
2207 2 0.357872855329705
2208 2 0.397220475829503
2209 1 -0.740590707374713
2210 2 0.390546916250864
2211 2 0.394275520810416
2212 1 -0.684841922441056
2213 2 0.399058525736317
2214 2 0.384364104228858
2215 1 -0.757595249255559
2216 2 0.341904903270169
2217 2 0.370076266189863
2218 1 -0.775056354033934
2219 2 0.355050484173891
2220 2 0.327931411501898
2221 1 -0.759965853761726
2222 2 0.376679811582793
2223 2 0.372472252843282
2224 1 -0.762873010736366
2225 2 0.377510781246291
2226 2 0.347780550711291
2227 1 -0.729293946999575
2228 2 0.348046454147687
2229 2 0.322586759967228
2230 1 -0.75263913988722
2231 2 0.393178218821084
2232 2 0.348152652365512
2233 1 -0.768618440042893
2234 2 0.362004090321108
2235 2 0.398365580902482
2236 1 -0.748806095784343
2237 2 0.372201315189646
2238 2 0.374616960301407
2239 1 -0.726326640530218
2240 2 0.350784156073285
2241 2 0.396598012646789
2242 1 -0.752755306613429
2243 2 0.374103529691615
2244 2 0.355479236075081
2245 1 -0.73199063681537
2246 2 0.376279033640146
2247 2 0.372788635397232
2248 1 -0.752608582456562
2249 2 0.362712798164247
2250 2 0.351424563810953
2251 1 -0.657907784573715
2252 2 0.332340427149604
2253 2 0.384047442335944
2254 1 -0.757422986781971
2255 2 0.362044663264789
2256 2 0.357475889922659
2257 1 -0.731555875148709
2258 2 0.394868410759868
2259 2 0.364204019054393
2260 1 -0.701031826190643
2261 2 0.345299934739208
2262 2 0.407732570726036
2263 1 -0.740907860487537
2264 2 0.368759571704734
2265 2 0.360875499615482
2266 1 -0.748379290921061
2267 2 0.296681239781916
2268 2 0.384571592770298
2269 1 -0.717524608884242
2270 2 0.351807244956245
2271 2 0.409096565080463
2272 1 -0.710712766859638
2273 2 0.361996517265296
2274 2 0.403298864190368
2275 1 -0.647745645094215
2276 2 0.361496167883137
2277 2 0.341304731988961
2278 1 -0.780092505747678
2279 2 0.302870942497177
2280 2 0.371198444756396
2281 1 -0.723379277474616
2282 2 0.387995563206163
2283 2 0.418236900172503
2284 1 -0.749866767083899
2285 2 0.388434207249381
2286 2 0.340014114483075
2287 1 -0.759713868492868
2288 2 0.367414332600791
2289 2 0.345692111410546
2290 1 -0.723118244403743
2291 2 0.331056267457662
2292 2 0.3528267978676
2293 1 -0.727262755515151
2294 2 0.401473202090323
2295 2 0.356238786001869
2296 1 -0.712366395624775
2297 2 0.379348170197558
2298 2 0.3645782564071
2299 1 -0.749352595313543
2300 2 0.376597141503054
2301 2 0.35587887859159
2302 1 -0.7067128348443
2303 2 0.335663108220372
2304 2 0.359030992534389
2305 1 -0.73363574847738
2306 2 0.367307164573345
2307 2 0.410926180431074
2308 1 -0.735692281989586
2309 2 0.383669838823407
2310 2 0.394984946577853
2311 1 -0.730054217660357
2312 2 0.392747331959597
2313 2 0.404582026504323
2314 1 -0.793219634857928
2315 2 0.37657758733884
2316 2 0.382553451066824
2317 1 -0.777540535008004
2318 2 0.420904371181729
2319 2 0.394892421243086
2320 1 -0.779961265328828
2321 2 0.327064145849793
2322 2 0.324542066349372
2323 1 -0.762747847792236
2324 2 0.36528099189223
2325 2 0.347523384067166
2326 1 -0.759592538647447
2327 2 0.337783170554126
2328 2 0.379450662605581
2329 1 -0.715873489631392
2330 2 0.317254030507422
2331 2 0.350791665015977
2332 1 -0.736115349417822
2333 2 0.374271728649341
2334 2 0.401713464904089
2335 1 -0.706639241926393
2336 2 0.347607622524427
2337 2 0.359150715854201
2338 1 -0.715008982202715
2339 2 0.311138190675457
2340 2 0.345461436905391
2341 1 -0.762764703168343
2342 2 0.383622075247516
2343 2 0.349071903305317
2344 1 -0.720284981048096
2345 2 0.334079579804283
2346 2 0.400817920033455
2347 1 -0.699949589733908
2348 2 0.392423198794928
2349 2 0.349258293613536
2350 1 -0.712530230586282
2351 2 0.372633165434024
2352 2 0.336822436890956
2353 1 -0.771690720320882
2354 2 0.379559120621568
2355 2 0.350284550516073
2356 1 -0.732192676927456
2357 2 0.382108826523748
2358 2 0.380087317653069
2359 1 -0.683702443733142
2360 2 0.340481795441628
2361 2 0.340369247945259
2362 1 -0.726277936288416
2363 2 0.391828801975607
2364 2 0.376000995347163
2365 1 -0.703409879362771
2366 2 0.365576775737774
2367 2 0.359310841846297
2368 1 -0.741340542355105
2369 2 0.386013197603387
2370 2 0.389386222956633
2371 1 -0.760841184003907
2372 2 0.327087329530313
2373 2 0.341325275910353
2374 1 -0.755498638139666
2375 2 0.356056350440817
2376 2 0.341007905341417
2377 1 -0.772860095433831
2378 2 0.367412985802672
2379 2 0.381716814332279
2380 1 -0.709665297408806
2381 2 0.353996657201831
2382 2 0.340112895606241
2383 1 -0.771687210426268
2384 2 0.376606959068797
2385 2 0.381125032333041
2386 1 -0.773765187033785
2387 2 0.371715826585166
2388 2 0.338550948045214
2389 1 -0.745681347546679
2390 2 0.354925701814544
2391 2 0.393262957458498
2392 1 -0.768812416447661
2393 2 0.384193408309816
2394 2 0.37955157968155
2395 1 -0.732624305677234
2396 2 0.3678466666532
2397 2 0.362849440546844
2398 1 -0.725699145088767
2399 2 0.391507979696577
2400 2 0.362404377404178
2401 1 -0.735473953738197
2402 2 0.332329513044346
2403 2 0.358068334683564
2404 1 -0.729190853357474
2405 2 0.340205483320206
2406 2 0.357591752917941
2407 1 -0.727982149589745
2408 2 0.360415965765688
2409 2 0.363488695926496
2410 1 -0.760114035531285
2411 2 0.352184900786533
2412 2 0.346230593078775
2413 1 -0.730428383850393
2414 2 0.362575190475052
2415 2 0.390856696542217
2416 1 -0.75356725521364
2417 2 0.383413067894036
2418 2 0.344451216716532
2419 1 -0.734231638242929
2420 2 0.333201025026515
2421 2 0.348164981412191
2422 1 -0.755291914720448
2423 2 0.412373047811427
2424 2 0.350570546785059
2425 1 -0.714820864513614
2426 2 0.390137821427629
2427 2 0.377814916276655
2428 1 -0.763217050349406
2429 2 0.398901130747256
2430 2 0.382390461252883
2431 1 -0.734383695411207
2432 2 0.390844953655677
2433 2 0.367910655479299
2434 1 -0.766842379103508
2435 2 0.369729149576529
2436 2 0.330643565675616
2437 1 -0.731542721884637
2438 2 0.369054392986574
2439 2 0.368262058849863
2440 1 -0.720294448632152
2441 2 0.342300427248535
2442 2 0.356778360271767
2443 1 -0.706957333264969
2444 2 0.37597585079305
2445 2 0.389105767648838
2446 1 -0.673865157631835
2447 2 0.397703333852272
2448 2 0.378914926606009
2449 1 -0.730987784035136
2450 2 0.389532784548091
2451 2 0.379016608462122
2452 1 -0.71933273530187
2453 2 0.379042733226699
2454 2 0.355217243288857
2455 1 -0.72212146177939
2456 2 0.401672876624591
2457 2 0.319165621844594
2458 1 -0.690040820019479
2459 2 0.404340804747301
2460 2 0.35030836706546
2461 1 -0.766724318595284
2462 2 0.381278317779355
2463 2 0.357972672485187
2464 1 -0.765473341248206
2465 2 0.41048994245181
2466 2 0.395577403055611
2467 1 -0.744106087006842
2468 2 0.356155597828569
2469 2 0.393522556108644
2470 1 -0.710061028461493
2471 2 0.386934333363019
2472 2 0.347403825546766
2473 1 -0.78375998049888
2474 2 0.352906123395608
2475 2 0.357408623714003
2476 1 -0.751951381246823
2477 2 0.353345297532267
2478 2 0.335702536977512
2479 1 -0.742832790691088
2480 2 0.389048958589572
2481 2 0.390321015674461
2482 1 -0.668845242673113
2483 2 0.380492171687771
2484 2 0.37307570761158
2485 1 -0.733053284315154
2486 2 0.37124197376773
2487 2 0.366831471526318
2488 1 -0.731925227121998
2489 2 0.390104840983466
2490 2 0.355522430096466
2491 1 -0.743135937799539
2492 2 0.346680469459446
2493 2 0.392134105682993
2494 1 -0.74134330596797
2495 2 0.383804642655086
2496 2 0.400084359959417
2497 1 -0.780083365037291
2498 2 0.380974654815166
2499 2 0.39519338469764
2500 1 -0.765725988538846
2501 2 0.385910279733591
2502 2 0.323007924910201
2503 1 -0.722673635562199
2504 2 0.390064709151673
2505 2 0.395051712625872
2506 1 -0.763173626428812
2507 2 0.347964193990716
2508 2 0.366266597539686
2509 1 -0.701962478921932
2510 2 0.398910367751922
2511 2 0.375977017458493
2512 1 -0.714479802188686
2513 2 0.335444641505744
2514 2 0.357043373771179
2515 1 -0.680062378066172
2516 2 0.342088364107564
2517 2 0.36053297928927
2518 1 -0.700208346185817
2519 2 0.394507328588215
2520 2 0.388066446589021
2521 1 -0.746472234199585
2522 2 0.375733971620183
2523 2 0.369292254945713
2524 1 -0.715408873549501
2525 2 0.337130799256557
2526 2 0.386823770861239
2527 1 -0.726984844390554
2528 2 0.32110422603893
2529 2 0.343806233102932
2530 1 -0.744765521435432
2531 2 0.345038701562594
2532 2 0.34193519161178
2533 1 -0.74481844003746
2534 2 0.376985968509351
2535 2 0.354129690377901
2536 1 -0.731187217265195
2537 2 0.341541835441284
2538 2 0.370381589312911
2539 1 -0.761767201600113
2540 2 0.349336774029149
2541 2 0.361007454091592
2542 1 -0.743357044070201
2543 2 0.391328017088526
2544 2 0.359256060920644
2545 1 -0.765491323019217
2546 2 0.38204704181108
2547 2 0.383340536745205
2548 1 -0.725010549745926
2549 2 0.359423956890136
2550 2 0.393778609087033
2551 1 -0.694426272205523
2552 2 0.346907602136449
2553 2 0.340543002335667
2554 1 -0.685875941858668
2555 2 0.350066368662395
2556 2 0.370159399133177
2557 1 -0.706048467009803
2558 2 0.367460819210884
2559 2 0.342604596479227
2560 1 -0.710327451261972
2561 2 0.397054021037458
2562 2 0.401914746028087
2563 1 -0.676110779433564
2564 2 0.407789908730061
2565 2 0.404365494495692
2566 1 -0.722379998341921
2567 2 0.386699783080808
2568 2 0.343345805030395
2569 1 -0.731772728301275
2570 2 0.361243744575181
2571 2 0.347055481588899
2572 1 -0.745310741918188
2573 2 0.357378114476915
2574 2 0.342014697422676
2575 1 -0.73924551202583
2576 2 0.369440686720999
2577 2 0.391113713335216
2578 1 -0.686853027137815
2579 2 0.371020601639759
2580 2 0.376666556244899
2581 1 -0.724648246545297
2582 2 0.38977629109576
2583 2 0.373275985622137
2584 1 -0.7566680838934
2585 2 0.376598707712867
2586 2 0.355927064600795
2587 1 -0.751625825354296
2588 2 0.365456760359985
2589 2 0.35864957290274
2590 1 -0.72906780361938
2591 2 0.378541564346974
2592 2 0.341107914234628
2593 1 -0.75584771752251
2594 2 0.409425751720518
2595 2 0.417136312170586
2596 1 -0.738846821518397
2597 2 0.348471472020352
2598 2 0.365107125749038
2599 1 -0.754883028038018
2600 2 0.372621819967286
2601 2 0.353154966811522
2602 1 -0.686147346690205
2603 2 0.356984136967681
2604 2 0.362358587211927
2605 1 -0.700243565681107
2606 2 0.384887564980241
2607 2 0.392061007169113
2608 1 -0.695465716239874
2609 2 0.362079308910775
2610 2 0.380977509867159
2611 1 -0.751688313179009
2612 2 0.411771396490197
2613 2 0.392094010396599
2614 1 -0.768206216312535
2615 2 0.385280780931372
2616 2 0.359403256192079
2617 1 -0.712644573217364
2618 2 0.37121652267166
2619 2 0.345757330760022
2620 1 -0.70699224462233
2621 2 0.3700977109344
2622 2 0.403094280727524
2623 1 -0.785179147770937
2624 2 0.367991104082828
2625 2 0.370468182130117
2626 1 -0.725975384566632
2627 2 0.327449846963835
2628 2 0.360129852526465
2629 1 -0.712408088311648
2630 2 0.390948665872907
2631 2 0.391349625217805
2632 1 -0.739155634710713
2633 2 0.39933075160217
2634 2 0.372511319867628
2635 1 -0.719300037276405
2636 2 0.368014220360263
2637 2 0.393111984607318
2638 1 -0.73946331242744
2639 2 0.353826906127552
2640 2 0.380000706167102
2641 1 -0.696865078232878
2642 2 0.369817688479688
2643 2 0.370397455788861
2644 1 -0.715204150591379
2645 2 0.379658903545966
2646 2 0.351609674324503
2647 1 -0.720238664359312
2648 2 0.366050971453902
2649 2 0.343585407434699
2650 1 -0.684095317202145
2651 2 0.371347397540361
2652 2 0.397890460700426
2653 1 -0.714081241271269
2654 2 0.405523068991929
2655 2 0.370644439687401
2656 1 -0.735954791808474
2657 2 0.346765770801671
2658 2 0.330466786767427
2659 1 -0.731999432086805
2660 2 0.352863074880734
2661 2 0.365211546698102
2662 1 -0.740034919405416
2663 2 0.375147531917479
2664 2 0.362489348104225
2665 1 -0.763264559384188
2666 2 0.332539903950671
2667 2 0.347312436001475
2668 1 -0.725868337871774
2669 2 0.347168905475922
2670 2 0.378847300695374
2671 1 -0.789813568966827
2672 2 0.373000642758151
2673 2 0.354620109508335
2674 1 -0.752517293383239
2675 2 0.363760655132704
2676 2 0.35623814953678
2677 1 -0.696069232239148
2678 2 0.349520158301281
2679 2 0.343377652627232
2680 1 -0.732029169419168
2681 2 0.374088054277077
2682 2 0.354442341123812
2683 1 -0.727292642843219
2684 2 0.381652002619847
2685 2 0.367160098617471
2686 1 -0.742814145698142
2687 2 0.390875875105231
2688 2 0.332442028598064
2689 1 -0.755964680577817
2690 2 0.380779435920197
2691 2 0.343243918509579
2692 1 -0.731147661994253
2693 2 0.333393351186986
2694 2 0.363373902355172
2695 1 -0.7314829245447
2696 2 0.351912853476136
2697 2 0.389487601469205
2698 1 -0.775454335161015
2699 2 0.356588846447206
2700 2 0.371999174200899
2701 1 -0.752851225466938
2702 2 0.368651609011563
2703 2 0.361692621745491
2704 1 -0.725388076501657
2705 2 0.355696790794002
2706 2 0.401343545591658
2707 1 -0.749089515957414
2708 2 0.331813076049978
2709 2 0.377015226442456
2710 1 -0.749382689253486
2711 2 0.378449604175968
2712 2 0.367406160180171
2713 1 -0.774965931102356
2714 2 0.380200196962515
2715 2 0.386792050137608
2716 1 -0.697904751840447
2717 2 0.341795452474686
2718 2 0.372273806385088
2719 1 -0.729662806327224
2720 2 0.359029563895993
2721 2 0.361082369935925
2722 1 -0.755839806699974
2723 2 0.329661825492559
2724 2 0.370146692394268
2725 1 -0.738733369808567
2726 2 0.360697670796247
2727 2 0.345783951245147
2728 1 -0.696508927178881
2729 2 0.377040693147655
2730 2 0.402517508102732
2731 1 -0.719008280758908
2732 2 0.363990481441174
2733 2 0.375175576257424
2734 1 -0.723831142955609
2735 2 0.404662580986029
2736 2 0.347699647166002
2737 1 -0.759495194256176
2738 2 0.353826524248584
2739 2 0.380922622280202
2740 1 -0.748665622783588
2741 2 0.336786640660366
2742 2 0.360842615139635
2743 1 -0.714541815586745
2744 2 0.355224446241479
2745 2 0.371117998426673
2746 1 -0.73273540728596
2747 2 0.375269125532511
2748 2 0.381689164989501
2749 1 -0.739343143893262
2750 2 0.34844487576403
2751 2 0.39710978469989
2752 1 -0.757945530525866
2753 2 0.378127970889251
2754 2 0.379540247752686
2755 1 -0.761484732550599
2756 2 0.385228528197954
2757 2 0.387092525645822
2758 1 -0.729682208509179
2759 2 0.376825907228464
2760 2 0.35269621145262
2761 1 -0.721611836611674
2762 2 0.364730314729704
2763 2 0.378830240157543
2764 1 -0.756955901820292
2765 2 0.353810150869416
2766 2 0.383350644029437
2767 1 -0.743379378157374
2768 2 0.360625846336677
2769 2 0.368166367452541
2770 1 -0.772055891897993
2771 2 0.37489203597909
2772 2 0.363905906003503
2773 1 -0.702898031477259
2774 2 0.354652932833129
2775 2 0.371895560206384
2776 1 -0.770323928372689
2777 2 0.327459425785568
2778 2 0.332403510291796
2779 1 -0.727279130847497
2780 2 0.368478209735336
2781 2 0.410306352215382
2782 1 -0.743116748955991
2783 2 0.343522669563618
2784 2 0.382846490727365
2785 1 -0.685895755413029
2786 2 0.361871233504051
2787 2 0.37900819455087
2788 1 -0.703210532118417
2789 2 0.379148287459911
2790 2 0.368116563492957
2791 1 -0.734113400974698
2792 2 0.356457307858948
2793 2 0.368147973258302
2794 1 -0.719560406562856
2795 2 0.392241667145147
2796 2 0.422131368830887
2797 1 -0.740535969345495
2798 2 0.338516911902943
2799 2 0.378120354493957
2800 1 -0.768633635637064
2801 2 0.376799608898155
2802 2 0.377751890068805
2803 1 -0.742138907946069
2804 2 0.343629589814343
2805 2 0.373912039261463
2806 1 -0.780771850058759
2807 2 0.39614949668584
2808 2 0.38432170106691
2809 1 -0.732629299933025
2810 2 0.390937599015372
2811 2 0.343482628629764
2812 1 -0.709357980123159
2813 2 0.390451913256791
2814 2 0.391509885144703
2815 1 -0.759214613846467
2816 2 0.348573115643755
2817 2 0.363621669952723
2818 1 -0.754646020169843
2819 2 0.339143446507507
2820 2 0.376804237814938
2821 1 -0.69317730964398
2822 2 0.384102993462616
2823 2 0.333620322672438
2824 1 -0.759276506625224
2825 2 0.336343809238035
2826 2 0.348875841582845
2827 1 -0.751789619780236
2828 2 0.392779140954583
2829 2 0.388524433466709
2830 1 -0.743299444057384
2831 2 0.401201727977567
2832 2 0.368338179706699
2833 1 -0.776809849965576
2834 2 0.339042258468639
2835 2 0.338714426228639
2836 1 -0.723385647137005
2837 2 0.370133164486239
2838 2 0.345146595766169
2839 1 -0.724065411126455
2840 2 0.347986811102552
2841 2 0.367961027626507
2842 1 -0.786245128148739
2843 2 0.362866051467645
2844 2 0.370700748726199
2845 1 -0.687692310250916
2846 2 0.380388317653879
2847 2 0.398358123310378
2848 1 -0.746399300283945
2849 2 0.354804159929272
2850 2 0.383150817671002
2851 1 -0.713967004750647
2852 2 0.386428348324643
2853 2 0.362594035727999
2854 1 -0.761483183110648
2855 2 0.361946830854966
2856 2 0.362868483688844
2857 1 -0.718611200775244
2858 2 0.352891406180802
2859 2 0.33898425439639
2860 1 -0.75285323003968
2861 2 0.371371945495438
2862 2 0.372499106442776
2863 1 -0.722107497844228
2864 2 0.32700662574193
2865 2 0.383212219818199
2866 1 -0.718387849870674
2867 2 0.333668840147048
2868 2 0.339364723253493
2869 1 -0.727883224058828
2870 2 0.382357987638372
2871 2 0.356757660289271
2872 1 -0.76269222087039
2873 2 0.381564614674102
2874 2 0.308891822109479
2875 1 -0.688138280600899
2876 2 0.395840607729084
2877 2 0.37223641653036
2878 1 -0.71549132079279
2879 2 0.371644429829415
2880 2 0.36470587757534
2881 1 -0.748337144288727
2882 2 0.345679303880213
2883 2 0.334053754858781
2884 1 -0.732684546305458
2885 2 0.391189331136424
2886 2 0.379606638915047
2887 1 -0.666864357331766
2888 2 0.37221206088844
2889 2 0.398057321336927
2890 1 -0.711344801931533
2891 2 0.315003248034284
2892 2 0.343941868636727
2893 1 -0.67043528839101
2894 2 0.388186936866874
2895 2 0.347217184400325
2896 1 -0.741137569283993
2897 2 0.391012381556458
2898 2 0.356985235829075
2899 1 -0.698392667312247
2900 2 0.378182385960633
2901 2 0.423758968978262
2902 1 -0.696531980367323
2903 2 0.366976013349014
2904 2 0.337481605578565
2905 1 -0.710751738529185
2906 2 0.37754149443818
2907 2 0.330000226592544
2908 1 -0.727162602930236
2909 2 0.373054052058349
2910 2 0.371018870810357
2911 1 -0.732964596062712
2912 2 0.356546725308752
2913 2 0.37305101679674
2914 1 -0.764222463936385
2915 2 0.385517686124688
2916 2 0.363993973945109
2917 1 -0.730921409898157
2918 2 0.367448306661021
2919 2 0.336575583267558
2920 1 -0.744143713878929
2921 2 0.367967924609784
2922 2 0.363593223793423
2923 1 -0.735714049737097
2924 2 0.337766210594834
2925 2 0.373872881028496
2926 1 -0.655182316042469
2927 2 0.372316342345321
2928 2 0.377330701356611
2929 1 -0.715469405250327
2930 2 0.355682862709323
2931 2 0.323004553005827
2932 1 -0.780396859972272
2933 2 0.368850437386817
2934 2 0.403113009412922
2935 1 -0.730589907526105
2936 2 0.375926109099503
2937 2 0.324294199851453
2938 1 -0.741120966495999
2939 2 0.382236598332215
2940 2 0.346330473042571
2941 1 -0.744622774273869
2942 2 0.38448083651846
2943 2 0.395148536921753
2944 1 -0.780311441553002
2945 2 0.384930810298321
2946 2 0.354641467919735
2947 1 -0.731954585040612
2948 2 0.338766662001101
2949 2 0.375383966535808
2950 1 -0.755410407140952
2951 2 0.351160277322119
2952 2 0.381704352076274
2953 1 -0.776977950568674
2954 2 0.37582289374231
2955 2 0.378732833066469
2956 1 -0.719759678300804
2957 2 0.34592849503515
2958 2 0.398698226660893
2959 1 -0.730135339460862
2960 2 0.356229192610173
2961 2 0.387982138918016
2962 1 -0.720128140498769
2963 2 0.394760223084078
2964 2 0.362794951984522
2965 1 -0.725838192968759
2966 2 0.383243777326278
2967 2 0.396943627271516
2968 1 -0.705851628345982
2969 2 0.361409862624273
2970 2 0.366885112003542
2971 1 -0.731966571651764
2972 2 0.352474648006319
2973 2 0.356627375763258
2974 1 -0.723450691753562
2975 2 0.383810378124639
2976 2 0.398873747148268
2977 1 -0.745185225166538
2978 2 0.333286669414847
2979 2 0.343979340517506
2980 1 -0.724350847493214
2981 2 0.365114978661668
2982 2 0.351607525685358
2983 1 -0.734143674821796
2984 2 0.349422767436678
2985 2 0.359592826930609
2986 1 -0.705174340747458
2987 2 0.365607586604991
2988 2 0.365368616693074
2989 1 -0.737451399778291
2990 2 0.377260617903756
2991 2 0.309825438657701
2992 1 -0.75913844393487
2993 2 0.35601753870327
2994 2 0.331856099452247
2995 1 -0.712660783323927
2996 2 0.36650487373812
2997 2 0.352254825588233
2998 1 -0.737731013523187
2999 2 0.350817673085981
3000 2 0.347856315888192
