ITEM: TIMESTEP
0
ITEM: NUMBER OF ATOMS
3000
ITEM: BOX BOUNDS pp pp pp
0.0000000000000000e+00 3.1043045599999999e+01
0.0000000000000000e+00 3.1043045599999999e+01
0.0000000000000000e+00 3.1043045599999999e+01
ITEM: ATOMS id fx fy fz
1 -24.2919670337705 -14.4229727804835 -4.79400504484517
2 5.48469073351437 18.4462942680032 -1.69410691475134
3 17.629931515584 4.44802411601427 4.56341435749042
4 -28.285519155357 21.1209056528141 15.1575850242469
5 9.36943976822489 -8.27663444663811 -14.4440714330913
6 4.93877197073301 -15.5747598833472 2.80489268112547
7 -13.8129917555662 49.5815757848756 17.0608018943111
8 18.1286245095448 -24.2539174231328 3.17406930700245
9 -8.70955242709424 -19.8831465853827 -12.592265502476
10 13.1194223426528 -6.24470647536583 13.0204870721566
11 -3.32533933151164 -1.20633410536675 -12.0985772084759
12 -6.41569403054784 22.0616550063946 -2.62052683610812
13 54.5384043498793 28.4629597473144 2.77128727084202
14 -33.7495655843282 -40.5468576879096 1.62553567296444
15 -15.6944875867957 5.6278360371099 -10.5577635100265
16 -3.53143123369152 6.35444703759488 -33.6842143613406
17 -3.49518374040926 0.52379269743872 1.02029835983919
18 6.07964512971461 4.29722285904761 -7.26432184149034
19 14.4712853189456 -0.168077810385861 -5.1427684174294
20 10.1069942513717 7.22663344655755 1.26177154629086
21 -17.6378608678564 -22.0739967589234 -1.19720713594535
22 -22.040935327969 -26.5653358569746 1.69291721545507
23 18.0201203661956 6.44617809425066 -8.52573622164255
24 11.6005375131318 17.2088888797493 2.3731949264878
25 5.60074594219546 -11.3309570994134 1.64575952697203
26 5.99565883161205 5.9813969958 16.4143725498528
27 -8.61564015360394 8.51523871652622 17.6025579807673
28 -15.1628028443998 0.195712243130016 29.3666894035214
29 9.18803932829011 0.965877587708952 -16.7053671031936
30 6.07069745564728 2.38303870995369 -15.7081800437484
31 17.3713139740842 -48.7447310010929 -4.69955509652353
32 -7.14037763344419 58.220064924814 -12.8486494098018
33 6.52088408338258 9.27622274237499 -5.02881844801392
34 -34.2377228251426 -35.4732035629361 -9.30705224063362
35 -8.1188486295383 18.8606604748521 -2.82533354238796
36 3.83187574595418 37.3242962274751 -0.852249681539849
37 9.49786492982199 -20.8285300700516 5.46437768235528
38 25.0420399455116 -15.1655837041082 25.0025407160585
39 -20.6653566238593 33.7061773585187 -28.2142662673656
40 -11.0193239840947 5.26510029609115 8.38837882716231
41 11.2393034931568 -0.990020330626565 -14.9093608283572
42 -9.21678829610563 2.22529630490769 4.01733326020179
43 -11.3518084081152 17.6512285399867 -7.6960234103112
44 5.86498533445418 -9.91029738705016 -1.13048495690739
45 4.56393657693256 -4.28522420608643 7.58932996151898
46 -25.6355401475422 -69.7420822032011 -13.3281102979239
47 15.465668853166 -3.52086735185263 1.13923797856678
48 39.9399085207946 27.8833816312881 12.2690012381086
49 -13.1390606183831 5.53599250386864 -3.39772303599484
50 9.14432955096493 1.1845754773851 9.663773910455
51 3.99790567952789 0.962453843092681 -3.62452450385427
52 48.169108296212 28.6817035850755 -9.67793686444923
53 0.329061985043923 14.4570744388398 32.1860374575321
54 -35.2090278108572 -37.279711414393 -16.2969690785995
55 -2.12891266588264 -8.31068444203626 -3.4595978455934
56 -22.9002417111628 4.43937679427415 9.59180602610613
57 11.4594532118702 9.59192354785851 9.08818376621298
58 -18.6263374146344 10.0758966461663 -8.84144327900127
59 1.18765781476434 -1.41699956222907 -3.85552474159777
60 8.73955041389616 -1.70525412622673 13.883995364972
61 19.5300427752249 -23.5792852225716 6.73539133127169
62 -4.97837884835442 1.4411696863516 -2.80781173085408
63 -25.5650128771815 10.1110360268022 -13.0403475087173
64 -4.7750493036025 0.430518663644397 -10.2169007469773
65 -11.4555788184425 0.522592491812391 -9.21267575372711
66 12.7961170023308 -0.308849609599142 13.6188187059704
67 -2.47408783159069 13.9700208843551 -19.2705719363125
68 5.82979254716962 -11.4517081773521 3.39457624971557
69 -11.902440433915 5.37657255892281 12.3492016128526
70 17.8100693688869 -8.6594989260173 -18.6048960694572
71 20.8164651365855 -8.60761433951971 -8.50714482580545
72 -10.4989320877615 8.51881047787132 12.6925525526931
73 -28.1730284039206 11.3873054894838 -21.3796569268249
74 25.5872057313778 -3.69820334315851 -4.88219952613761
75 4.06119647987861 2.02133981005288 10.0099779784305
76 -29.0377020083497 15.2097452605249 11.9380404232717
77 7.95511470529027 -9.7939660421428 -3.31316377928692
78 20.2712755108625 -2.97402799747766 -4.67346804205401
79 31.3443911522857 6.52795203978999 14.0087872944614
80 -9.6573508078645 26.5112529700321 -4.05976023002204
81 -21.1947039352274 -39.9366591872585 -10.9626071648283
82 9.77579688251663 -21.9634648578009 -14.9329350346075
83 2.653509605035 11.2222607950306 15.168509797586
84 -11.9241696477503 12.6736734671387 4.17254217406275
85 -4.3269427171864 7.6790966325583 12.9278283452009
86 2.74722284974377 -1.27903403259147 -6.59576929262322
87 4.14369996375112 -1.69952007734742 -2.09239402160451
88 4.83251969440007 -0.582479519030753 0.978270228391984
89 5.45621308547411 -8.49294895574736 -4.30146026617212
90 9.88814899920657 7.33160627891021 4.40108331626426
91 -20.1310449242557 -28.6327802907037 25.7431821389941
92 20.3691808583732 11.2777195514262 -0.818455614610768
93 6.7990417089846 21.7759561496787 -29.0465522623358
94 -8.25805606504893 26.3429235474887 -25.4966546103089
95 29.4248497979733 -3.83495771535385 14.0597067174125
96 -11.1188798049221 -2.56930017583501 5.418619980202
97 -10.9161263946991 -27.1069530341084 -40.603895764165
98 6.98499886727515 -4.14680494279616 30.9580763556327
99 0.821215646351396 20.6774473261531 3.48789618748748
100 -2.29128744779051 -6.64953123358424 -26.1002781508772
101 9.32861420303412 4.84003053996473 26.0082510422236
102 -1.48543758402309 5.14725787787288 -5.57371758869602
103 -22.5560232445903 -16.0926540366692 1.15626185047228
104 -12.497567827132 2.31439048222093 -2.07045261013444
105 -4.90268169047941 14.2562204075585 -8.25294841137254
106 5.85044928997736 -27.6420884048536 25.5282079063804
107 -21.5116559458722 -5.84775851440694 -11.9476095559954
108 18.6922349510081 42.8212029347968 -8.04628463996785
109 -3.58681139554143 6.93846855103776 7.16699508689087
110 26.0630135023711 1.64247623339602 -18.9175348230519
111 -20.4607656483643 -7.46240382407482 11.6058012948818
112 -8.64855499670984 10.6278058508977 9.4709012714508
113 1.57644876445956 -8.77478743488354 -24.8170841886997
114 4.75221271942915 2.94959376249257 16.8122345682784
115 7.91229159403821 18.451031242132 7.96556780697897
116 -2.06474693021675 1.48260453315102 2.6196443765042
117 -6.05893980520009 3.0729311560154 4.76883256633737
118 -24.8109393842627 9.55979731764294 -3.05925827148205
119 9.20242511878659 -2.84665687425872 -3.18381389810009
120 8.59750948696086 0.334023978690065 2.99027393480033
121 8.68460945108844 -0.306939554546435 -4.7742758759545
122 1.41400924480084 -7.81408357656553 3.8736681138616
123 -4.37469100137063 8.71234280632575 2.47842254283674
124 1.72558798432282 3.89850097916188 -0.146238262102931
125 -0.733309231303853 6.86915399643564 16.0969522014497
126 8.32539711307105 -10.2365005496745 -5.73317641704925
127 29.046011050376 -46.3860874932724 17.3006671323647
128 -10.9343718565326 -17.7194574745747 18.7890454398069
129 32.3016521214004 0.302810367862095 -4.95038069718111
130 -22.4353570177396 3.16964919258684 -18.7577774456618
131 6.94522085959074 -8.13141215467499 5.30780006085363
132 15.8327837649518 -2.45682127872995 18.0633585788399
133 1.12510942662963 -38.3817102032999 -14.6682698968109
134 -14.7460838362403 2.50872682398931 -0.116864827979317
135 -6.15790783735931 -10.5971726283344 -7.3450463475255
136 -28.0212818930335 3.60097248875317 11.3208562344372
137 -10.373952126291 5.76124231316115 3.0393752826825
138 3.24229611621322 0.137046664963944 -0.950270724843757
139 25.4035903757394 1.7707848965351 5.23893379667154
140 -5.53409291562516 4.78270251641116 11.6896599356572
141 -19.2899528761988 -4.0480293791268 -9.11304811812967
142 5.19898431075662 24.8740204036766 -22.9408074299192
143 -12.9516789768473 -6.94506664617024 12.9975834661816
144 11.0377393727757 -5.82871402212548 18.1296112086435
145 23.0853906966554 -8.12168833086037 29.472217992007
146 0.185566075693921 -5.31216417644801 -5.58775022351815
147 -17.1605830272062 -1.85931576231721 -14.3881784562545
148 13.0567946476176 -25.2406764645399 1.04974021724453
149 3.5569083090354 -3.31993999098931 6.97967939854529
150 -16.9248715918703 20.8360033705161 -12.1914187424109
151 1.96653874113937 8.56267321745176 -5.13753041183021
152 -3.42338975125852 -5.38401218640813 5.01322039844878
153 -0.20494353758132 -1.15695919675749 -3.21719975014813
154 -13.7450487946998 9.14997221920768 -4.16139340458261
155 7.90051135824063 4.58002291350532 3.86148998863893
156 1.77726391422439 -11.7147045454663 3.54279516882793
157 10.4142478520413 7.42800873793326 42.6754707224552
158 -12.6628611370935 8.79573871322517 -24.1828392637874
159 1.37308244862888 -16.2588655040463 4.6823268866546
160 -22.710725790357 39.0071768392456 -14.9690817475049
161 -1.07556227684401 34.9790057205375 -12.8802705050079
162 12.0531470561898 -30.4284909448357 23.898733782
163 12.2081051828582 -7.99035753476279 6.78462358774198
164 22.5557780762709 -17.1839247990739 -10.7919829242225
165 -38.0151480254637 9.24077691941463 -2.60634543347517
166 42.7101410435967 43.5291635643761 11.8063400039693
167 9.8185159732731 -4.10940295839413 -18.4676533690853
168 -34.8805424955022 -30.6959617121922 10.5872131927874
169 -8.20033675914296 -22.0632414497133 1.95867796817267
170 -0.500358178382669 3.68235484986746 3.41723399986572
171 -4.48558583248749 -1.67606072794927 11.6465414986086
172 -77.7753046520941 8.97324050454057 43.1150040140047
173 33.7567673405103 -16.8912262342308 -24.5516810729025
174 48.8460120024234 -1.78966061114196 -6.2531826267035
175 -14.8516925916701 -11.0785015674984 1.35197356056934
176 -5.4674846052945 -8.75425741205271 5.24304958716575
177 13.169397760136 11.1219458466394 -8.93174163305952
178 13.790955101963 24.9724365730227 38.1297921719346
179 -3.85288853393859 9.45226000013984 17.6857898469516
180 -10.7805951105325 -21.0375225326771 -50.1879611900373
181 13.6274309070221 0.0871820395165948 -13.3041379348354
182 -6.72489502593776 -14.6947415246091 -3.37912834114406
183 -13.4360313808372 2.45530267343933 14.1162345756341
184 -5.78467433810216 -5.11267751203834 35.5887169521636
185 9.1949926943375 12.2153405827507 -20.2407183360842
186 -6.063087626993 -12.0426213780772 -19.8387818350094
187 -10.923298667315 20.9688169451734 -8.11663593557721
188 9.63193048751564 -17.7938594341318 2.51502631341332
189 -2.90213397528321 5.91108121418111 14.5163270030157
190 9.29339245503903 19.0011955963805 28.4942412245275
191 3.4978642283091 16.5427839251027 -17.5924186451518
192 -13.2093139914787 -26.9770037527049 -7.5775590539611
193 -27.3075166621603 -9.24289336813488 -6.0199428575154
194 37.4292432502627 13.402627884876 17.0731746584706
195 -15.0609255310157 -2.23833215958798 -6.58721630581335
196 32.5668961695311 26.3369525372057 -38.8676636737997
197 -31.7201676869343 -17.8413949946273 30.3326650692178
198 -2.02104798208616 -7.42560394888707 14.985584104692
199 -16.3443603708147 15.8079448973581 22.2061996645491
200 -0.869255447512542 -15.9988515618086 -12.3434043763232
201 17.689173144125 -4.24195663708844 -11.1881660332947
202 35.5644561760985 0.746605975567449 -13.4280468923601
203 -34.7275477317131 7.62009129983905 5.8589638378345
204 22.827834209942 -15.4386474254115 -5.22834315573687
205 4.81832524689171 -9.99984685746267 -26.167677335246
206 19.5875819074338 14.9652951267173 28.1948421450958
207 6.70938007087567 22.784186212606 2.7129306642527
208 3.62129176566041 12.8272883867213 -7.9363633361841
209 -8.24355110444244 0.659591300772393 0.338542750355896
210 -27.4900478934553 -4.33663027282685 16.8285413762684
211 12.1283242862483 -16.4473243437513 -13.1347147468125
212 3.1153962391076 5.16847224618791 -0.311665733144651
213 -10.939205267141 9.05565199697084 18.5200469388165
214 -25.4974776281777 -27.8125282704411 17.3192462299817
215 25.0355275453123 -8.7835033720592 -23.1372673677558
216 0.55753204411179 38.3473860747134 1.42229757452881
217 15.2853128567367 -36.0012619235407 -6.69169507630711
218 -29.783820523535 25.6057041816304 5.27559132132675
219 12.4634350472215 6.21395814175932 9.23342123159687
220 4.22594284532716 -18.8431142193101 7.51105329249208
221 -5.45630810517277 15.9412642528923 -0.4156498141019
222 4.8519817800677 2.60099141833444 -13.5160585922618
223 30.8037666335429 -4.17167095004062 2.55988442289711
224 -33.8588422079718 -3.94544285847812 2.66061461826396
225 1.00039244537086 6.22951400110825 -5.12098815776825
226 -19.8085172412578 10.4177509786265 24.8144217116473
227 22.0351148679672 -14.7766947560224 -20.3932918633978
228 1.67257600535286 5.39009478130816 -13.5648039125795
229 -7.07870528704155 15.9446050967151 -17.1030244623354
230 21.0931310509337 -16.7535293275026 10.0003321203477
231 -8.88783563121316 1.68831129309589 3.71238863241701
232 5.10934537599712 -16.1076227803523 2.06805506905984
233 -0.161349792816468 15.4371326885217 4.73755443957403
234 -10.7148206037446 9.49395922125177 -3.13446321415154
235 24.3671078831085 -17.862946011302 5.47868709709191
236 -18.5034973859024 10.1867823134347 7.14601990191807
237 -14.8075070908294 1.36035582921211 -5.17487701112521
238 -25.6731310560718 -16.4227826511236 5.05998097402255
239 11.4713024672911 11.9553051709376 -1.91455813950831
240 17.1522945115196 -8.02001945935542 14.1966808155838
241 -4.7860685067513 -20.7704629364518 -0.24797802058474
242 2.02297101553013 12.7868231701986 -8.12035647501997
243 3.37826561510088 8.23281825864015 6.60002633441188
244 -9.98061586852456 30.2624477205992 34.8865217410756
245 -1.77925299603517 -22.4912102090476 -7.37024982876766
246 8.73858936155312 -8.93049885165295 -18.2348938431029
247 -11.8734171587316 -22.3847796716331 8.70776212602566
248 30.0453753866845 19.707681146391 40.4354915792178
249 5.6276208659055 3.38334230023759 -6.38003145075665
250 -5.97316882904614 0.919237829562329 -3.94625745075433
251 8.5827687413698 -8.35109709886675 5.30115275292116
252 0.670889073701557 17.3692383780543 0.116478634969919
253 4.32555875883296 -13.6127201695563 18.927122039623
254 -6.30968520035992 2.23521518179022 8.28231953094788
255 0.366450884613358 8.55183980222211 -4.78458296704669
256 12.6487712756706 29.5702245722338 20.6936780700933
257 -15.9672118974448 -8.12692718000557 -12.6235293471828
258 2.28531134867007 -20.2795082122612 -6.54518612505454
259 23.596080343428 -4.19715579072247 -13.7492808423254
260 -3.25682837669755 -4.80604188612567 -14.6708905107233
261 -14.3787587405956 11.9226911479667 2.49826939442025
262 -38.3929384442474 6.16574181120892 28.546326033678
263 -5.99783109329261 4.69147893314781 -22.1976337503175
264 33.3436124977892 -17.642032121358 -10.7777577517367
265 -9.83217455787781 -12.4784931546209 -19.6101553535437
266 -12.7948456983889 11.5199574700986 5.50009700395881
267 4.38238965472401 -6.04516410590167 -0.791901180265269
268 -17.4979123504713 6.08233667252238 -28.1261196587867
269 1.25550352793381 10.7046750312917 16.9115298677358
270 7.61614831317879 -9.00943716166803 14.243253457909
271 -14.3946166100157 5.03834592103185 -16.589813938464
272 4.37145041954129 -6.33538991118565 15.2328772423839
273 13.8037290767879 -3.27733319165797 0.324722837215432
274 -18.1639117868178 4.47524701596557 27.9126554281637
275 20.4603583579186 -12.0008847014747 -19.028537288371
276 -8.64977013669688 10.4253733647137 -16.2291415258536
277 -23.9154112946415 8.88960834970391 -5.94898546838945
278 3.24186770370022 8.53647191161049 9.46065832713428
279 11.6263989554266 -12.1328702169224 0.43776961053077
280 -45.3033646351043 2.69953803706716 35.8351139218295
281 -6.5146975193994 4.67710586940179 -10.3920214579484
282 47.2544942570554 -0.092568483574662 -29.0527692016793
283 -43.1699283225389 15.1882618887713 1.21306663259331
284 20.2480053344714 4.19944064491305 -14.6411316455709
285 9.15378964133349 -4.72677063470866 10.5726810297848
286 -4.85741406271633 -4.00914181363736 29.9898801635098
287 12.1322418068452 -3.27680689198198 -2.49392971759946
288 -4.71286445318894 10.2886953535527 -27.5324180071955
289 -24.4958629323901 27.6555732789286 11.2597333665867
290 21.0592388002336 -6.40388351871108 0.799348912050456
291 3.61897211311594 -23.7221694268941 -16.120632129063
292 8.39947606848179 -6.98363506272741 -12.7964853004162
293 4.17344110384416 0.810499601994987 4.13840731352581
294 8.81190891738473 -13.6957989923081 7.92938458478564
295 2.7364761895268 39.3281464496429 2.42069697603501
296 -1.9486631346193 -25.5938151371365 -16.64595321793
297 -4.29109524747809 -11.2863911774952 18.9867378441376
298 19.8415777170944 -0.549327592829707 -3.32838882335175
299 -7.35148855496416 4.72886677017647 2.13370162177434
300 -10.7895017796753 -0.675913052326011 -2.35223918310544
301 -51.6984015716124 21.806303254762 -27.8404399215062
302 10.7190370515678 -26.9704922019279 29.1801095916012
303 -11.626411112021 -16.936147085888 -14.3153323004935
304 -19.3336646299956 14.768500944033 6.88846877792171
305 3.71889840419936 -19.7852180312527 -3.26559767817065
306 -2.54199441302157 3.84665346998672 0.333979854456036
307 -11.639139811899 2.30323324367947 -8.82600780068356
308 8.42801056471861 1.62972440383948 5.83753792230605
309 -0.260228348085073 3.54218060347131 -0.770761834472034
310 7.55778111183 -4.18299324558561 -5.58387455459716
311 15.6866096163036 -1.4074764004448 -7.84368601192326
312 -34.7451348049308 9.87304019969678 14.9093743777332
313 -17.2562693761996 -3.77137575586994 -9.00048373231902
314 9.42290965186718 -3.21861549109602 11.4462072727159
315 20.8189323148357 -0.152645888842129 -0.100624634003964
316 -34.0619205774464 1.36664073182915 37.6012474647547
317 25.9905035801496 19.4260563195583 -13.685081590192
318 -7.11048218059165 -14.361205497653 -13.9733260917811
319 32.9928505977173 -1.72570984814658 -9.64306071979825
320 7.61305114095473 -13.6711203587389 -15.4233173271838
321 8.38850657169694 -9.10514685660935 1.02645527708924
322 -5.43889995459082 1.90777066364043 -4.05758011015301
323 -1.45759682033357 3.95574333323895 5.39386291173716
324 7.81803654881498 -6.07709280973452 2.17670436705178
325 -7.15143340519838 -4.36332794348546 10.1150030274566
326 -0.962032967200107 9.75314695401649 -20.9866971999122
327 13.0821605458037 -7.94216750900214 4.80051698588971
328 -5.81323480369293 -23.1797177127812 -1.07273202135712
329 22.8163389226206 7.89192691159472 -5.11096121193312
330 17.8646544237788 26.713948063823 -10.1309938686042
331 28.9673709752173 5.49968585238233 3.12608880063918
332 13.0819662572983 41.1557566856787 9.94243863220231
333 -14.1484049683865 -5.72661753842666 -2.99969906814859
334 -0.426352400469065 -1.11380088698955 -21.9533691516074
335 1.69874172055518 12.4983890293009 27.4602146771507
336 -9.350145137913 -8.73864619221217 0.172474271423373
337 52.9054760417543 27.2792220114894 3.67774508114799
338 -38.4795565222786 -18.7566477024004 -1.95804537565518
339 -2.82622552970216 -0.115176983024902 0.644698600703022
340 -13.6531730374233 -20.1438688504026 10.1210373827118
341 5.45819719509414 11.895712207544 -18.2612042174417
342 9.19543148736473 10.5595380251278 -1.13315330244362
343 0.494032385581501 -25.523443487338 10.4245456384284
344 -5.50579314376575 2.26694409489066 -26.8136753552703
345 4.86355660375729 20.3689008146271 16.9874867614735
346 -2.23495355054029 -10.4578168344742 -9.42356595055792
347 0.639658093622978 5.62361848574254 1.82506318915743
348 2.75775917849012 -2.35097834116768 5.83830645793007
349 -0.241840556417356 35.7366631802453 33.9478834742228
350 1.47683203606849 -2.02329402319786 -16.3704353775971
351 -7.77773342946028 -12.5147990075942 -8.30138380520969
352 -21.1016487011294 -26.4304124548971 -48.8327535097275
353 40.7082594048898 25.4318102958295 0.826156051757571
354 -18.4610556140021 0.767395594403297 52.7273338181437
355 9.68469237067202 4.5661846083341 -6.80509280225293
356 -11.480255252879 3.98470208168996 2.96174004778228
357 -14.2946589780609 -15.9826612451806 3.21548037599947
358 35.0689037045808 -33.4520587469018 17.1353272725259
359 -17.8775961342375 6.96298026396872 -15.8880427819143
360 15.1115048598097 12.8428506420661 -7.5351714236751
361 -56.8054302234997 8.15157350906347 10.024359841278
362 -6.18532477597186 -0.395375582909349 3.61923892213825
363 53.6594053563271 -13.1026200005399 -9.47651674877704
364 0.175257761303115 1.63322380486349 47.2413280339829
365 -11.3530361897402 7.94028911303046 -4.28099683249009
366 18.7940888356113 -0.976636325826885 -39.230639687794
367 13.3585347564463 -1.30835472040339 -21.1163089052964
368 7.23309127665606 6.89749828749632 -8.74562638180914
369 -15.2371420083074 -12.5162972274125 26.8300669283035
370 40.2235468761647 -22.1267860802601 19.1562906278124
371 -16.683282721961 7.19618637237814 -14.3137635504237
372 -23.6297575486746 16.3384796770839 -4.13113090320521
373 15.406590524764 -13.7004497970876 -27.6813379259797
374 -13.1685412632401 13.9342963111139 22.6885856069991
375 -6.29851689649672 7.21859904277317 11.3455823508419
376 0.755469044760136 15.4365771808151 27.6519765967151
377 0.228955197518957 -17.0632130524408 -16.5458083593745
378 -4.97840105426689 0.0713526209166027 -12.3900856386021
379 -11.3564624422945 16.6111382021958 1.30118703352595
380 -2.76077221046802 -17.9662369558252 -6.09183269747115
381 12.6816917396727 1.47168260361331 1.4585451167304
382 -12.3172014062715 -2.86107288434751 -14.5250428081874
383 5.03212385275552 -21.8391927493492 4.68543931537102
384 10.6144934068165 -6.21377203802696 29.3576289978954
385 22.6436676350814 -19.3782623897263 13.7581278250006
386 7.37346963374912 -2.10251189583295 5.09040216996595
387 12.8372191060144 -8.1674171155766 13.3890486211392
388 -37.8580957065041 -9.3585645543638 -21.8262555904109
389 -4.04605145242189 -10.8976851277405 22.5289824463025
390 29.4304553723267 7.47321723604507 -7.69202601452115
391 -18.4276838398792 15.6116546252255 10.5885425852795
392 9.0690257987279 -10.2346841818842 -8.39984165597951
393 2.78141619663683 -11.6686050884335 -8.4851478439321
394 23.4305313685473 -5.30753043560417 -3.31679612430709
395 -1.08597462514521 -20.1874432616732 3.07454876317007
396 2.50616483729311 17.7816696937248 1.49940722655825
397 1.45924109606042 11.3431824630179 -5.27604960250217
398 5.33458816926348 9.19713116933448 0.46375488990659
399 -11.3984773839004 -11.2820068602678 3.56258995625216
400 -15.7883017821112 -5.50308332894817 30.4777456025933
401 4.57942749906002 25.4333027168414 2.07039701395596
402 20.8898105122024 0.220851792167944 -16.2424801754407
403 37.492594383409 -2.43093779757571 27.0025896892568
404 -4.63988147921085 2.97780074669668 -29.5780727635321
405 -21.7150458472935 -4.13718589196185 1.36521535713379
406 5.30341500416746 -15.7286748200888 -2.60406734785597
407 -10.4477296530926 11.6351021594475 0.74528456195983
408 -0.48648257273657 2.93556600928562 -2.72696080172334
409 -15.4201994156275 5.95021161324127 6.28007135961779
410 28.5607700298389 -13.3583890591589 -3.05220849806807
411 -7.45481171599244 -9.38773580669612 -4.6788518811166
412 -20.4564092082759 -36.3075499450848 8.89990105032901
413 1.1976051142467 14.4856644271891 -14.1206608586822
414 19.6495099263098 12.1003115564949 13.3321715314608
415 -41.5148677390586 12.0913616868898 -6.03393497990158
416 8.47640729467441 -6.29422508991922 6.58651500122246
417 4.98504936263226 -4.60395047067874 6.25479517072766
418 7.46766027647597 10.5802161814937 36.7564537626066
419 -5.34995194894429 -9.15785143732562 -21.6047207503653
420 -6.0564565907813 0.740033967344415 -15.3997506584746
421 60.5495771483211 -28.0877783458135 -22.6746120196266
422 1.09827509806409 -10.8132873226611 2.94443829225095
423 -36.3461937007216 26.9253231966483 14.0015630879865
424 20.5821526152725 -27.4589747291904 -22.6053564469646
425 -4.46286932111827 2.55143078536574 21.8254434056258
426 -10.1840410465626 16.6110450220665 4.14746898647379
427 -2.68987003971374 31.9931299454022 -9.86547162626779
428 4.39923464201483 -22.9859792178709 5.23882163793163
429 -3.70050944514741 -5.70438359071904 2.24616200021789
430 -16.3422075921942 8.18204898144219 -12.6456460289484
431 -8.16323779636532 20.6063370028257 14.2498920290554
432 -15.5420708015474 -11.5545833283295 -23.2142582469979
433 -26.2550982256549 -21.8420668454139 -29.9948464984979
434 8.95619765747694 16.1848257557591 17.8204819995997
435 15.6302520219837 10.6534167649011 0.656724570847472
436 24.4705211431316 21.6371506542214 41.8036349841124
437 18.0072326545315 -35.7394363624334 -23.4343488262803
438 -39.3928516106832 27.4456601620521 -13.627434288061
439 4.04640261032374 -3.31320955839797 34.6893597898374
440 0.95646868329162 13.6580404499086 -2.66610904000991
441 -6.16168608062733 -13.8024459432966 -27.6816837077052
442 -8.46003472793913 -8.76129453674417 -14.7570022500306
443 6.92746787543157 -5.07580559100174 -2.91317153447544
444 2.17804511552548 2.48391415523412 -6.68211979429796
445 -37.1547529341122 -30.1509451428428 -23.6177037672173
446 4.65847625109315 -3.12461168820882 7.14580949127378
447 35.9178824786327 34.4653940852098 38.915206183049
448 12.7954177089246 -35.3552760446823 23.604696719146
449 -3.14826281787535 -2.39875656009861 4.63224039994078
450 -2.92398018554287 -4.50298716917997 18.4608385221596
451 -4.21794826601612 -22.5930299478639 -9.19402300622565
452 6.89900943284976 4.47928752486447 -1.81868056513022
453 -4.6875711631711 9.64971579122846 6.31688396993558
454 -4.57291512930975 15.7193981691182 -0.883833592241283
455 3.27459019001979 -29.8401334343691 3.22711703856356
456 -1.17008867888437 12.5188290610687 -18.9353639161406
457 -10.949979254572 -11.8790010006086 -5.00632395650511
458 -0.171760450617478 5.31904964570483 -2.19378402553795
459 -0.632145339333231 5.68924739437078 -0.876446468388757
460 -8.71836508993308 -1.35981854852339 -21.6443764094532
461 20.7011998959883 6.34027111546951 27.5418438768868
462 -6.32190446689184 -8.99184274813988 -6.75403227860051
463 -25.1509358882969 -15.3072832396851 -5.94107097765672
464 33.777225009974 15.5762528580198 1.77049097328168
465 -11.2000884814003 -3.68536009583255 4.06953814139715
466 -0.207405192001434 -22.4601669752865 -3.99552794352576
467 1.17069148287227 11.7319628945004 0.127417464930461
468 3.76047906300107 14.7306773554237 9.77228101948584
469 12.1172737686806 8.72468529353713 0.937261674162944
470 6.10308366881309 -8.21413297221954 -1.67398683485562
471 -18.0981016989409 5.61087344680766 -1.79262022200679
472 -25.5336741227233 -27.8045837945242 -20.1234455942707
473 1.64830256193224 5.08898815484669 14.3777664666851
474 26.676581195483 1.70694623382583 -0.264929890414976
475 15.8686683489571 1.58690812940076 2.14257899266639
476 14.6398639595076 -14.378824885678 12.8035920765145
477 -4.92218896101601 2.56300032500973 -7.12546659445032
478 5.93507876096226 34.0349396806643 8.31530781280673
479 35.5326092820761 2.76118819095068 32.1956904100891
480 -0.0946840477884081 -9.72915923350971 -3.40439536232939
481 0.998494143628034 -9.25887703249356 40.957171185721
482 10.9864867669073 2.30822646950327 5.34278751289258
483 -14.197471655805 4.76936772908059 -36.4263271403499
484 8.56775979161165 -18.0047258565307 46.4327790036785
485 -3.48807871543028 5.6842301903386 -7.13795197542422
486 -4.31864695276385 8.99495285323128 -38.4570675154477
487 18.409279636419 -16.5698037831621 -5.0835746842243
488 6.4431622522168 17.9724872498071 -10.66311792979
489 -18.8174619067265 0.900921164227587 9.27682532320211
490 -50.7103992508678 33.432153390358 -8.69079538397814
491 9.50305140594287 -3.04990539718841 7.34546289230913
492 34.0541947819938 -33.866958444321 -0.0644806219635667
493 3.24820624027935 -29.945482823939 -17.5165413291501
494 -2.25146008824312 13.5664022827732 0.95031217246288
495 -1.38514491882536 4.75980193687885 13.3718612174011
496 -10.2693288209718 -43.6640606044698 43.3967433700084
497 -0.825721496780483 37.8205726730077 -27.6873764883685
498 9.87462503722969 1.16298452398467 -14.5632283804404
499 -2.46550093033271 41.2567606823643 27.0287615049021
500 -7.6365916801384 -32.8071721201706 -21.5262664025634
501 6.96089541260626 -1.03291502820541 -5.10417807468811
502 -23.3552112890303 6.91053366855292 -6.1111900137588
503 36.2582150998479 4.36248214276746 25.004701492376
504 -26.3597558258095 -13.0300510161555 -9.45546813492622
505 10.7269157738135 -6.00735139180602 -8.06131900050734
506 -6.09836208365768 -4.80204403145281 -1.95131841238873
507 2.60243995429289 -6.74612897322865 5.34489252905828
508 -0.560962308268795 -1.03323152044377 17.3800636013826
509 4.51295573753076 32.160225895747 29.8157573212686
510 20.0288597563306 0.449812002688584 18.4907152212218
511 16.7819403211206 -7.30312450761772 -11.4290936939215
512 -11.7180567148964 6.06260391713998 3.66446609255769
513 -26.3267492395455 9.40673415718139 4.36419890226437
514 5.62505577650102 9.37081389125367 -8.35902858108615
515 3.00396691607471 15.4207517216602 17.6394163858968
516 0.185940014098745 3.1315508593514 1.23566682016015
517 -24.9820762843211 -41.4095867979418 -32.0934460417475
518 13.8970180180515 5.61675164411391 31.6516029814074
519 12.5583364763752 28.9364688647678 -10.4418774930661
520 -1.40850398663329 27.4803715308892 16.9920305024971
521 -10.2795767618111 -12.2409363717517 -4.75222314094669
522 -1.52139714085594 4.08109419675107 -10.4724605892768
523 -26.2597114740264 31.984626423145 -49.9011941451783
524 6.15240742961401 -37.598625629211 28.4856942525883
525 18.2494800917308 7.92159004554534 18.6757438547625
526 -15.7546899570471 -1.34735764886221 -8.77662080512827
527 9.04995459207865 7.50936064013163 -1.35416348961009
528 6.05443883429038 -1.28942940485073 0.687771266044479
529 14.5166821088202 -0.301286646189768 -9.64223948224744
530 -3.82133388747561 5.21367226606647 10.9110472930952
531 -11.4800227506811 -2.35612092620341 -7.69401487536043
532 -10.3433314189748 22.2818707132078 -38.624655870304
533 7.10079127328381 -20.8574779863628 0.545688351008662
534 4.61754379387035 -15.5815018552413 23.3086398506697
535 -1.90865751075408 8.63379917887261 6.33066464790992
536 -3.74086387947565 22.5298577813002 9.58036794792099
537 9.69732360496339 -26.3037018589864 -16.6509277763833
538 20.1974012874621 16.1619606469184 24.5417663980248
539 1.02694947277112 -11.0954439238889 -8.69887763411763
540 -10.0995660195554 5.01264279288101 4.70599987098123
541 -22.3515267462961 11.3237313682182 -9.5998566882475
542 -5.49486780021044 -15.8941245496607 19.422956197338
543 33.1154749815314 10.0495566069057 -7.62544045999654
544 -34.422740285975 -13.1828099195509 -23.093949237227
545 6.16255646373361 19.6712493850278 -16.7860192258988
546 18.9208979616907 0.533229719433342 15.6370527610789
547 24.0983788962227 16.1483830324216 18.1280207774947
548 -0.899653293438244 -14.8371342011143 3.45558635479571
549 -14.9232730403193 -21.6976850927058 -20.735579273035
550 -7.99242933696557 7.9398970643709 -18.8814744032879
551 -2.95940740271128 -7.25923936191515 29.7525959748583
552 10.0750459236027 -3.50571099719519 -1.62399071104472
553 29.0337521441579 9.69958845180454 -4.87360447427313
554 -17.5949104515088 -10.1920096846862 -2.65910752416617
555 -7.44125940141269 7.21876375930236 17.5619830924001
556 -0.0137175631959536 -8.64048733295158 -5.63689268168893
557 -11.9313405271647 0.383451126777587 -5.44952650266865
558 22.2644877705339 11.165213823127 9.21165649255521
559 2.58519300119093 -27.7240089319195 -9.93642487286342
560 -2.1646041654657 7.31813053654562 2.01142722999314
561 -0.124733147722948 6.93024404371432 2.08220188247938
562 -59.2194626908786 -4.66932583779523 63.6821421116478
563 39.5310245629313 -13.8699035446013 -4.41701313332595
564 14.1209659749128 14.6670008819837 -45.4929487123366
565 26.7618741091785 22.6895220976309 -2.65628934323166
566 -5.74908857324123 -3.82806142389366 -13.6769405953074
567 -17.6546750149719 -8.82479325430316 7.18892857183674
568 -50.0959230027453 -9.9618044098325 53.8704157028178
569 -1.71421168174039 25.3457054607795 -27.1498647043431
570 33.2973596196993 -18.2881555924683 -23.5232617737047
571 -23.1396303472088 -2.23719989814038 5.17023924973287
572 10.4202644180828 2.06922827803953 3.66766289962802
573 18.6085739926124 2.75223080161898 -8.74344370905705
574 28.4038455252139 42.2818269333315 -15.9287702446632
575 -1.48217925760466 -15.8787900807654 -6.34238174830284
576 -26.3334771236179 -17.9067340325469 11.888352566796
577 1.47690739134621 2.56024099955009 26.1829816805759
578 -15.6677514948181 13.8311158531537 -21.0026941515112
579 -7.61838496785465 9.41263782207275 1.91025462638146
580 -4.38198722013215 -6.75731252313804 -9.99892781210245
581 0.642696026827359 5.61306833834895 -1.87094119247233
582 2.53397478447975 -11.9133077386292 14.5590052955139
583 15.8218295447792 18.9446216761207 25.5243105539933
584 -22.5647122718136 21.3310717737744 -22.5042364183469
585 -8.49017270520999 2.7459148172694 -12.856953764202
586 0.892785613008176 -16.4869109410133 -18.9737230284513
587 12.7682305173567 24.8948463778081 11.0229533363894
588 -11.69404039802 -10.7321623901691 2.84608586761788
589 -3.57984467185043 -3.4047985221108 -8.51271801470707
590 -2.97329431792093 2.46957218998962 21.4104698935169
591 7.27336198429987 2.93830612633733 -8.0267155766006
592 -26.5203783528345 -25.8575943065494 -28.7450644428984
593 12.1224609103025 -0.684267374557692 -11.6163094507397
594 18.457870500295 26.9080739896806 34.3369683197136
595 -0.43950406465714 -51.2711889534146 14.958091401674
596 4.53578181760459 31.1474951483688 -6.42993586210944
597 -0.94280253069195 3.26896207832103 -5.45930797926075
598 66.8901093500281 19.2343409009598 16.6655335857982
599 -4.98999474483934 -14.5014065027302 -12.1178366338712
600 -51.2852231301495 -23.2833922371252 10.8854902220703
601 4.59592291719248 -4.11118538550776 -16.2974590244165
602 -2.90179968191655 -9.4230073769614 0.987665380932627
603 -4.79150403884343 0.186423003314472 12.2277911700222
604 60.4717317008541 -17.950774313379 17.8425383856508
605 -30.2598832010478 24.173617211973 -13.1745024278175
606 -13.9614104787942 -10.8732354722869 -1.82587125976944
607 -12.2018722834568 -6.38647979617104 16.0934976669933
608 -8.63056375638816 3.33913727288211 -8.44428298865519
609 15.9974072693975 10.1922220019066 -3.18083627816439
610 -2.33268840903564 -36.8468989136432 -22.2657860976725
611 5.46250405028645 21.7620077765618 11.2199598427144
612 -5.43738188345393 17.7796814242083 9.64163069028301
613 -11.0494630834367 -32.9406492476393 -25.2376767894744
614 -8.72066356251694 27.3006750687014 -4.2310510926831
615 14.8667501135533 10.8142549240815 20.2547883999725
616 2.23740241843921 2.18996674893621 -18.4660485473628
617 -10.2156610687608 -3.37724280109625 11.4170913637083
618 14.9856407967494 4.28869032374423 6.37421071927984
619 -1.79201305576657 8.3122518245793 18.0210638664641
620 12.7956009450633 -11.5453690532845 1.97209135055664
621 -8.67110366393486 9.61306544590671 -16.434889497486
622 -5.41354254003132 25.4332541755758 -22.4612903847158
623 18.9242842761924 9.03371481196083 -17.2527334365388
624 -2.28758576833378 -13.6745302109237 18.37604763982
625 1.81255696559451 -15.5104112073032 -8.56351064862217
626 3.2845153958488 13.1888062433421 -2.16616497850164
627 -4.90541242112887 2.2032133238151 8.72332564494619
628 -20.9167726025042 -2.48766156299922 -19.2692862181667
629 21.9574371832045 -2.51104324731429 -0.446270415953578
630 -2.10986754561908 8.4912537008334 16.2344139736339
631 0.555064444648565 -16.6751215049846 5.73677006892474
632 0.0565170933265375 0.376037943424223 2.84329441736065
633 8.86847091502444 -8.6501335173431 3.14324478434514
634 -10.0143771842864 37.7907222880283 0.268306165746142
635 -1.40334885822743 -29.161653548157 -5.35409087067437
636 17.1784930049517 -14.2076663829943 4.99517116733292
637 -1.5379339583112 -6.47810270704721 24.6383478757922
638 10.1836522801228 3.58024137150673 1.65011414316334
639 -12.750264589213 2.04269550241454 -16.964131540612
640 -25.1764956406379 0.382853422092246 -18.5360756498124
641 4.80350102577646 8.04567546562982 -13.5658810577882
642 6.1877800374997 -26.7935242224574 1.33311020743164
643 -15.284604186764 0.580286263527336 0.926073372397274
644 0.579780262828256 2.64663865728991 12.6414284723225
645 7.71702939121515 -0.0881776815617199 -14.8327276700133
646 -13.0805417353592 -0.0314936016412863 -19.8245235529933
647 7.23474945662908 3.05792377940486 8.26071346668225
648 12.3423270271168 -1.6478525027464 1.49756659897306
649 9.16995704726237 -4.21037760510646 -42.7079472179127
650 4.39462039064609 10.1217912019362 5.09522966431533
651 4.61454320602433 3.79330288540112 0.166252180755613
652 3.23563521720887 32.4774581738059 42.3581459848478
653 -5.33256762874543 -18.1483146387689 -10.9481336048351
654 11.1146750211379 -11.3198349014499 -16.2102431420218
655 18.5556647180378 4.8723170525759 1.30417666434992
656 3.5635354068245 -13.9781952502914 2.39549511258036
657 -21.4969676696852 4.6541733715966 -7.34851347741602
658 -11.8342530503524 14.8265953859478 -1.99409721776045
659 0.254809994421099 -28.1306693774182 -0.385521161690974
660 14.952647826304 -1.71468747420862 8.19976552493511
661 -13.6414532485273 20.7536190714915 -5.41113326680668
662 3.09051654453859 -14.4411985828512 -5.97369082141853
663 7.60051041342259 -1.02590580345081 4.10207030980674
664 12.2324284751035 -10.511009830834 -1.18789649239103
665 -7.57276229134706 7.83858299130986 -1.48221118219467
666 -0.469636652483188 9.94569461950104 -1.32038669283449
667 1.92425264906629 -12.8116133000619 30.5126715956159
668 11.2167363349353 8.5667597924477 3.29529656073831
669 10.2881342705988 -14.1103642852688 8.48035230920499
670 -6.46494139665388 3.11441124295964 3.61644799274288
671 -0.288216102806563 4.90186389989712 -1.15907784430895
672 17.0658573927572 -4.40525970793231 -1.35733614524449
673 44.8073329297815 -13.1566008584918 15.8902016277339
674 -28.3359974608191 5.06624079004274 -15.1021076262714
675 -16.4507252130558 7.22544390306473 0.589787678133215
676 -20.002758668253 1.45373294391064 -10.1697346029845
677 5.07808328676782 -14.6606601699857 6.92975412895211
678 10.1201012819182 4.66480204336414 8.17620162277097
679 -9.76381728112971 21.3671181695006 20.9864556292552
680 2.83202672024452 -2.60467665644384 -8.5468607917312
681 6.62115973188251 -5.8010606266046 -21.6899122720541
682 -2.8278483420061 -5.25583695408645 1.38841567362398
683 -9.68342248797388 -3.08777611669112 10.6163451879452
684 11.2567625603974 9.66345660535165 -6.44404992912423
685 10.967908242817 -6.84166931372146 -1.46029398927206
686 -12.8320131393902 10.7194378743765 -9.82796030572604
687 0.965247862604628 2.61249031172609 4.93962060974319
688 -28.7184900861809 41.5846801612285 4.81646246071624
689 41.9373419194156 -45.4385013994023 -11.1933871592408
690 -13.5707745554033 -4.80986947237337 14.7222947761505
691 4.72501102357223 -18.9484261754849 -45.9445242245477
692 -8.38267234123268 18.5918268054075 -10.7286754601959
693 -2.38980909232864 17.5130266670082 2.68644982562495
694 8.9459720416659 3.08370910041458 0.235873498751276
695 -3.82274902620519 -9.80781148417852 1.4889093019292
696 -7.49731484158478 9.13141800753613 -14.1584077752972
697 45.396049576163 -2.85254990376796 -8.21899970867267
698 -23.7274961780336 6.8897191144374 3.09153987557274
699 -23.8149925239306 1.15149444803358 2.29761908298494
700 34.0333353023369 -10.2248094018938 9.96560439570167
701 -29.1886362716205 -10.1578657421181 -5.79905187971038
702 -4.65195104654209 10.309110026707 0.381850090439326
703 18.7731362404039 -49.9220140312737 20.3967130854001
704 -35.3945818560961 48.2146156427105 -9.25242090538264
705 -10.1133984426357 -16.6725303114261 -5.74413418643855
706 7.86113880238883 -21.8609085609752 -0.213509438649895
707 1.43227225835935 16.780152959371 -0.946067807230122
708 1.31160951376149 -21.122162426415 3.41793172277869
709 23.2077066919162 40.8207882820158 11.9371504527973
710 -7.92933986096108 -19.073319565856 -7.3742222048446
711 -7.5014171221999 -21.3750347931962 -0.699975870914594
712 -8.30552767980058 -15.0864573770312 6.93156492068635
713 3.54698466107837 4.84678284889415 0.959088951626413
714 7.31217828591867 5.56258418584 -1.05736701565134
715 -9.3908912012612 0.375080954303288 -6.99182305857521
716 8.22105346557722 -8.97640567774568 2.63775599938064
717 -0.84748033374149 10.395660533946 -1.24077660651313
718 4.32552159173494 13.4903087231703 2.22178913528913
719 27.1964128743835 -0.899852523997555 6.16367434401281
720 -26.6751813343719 -7.32052588459506 -6.8597734516932
721 9.90462972253229 15.2592763531828 -14.4712649070789
722 22.9101943759918 23.4157370081318 -7.41360531733206
723 -4.57188617475156 -1.74651360901776 1.49688952416128
724 -23.4101302947532 -3.28509824970173 4.65297088112145
725 -4.8234931887639 14.8849167346307 5.64333866804868
726 4.61566254604065 9.89398880877561 15.6051600110567
727 21.8849017474973 -5.99948665548269 -17.4972402028765
728 -7.95234591380125 3.0729801276063 16.6649628427154
729 -9.1088524820567 0.897435204925665 7.39424029877316
730 -3.49329621550823 -1.66925047190799 4.00737749052327
731 10.7028901773435 -3.35430021830367 -8.87602378385269
732 -4.14119404895496 2.70698445502137 10.0817781001155
733 2.71341278267832 -6.99377268026253 -48.624417167501
734 -18.3043170086374 3.92911530619703 21.0618754029805
735 37.8635987619817 25.2316834630004 31.7179981884368
736 -9.76623034014662 -4.20494353036795 15.4729905234108
737 -2.43157811560468 -16.3938925751763 -15.4994259987182
738 21.3735858858822 19.3489774335264 4.34652241978772
739 5.57283283841664 11.9518056859484 33.2793647884785
740 10.8964774217999 -9.13050882948055 -26.3582457069838
741 -12.0901840404002 0.920817868116973 3.97309423774284
742 4.45007731147687 -18.4247180293675 6.13130302842582
743 5.79002291247391 10.4382557303952 12.0183174546906
744 -13.0366069460368 11.2869504094583 -11.8399883475499
745 6.56266940860849 10.9614089713907 -29.5294824557135
746 0.789896141225385 -2.54162368633038 20.8870882350889
747 -13.8872469924999 -6.64225416768124 3.14984340064566
748 16.8917369853154 2.76806588420123 10.4780393081674
749 0.904757114657274 0.617081325888009 -6.45327933976609
750 -15.7333799126015 -6.67000236395432 -5.6558969303033
751 -13.1644495888124 12.3399257527999 -4.76404322435525
752 7.47413491047714 -7.41525782964107 1.66752359246481
753 8.5378506702829 -7.65824905006581 5.55244148238603
754 -11.8770898208809 -13.2377774653802 11.3554740357045
755 11.4943852741948 11.4441432569735 12.2269455627418
756 8.51111037296472 7.99737063432884 -13.4057008234465
757 5.54983118058063 7.61450482958009 20.0521204932965
758 -11.5574508989264 -1.23546259548504 -12.6097760612775
759 -10.7693934231788 9.33898763402125 -23.3265720160287
760 14.704385174129 -5.46147638909665 16.3512529991523
761 -0.764236131550329 -4.66615317432854 -7.81268463916057
762 20.5413299661954 -10.5180431735075 9.63128143791285
763 -7.84301159102183 0.597030803324575 10.2402944963272
764 13.0335194334883 0.159143891202311 -7.24030028837068
765 -7.28937992660548 -3.51458587469066 0.716958751089534
766 -8.48759519600824 -20.7942716598896 -9.46588668463102
767 19.1330736713364 35.3911617447697 7.11228173914778
768 -15.9544525842354 -29.6736987814617 -2.1696445958061
769 -6.3882732960303 -8.03108170606631 9.32771036004198
770 9.672444542149 10.4891762474395 -4.99271196987095
771 -12.5951246559964 -7.71838440671249 -0.537432771980927
772 -4.84749308746308 -4.38858108687514 -12.6087010080537
773 -2.77990054590352 -5.95376802346373 0.0731294938039405
774 7.1426349947212 4.00917398361715 7.23882973133284
775 -12.1442515866436 -23.1406379299943 32.4911287098118
776 9.14974796315053 8.76928402054549 36.3697745174798
777 15.9081191349589 -10.3901072549133 -25.2133716586822
778 -39.5721544384916 -0.32628090275088 -11.3272090176298
779 -16.2628347617145 -12.0357357485471 2.03985760038175
780 13.7195091831156 8.62237127511865 -6.03184894188957
781 0.627170919995737 -6.23071187516098 8.18709086490541
782 5.30396614522981 5.13947011030906 -0.047022476002474
783 -0.274234540945302 6.42686428674123 -7.14390696871205
784 -29.9657644529098 -26.0655730004581 15.0665493012722
785 -1.38013214306185 0.27371690723417 -1.27948729399221
786 13.3677169421348 24.2201953170503 3.14533631490487
787 6.63621703188809 -41.4820660928009 33.3112775299106
788 9.39326475969962 22.9490261794641 -12.8643852278319
789 -23.2194443434039 11.35455373834 -13.2813292361669
790 -10.3642551525092 -0.340847711523026 27.2926234077616
791 -1.12220625137181 1.28598875808634 -11.0483255817952
792 19.596089738075 -2.65444721664024 -13.0682782562709
793 0.183913203403101 30.0751518815376 21.9498873575217
794 4.84921536100144 -21.2166949594307 14.7240044924271
795 10.5243110998803 -11.2724848009836 6.82080530907673
796 -7.79908933239807 -13.7119324255346 24.0719331046873
797 31.3393250831062 16.1586966896995 3.59268013618378
798 6.74942056887223 17.8204791900353 1.50121181676653
799 -9.77298202551678 -20.4929095774213 -0.437777907102353
800 -0.0834171130471242 7.91232527695142 9.59064469621926
801 0.191564513276487 18.9782171578032 -5.00422007798707
802 -6.80656463936772 -5.56797786428851 7.90125676446039
803 20.254619691257 13.8280284598136 5.20553682084011
804 18.5487706679322 7.19003358847065 -18.3124005303485
805 -11.0494110316251 -8.05532462618254 14.634396390963
806 30.1868909874328 1.72942760746787 -0.707484045902507
807 3.97680314648517 17.4189884016487 -7.44926435968345
808 1.22185683855006 -15.989305445037 -16.4525147814449
809 2.30780304308351 10.9521130849422 12.5222951685117
810 -10.3298025829855 2.80466057871137 6.2045816402831
811 8.16482121629028 -23.0839577626116 2.0707202626275
812 -7.19096667966861 20.9631006555858 -4.46415966173726
813 2.66238766890439 8.78078341090459 0.153699987648073
814 -4.87153785276242 -0.609370521906791 25.3167079743202
815 -3.1245172186675 4.92320991500816 -3.90106948514722
816 17.3040355645255 -7.10957343718329 -23.051728776942
817 5.66513393603263 10.4984100045941 -15.7817272519463
818 -9.48701452631365 -14.6439472994824 6.98200734229756
819 -7.19290177894224 4.29622198723875 9.42849069447187
820 -24.8790711321044 4.20816108411877 -2.33669877142479
821 11.6173360310581 13.1656860973829 -6.93545065332978
822 -21.9014519077931 12.2606866714397 25.8401853205342
823 -36.5414713278468 11.353293881993 -17.6306597502777
824 6.67762875886894 8.1833779635766 14.0366257005951
825 22.4122582248947 -15.5518141848562 -2.55702912080913
826 46.1401689907368 -0.618630151339384 -1.28866600106124
827 -29.5132053694384 -5.92890709846608 13.5481926202155
828 -27.1400651749245 9.0125855369016 -21.4477132111933
829 -0.0779792263664801 24.4742964008067 13.2034199203495
830 16.1202564199354 6.99210168679329 8.74851693704152
831 -13.5615791252735 -13.8171482242113 27.9447146712457
832 30.1415104534353 21.9950631849852 -43.1431675010052
833 -11.519413144764 -1.56893810772227 18.2216255446386
834 1.48075356601485 3.7961658770231 -3.8536993556375
835 -22.1751009939158 -5.29126837751762 -7.77781058413435
836 -11.2018196980156 -4.16568081612677 -3.76891688749286
837 14.9188789535263 -7.85767268552444 -8.67412208872041
838 -2.95471349367648 20.6953390751663 -13.2067345119737
839 13.9200189159559 -9.75867583908821 2.17389805773966
840 0.285035966182249 -8.60284849862462 11.9699294019381
841 5.54040512824484 19.8745450361657 -16.4006791895541
842 -5.36766904054793 -13.9276910617083 1.02398896378019
843 -11.3786132925272 -6.44876170667452 17.3204157587564
844 -6.05407153614787 2.17734141336241 -9.01749175969872
845 3.44743621155877 -5.1985190904372 3.86370719300677
846 8.89779055133306 4.01104890317669 0.983050306331642
847 22.266641074244 -16.9202468885003 -5.90333778114497
848 -3.86482184408598 15.6550254127076 0.214005495875146
849 -9.6955538175602 8.28250869240781 8.79698524567282
850 -9.73716525159281 -47.1638228714103 7.76580569155168
851 -1.5524155201159 16.1955027456417 -5.84494004114809
852 10.4507703200018 26.9727226897771 -6.35617109004806
853 -12.2911633766266 29.7223852532073 -15.2995451015893
854 1.90114139687831 -5.69134538340291 4.42195264375957
855 24.9293624375276 -14.0925686819581 12.7173242335878
856 22.9227325551662 44.5778816857106 38.0440654496651
857 2.01596610968485 -21.6486496440397 -0.891846249632896
858 -25.6547677472603 -22.7851628303611 -40.6550256666016
859 -8.20096744815886 -20.0516557301037 -9.00768416585964
860 5.26620661476388 14.4685200949377 6.64451800352506
861 4.13992586694752 1.26846469940199 -0.349094850382922
862 18.6948225700411 -33.5727719008613 -6.90385592416932
863 -19.8479489333065 -1.34557343363939 -17.9286438417592
864 -6.56781546674836 42.4349123629405 24.4215940038699
865 25.3496716103648 20.1429280183169 -35.9766371528801
866 -16.1544706586077 -5.65245973809104 33.8843455451694
867 -10.0845012148412 -16.9962286845799 -0.00480775179704926
868 11.3116750844921 -18.1443569545997 -0.725205477929332
869 -9.78116699793525 16.8115067297526 -3.31076452265506
870 -1.05663324499914 -1.06542041488551 0.19828227223856
871 8.45849779947015 -15.8644177341391 34.4575464087447
872 -13.4405503439133 6.66663090082576 -29.6738051387721
873 1.30293747341071 -1.31770819388179 -1.02660101988183
874 -8.46326125643595 -40.723526216106 -1.87266175226924
875 -5.24231797145581 8.68327272120734 -3.06464307175611
876 -8.90983278910241 7.64397473769586 -10.0625918677012
877 -3.12233402609145 9.47084572782413 -25.7103817010267
878 5.18064349659621 -9.96071960908488 16.3503312167575
879 -5.04815428809624 -27.4708865551772 -23.5127265840776
880 -8.45611431313522 -12.1769462900096 3.21532612596144
881 -7.74322054163989 12.1261846459752 -9.91504606977867
882 20.3643307138372 -3.94723105535304 4.05929783385345
883 19.9023137594284 3.2188444793804 4.5758182050173
884 -9.3411323945393 2.79739727501613 4.74073042967296
885 14.6623635895968 4.94161433573293 24.7549345738097
886 0.329897240332796 4.22123105246786 -5.86576502780141
887 -6.75402939718644 -12.5725524959599 3.92133900561483
888 -9.29651938498187 -6.09271097048569 2.32842914365775
889 3.11964449880311 -9.57346285083666 36.4958647199567
890 -7.05588224470153 -1.96739143789718 -29.0319887899241
891 -2.9279171964922 10.1008951715435 -11.0828474114733
892 -1.81407266124912 -2.77602270033679 11.542530510599
893 -7.91874300106518 9.557955605497 -5.33442237666005
894 14.7026191282056 -4.12897718297033 -8.36318341005339
895 -11.8934254426857 1.61949853449378 -28.0087533587979
896 15.3893771261826 2.10059158719834 4.52808808643118
897 -5.63336643810658 -5.02207994294983 25.6894677243199
898 -22.0290750175652 -15.9735040234385 -20.7326471657807
899 9.17286948214104 20.1081040002798 4.95525883762481
900 14.1711117564077 -2.73979944541164 10.9410517500264
901 12.1033062819303 -25.8941503983015 4.00030517914412
902 -14.229130574242 17.6353310258374 -15.566525059675
903 5.18486372941825 3.04721404603249 3.80363539574676
904 3.32915578065303 -18.0826480618825 -9.30134352425729
905 -0.0367532966989308 16.6357023355904 -6.49219369876124
906 -19.0039454361219 3.8191139318688 8.08336197789672
907 33.4162625060442 65.8572213825017 -46.0326522493064
908 -19.2499433440904 -64.0069718372691 19.7571843058726
909 -11.6247822842036 3.72726245904548 22.3553098160953
910 -10.9912264464105 6.38353470451037 -3.31523366852434
911 -5.11496883594868 -0.229962352700263 -5.60472877552712
912 9.11019791968086 -10.4536442684605 13.3405225649288
913 -10.245212151843 14.9403382902867 -18.5116147028223
914 11.6062942863029 -8.64538043015058 11.2632637586056
915 -3.88256368163682 -3.68054984019827 -4.54389300074747
916 25.4384520753651 -8.09351121105815 -26.5543864616789
917 3.14592372910654 3.34663640065313 20.0154570867785
918 -27.1125514899571 -1.80741308452572 6.37814210653196
919 -28.498134724138 -49.3642049549153 21.8862629438535
920 21.0913089094114 15.6894382943763 -13.2554044217082
921 5.44698100239388 26.390026123308 -0.578368769804425
922 -9.48161910106442 -16.5653501289857 9.61128016214036
923 16.6259062188989 -5.31831193758465 13.5311018801728
924 5.10305696803185 -4.41605893425727 -8.76712293431732
925 -23.0731425418071 -35.2792745997587 -12.9420158638218
926 17.2404435835612 33.1503314224097 27.7628221597609
927 5.46665915400257 1.31055511767561 -17.9495642771318
928 -9.60464796107439 -8.84503697292892 -0.86437586788743
929 4.9253044441225 4.16119105777721 3.4124769292663
930 6.49704953031452 8.5114823735089 -2.42383424572077
931 29.2376396871969 11.621775950626 -24.9920210520543
932 -24.2767479068218 -9.32153138425064 32.4414083292827
933 -10.7386009630536 0.0935876098840827 -9.20720196879012
934 -22.0629049443864 -2.88963523785626 -16.7933958204416
935 5.90323040093725 4.4799980802527 2.97908493130516
936 10.3157742198391 -6.02124443513855 16.2798692134868
937 2.28384688264103 18.8571287189453 14.5356408533368
938 12.0504015756593 2.45497857741547 11.1213356266987
939 -12.9692917757251 -15.6216277080613 -30.0927383091627
940 24.6361538015051 -10.7707772762716 -15.2519779840567
941 -12.4491842614132 1.09827377097278 -1.75974741870358
942 -14.6969525286575 6.59387837875655 15.8686168061022
943 38.491855649871 -36.1051449683618 13.3007764284926
944 -8.52519291797098 35.9019337830141 4.82639428900283
945 17.438062478248 -29.8783080285512 -39.8798507500409
946 -28.5778596187908 7.65347683717625 -30.0440331512665
947 26.1608435434608 -1.31641074145288 28.1041620687603
948 -10.9540802276161 -16.4802682076768 -5.87441720405407
949 0.501827256634809 -2.15285603592934 14.9156086981922
950 5.41907100677388 17.7366649648126 -8.00323169707626
951 -8.53241671513318 -12.4041587236201 -1.82902993677512
952 4.55999673505248 -6.47761235834583 -6.38170376444304
953 -22.3590261851897 33.4176143526506 20.2108089226536
954 16.6038145010886 -11.565561490136 -14.7065230932424
955 43.3553115718573 5.7853646913246 29.7904380958015
956 2.13881369930326 -31.1923762342425 -1.70026095053886
957 -33.0230711788207 11.7387176417296 -24.1836790010554
958 -17.6074995679317 28.1954706998084 38.6657318878046
959 -11.5114907051511 -0.751912840783766 -14.5446730275074
960 5.42692850542341 -14.1798260955117 -19.649056410892
961 13.05945121904 56.7302739479406 -19.7584007799196
962 -2.71272507795133 -10.6872114980559 4.29299034993414
963 -11.9250690421841 -34.2334858654441 4.09436069777599
964 -12.9902863118813 15.1262679384917 -8.92686634757607
965 14.1212027134828 -5.61511890537557 -7.42205662735797
966 3.26423814526355 -4.74200969882498 14.2968629152014
967 -24.2917622396235 -11.8145671664218 35.8971822548304
968 3.81590387303934 14.1956880071182 -5.05661751406864
969 4.05623785567081 20.3784762342116 -32.7408610683168
970 33.4109333049568 31.0451688423991 -27.6384735995182
971 -27.1372795372229 -13.3495018956547 24.5987528359454
972 -2.07705624933233 -24.6285916445352 -21.4681854213405
973 -35.9441283946856 -2.68303251929503 -0.855658375782155
974 8.50520656317863 -5.7342732667544 9.62391064790681
975 28.196248378578 7.59974667875008 -13.365023145731
976 -19.2719608930523 6.22881327167986 46.0118010041838
977 0.475798625996206 18.8333432792563 3.60464808420478
978 0.322944446921034 -0.245245093279965 -5.17598875349374
979 34.2071453762482 -12.5518271045024 30.9534833239342
980 9.35790128774365 -5.79455736460554 -0.91986792424818
981 -47.7459534880639 19.3103459739561 -35.3566225821784
982 -6.21935160086104 -1.25344062284081 4.26804239783633
983 -1.50786296325897 -8.69240168936203 -5.47108452270099
984 3.03539559362723 5.15098763123353 3.24172552030231
985 6.17982668644814 -25.1547031891539 -6.30287151038151
986 -17.1574270546868 29.4150085367632 5.50794506518264
987 0.935309796341338 7.06580031902714 -14.802784003482
988 13.1430051466607 11.0268880529735 2.28681800975272
989 6.28385506830331 -0.810042652775101 4.31681509338706
990 -23.1455843297428 -2.78872444253141 0.183678659041875
991 -34.0856797790454 -59.8493159457614 -35.2388891237265
992 -8.24315739076581 -16.5666943362927 -28.1115448678823
993 11.9969666932614 51.5727435802609 -20.407764680317
994 -3.17365102372473 -29.7002601425945 -8.6365759812989
995 -4.82712879139871 -15.2895214849101 14.2002458592552
996 -6.54566576153942 -9.95287872562267 2.3397006947679
997 10.9532704964075 -18.1373412330904 -20.190935257967
998 16.5618922071496 12.1791127556217 -4.7291453638089
999 1.40885026222225 4.16956096411793 9.4621830881842
1000 -17.1190973859996 -22.6633085651079 -8.74386380911177
1001 10.466768839554 4.94272855771042 31.6477685101208
1002 -0.612019244420998 12.8383300578719 -31.3982715320871
1003 -3.90780020217438 -8.28876155998526 13.522171454773
1004 -7.77310527527943 -6.8871634015933 -8.5914879871465
1005 15.6534414231607 5.09672231369457 -5.43187003850555
1006 2.30286070858112 -11.8340390832697 6.20652175543191
1007 -11.0037838423567 12.7858471104186 -16.1024735332229
1008 7.33285681954115 -0.890936175108281 3.29000963106258
1009 -9.50656936821659 18.7560903160865 -17.5717181967486
1010 -6.47973820875218 -4.36668790683106 -2.26399979999765
1011 13.2273030602513 -22.93797605072 14.8992727595591
1012 -9.28772996182629 -0.155529554822896 13.564442459918
1013 9.43142774812867 1.08984744464759 -3.93357639988039
1014 -0.141098410517758 -5.32473365153921 -8.10019661936858
1015 2.57041695976188 12.3443342679925 -6.26320869847051
1016 -1.06333961392215 -0.828084891638921 2.49494246300465
1017 2.58262430165322 -13.5045517544414 -1.99746275107965
1018 -12.5067132059509 23.442530191882 -1.86596014669744
1019 9.48891001230682 -8.11216006994198 11.0444781686672
1020 9.2054356640554 -16.6262953627914 -13.3426076531688
1021 13.9195318450091 -21.5378366027596 20.6383981772046
1022 -9.11933032809524 7.02031987320026 -8.00043084273041
1023 -5.03874033642895 11.3618681217897 -4.10276360937756
1024 8.12512218317613 -1.41910699383429 33.2116293337735
1025 3.054757139421 -7.39086073079949 -14.4481157482464
1026 6.73589806128305 -3.22042729215225 -14.6855949893729
1027 -13.4336823688763 -0.155728093755293 -25.3893140785811
1028 -6.31741695570461 19.2557544441668 17.4936395602476
1029 14.2443555913314 -9.83748609652202 5.19307406283891
1030 0.479586263833716 -14.3384347531088 3.10118512993607
1031 -7.90525507106534 2.35726446538993 -12.9555440559436
1032 3.98267067666266 17.4348039595553 20.6068395062997
1033 -24.2235573584242 17.5674960068973 8.93428634431319
1034 23.5685943635008 -13.2521281859643 9.20376813261834
1035 3.16615637704908 6.65558837091649 -8.59732514244173
1036 -11.2890216805505 23.4520633190976 -40.2445134991312
1037 -10.1591600371938 2.1905857905298 8.15910029496544
1038 26.5642401242715 -21.0472051598434 27.2252998215235
1039 21.3078067522291 -46.2918165446234 5.0951839854558
1040 -1.74822112418016 7.78025140748017 4.23481135996537
1041 -14.8754851043648 27.1635042175725 -9.63966278365062
1042 -15.1526656185108 -29.0893034645629 -21.8396225930992
1043 6.50721952491825 15.1959602397146 0.468208011939465
1044 11.2156804411281 7.7447356748568 25.5839792316978
1045 18.2007320812938 -12.6477684037407 23.7535207459057
1046 -17.3882430383512 18.0608843884083 -20.6153766076857
1047 -0.66348184895052 2.1792765424202 -9.18851653444672
1048 -41.223333001704 48.7813062653288 17.3601855007724
1049 6.68353863573044 -8.25043234126472 -4.90685755207123
1050 36.1059132250542 -16.9965882735819 -18.8056922019197
1051 -24.6166812488544 -24.9823211089017 -8.74011854729926
1052 -5.11499754118791 13.8829033218789 18.8533282315066
1053 1.16598578795797 -10.8566631154922 6.57722291849282
1054 -13.9765074740967 0.915934058040304 11.6250237039058
1055 8.95446786036348 -3.4518433573826 -6.19837185884551
1056 0.269113456136042 5.74499555169031 -8.47094038342463
1057 12.3704536102619 -32.1217235398165 8.10400578185766
1058 -9.38034925582126 20.4319488918851 -14.5446510464431
1059 -9.16200335776801 11.0069498891867 -1.42026485094064
1060 -15.8971371030484 -13.518571410791 55.2962410999901
1061 -9.82056431943216 16.6108528422571 -19.4344183921153
1062 5.73013573681437 -3.59319793227567 -34.8334920709933
1063 -20.3299299641327 15.6460519697736 9.0979371441494
1064 -1.35105231957092 -8.12266429678706 -12.3909759522679
1065 25.0455991258414 -6.28469076811105 3.64697240443154
1066 -4.42348116943418 -17.3647957067735 6.9954562949372
1067 0.111351750351323 17.5468866139454 -9.43895089146857
1068 6.56548424118221 -8.73381383763184 -1.7573599843176
1069 -33.1323184649381 -7.13142700697806 2.35691928684951
1070 -34.5078456325925 5.68257423850394 31.7191709282315
1071 1.2738925500333 10.1876875461349 -3.46861277191136
1072 -19.1897198768951 30.3227838907507 13.9013380572298
1073 12.2827765970144 -0.952351522284303 -21.073067955971
1074 7.90926984596319 -19.7965580066557 3.33950983414
1075 -11.3496918624247 -5.78609770551641 2.35395529255966
1076 -1.77319989567642 12.1981678943086 21.418581183283
1077 12.1137949535918 -2.14421013671237 -24.0647583333455
1078 -20.9592353790862 -5.57775133014848 62.8497376502627
1079 3.34430664885308 3.40268635795658 -32.4995547127297
1080 -8.27822045721577 3.10362362272806 -19.489361513032
1081 7.29674606959599 -5.2348300241855 14.7660764131257
1082 10.7741482146482 1.87293481488919 -11.6343899903988
1083 -21.2150647085321 6.09339272438349 2.76938678360793
1084 -35.4239159202489 -12.9380409034 34.8190971831187
1085 0.319847512860483 -13.7132061182224 -11.2258395607617
1086 5.60857715229831 -2.21665887304715 -6.43202521274242
1087 -1.45743309528454 15.0624112321546 21.5101534133473
1088 -3.71718227360321 2.04784273242101 -15.8856926237537
1089 0.349024823838913 -27.9570623106553 -4.0295940030303
1090 -13.6619586494024 -4.45140755485069 -11.642514414357
1091 -11.9888030107581 1.64067683148084 9.97332685175304
1092 16.150869184949 6.54783995212928 8.47675022422646
1093 6.76505426681086 4.71969239979287 -3.46822773137192
1094 -9.8285982418906 1.50677547198299 -8.80224629813281
1095 -2.46073565605139 -15.9482104552195 8.38588943221234
1096 -3.86964997459641 -24.8899549894442 -36.5497502605015
1097 17.6447046395943 10.8488336852952 24.9412538862117
1098 -8.46262644483618 11.6424022441769 16.2747017742843
1099 -27.2792107600321 -1.32527676599562 -8.63897366488304
1100 1.06126230906737 1.47655230978225 9.52842224143926
1101 13.5939716509447 10.4850013687084 -4.87942551813895
1102 2.99102577911122 -8.89525164462878 -21.1890498027147
1103 11.0301925905908 -12.8714402002947 -1.50173155177865
1104 27.2759714923785 4.2946807116933 54.8519037650201
1105 1.21086596453866 11.0033864411443 4.15094170016271
1106 0.257635039129244 5.52272305148962 13.2558894293876
1107 0.681682963652 -13.1350283065552 -14.4651816270755
1108 -1.56543696150557 18.837942320672 3.53999847722819
1109 14.92244065059 5.39446653805529 9.09774403488344
1110 -2.24681952123838 -4.97982880712391 1.58680083721725
1111 51.6734507644114 12.8011285251167 36.6727571212788
1112 -14.0474134145802 -28.0912155389172 -7.0120586028753
1113 -29.4605192114368 17.2634602504474 -27.8714078576171
1114 -17.8249073204967 27.8964753514533 -13.8022826248079
1115 3.13866086349879 -13.310764266232 21.6105064361832
1116 14.8929368777343 -18.6805758555535 -7.27579871995168
1117 28.6767398579815 -4.22547781733058 15.2905405567828
1118 -7.02578144901628 -0.274719047070381 -11.35769792433
1119 -16.2621126986006 5.4572751000633 -4.79213167107091
1120 -27.7932928518124 3.14789714686984 -7.27278968529687
1121 33.5224109200188 4.37283167187711 23.9438587788568
1122 0.856501742976946 -3.11534334405116 -10.5100420204507
1123 -7.34136419847613 -28.5680498434832 -17.7464987346782
1124 2.59968262517572 16.3497506789159 10.8549175488607
1125 -4.03964384908976 9.99905457455468 3.16011607399921
1126 -4.03937462393752 -31.9125318326719 19.6949605317398
1127 -6.10055589239729 3.10185124758377 -14.0907145020213
1128 11.2038579541639 23.8480446097809 -4.65199401352602
1129 10.3477268377714 30.7619186470956 -26.2686276444004
1130 -9.92469654446789 -16.7485396068533 -0.187625899852829
1131 4.56651332092711 6.73468349747051 -1.272364628105
1132 -23.4488099576262 17.1740276928292 -4.02241877204044
1133 4.22399000532113 -7.03091875469888 -7.9210765875766
1134 10.482521628645 -7.11468409974904 3.94224633380058
1135 -49.5320493492061 27.4292162710433 5.69406874430536
1136 16.3000064992876 -15.2002562471767 -12.6968249672711
1137 -1.68342980174854 9.67834551638886 9.04236960181158
1138 -29.9641996694896 -2.7997723621281 26.6495729630531
1139 10.3859215406796 10.1538736747331 -1.44009471651531
1140 3.72057564788299 -5.81206500590696 -18.1139963233067
1141 -46.8910718229713 -32.6531910988955 -14.9701040277879
1142 6.46494488942618 13.3635182196877 -18.6409154963696
1143 -63.7660426516754 -13.1990218160305 -27.6765743920911
1144 1.16462940698156 -9.50647747222012 2.41440734902476
1145 -10.8385157536238 -8.45241868198302 -8.673470154777
1146 -2.30564701233436 -5.21762240085864 10.872499196982
1147 48.6347174012094 -0.968481564283337 -18.1959433069335
1148 -43.1469839468522 8.26877105352842 9.6934572758972
1149 -5.91424181156989 -7.48341730077487 6.23609910568935
1150 16.1121059781406 36.6255918891797 -2.00158722555708
1151 -5.55567400771299 -5.91275047119201 -0.205053485542474
1152 -14.6380573425502 -8.75904525215314 9.0880050758429
1153 -28.3973717660502 29.1547487561239 5.68012035220101
1154 24.2306130373495 -12.9554187851966 -12.5015104390563
1155 7.80721596827942 -29.1012898505783 18.872518321857
1156 -2.58105693373724 -29.4697820112307 29.1751692367122
1157 3.79280897221215 12.4433522042791 -14.0184674913407
1158 3.41645592390555 15.9473775758797 -0.0238315548128205
1159 -1.76172376185781 -5.77220973865966 -17.7205340829375
1160 -3.5965957949698 -9.68439131091407 -24.4681408897671
1161 5.97409901503239 -9.65916570512678 -1.54869392628638
1162 7.64114495596051 17.1642549273929 -18.4441786088529
1163 -8.87675763683184 -7.8497476036408 5.41350640258729
1164 -4.13946893406747 -9.51278542186083 0.786872101125002
1165 -12.0946328486042 -4.10531437038002 -21.4127220564041
1166 10.4658032265027 10.3484548574422 6.97985388661012
1167 -3.88631118502577 4.38709708424898 15.0871108033262
1168 -10.281712494382 16.3730044095342 -13.4010237296648
1169 -30.939933258376 5.49117157931325 2.74785342776852
1170 12.8683578143347 -3.04501958688941 10.5385011163942
1171 11.8975323510618 5.1010746154944 15.4151853547144
1172 3.07297495409916 -7.00158714712678 -13.0988570320292
1173 -5.08520810227825 -4.22997073385056 9.08993873605577
1174 2.83931773738412 -14.2114690266966 7.23951265622288
1175 -11.3187725809019 8.57410798043951 -2.04447489034974
1176 8.98240216229685 4.91230747353591 -6.21580123823325
1177 -3.88657201223975 13.1033957965126 -17.2398390674449
1178 -6.10569023644702 10.3885548636071 -18.8410106197087
1179 3.82999736741939 4.8243539254551 -12.7162329083081
1180 10.5231414694871 12.155730735435 12.1692666681513
1181 3.39747920960147 25.6513595482145 -12.7593490872941
1182 -10.8573780843436 -13.0868024086054 -15.9523868184041
1183 -10.0576073340356 -19.396992494886 17.2994956835731
1184 -7.33101290755223 10.0190944192937 -14.7912909674854
1185 18.0354511905747 4.77532781851059 -4.73443867813405
1186 2.04206219220359 2.1521603304901 -0.334020059613644
1187 7.57357839952653 -17.2005655143744 9.26903901881703
1188 -3.17392769240232 13.5797446071685 -5.73143361342526
1189 28.4766138276287 -22.4241487590311 51.882820666542
1190 -4.80956892949436 -10.1652623446862 0.144451810260804
1191 -18.1817292795075 26.2923359901787 -5.47956670320073
1192 -20.3761718753012 -7.69366639823261 -1.90844070960587
1193 11.8874668005959 7.5543272091948 3.70917297394448
1194 14.4045120608272 6.73163480814127 4.40979840520837
1195 -27.9836879832375 11.2302417674664 9.056074408454
1196 15.4314203098094 -34.5520595805423 -37.2171065092859
1197 19.2506855363177 29.7447607854992 35.8747856646771
1198 -33.5163703181452 3.12328859293426 14.7147376356508
1199 -17.6746018449741 -22.2494481683145 -7.97653784015047
1200 20.5741962553794 10.5808530462722 -10.1009942101428
1201 -33.2527585672255 1.29738950785895 -22.2481704007551
1202 37.8332352026775 -9.2173241767268 23.2641604321574
1203 -12.7856088455671 -0.217444917843781 -2.07797812295254
1204 17.5200530634289 -1.76431505401326 -9.51729156070642
1205 -1.28734215239462 -2.08910851972029 7.75045956793263
1206 -2.59701664350554 -6.39602345215941 -0.553436922734289
1207 -63.204159651329 20.7026882753393 -2.56897241148188
1208 35.5594685716938 0.216200125330671 -13.4716350058735
1209 28.9999975480652 -27.4710441139819 14.7628123907518
1210 -35.5858078320511 14.5008886851411 -14.315809712407
1211 16.2410306050117 -9.37907017657768 10.8000864720692
1212 3.76730937527418 1.18472225030483 0.170371763664427
1213 2.91109883474005 -3.4116176847174 -15.6417308124437
1214 6.35439672889179 -9.15903431789254 2.6259754175422
1215 2.44985801471667 7.13195489559919 17.1258122632302
1216 -15.7744534340869 -17.7487749472929 -7.08219116852302
1217 12.7292050299052 1.96851789739631 -15.6598383012918
1218 0.450671046986603 15.4242194706287 -15.2412115689061
1219 32.6041921229347 15.522296595135 -3.26851754646463
1220 -8.99951896075073 8.22315094254365 -1.82785924654059
1221 -23.4495979995224 -24.1552512711293 3.30953266745977
1222 14.0159260677833 23.4780973558361 15.8030537330188
1223 -16.0868683151199 -18.6206973547244 -36.7059481625375
1224 3.50998082761374 9.16855658631811 15.8205391460667
1225 -3.52108797287529 38.0996851298008 -7.31308284567473
1226 11.722724824098 -25.3456012913802 -0.73108074748841
1227 -14.5571952607322 -10.7379967060466 8.95129376906951
1228 43.1690352880457 -43.6486264892786 -1.38080203598221
1229 -0.0640252468324756 -0.617972914800288 7.66851900905846
1230 -40.198962502714 42.0391260122191 10.7814285387274
1231 5.32589472974244 15.8049735348699 3.87392333641729
1232 -3.92064643133697 -11.1820576936402 -9.7586585846011
1233 0.42640414815854 -1.98677056430533 1.11501631143853
1234 -43.714092449043 -50.4417339724191 23.3834056283395
1235 45.1959280227779 1.06947578982431 -11.4649578134332
1236 1.47734061683951 42.7355795263371 -8.50650254861371
1237 -25.714491293593 -6.16930933710716 23.195237432314
1238 2.91017837280381 1.84461573092133 3.11897737343812
1239 20.288183993398 12.6469607531283 -22.3463178338791
1240 -27.2885596304972 -15.3039941926684 -34.3749798272795
1241 1.99210064848057 -3.60512538651277 23.9925829132205
1242 24.1469314826107 12.5271256498891 12.2366073437152
1243 -9.71469716213624 -15.9974709584923 -1.61964432919505
1244 1.52105111283879 3.825689447008 -10.0095460364376
1245 9.19460889488195 1.35503555137542 6.98148457656663
1246 6.2902804119549 14.0118815021337 0.937766503543419
1247 5.37302227481625 -2.99127326502229 -7.97967499319769
1248 -8.95044380980255 -0.174675531659747 6.03374934604431
1249 -42.173931404019 -20.646458346015 16.0981682639202
1250 20.4680362406944 19.7062914086014 -7.50539215627605
1251 9.53865717232027 -12.3819074325617 1.53404966785674
1252 -15.1105876740943 10.6061034583487 -10.6303775992615
1253 -6.1841023342853 -18.6471465997267 7.22661382934097
1254 -13.3673953125435 8.56841200801991 11.0215733882565
1255 -16.4718606893606 19.3107032370055 -13.5250476675005
1256 -2.13200677453548 -4.77078942170753 9.88709477407662
1257 -0.364635879274724 -16.46992180401 -12.7208707645952
1258 27.2065522834169 50.3751874826053 -14.141883549316
1259 -12.5295116007844 -12.9207936775224 5.36099607004201
1260 -10.3867936384413 -44.692857588104 8.51081206501245
1261 4.71280195647885 25.6121916828997 13.0669115673089
1262 6.65776780971663 -12.4603709025962 -5.1956357579431
1263 3.82803920765097 -8.04613519039922 -16.1588221455974
1264 -23.5239103972078 9.72058176665093 31.8472004394951
1265 15.4642013686867 1.23558464481867 -29.9175396732877
1266 6.85234708552464 -0.338089318158008 -4.05117804791509
1267 -16.2340030420162 -43.7849483164552 24.6295261912096
1268 -8.01650410369234 9.49797632558888 -14.2236927878544
1269 25.7481221882308 20.0645354898084 -9.09466591734667
1270 -9.34367728352727 15.9708290557975 -39.3187786386059
1271 1.86557271249259 -16.0322347778033 27.135326078055
1272 -11.6488045298793 -7.49067848483113 -0.380860712721546
1273 -10.6131521643256 -23.2942452237755 7.60283071984987
1274 9.49546096000387 -9.73156856633828 25.6820539713853
1275 12.9489280779955 3.88753461200513 5.2480482073022
1276 -13.4889883223456 -35.9424920375633 31.1946175214656
1277 23.3745026052637 41.2259861446425 -12.5670599203866
1278 -6.92869465781065 -10.215646887052 -17.8729573130541
1279 21.765818124819 -19.1441903398375 -15.9054650460369
1280 5.07109170065398 1.14074860889964 6.12477023459927
1281 -27.7169110462496 10.4389110027974 13.1196379210741
1282 -2.91096867093927 -16.6900692785392 8.93521969790477
1283 -10.8554352417053 8.70649551209062 2.87894930999692
1284 -15.1731477268956 -11.4429450179237 30.8811290784163
1285 -2.32323307124069 -14.9331373349724 -24.4912378268319
1286 0.989254836538228 15.4398539385051 7.47721633383819
1287 2.58152441119576 15.8741700666932 -16.2495080094784
1288 -7.72782362409017 27.8533834827766 41.0069567947013
1289 -4.38596739092124 -8.39082010971754 -15.5563206275609
1290 11.147666868895 -17.1537983350415 -20.4668926552199
1291 24.4179914266204 22.0920336085172 -23.4110675877846
1292 -4.23663011409587 -0.976664338332275 9.51345296288494
1293 -18.3260107427613 -21.1366191925905 16.1181047816213
1294 37.8366705734047 -3.30343365407698 -7.64657638728386
1295 -15.255944714218 -8.36664320630997 0.948718826008977
1296 -5.61258004005579 8.74911614629298 3.77469136649991
1297 -19.7144873320966 21.4246253937303 -28.6225038871199
1298 -14.9260405093328 40.8664047163504 -11.3756920444012
1299 3.47355371314615 -11.2848105788146 10.9602446853435
1300 -7.12381913367004 25.1480881319511 -46.2147321025454
1301 0.362640614739115 -17.7117699495576 36.9086194554557
1302 0.727609276479076 -0.542270821298137 0.929192978095221
1303 -1.09044375109934 -0.423354872685829 -12.6241971946267
1304 8.37104545713228 4.24048102948418 15.7436215953978
1305 -1.69356782348491 -2.50880696341898 -6.88758059935245
1306 -14.3527304791203 0.521750504620207 -20.6413458003889
1307 17.7767417115833 -0.211326334678383 18.2966589271567
1308 -9.33248227770943 -1.75378568074484 3.05910968546738
1309 2.29370574067449 -6.33417524066559 -10.3589370971777
1310 -7.46366737373019 -3.10028226913384 -2.62227455643131
1311 2.03226319608482 6.05991939208331 5.68125877822669
1312 22.5450204337015 -10.290541039055 -46.653957836409
1313 -8.13320381996765 12.0508764310294 36.0644432762392
1314 -1.50410513912381 0.517805150405756 6.4123173776435
1315 -5.04036070944915 10.0403373718657 -9.26372995484898
1316 4.43687376344322 -7.12448040108129 1.71883434406606
1317 3.5592282235681 -2.72681649554966 6.15972608782606
1318 -29.9762012946066 -20.6872681268169 -8.49401945721031
1319 25.092892857755 12.4961376890451 16.3185209172476
1320 4.56111570646138 8.29227438463027 -4.08102420906435
1321 14.4761895583904 34.5956698466138 -31.5143213250146
1322 -5.51685734015815 -8.76857350300836 5.90908819561434
1323 -7.62542804819279 -20.5167527313376 26.8131575504178
1324 24.8513596386263 2.7442520846175 -30.2778277769146
1325 -8.4836348978909 -11.123749719948 18.6068467621821
1326 -18.5820497267147 8.74519976545388 2.94944413272312
1327 -30.8883769083083 12.2477640037598 -12.0434556199865
1328 -5.17282914780204 -12.7568903895418 17.5728685244026
1329 -4.38575313505913 9.18440131621262 -7.89088285310093
1330 0.888355522611989 -45.2035386969396 49.0436217410881
1331 -6.96209547330683 43.9374030676041 -60.9571409377063
1332 6.00978239933209 -5.08540462455177 6.69183795513658
1333 -12.8387314080065 -31.7172159602052 9.86587418845974
1334 10.3692419115362 12.3174280878604 -14.2004824460661
1335 4.89794379896673 14.5954591031878 4.12785687194355
1336 -24.5135614543209 13.0775979316474 25.9498589989482
1337 18.0397624538286 -4.20289694077719 -8.66550549652364
1338 9.8493822654177 -7.69127498973233 -19.7175334974033
1339 -23.019908058574 -13.534611930079 37.6689407208772
1340 15.5990383091447 23.3044546070961 -0.503478276015525
1341 8.43209421858914 -11.9117537488741 -26.8510751419353
1342 65.8563550981293 4.11201994610822 8.95824118958733
1343 -5.32941708481688 4.96748399853128 16.990347487749
1344 0.118129393195608 2.21889779867371 18.3499193371968
1345 -5.65736939859296 -20.946101185117 -5.78169560549073
1346 -5.35942376538392 11.6484639920432 12.2616012439536
1347 8.71634184952772 15.8600304748829 -2.84022533081133
1348 27.9647944712669 4.41293846872346 -19.1091780928043
1349 -6.75696936785468 0.543023767545555 1.15895624289623
1350 -17.8886813300584 -3.61356051845746 12.6352915857207
1351 9.0931976178868 1.33878428295696 1.14972575225903
1352 22.5397918962246 26.7296332244567 2.0079545749516
1353 -1.59195716012084 -1.85296805927739 4.56102671193581
1354 -3.40134070502865 13.3447616137002 -11.7860580367512
1355 3.99297035952885 -8.08512924471788 -1.51131190595915
1356 -3.49154124992656 -4.07715382079315 13.0106340816886
1357 22.7708663312189 16.4348917815992 -23.0096108874453
1358 -16.9293422509088 -12.6857994144801 26.3328062775892
1359 -12.8420619060018 -5.59824226022242 2.50835789140074
1360 -33.5869481215161 -4.63589971752215 34.1151192166503
1361 13.8809393505473 -11.2545383850724 -22.8399620551264
1362 9.23182464296817 -10.4025886124408 34.2285337012143
1363 31.6917040901746 21.0519977029162 -17.2556106838344
1364 -6.02617955885725 3.86691335165137 -13.7393745187457
1365 -19.2429557053554 9.57686813489739 0.808768150666793
1366 4.37201747829618 -0.635776724980885 2.16062060665834
1367 -17.0442706428255 -0.919429144345203 -16.8500236413064
1368 19.093785961652 -9.89211146867177 12.607555399595
1369 6.20367696316794 -9.39026215922288 3.34122444308731
1370 -6.91161805804925 5.6584621510182 -4.27340072862864
1371 -10.4636793650243 -7.4352036934589 -1.2817758012681
1372 15.9455507773536 -10.2945216269078 -60.5729934066132
1373 1.67555035312643 1.35168548339641 8.27184432318846
1374 -21.6521705858852 0.467028236460787 20.420120759769
1375 25.0348922337921 -7.77639206705603 -29.0377262608969
1376 -19.1389442187883 -1.83444764865837 25.9632033767069
1377 -5.90894627565918 -19.4433956562293 2.97346488051619
1378 16.0190010517425 -5.52050492677411 31.5555941801641
1379 -2.87961089540619 -14.0950591588946 -16.4103622753359
1380 -15.4113607825507 16.0339931355491 -18.4307513847168
1381 38.1533254265518 -11.9261268691558 12.3639297870346
1382 -0.023538667520372 0.460292802655668 -9.48732594752757
1383 -34.1905901980086 6.73096964649343 -1.95857063268103
1384 -19.9363176358589 7.85594200482231 -2.90289408872048
1385 7.61941533531067 -7.12670104321169 4.91752289444308
1386 7.4796323995557 -10.9920143209155 10.3779534968005
1387 -26.3151614740953 9.77479200121935 9.93266485459527
1388 0.34507664414127 -2.33784831545509 6.08948308876244
1389 29.5493464675573 -14.2601743480942 -11.8915662479885
1390 13.3265699188435 35.8604504328822 -17.3741907693923
1391 25.5438001190822 -7.58958018461255 31.1973801524501
1392 -16.4208869738916 -13.6102624680913 4.09132410122656
1393 9.32424412582475 -7.54563361085801 -4.17756376708073
1394 -3.35210334767864 5.74133282262358 -21.3927529355965
1395 5.22577491524269 -23.3881911866495 11.186663547735
1396 -15.9433964027819 -10.8139621109169 9.85787295506073
1397 6.60856027360254 3.90227933750343 1.43957359540782
1398 14.867826970098 9.68928344709139 -9.44779364124405
1399 6.12314109595112 -20.5589850918119 -8.18243428915951
1400 13.3406642792475 23.7296770595623 -2.14508919870889
1401 -20.1796539160178 4.40414222389261 -5.87286810245304
1402 -5.04827830804192 -6.46025705741781 -25.0326807768558
1403 23.5956678720601 -11.0811764712626 -9.20347405141424
1404 -23.6557054025192 25.6112283334005 41.0935207585334
1405 10.9400057679321 -3.00415348511832 -3.95919673499941
1406 -28.7169595628201 3.50060715242015 2.31630633401575
1407 18.6997740638262 4.5645482204601 -4.17504185602093
1408 16.6213749365289 0.710139515163679 6.15001420250842
1409 -21.8324095374628 11.9124552358804 -8.05268427566426
1410 2.80514996491132 1.79975777959806 -4.69384856142687
1411 -11.9110605167119 -1.0059538129486 2.44509797941994
1412 3.77170624434092 0.680549833246436 -3.57388385101167
1413 -4.41225734204646 13.8833962911193 -0.658442062369588
1414 -7.8396532003525 30.0204892874497 -10.0376087981526
1415 4.61984156338336 -37.4985746522649 -4.75998539056013
1416 4.93880655867986 0.872383539655769 20.2185144685445
1417 13.5439866057653 -9.44892862891452 3.52443686461978
1418 -8.21019778353083 -0.34889824435885 7.98064997037213
1419 -7.32491781829264 5.55383592057822 -12.2974589438243
1420 -3.2444042559302 30.8879765926306 -17.2995864086785
1421 -9.35648863622481 -2.29892292034041 25.3686276140534
1422 -0.578400482623498 -21.3333462424431 7.4483068619931
1423 -14.587729077109 11.7745087822199 -32.740042564015
1424 -7.53622481681829 7.65231671230848 14.7520863784617
1425 10.923317090106 -6.26487362008461 11.364743781612
1426 4.44333746510755 13.2979395273476 22.3369070258025
1427 6.67637041917259 -10.26015898912 -23.6432292508948
1428 -5.52860431464512 0.0760827689045902 -0.688174511705543
1429 3.28825830779695 -16.3085479126167 33.9969921684175
1430 -19.0924632248648 4.89299147996113 6.49930329311028
1431 15.9886376792221 0.949746613026535 -40.3491806643047
1432 -7.34621843277133 -4.76331340790043 0.432961697587429
1433 7.64638742408837 8.01999822609924 7.23255500640537
1434 -5.47727834682828 -3.34874357468244 -18.1963883558159
1435 40.927343444287 -3.55859836580306 -2.54522477918132
1436 -45.1677709341623 7.18206886532936 2.75666752096024
1437 7.19557278587448 1.88347927627594 -7.17971563343971
1438 16.517295142515 -2.20479361980989 -10.2525595045347
1439 12.8045575856156 -4.48107397457464 1.50712497967297
1440 -29.0477713761742 6.02182641596061 3.82071501405334
1441 16.107032559839 -5.16888452405157 -9.40829112739156
1442 -25.3804499521117 8.90489457722579 22.9856607395128
1443 10.1686347306059 -11.0391514048064 -8.03409646413808
1444 -32.4302806994362 -24.4901247445915 11.9299889695496
1445 12.2850701304403 9.50293145506126 -8.03483376627794
1446 7.12977388595733 -6.48003392973317 -7.08811788235535
1447 -18.7748587568857 19.5799780839095 5.00541691127019
1448 1.51372979523445 -12.1863400009238 -2.22529101567472
1449 14.453168681579 0.213958804289278 -0.874594825345483
1450 3.0246546431038 29.1088842528594 -6.98312747151056
1451 -12.5087507060715 -18.0727924584616 -4.40831190862656
1452 15.7002158968247 -13.2036433527201 6.20656905690867
1453 -24.1796933393393 -3.31955944283337 -21.5138256391241
1454 12.8448371046067 0.401911921484844 9.10740992842638
1455 -2.24177874010378 12.5718175907281 -10.9978876754654
1456 -39.3894750597391 -6.26774518972595 18.4703364506951
1457 8.7573571631297 -0.976221970625461 -5.0637660817207
1458 29.5852749936112 5.09926492100862 -16.0297322738092
1459 -10.1710455845824 -13.893130071949 18.6088261005188
1460 7.55891085496513 4.02934471924217 -24.4270703468229
1461 -0.624228014263601 18.0243142199496 13.4191121194683
1462 12.8404604191348 -18.8113676838467 25.3110593529217
1463 -16.1864234976132 14.2017798477851 -5.82090123604513
1464 -0.925087595354484 3.33713561154971 -16.8337011506528
1465 -25.9279993125967 0.206633871881297 -16.0567273194519
1466 -7.38292956772045 -8.99460155712113 1.14724655241611
1467 22.9874335899523 9.43940999333354 11.39339750589
1468 -18.3414702914729 10.8099495049199 -10.5528096736424
1469 4.33336374354073 6.98698385260678 3.0323045859076
1470 -10.0516046724756 -3.08927843493291 11.0450245488838
1471 -1.97436718878185 -21.5374424955107 -5.84692733650432
1472 14.6585043445704 9.4689342742815 5.12339399659332
1473 -4.9899836654668 18.2227243995117 -0.260123702331916
1474 4.56974377748975 -32.0520681127629 -1.87931308037195
1475 -3.73223177422916 3.06937168457556 -0.781902082309156
1476 -3.91823202196249 28.7686458393971 3.5557394781645
1477 3.03661038816903 29.7647125657226 45.4563550790719
1478 21.7888632273124 25.5504126203016 -53.3316639039429
1479 -17.4243525401439 -16.2952382009156 -21.044509307532
1480 9.68965803630857 -8.15016372695141 -37.1054134199969
1481 -10.6790343859219 -0.428457392187852 8.02932067078557
1482 -12.0741548904927 -2.6560682590341 19.3496100305193
1483 4.95868344879848 -4.40107790508511 3.5952367194913
1484 -2.98805866055097 10.8824034842812 3.77653889044289
1485 -1.07307628009613 12.6383992341778 -4.59423124494766
1486 -8.99638362866582 -1.66692033141274 -25.5326267663631
1487 -4.80068790516261 2.14746778351707 8.4415348727763
1488 16.9580020181482 -4.52431192698685 20.7914536598866
1489 8.46853361480178 10.759376518876 -1.03655546168137
1490 -4.80981360538438 -18.2674648640107 -13.7877027380619
1491 6.65491661611637 14.1617816581778 8.27160257703677
1492 22.8644785506755 -1.76035084037043 25.3545263945306
1493 -10.543263091607 -16.2438143496994 -4.74756691201693
1494 -11.0497250395752 23.9800502196144 -18.9908352114632
1495 12.4161341501243 -26.5553150448546 -28.952142861155
1496 -2.21345703214951 20.9611953262241 6.10678622459912
1497 41.7378789321924 -13.6866253806097 -2.57301235876794
1498 -8.15880516778829 20.8636943617361 -5.75179641714012
1499 -8.27421923911263 -7.26394945873802 2.77451055149578
1500 15.9085864613319 -13.1199391952141 1.65704683823156
1501 56.6811155582627 7.77343740017045 -2.48203899755154
1502 -48.3579033293498 -0.00739389107525166 -0.936044307878069
1503 -6.07583178468624 1.86248351307878 -1.84431496217185
1504 3.41735594819423 -18.0207005695933 9.51439913879174
1505 1.83965259283455 3.81300561160413 -2.79338712118813
1506 -0.367209092782547 11.59955970863 0.192380524293968
1507 -24.5294593708635 -0.710935979147202 -7.81281323002426
1508 18.7548088417366 -3.45442371707534 -7.07111246681548
1509 0.571949764722993 2.37146477733956 16.1192258254558
1510 39.6539091463571 -16.1844954079877 3.76071083917802
1511 -20.6592097724026 4.07889861297764 14.6166331939708
1512 -13.6943511782094 10.1123537873253 14.8223374109233
1513 -12.6915565349521 15.8588225333301 3.95509006119046
1514 11.7290327340331 2.6461363682093 11.5353730830135
1515 -6.19855857897812 5.9423869968043 7.60332223659309
1516 34.0394897422429 -14.9065665190931 -37.9966180770463
1517 -34.4024054544709 7.15199754846718 9.8978103997823
1518 0.428656865488469 6.91197109607653 28.2088107104586
1519 -4.26150403549121 39.8733092409758 1.65152745211252
1520 26.7608675181957 -27.8880478538081 -20.4838655778086
1521 9.78414581064651 -7.90178168914801 15.1383211583451
1522 6.03713388904864 15.822296519242 14.3258393836805
1523 -2.36724748238999 -15.5724314511228 -17.5229299435581
1524 -9.59692729990909 -1.56483127490886 1.36220584716994
1525 13.1071629466346 -29.2362680262298 3.63052357586821
1526 -17.6599675758316 -3.50743317116963 -28.2402438760569
1527 8.73407019865329 17.6703938454085 -12.2473386886125
1528 11.1999488183923 8.74495247081278 1.56812663700663
1529 9.00046681139455 7.88804042617901 -19.5386230002299
1530 -13.1129299486063 -9.76750653283537 3.17156282214435
1531 -7.53568173694846 10.8624205276525 1.0064191345773
1532 19.4915210711108 17.1938381796718 12.4849974961013
1533 0.606421831937669 -36.8421363956469 -5.40890739493018
1534 10.4611113958197 34.7306238377236 -12.4037579098657
1535 1.40331553941778 -22.1893064475843 13.7894152427933
1536 -3.72193343397503 12.0556010872866 41.9279420692071
1537 21.3528501034265 8.45552151598685 -10.8962103088441
1538 -8.57899612705809 -10.7762542638351 21.5452997215642
1539 -10.7865261245606 -2.57550114442786 -15.3382514639033
1540 14.2039367643095 -4.18885135755735 -19.1506717663781
1541 -16.1208607954826 1.09225474995285 2.93283946573007
1542 8.49482619485893 4.27596406753316 3.45263560290693
1543 3.32134294588929 -33.492271121084 17.2427195048937
1544 -7.73055646405613 5.01926619954796 2.11260929407775
1545 11.6715944107756 4.56500520773625 21.7027093767465
1546 -28.8006757396112 -30.755748447185 25.7894014553847
1547 4.56420758504367 -15.6479473694984 -9.49539881814092
1548 30.339680534616 11.4423440607909 -19.037585340928
1549 34.4188009708362 -43.6810417289667 -18.6444098675914
1550 -16.5069449101736 -2.54336889348436 6.86853079659371
1551 -10.7515943931206 27.8461835175439 6.35922291735793
1552 -0.872776513626244 -20.926668223213 3.58663541796965
1553 -0.994014717624786 11.9465313033867 2.57083896327303
1554 0.56593893431992 5.90335256363654 -8.45749884981954
1555 -25.039196498592 -2.70830357030183 -7.60721497621816
1556 8.85786466315817 -3.82795140592952 4.47622288280918
1557 17.475376265263 6.85031045912697 10.4005195683424
1558 13.1700679523647 -36.3980187096005 17.0757982479607
1559 -8.78224795652189 29.8642166426319 -3.39971631496851
1560 -6.01633931701077 5.6113151258675 -15.9161152417058
1561 33.2306677852499 -13.1775001036868 -44.4801904980334
1562 -8.64886998814287 -8.20809793733938 3.05036633753207
1563 -12.0012548560102 13.6589053710805 24.1469722219425
1564 21.4494374518935 29.9031076129621 -19.6076732872048
1565 0.942348024850835 -19.3469708643921 2.16636467562309
1566 -16.3852943754488 -4.99568562791058 22.314305934742
1567 31.6744793534817 25.7827087492412 40.8948986866168
1568 -29.577707139464 -50.8503784136806 -21.763510436691
1569 4.78957675697024 18.5125478289387 -21.8958167593751
1570 -14.4455264158012 -6.48717034239535 -8.03097673467112
1571 9.38084079895273 6.21674156143941 5.51734922510804
1572 2.9743007418691 2.40141506654631 2.85464897929359
1573 -35.118916530065 -10.0200469807048 45.237767679002
1574 9.64056141114583 -0.832592263531271 1.4249066423206
1575 3.20146255432075 -6.8398072296636 -31.378861426491
1576 15.5605347969091 -16.0613973382434 4.2222819554835
1577 -28.8737216591731 13.8989878930238 0.739006966944817
1578 9.10691604870481 3.17109368958598 -0.0124835946548334
1579 -21.6822874448706 -0.655838935870495 -4.86505950663174
1580 -0.288397419826768 3.95417214694623 8.58826514908244
1581 14.7424663405881 -2.03972713967734 -6.66625829196658
1582 -1.44808826811727 34.0283129873723 34.9328042786997
1583 3.42385731914664 -20.3653809436983 -6.1033844174327
1584 -31.3868322360662 -1.37059149931288 -12.6058509097279
1585 28.5008723169937 -43.8384878544239 -28.8627994853855
1586 -11.7806054142261 7.5948081700997 -2.73906000786345
1587 -8.44990992650277 15.1767399778997 21.1430591745175
1588 18.6482578451442 -1.92162722190983 20.7895888558835
1589 -9.99477845725482 3.57830939277645 0.751070840960399
1590 -9.23656922788789 -1.85144256542248 -18.6590148220376
1591 -21.554464574993 -24.5352983243801 -16.5113308259493
1592 15.3049708906202 18.1331311895929 8.82377713986022
1593 6.75143234858527 8.59948675828248 8.31785654708384
1594 -4.01028828067918 13.3667248096921 14.9902374780659
1595 15.5583651784906 -16.1438180190672 -5.07718890359471
1596 -11.3608795279812 13.2667753345046 -18.5176740848258
1597 14.4763985893507 17.0510361152771 27.830911274897
1598 -4.48180010243648 -3.42270165621326 -24.2026528825491
1599 -5.97827680625293 -8.44186806671138 0.820976139535029
1600 -20.8763806046803 -7.66179106634361 -25.5870471013752
1601 -11.6110959456905 -1.87279635874399 0.450208419878445
1602 11.4204438395154 6.38936063988976 32.9641717803676
1603 -4.96735019035611 -4.30636774521615 -13.3268250818874
1604 -10.2142373272795 -0.881747683103111 -9.6042094608742
1605 9.77849813621917 4.25639956776039 21.1033288927502
1606 -13.5152266028874 11.7120804117395 -35.0000075034605
1607 -2.61885121877414 0.231643523971349 6.12903464087538
1608 2.46722360854397 -23.773202369172 21.5013094629814
1609 2.49497636069687 -45.0994270170608 16.0889386013361
1610 6.59688665984523 28.8626123705047 -16.3641007552472
1611 -0.868084185900329 11.4622497643969 3.81779462353658
1612 -17.7761875414415 4.61947900549611 -12.8553241621827
1613 4.91719709282831 2.78412387975299 16.3658322837923
1614 13.4886425284051 -8.06211344195592 3.00314641610961
1615 -31.5272682114784 -21.9540351393948 -10.5958173536348
1616 8.40747323939184 16.0236879593183 13.6934936017333
1617 22.5924426137432 9.93776599826622 6.11899019261282
1618 -28.1239358214264 -12.9292528893758 20.0857047372302
1619 20.4892696178314 15.0239655273123 -3.24424235953517
1620 4.84006187775534 -4.15563253830312 -10.7983986033856
1621 23.0951372061219 -7.69582442947791 -13.9307922527861
1622 -8.57846153753754 -22.6224361255431 -4.63355873725909
1623 -24.6387743261645 -6.46563742068266 -24.2087606612016
1624 8.68212156177779 18.9462504767646 -3.92792186763915
1625 -9.8278748684164 -14.5280803011193 -9.91356178976015
1626 3.09972530743767 11.6894495383113 1.93903655722606
1627 -2.6052125122537 -6.85544836816911 4.99294319163806
1628 -0.54656153197048 -4.63753436125354 -5.6102922495614
1629 10.0048068859272 22.0605110443915 -6.7784364586962
1630 25.9991272524642 -22.8922667319833 30.0862071470644
1631 5.722459098174 -2.23152967721626 -2.69981280248429
1632 -6.25575250977792 11.4501240688409 2.29935858801163
1633 -6.88762880888418 -4.26251267383912 22.9638053875243
1634 -1.3199904676536 -1.59164774592871 -22.6835391965842
1635 -21.5756829611743 21.957098465793 11.9700959581645
1636 -7.65324549816735 12.0856236744338 8.57771890849664
1637 -11.5034727457018 -4.30772161417007 0.595834137379314
1638 3.92448886917687 -5.62013077860542 -13.7579618404627
1639 46.3119439143062 -34.794951857448 -10.2540301118532
1640 -12.2315898882568 8.88209426598053 -17.7623698406429
1641 -32.4358168288112 16.8705338427314 22.0550768223755
1642 -26.184490760635 -13.8795137126323 -12.3425237093981
1643 17.8177409238342 1.68428342209893 19.070765089059
1644 7.23628765184993 7.04470068427089 0.212841885568547
1645 -1.51319388609348 -19.9599868738297 6.63986348032282
1646 -0.50442351070036 8.63703854789616 -0.131568397419774
1647 -0.24387731553362 8.31894718311029 0.851564356814255
1648 -6.55439173727622 17.4652097601687 17.2349347251355
1649 -2.74019216086122 -19.6042878459572 -7.12052668842212
1650 15.3651243390654 -2.81083614444403 -11.5468581004303
1651 -20.9298931714516 -33.0929432061963 16.4706703481724
1652 26.1704928992584 5.50270073571261 -29.3788046019161
1653 4.79764469007932 -1.28766063777348 7.76896689709436
1654 -6.55111846266821 -2.8883362590218 -54.5874252560564
1655 27.2041887142442 8.94472715772633 11.8991728781595
1656 17.9802614863008 7.8948763494923 13.3672904295639
1657 16.2374742120987 -14.4323470641285 9.38149437572755
1658 -3.17177810065931 9.82664472144439 4.29399864672117
1659 -8.46955436829214 5.59278160091459 -5.27302512136148
1660 6.77547951210236 10.9219015244771 -6.84597359131893
1661 10.6611072782081 -25.2185734857968 2.69557341105453
1662 -20.8285807937332 15.2993625506124 -4.38029553618429
1663 -0.2797023803722 1.36744872405939 48.8168712058882
1664 -0.370205024670973 -13.474868415801 2.18584571967621
1665 0.107478957641125 6.40007632493403 -2.99290851589651
1666 -29.3359946963981 -42.2917721571647 12.5839077723693
1667 15.1671428460073 31.3571419054082 6.41212172479597
1668 7.34948418270091 -2.20920410850472 -7.26219164966279
1669 5.68366576894564 -26.9096927739401 -2.86169651679278
1670 -5.77665062832901 24.7310456487346 11.9078580993177
1671 16.9337797082809 12.9191241122214 -12.4418722641989
1672 11.9064413845467 3.50854070515222 18.2460645193706
1673 0.0531829356180529 -2.25768232795366 -3.41129065337453
1674 -9.67954550831632 -1.65977279274908 -11.5523521534099
1675 -8.89391021538977 0.992791282352176 -2.18302434984942
1676 8.46748071001841 -2.36504115292219 -13.8332913719702
1677 7.21609810250041 11.9896601877602 6.74363462306913
1678 1.84233391473828 -38.4175154179982 28.1312652103997
1679 12.9732235991017 21.1070513262274 4.22955698606379
1680 -16.1994850536279 20.4381459540259 -32.2383159580717
1681 11.6769493090582 -16.3970579826668 -0.238455703668737
1682 13.7181737448638 8.62668564120837 -21.3304368063462
1683 -20.9249885917976 5.06677224026429 11.8624685787071
1684 -23.5865280473831 16.6438581992487 -50.2362695078116
1685 23.5731451920345 -17.389506457881 43.6216367796609
1686 -0.103034646937739 4.4862604267764 1.99686179200162
1687 -1.2954479249249 -2.55684431337754 -19.3511002267363
1688 -5.49911144931506 1.36223823583072 7.89775756232968
1689 -1.18018712274255 -0.831868369366182 -1.22785410915368
1690 -4.44278246998088 8.08789999301512 20.8992198048264
1691 8.57221075326657 -0.0230363760639452 -16.4942533175279
1692 -4.16144797945126 -6.685079061518 8.51856032007414
1693 -4.04723853100956 7.74972495792562 -49.7568255400926
1694 -4.53740245833032 -1.10737397209706 30.7393853920185
1695 -6.36378580159182 4.89957381943796 11.0530239162934
1696 7.52100483807955 5.2707237772589 -3.63572655096885
1697 -14.1095404578552 13.4122249298813 -9.2699138601067
1698 9.81464477208855 -8.12144389452362 18.2041326091531
1699 -10.6981403387923 0.928046686206196 -4.68696809634978
1700 12.5605469927818 0.00980679754844366 20.1460933924093
1701 -1.543059972916 -2.27559465895878 -18.6814786610889
1702 -7.58777431723927 73.7732553414049 1.90727450073107
1703 -21.5606673030942 -3.63512720738826 -12.7270116644881
1704 0.457845410484215 25.2872891231161 4.71569654491019
1705 6.89037116196362 2.84692650353239 -1.45065709590637
1706 -19.4568866333371 -1.54129142476239 -7.99612254782824
1707 14.4832550402038 -0.383475782302721 8.95768187288818
1708 -20.9808764184802 -17.6984878524298 -1.7390865149412
1709 -12.386509433361 9.60464643604364 -18.6969037793653
1710 14.0651105393686 -10.1654868163615 -1.22774375233224
1711 2.24688983657703 -19.2690299961359 31.3801868826498
1712 -0.985808995316484 24.66882317671 -19.927537605224
1713 12.110497610185 -9.13261328659877 11.8050069880216
1714 16.2678169232503 15.2085865375592 5.49939420974943
1715 2.25041059530636 6.16777075492985 -4.58414162033316
1716 -18.4389883643668 -16.8118400125208 -0.800041914902183
1717 3.21635103490316 -2.28557942380858 6.41806445450391
1718 1.16526309233161 8.66465685775414 -10.5633169840907
1719 0.583253518343737 -10.5421590867101 -6.51682635444736
1720 -18.0786864921275 14.0378788000286 -18.675255118083
1721 -3.33238019654181 2.93035053474052 2.74909589628699
1722 26.2459970972563 -12.4362911497721 16.686504941009
1723 6.32574760601104 -10.4824827752567 5.57049513435187
1724 -4.26748372579982 10.3736240881635 -3.93908010627487
1725 1.67875731440258 4.48116342999943 0.457138539144165
1726 -12.1340793046045 22.298803442888 -33.8694905894035
1727 4.46122866292462 -9.13028574595662 -5.21900592019318
1728 9.31960697356382 -22.6711043269468 19.6801628103701
1729 -8.59155306491697 1.70257959779548 3.01925387566425
1730 -1.57637017380435 -7.39658964612125 9.77498439882771
1731 4.21734688344573 -5.16180326484995 -5.34335908614731
1732 19.7619520892393 5.44125035145801 -1.61626392695293
1733 -44.2101724454264 -0.757705791529288 3.94718374308749
1734 21.9612890984124 -1.20456607692025 4.88724548773265
1735 -10.6222249195705 -6.55464717955309 -10.0285856134713
1736 1.65894137928249 -4.04658061888873 3.76765687138838
1737 5.19380174039367 7.48568819263583 1.93929961109965
1738 -13.3518194097695 -24.1156953874214 -39.2377376766753
1739 16.2511011934523 24.9339732554371 31.7662010664976
1740 -0.896997045194731 4.14289607000255 9.78737839106348
1741 -6.49823667510185 0.133881792063835 -14.0973675810184
1742 4.30726728872509 4.34670368380385 6.66355234927682
1743 1.60831906907294 3.69669248695749 7.42462455210795
1744 29.3594586996157 19.4054626238095 8.26809576156223
1745 -6.87346437196126 -19.7490955540955 -3.79897614855376
1746 -8.34072007209094 -3.98755857072528 -4.46885559747248
1747 -3.32804439665067 8.69545265053391 6.74749652389534
1748 5.93404006641328 -16.2340160856674 0.0857765081174328
1749 -1.50540455204949 -4.58121288347051 -13.1251318049007
1750 3.7567187344993 18.8240941262259 2.70912207101521
1751 -4.076240848682 -9.61639512983161 13.4612967615994
1752 -2.15294559145027 -8.38783760033525 -12.1400655439943
1753 24.193699373084 6.2048961737321 13.6546088629224
1754 -4.37434789438029 -3.22672660416404 0.66649622103734
1755 -4.75127260556188 -5.1952857921855 -12.8267513511576
1756 -13.5095546379603 -27.1339126150785 -47.6166476113917
1757 4.67290541499728 -10.8383916531196 13.4468454642331
1758 -0.233560766832906 -2.54683227945181 7.82936852612543
1759 0.0499943122019418 24.6937492086971 11.1816288091347
1760 -6.85506533969794 -16.8966397580848 -19.1076905841246
1761 -2.20096402236389 -9.66924595938369 17.6054089248255
1762 0.648389137535959 -29.7059297138606 -40.0188889787005
1763 -14.788510350198 29.1659782438124 25.1028660223545
1764 8.94593052024824 -4.71145714621737 11.0654994133417
1765 -13.3487147194042 17.9368489808539 13.5792605635708
1766 8.7889346787384 -5.33734949390307 -8.99194132850472
1767 -13.2267341747487 -5.77479049087844 -16.5269946265372
1768 19.551694967719 11.8488469781534 -14.0040087240419
1769 -8.14618252970106 -6.39863943598305 -5.86565405176229
1770 -11.4838414782091 -3.34155313470041 19.6666182513658
1771 22.9960808958564 13.8463622695 1.39088208597023
1772 -9.5202488995517 -24.1505813234702 17.8833675289579
1773 -22.1764964134962 3.97918070312288 -22.9029192332536
1774 2.20298457156523 -13.3803546720867 -3.60944794545386
1775 6.44151436254665 -0.727201311934289 2.4845210735988
1776 -4.92272847329053 -4.91540371643915 -13.2717089861794
1777 -7.58718164624898 20.9672247906515 -2.21875201451166
1778 1.0868625027226 -1.88039840810551 14.1913867538766
1779 1.23292446493109 -21.00034473336 -8.91896155551674
1780 6.27534587171065 24.1380932804302 3.29812406915897
1781 -1.29302447560009 -18.7194024802247 4.74133490866568
1782 -10.6182296097742 -8.32419447780176 -12.5975608965827
1783 -16.3751952187497 -31.3810876577033 7.09477436942663
1784 13.5157230904638 29.3992524624652 -1.35282630734763
1785 0.839753579037342 0.291271292929961 -1.02783373216452
1786 13.4003781136167 -14.6641295216569 -1.40149248289129
1787 3.95735645334567 -21.6257672618222 5.25178802997151
1788 -17.0135163477906 41.082892402939 -0.740400445978311
1789 -6.88667351892856 2.54337468582156 -2.9378649598361
1790 -9.34849962550955 6.48191085174934 -6.23847136586511
1791 9.7471120350843 1.90123207490862 -4.71803969776094
1792 24.8017842834673 -23.8595012641772 -11.6618852227215
1793 -14.3223853224143 14.573181272606 5.31904670393468
1794 -11.5104402803306 23.175555479547 4.55165268469855
1795 -5.24039499325984 12.507646709739 2.12541647570683
1796 4.73197579499004 0.594868246636504 -3.77656677203079
1797 20.8906813594456 -43.0148836979138 5.98950350247553
1798 -19.0608705571133 -9.60882491404829 -9.19309661468774
1799 7.6988530662155 6.41587057161806 -11.2946644144028
1800 1.88357721090129 4.09574545674604 4.9557884649521
1801 24.9369070168094 -6.21415575074378 -5.70701600252818
1802 -20.8341348611594 9.84302317719718 13.2315883509567
1803 -3.83498052460935 -1.03218094849953 -11.1767053890015
1804 -0.815795744760538 30.82811590681 -35.2703278766329
1805 13.9851113203845 -20.6339377454909 35.921408414508
1806 -10.9951842066998 -9.63018964627842 2.06597066991519
1807 -16.4111142429286 -12.2089989765531 5.93793737135037
1808 8.98255329312641 11.1775162611785 -21.9412435936948
1809 8.38768096200936 -4.14213963882612 10.4863101676426
1810 17.1525942196192 -6.63520793296566 -14.0470181532739
1811 -7.35753608743054 -7.15385098163917 3.06685133815684
1812 -11.4347288166769 12.3020394267008 8.7428804368223
1813 -9.08179562152717 -50.0116287726906 12.7715946638289
1814 4.79389555840042 36.867301420811 -1.63729283103331
1815 5.77924840235066 15.4368634228491 -2.29391252361552
1816 17.3286773287469 -7.01063413096414 5.98726641753036
1817 1.87090076555684 6.28230184174576 -0.213177278026969
1818 -24.3811532728707 -4.21488825771289 -8.28028034945445
1819 -12.6399194010753 0.109902059202487 22.7457834635914
1820 7.54134233505007 2.0585776125112 -28.3082882793354
1821 8.16660146935558 24.6903538474324 13.4539646940804
1822 -25.2580973133555 6.18699865307123 -13.4078751892498
1823 6.65632211949976 -5.36754172959761 1.37193472282539
1824 13.3192066474877 7.81404941037468 1.83270750196854
1825 -8.36021181980103 15.0087227020584 16.1366197134044
1826 -10.1587356968675 8.16351622408037 -5.42375124148021
1827 17.200118745633 -17.8014431204241 -10.0150895389993
1828 -19.6314281045901 -48.9174594046926 -26.5515264315177
1829 3.2385268556096 38.3656705633583 -12.9083534692474
1830 15.8068547424825 10.9586899026775 35.3146643130967
1831 24.1292418023787 32.2214699863601 -16.4430368635175
1832 -18.9121184387181 -23.3522777102014 10.7603352793811
1833 -5.2428243698593 -12.9622925317099 0.64752142494129
1834 -45.4820180005698 3.28066981467562 5.4178940626693
1835 38.7926932917759 -3.44548433417674 -10.0896752837498
1836 0.971077932834834 7.14536849338011 0.999537032734153
1837 -23.110781428987 12.4339397381752 -17.8678044719388
1838 -13.5008828380586 -8.28450502390234 5.36738232525422
1839 7.3254757874458 -2.46581987716006 14.9359336515756
1840 28.2516248228154 -3.06461259212615 12.5011366310619
1841 3.13000585555243 10.3732473415285 -45.6582188348478
1842 -26.7030284533046 -2.43781066575914 -4.6272519713365
1843 -1.70843580868825 -2.181230206006 -18.5934186303817
1844 -5.80034385208876 -13.5484148635924 19.2739812398904
1845 -6.07507362334647 -20.9623066644001 45.0184133340765
1846 -5.87234312150832 6.34587610944561 19.2679107669562
1847 0.438386767629693 -4.35038510749514 -4.6580343437927
1848 -3.5171125405698 8.23727779286161 3.18985189322374
1849 3.49303421399371 19.7958337469754 12.1730822128107
1850 0.589547893333875 -10.1554804107365 -5.44622621203988
1851 -1.44694795193124 -4.69994817441081 -10.7041076675155
1852 9.18549900736636 13.8037086577504 3.47184302671078
1853 -11.9780734678851 -7.18714895345881 -4.0933125522878
1854 -4.9150231099145 -7.86661951758043 8.52664674831552
1855 1.11822427434562 -12.9023792741812 3.49854504387197
1856 10.2344527082966 7.21570273442011 8.22777742963394
1857 -10.7575434813101 1.14851960960197 -1.6424704876231
1858 -16.8075326749923 -4.39167455966904 -0.505909561517986
1859 14.4655494036959 2.951006018166 4.30781329093363
1860 9.91942151585394 -13.288998584796 -3.03854465576165
1861 -24.6994436493709 -6.89233097167701 7.88167584268887
1862 21.6462920735826 -4.3751842851319 -17.436423300768
1863 13.4152268564627 5.09087720767799 17.6736245922482
1864 -9.70058403582045 -17.386591685107 -14.4535415177929
1865 -6.84236951034989 -17.3000762570838 30.1016654010595
1866 8.99965114158792 26.5583032936687 -12.4415249610849
1867 -0.238452051320471 -12.9509363887592 -17.3509818894974
1868 -0.874833355522199 -7.32924453887881 -9.99415683250501
1869 -13.6418063190605 8.36404163471837 -8.47624530926076
1870 16.256235840097 2.36554464566087 15.5542365287332
1871 1.18906704158582 -6.65464723728846 -8.52086560586253
1872 -17.3762017281175 8.05145291376586 2.34867604799934
1873 -4.0107878883217 14.4683131489306 -21.6429021189735
1874 6.22248549519149 -14.0643901456402 18.4157213322354
1875 -0.444843858237111 -2.34213612229051 -0.390607211616081
1876 42.1216964179501 -11.2491684655225 18.3637737730006
1877 0.63726807718907 9.52895776832613 4.71360757462547
1878 3.00357818641699 -5.96596538028612 -1.27382381835352
1879 7.55586206829416 0.416454008129247 -8.07921645806125
1880 -8.20072467853369 -14.9924114958024 14.8265929432257
1881 13.1361363122848 8.43146667469459 5.5692955257851
1882 51.0793488786531 23.0964543072195 -28.0776752954919
1883 -11.6133008853823 -15.0907211046805 5.27453459734321
1884 -37.7962429290827 -8.97957902828778 11.4435092572845
1885 13.2309514555226 -40.6137231315659 13.868991436984
1886 -0.991031133342201 30.0628881396452 -28.7601701770555
1887 -10.528929322966 10.9322932352023 -19.0346366409283
1888 28.435553535166 17.4466817787927 33.2374836774115
1889 -22.9826456925739 -6.84246771432681 1.09077876868528
1890 -4.08469303604994 -8.68677379192114 -22.9760796262865
1891 11.8559350902946 -8.74660613786208 4.67008263202315
1892 -10.8931358441814 4.00904455252425 -2.58681229292115
1893 0.990639636459826 6.08083757141215 2.64238349469781
1894 21.1621368127854 -10.3707069763467 -18.448268000982
1895 -35.1371111434757 10.3838010130796 13.4063089208273
1896 7.03692446982916 -4.9579863491528 8.59269785152418
1897 -9.05248740325001 10.0688443939822 20.733014747647
1898 6.50153208725678 6.01799377613167 -14.5692171452561
1899 5.464514187005 -3.89625978928683 -11.9198607212799
1900 -14.2193055038583 1.81359108813717 26.0538020168232
1901 -42.5723306252038 -3.86511173547656 -15.4538526994455
1902 -2.67828621959302 2.46255976843692 -5.7269518772576
1903 -53.6855296233487 -29.8026107251958 4.84304270034706
1904 39.5103486545483 23.5122625362378 -5.55384865411592
1905 12.8469668162669 12.1808097986362 -2.15142859075225
1906 -74.2231002696055 9.33824856856664 32.0545163592649
1907 42.6030018026827 24.534538036533 -44.4601321863161
1908 32.0600945219011 -16.3372884109834 14.6107696043543
1909 31.8149940724641 -4.83579065248899 4.11435491075405
1910 -4.0214209793661 -7.06647993682065 -1.32416456244431
1911 -10.8980484001074 6.45220072519045 1.20513218673376
1912 4.74931058717965 -0.870289557763837 12.4724418547067
1913 -3.03513415616789 -0.313311028005077 8.40585366535806
1914 -19.368637661928 -2.57715825691549 -7.72092923754121
1915 -10.4362829238078 -35.8671099610115 24.2247564377928
1916 -7.31339710990764 11.4288467154955 -28.2939007049658
1917 11.4979339310979 -4.9378075902016 2.21102150187742
1918 -8.42341115612188 17.7172652783721 -2.85870179541238
1919 -12.0310051527263 -2.4988571695078 17.0206382215972
1920 6.77368939129537 -1.74092306907137 12.510028433045
1921 -15.4732067263004 5.77714408512625 5.60244726724947
1922 24.61596338047 22.4678746271887 -16.0555717697095
1923 -19.4657087698004 0.613910145788809 -9.78305469708359
1924 -2.95798548346193 -13.3338606777837 27.0620028617259
1925 -10.8876261714464 18.0417288041159 -4.68711953498681
1926 12.8495298620283 1.82025780471873 -18.2235678160905
1927 32.4442394070611 3.68530632856441 -15.6311203407015
1928 5.32290206370111 9.86200500251906 20.7309131388223
1929 -37.8674097450712 -11.2552461095697 -5.595874958008
1930 6.35190154593949 13.4064553911861 7.94568974695671
1931 23.3405833840908 -5.41692428326331 -1.55988325729637
1932 -0.326633470567206 -11.7159724053451 -0.485359432745897
1933 -3.88010916284263 7.05281896501524 13.3925095129955
1934 -8.51478328660421 -12.1376626762418 2.95665862704206
1935 14.2091412885936 -3.1446389378565 -6.77857345401533
1936 28.1464881014836 -0.665496333252593 4.24110408178058
1937 -15.5494052218191 -15.6689899247913 -5.3476698975414
1938 -1.99120615016261 32.0072449177429 -7.42054636712862
1939 -11.2013410720604 -21.8423221032781 -5.94450125773104
1940 4.4980411833008 13.6814034986332 -10.7116037746028
1941 -6.19421551234046 7.32390122826163 15.5085192837566
1942 7.61305956916587 19.9096043233572 41.682033064767
1943 14.9374418430828 -20.4984806303557 -31.756027714584
1944 -28.806308392285 -34.5059230092369 -0.104385915031643
1945 -2.88590622616155 10.2861160380396 12.1202284983163
1946 0.854550581807994 -4.13673586174233 1.53743338814841
1947 4.95509603700914 1.7935437844277 -9.80060145946882
1948 6.93369769303844 22.7645511533224 -3.58402935095094
1949 21.8595323588026 -13.8498470349591 8.42732059965642
1950 5.51170164706728 -22.5114557581785 1.14613308466194
1951 23.3520887502058 -24.6680808402544 -43.2913880049126
1952 6.54311356106196 -7.75141902937627 5.02705631940217
1953 -19.165610048604 22.7055946086354 26.0434591998675
1954 -15.6935089178898 26.5825356550559 -11.8897893970559
1955 18.1809024770008 -2.49006907896974 4.03393376086418
1956 5.5053282610594 -13.8366939537957 -6.43113187525173
1957 0.013251977018959 -31.6087743704902 18.2962723811688
1958 2.76699801475731 17.1546541103877 -13.8732284050079
1959 -0.500228005938269 1.46424956746854 -16.0797061579238
1960 20.9036998686937 -4.92996731040404 -26.055593616763
1961 10.9671844244798 -0.228745573280669 -9.55102689514495
1962 -6.4150410670612 4.97790393042916 6.19970416645385
1963 5.02351105626668 16.595225396819 -18.8748475871705
1964 20.5386575033295 23.7740962164485 -2.34515001055663
1965 -10.6738160653267 -19.6674215723218 3.53825283184955
1966 5.85082328122658 -0.894990443504584 -7.62726398705274
1967 -1.58601892046113 -11.3323158823277 8.85406811916069
1968 2.25277260536848 6.90380634406887 -0.372298645100888
1969 31.1540748023954 30.2250594766255 40.8772463410864
1970 1.22841491693129 -11.8411580896652 -7.79496340966926
1971 -34.4907897699496 -20.6448993760977 -30.5073855315629
1972 -5.90285318786496 5.55013405658183 4.21243796781971
1973 6.33701393079254 -5.28172776733422 -0.577069480959299
1974 -2.17452915054809 3.13253734200844 -15.7382847298308
1975 -31.6375846765928 -10.7061463703159 57.7094599775231
1976 9.60680421125129 -3.2470923526081 1.37011257563999
1977 25.1685062039104 1.35142478471635 -67.2988254189643
1978 -33.0999819027305 -17.3908453434385 1.19040894686912
1979 -2.10168301182947 -6.18579240303956 -5.99767859259153
1980 10.4713555513675 3.86683630831407 18.8340842675207
1981 1.35250279469903 -14.7297909444828 24.4188454397687
1982 -2.31197604363268 3.1437733814176 3.55820169619681
1983 3.93407264934707 14.1462870985959 -21.2114610667427
1984 2.25342326639211 -12.4749391106196 -25.3772314700375
1985 -7.5996767332366 4.07876147177646 -12.1003275572829
1986 4.92286240520469 7.93910764441151 33.5979840445416
1987 21.3647145783041 -11.8935189714763 6.05657254292903
1988 -17.8015388933023 -3.68192884163497 -7.96554602167731
1989 6.72552634321853 13.7778299450445 0.356983599076477
1990 20.3547064121693 -16.5273835594327 5.68371061047902
1991 2.76988367258802 -2.31000907300942 14.5546370225785
1992 -21.3915179648552 23.0667229353083 -17.1975237608934
1993 -1.23193869700382 -3.87241580690328 36.1833939141725
1994 24.1129141902822 12.5620234352757 -20.3210136782702
1995 -4.67808058118236 -2.84117553602373 -16.2876601659328
1996 -24.4886913298526 -53.1627424917515 26.6516640009821
1997 13.1734144714722 40.8614885161502 4.59380946192667
1998 6.83305597490244 0.0584336290535092 -17.8401581504063
1999 -4.71211905737004 10.5796500623441 -4.04756967533608
2000 1.94133388306987 -3.38487732022874 5.24600484581528
2001 3.44134342309282 7.24385732151253 3.22998558459376
2002 -4.66228017198628 37.478675278727 -2.86784538791795
2003 -5.83371438018631 -22.4336211076536 -1.67135233611622
2004 2.50463099183299 -2.25516987399786 -17.8610306447584
2005 6.30097583720716 4.09697517926473 -3.32062029822104
2006 -6.48325669080973 -13.4896302921319 1.41179919603132
2007 -4.53157900068674 2.46290335579304 3.67053898649673
2008 -15.0354211120448 -19.1721061237592 1.27811675215067
2009 12.2207287541382 -2.53050811911051 -8.52218942596236
2010 -4.57352641928506 22.5348766126586 8.15702238859072
2011 -28.7838640930688 27.6078693406218 -33.9129711855122
2012 4.47456603594473 -5.42266642333098 27.5540190440902
2013 2.57549745260717 3.12578909473741 -3.17571612241996
2014 -0.699219281759938 -8.11258973992054 -15.0266216601502
2015 8.12854156985336 11.0219676843245 10.2305744422466
2016 -5.32416220173156 -3.79745070478776 7.46537222907362
2017 -43.9383089405006 -25.6260705006375 -48.9354120432004
2018 -10.9332907226866 -6.22175925047843 0.140230693293944
2019 28.3408765765452 26.4620464166943 33.9684882404204
2020 11.1533728407037 3.30555524787779 -36.5594500888452
2021 1.37455273796609 -0.0261287666259869 31.995878333419
2022 -3.0649895878548 17.8277516392224 -7.42920003705376
2023 -3.99910150374972 21.5177772826542 15.6935905388786
2024 26.447734876778 -13.2107650796104 0.241075822086164
2025 -5.25725919256539 -9.21615643429922 6.03205878334706
2026 4.98230408905488 1.7709891703279 8.69611308608265
2027 -21.5747121766467 -14.5019736731459 -14.6686369016172
2028 11.6023713928996 9.02857214649149 -0.225962525238579
2029 -12.7706081414011 -16.189359724365 -17.1756759667071
2030 17.3978552306731 7.92832241147219 15.7700898578636
2031 14.6268377432366 14.7890615697469 9.04310647027743
2032 -10.7380396618498 -6.75664405453508 -17.5526570382216
2033 3.53772903757202 18.7144791105582 12.1674499969003
2034 8.7513177716677 -13.8381025336066 7.89708208815154
2035 -22.2637315996216 8.32522574693006 -13.8132301232228
2036 6.64863407952781 -5.62642990272833 -9.74388171323744
2037 15.4764624367573 -2.23353294622431 7.56314027451143
2038 -6.89083502496234 18.6729453045236 -28.8375602310909
2039 -23.7965050401116 -10.5252250131992 8.85997250573038
2040 33.5293684088806 -0.566893675489375 11.6361972658441
2041 18.7850979248788 -11.5231731406826 25.8359155803087
2042 -28.997602676547 8.77719261147353 -20.3583914730368
2043 3.13011466576862 3.50008889404351 -4.03349922755104
2044 19.7752198089488 -7.53212532791912 0.871564888682768
2045 -14.615876918831 -4.0116148408332 18.8317741307599
2046 -22.6573746259983 -17.3257142557849 -7.74540317502147
2047 35.8845222985295 -14.2609447939788 31.0024069553753
2048 7.7680487785953 27.5042799434118 -3.48864304874435
2049 -43.4246351672209 -5.47292755328183 -26.3482717226322
2050 -13.8094357245141 -20.8898469269663 -5.50263149667219
2051 -4.45119847412843 -5.12114075869307 14.0728189948989
2052 10.6146400556139 26.8252962057032 -6.59085203193031
2053 -20.9200910348568 -27.5244832555697 -31.202537075322
2054 10.5030316859104 30.5569576433532 25.683081286254
2055 17.5634129846407 3.75747846594951 0.523015408670076
2056 8.97669824392773 9.33645097433258 -31.940666486814
2057 2.6164955439778 -21.351357116392 14.3116862094859
2058 -15.4596340614037 8.98699161915219 14.8280372194229
2059 -6.20760688202448 21.4233787904773 29.0827346270525
2060 -4.01569655227938 1.02357555150608 -24.7678115639973
2061 7.75236364639826 -22.7985586405706 -1.46555087030315
2062 -15.7922529206097 -30.6314453974654 0.709246327606164
2063 17.3908668662327 -3.76840414502463 -7.27269522701092
2064 0.0289234536599593 35.3924702074762 11.5796418035475
2065 11.5689142314797 -2.7041735144252 -8.67706420032234
2066 -2.16335341660727 -10.2774106035692 -1.69291879572657
2067 -4.77886037731962 10.0651325830969 5.60000654430804
2068 -39.350554644065 -56.6948977100146 47.170235924579
2069 12.2620616156011 0.397906694939833 -0.756457781422608
2070 18.9768341807665 25.7440685842871 13.7292364567603
2071 -62.1469930966604 -44.3565143614988 19.2635927788605
2072 -10.8728905711695 7.477296757105 3.96759417670618
2073 34.8003072088248 26.7932786548094 -14.4856495704531
2074 -42.9917243477653 -0.870717008940419 -33.1540930774095
2075 24.1316557534915 -4.79939001565824 22.1358738815229
2076 12.9651581520755 6.07995462443552 10.2647832374501
2077 -5.46273689687365 2.21000697081931 -43.1040109081285
2078 11.0266342144443 -11.2793653181304 38.7862876219418
2079 -45.2343101541033 -16.7476290635042 5.61260857112739
2080 5.47951083879866 -1.25905013009737 40.1010214268252
2081 12.6160310711508 4.50624763730329 -22.5491275401537
2082 -8.79228049837929 2.29027234151364 -30.8180074191292
2083 34.2432156019817 24.1799953423466 -5.53654407744217
2084 -19.6117740987101 11.2425637300688 13.7887702291606
2085 9.09663851379411 -9.18971632925703 -6.46512377792635
2086 6.33793395572505 -14.0730332992225 -3.60690118047864
2087 2.51844344181051 -12.398510394925 4.18589134678221
2088 -9.37480745495798 29.2534996576688 -0.686001237310412
2089 -42.4696213619608 -65.9725931570158 12.8663032592575
2090 4.02458165417251 -14.5672243171553 -24.8867981291088
2091 5.10202721066581 41.5432095443961 -24.1266122412767
2092 21.6187730341649 17.0130032354194 28.5413344073035
2093 -24.5575631452474 -13.5714950125489 -37.8411827065269
2094 -3.92893520928148 -3.14495908865036 17.3122885252856
2095 -6.9822833012732 29.6615470847679 -34.4948146771112
2096 -11.2250982947285 -28.8712391892018 16.705470543237
2097 -13.5836932089773 5.61430366278352 -21.8517910218824
2098 -2.53557094628979 13.7442885173598 11.9444769749886
2099 -10.0604349611893 -24.2893301922681 -1.27913071736396
2100 -3.89738541355625 -13.9472974097274 3.74416101941781
2101 -1.3226291893301 14.0443217577114 2.90756848865849
2102 -4.36471214756964 -5.69537916273736 1.82249042597806
2103 9.05371213652599 -13.4597081905872 -3.41757233296828
2104 -6.66981616549141 35.1482126500947 -20.7417856908026
2105 8.0958339938817 -10.3062418604988 3.29420180906609
2106 -1.32630362407062 -21.4033948066867 17.4590912760919
2107 34.7144343450997 -8.64759042964659 -11.491105343899
2108 -20.1176228922144 12.368934306232 3.05519349528791
2109 -10.5260218064459 -9.60123625005529 16.0613135723894
2110 -15.8257834368689 31.2031276588795 -44.6316180526543
2111 -6.53685439686104 -19.4745258011692 28.8014576718529
2112 4.99031846136762 7.02568984592182 12.9308573776861
2113 -29.2657704103589 -19.8722452703271 -14.4140427396657
2114 22.6732999236497 10.3406148164126 0.385113108947477
2115 11.6811506388271 -3.19271739681027 14.7626136118611
2116 -1.29757564939284 -23.4401313374667 -42.3523397515551
2117 -3.69780312486335 15.5967349685586 21.5177752794312
2118 -1.31710742494565 17.7791806959292 20.0196329479546
2119 -3.89709988051735 -19.6202010210231 9.95129478370004
2120 7.11819030717383 4.81536263287803 -1.11880172750627
2121 -9.38617292569356 13.5724050040584 1.03698231888151
2122 30.5693008391045 4.37598665245327 10.406138875763
2123 2.0950479948169 -1.35642721420884 -3.88451436564269
2124 -11.6882367104028 -16.0011044387234 -7.78473931656968
2125 -22.4969499803296 -2.23504331409925 8.95401875446824
2126 1.29186879668709 6.31057848464399 6.35146643610486
2127 9.69827627995194 -13.4485914112812 6.62933631326414
2128 -6.43628850845313 19.0880964782847 5.29293989475994
2129 -2.26735519449912 -12.4748317786088 -1.21130407687383
2130 0.577051818919434 1.22851742801944 3.1399442324208
2131 -2.68144319812448 -19.3474485075825 5.99976690139327
2132 3.64445629031126 12.5049085483938 0.860917386711547
2133 5.08670728121518 -1.65127606100759 3.60079908416836
2134 8.26176673341939 7.09376793212812 -42.4203833625791
2135 -2.70664021163506 -9.73994464134178 28.2192696368862
2136 -5.81928524859285 -4.36732854672907 14.3627243470193
2137 10.748701809311 11.4579314820211 6.15805960138467
2138 -11.2154729784995 -3.63188466905544 -19.0172590046606
2139 2.69721420273575 -0.399228619339521 2.35593134036016
2140 -2.51215910687172 -2.05722199459317 -8.92175886182045
2141 11.4267307717733 -0.84419415669017 24.550385623626
2142 -8.5202298442751 8.80078159781054 -10.5653052384557
2143 13.0413529936369 -21.346040736486 20.1824892799871
2144 -6.35452443688048 14.8628017663813 9.72043052951553
2145 -10.5992359629997 18.1347703494654 -26.4109324513534
2146 7.45281100054692 12.8768955375309 11.2939003495797
2147 4.62455499847487 3.93367011647721 4.67155482377252
2148 -3.20734089796616 -6.78119517794663 -16.9963183722358
2149 -12.4820436138053 41.8306694562927 1.63972716004929
2150 -10.2877772158592 -22.9078417181298 -11.0492351993954
2151 11.0494929666941 19.6183563140067 -11.4435395211721
2152 -20.0778273707306 -11.5280673358452 6.16773747688787
2153 11.1650181549667 15.5696597513992 -7.82514580772567
2154 8.00592892439206 7.4174811813769 7.63252038799255
2155 -25.7783012491614 -8.45359256578877 -5.81065536936492
2156 13.5353915438993 3.71189398060166 -8.24441825427276
2157 15.0381716670111 4.93710504582723 10.7098240913654
2158 31.1230753659768 2.09423476847704 16.3879651418443
2159 -26.2881487278351 13.9820235062824 6.49875937504769
2160 -2.85689510070683 -11.6236344767974 -21.1543966604169
2161 -17.3172063831999 -4.18580639952481 20.441707250607
2162 11.6946512065367 -0.42928744529251 -25.5851125765688
2163 -3.62372960918528 2.22759833828215 1.15374223107117
2164 -0.604480911497472 5.47891317650117 -0.969343999779006
2165 20.0639138231609 -2.65049630207144 -3.08751180073008
2166 -14.9378304484574 -11.4280365053072 -2.62095740666324
2167 30.3708455381436 -22.2632419058793 2.47003436180429
2168 -27.9183815861193 15.749045254688 -6.24659045873012
2169 -1.26923935297623 5.0156083208836 -22.4927277232893
2170 18.0280660129191 18.3595048770029 9.94815267608178
2171 -11.5375781134354 -4.93905806424063 -5.26694780198276
2172 4.88260200888301 -7.55511516526203 -0.141870791012293
2173 14.7884958467852 -6.26736823876628 -28.2352274240201
2174 -16.151359089791 5.50730371754417 8.21169267427854
2175 -4.6525129345398 4.32702999869229 13.1044975216728
2176 -27.6690806666071 32.5821568030937 36.5094458284611
2177 17.9332176769001 -10.5884879721834 -1.86692611539235
2178 -1.22731693792676 -16.7100063148861 -24.602584734321
2179 28.5625307205634 -13.0607102623259 -37.8433749094129
2180 -0.414101408084444 -8.40296768465462 0.583837427853723
2181 -25.5767536810437 12.3167013006698 30.6885203195143
2182 -1.75123369188088 -13.7148083607587 -16.9634415270017
2183 17.0716711082995 19.8972775227091 -2.25159847045377
2184 -11.9018380785619 -0.837524406062971 18.0809246742007
2185 10.8700191562221 5.78927752658678 37.5771508325015
2186 10.9179146039308 11.1967985717778 -38.3587226777769
2187 12.755677411749 -8.9737613031863 3.9990991003226
2188 -25.6911892604823 38.6377809509502 20.9648674548865
2189 16.0791361683012 -17.1252843436233 -20.2845133872359
2190 -11.9214611993766 -13.4495597776664 4.42105079685182
2191 0.759516109054103 -1.21004446390657 -4.68982716711118
2192 7.08714928735815 -8.80370445542184 14.4279385719955
2193 -4.90306009554825 -3.97356618117961 -14.845145954215
2194 -24.9369147613661 18.9881938703449 -24.3477799342287
2195 4.75561214957973 -17.4288120918278 16.9321563477454
2196 4.29485521561527 -4.39293694015592 22.8684357181539
2197 15.0324895627093 17.3791085522672 -29.6731421202642
2198 1.57175053411383 -21.4092270321048 16.0292398961581
2199 -16.1689778869439 11.000987567611 15.7880690498379
2200 -25.6888260127331 3.18496040985263 -1.87696982277812
2201 13.9692710053556 -3.69727110139431 3.02840898608863
2202 8.27803599997558 6.64670689860509 -0.421237506281995
2203 -16.5630437513957 -14.5172654353414 28.2889595449691
2204 -1.33451072037948 19.1484452258695 -18.2837381545059
2205 6.12751712905338 10.2629008215102 -18.2108337795121
2206 -18.5401794060042 10.1854527910098 20.5113158014736
2207 20.8058907876389 5.23386684155537 1.89308473062982
2208 0.0269639835210972 -6.62816838561135 -11.3005955457653
2209 13.2886206424213 0.0540839627453749 -9.17353181205395
2210 -6.99474974154001 0.0469694791005358 1.17257540644406
2211 0.280962715439736 5.78000487300901 1.14565720466679
2212 15.2165889673436 -27.7158630073146 -4.775437964718
2213 -2.97401699227509 15.7233121638736 14.3490693231248
2214 -6.92964217672784 11.2138190496421 -6.70491636588969
2215 9.19403327622753 -24.9310175733712 -33.5986662909871
2216 -3.20306481478374 -6.29313568509896 9.36825601678639
2217 1.15732645316704 6.40185488278679 6.61746325063513
2218 -9.39705203474797 -15.228524869976 -65.819258944035
2219 1.84829596894403 0.666425168648073 52.0406147785902
2220 4.04727131768511 9.22555611595869 13.7632881220714
2221 -9.28903768036765 -31.5970838094455 5.74268492874309
2222 1.53856926278596 15.6899364904737 -2.91094373803196
2223 2.44531471764922 7.83713716639195 -7.4609100988146
2224 0.498776373913341 -14.7274241143174 9.21582257325699
2225 -2.04247611417819 -0.0615058720809368 7.56655151979511
2226 -4.85138829456359 18.2076112285604 -19.1099833195357
2227 28.5499638336119 4.77745635656012 20.8183771567908
2228 -2.86983546152505 -14.871445057597 -12.1476855307659
2229 -23.7221405187553 7.82948764675968 -8.37899697930144
2230 57.7805502075599 -13.3038359110258 -29.8427857661386
2231 -49.7613840176876 -0.717460270577699 -7.46312729887035
2232 -4.65863116774992 18.0077440168438 43.3047465597404
2233 -21.5265739390145 31.5750125757099 -34.033845923919
2234 6.70673697395017 -15.7738862910846 -6.57845469767069
2235 14.5643218724015 -25.6360864257366 16.718230436898
2236 -1.51929287417611 -7.8439442534151 -3.24881933675903
2237 -3.76810393011148 0.0983315139678171 0.208691911326878
2238 7.99470562437561 4.27948601933811 7.35786514602154
2239 46.9264300440787 -1.97351749743813 1.90408691784688
2240 -4.2751404718418 10.3624639816917 5.78870639264164
2241 -35.4431279975539 -1.90767720165609 -10.1516739246851
2242 -10.549588338392 -6.67234600700237 4.99377758253884
2243 1.48387500432984 -8.96372083718412 8.58494686711123
2244 37.8180285598082 22.74372809074 11.74145422602
2245 9.61458940529917 -13.6400383062909 -5.71920238511973
2246 8.86969969023332 2.65822794560604 -7.02844883487199
2247 -5.91654104119934 4.61399688381544 4.59090221339846
2248 1.2005702358396 7.75161343710492 13.9863104124175
2249 -0.200336852683062 -4.59588161211859 1.66635241774156
2250 -4.01837484441362 11.4972056020773 -21.3621078075513
2251 3.84576432471851 -24.0095613006925 47.7100498789392
2252 -8.3046330177564 24.8941587972653 -46.8248631268461
2253 3.41500546420431 -4.34022201108747 0.63663623233574
2254 -4.63211820217489 16.0100525305306 -5.06631108309824
2255 2.16485677160868 -4.8692141851837 8.70496877228624
2256 6.96772335537934 -8.40682086886145 5.38912720310838
2257 17.6437324816982 2.82164938808029 -17.352194353901
2258 0.0707344195413572 3.96918966864562 7.56050120847292
2259 -10.5197975305546 -9.64000319860908 8.06347302483515
2260 -9.74034039044283 2.35103278157409 13.2360801948527
2261 11.8570812973671 14.2729300577746 -19.7948401324546
2262 28.6126202438613 -23.630765857934 -2.57780122277221
2263 2.60309986335009 -0.0130129012421865 50.83171579292
2264 12.7068230143573 6.21454959701131 -55.5802104861643
2265 -12.5285553362433 2.45423612875746 0.107934281132233
2266 -40.6691465911255 21.7669408847441 -8.41989390213757
2267 21.6124567250603 28.6989721013897 4.27627991086602
2268 -0.695772012858024 6.65222042496534 3.73830289483809
2269 -24.1017022023693 -4.14335763943908 -30.4069676615934
2270 -0.297800997219942 12.1821137201679 14.7684042272715
2271 13.9475336753845 -1.25463487503734 6.52286918760432
2272 -28.6523682825804 -31.1367723919537 6.88305090099109
2273 19.3005112754157 25.8979821974022 -7.19384259427804
2274 7.71508557504457 3.97023177333535 2.3100181945194
2275 -26.6480530906957 -17.6662939225223 4.62527230044441
2276 -18.0084230198387 -5.19148598560844 -17.2248088702551
2277 22.3048688263689 4.16468825982132 -1.9565757117232
2278 6.92681516137879 -3.49802849063139 -5.09645122335971
2279 6.79515570043431 -0.680051381868152 4.83996406384371
2280 -5.69063297413228 0.92299383458967 2.21321889718806
2281 -10.4446991292225 -15.5838636600651 -29.1430628269208
2282 32.3797904876093 6.56235150571445 24.0319358116779
2283 -17.9142454599415 11.551044014295 6.91075545697327
2284 -1.8670365682185 39.8166631949782 2.74053739966747
2285 -0.691792933083169 0.706004620083615 23.0871639797511
2286 25.9390220832075 -30.5274038896163 0.367679383968607
2287 -0.119432041316483 -5.29163436845095 -4.47939383186193
2288 3.13220764251613 26.026975159804 -0.540495042191039
2289 -2.9661136580868 4.8057655272028 -8.82467989841037
2290 1.15840854844368 10.1951732313489 -20.7669286658052
2291 1.16121594587011 -16.1668392148762 6.23260538609226
2292 -5.8743878308346 0.52936583052832 13.4115176607859
2293 -4.28542424809691 -5.53827563429763 25.1936968829376
2294 -3.66066959558145 19.4750619334446 -8.52966861841656
2295 9.86432797146707 0.153357416223176 -17.8974421173453
2296 -3.3786226796816 -25.4798633872206 -36.9992022402584
2297 4.31745439858684 1.68659528691266 -0.855555674983332
2298 19.7172075414775 31.665472461261 4.54746955807142
2299 22.2005125383032 -19.8032913471472 -42.5626736529577
2300 49.5367295498514 -12.6665850467738 -28.587125917073
2301 -34.4062488633123 18.3341661474517 20.1844131274402
2302 2.01472505450477 -10.7501092650621 4.78224214456919
2303 -1.2294710799594 5.19434551874859 0.383753413366383
2304 0.0611416183150468 1.08506284516124 -8.62383017813343
2305 11.5962750680925 -21.2838809581174 -30.0263030505976
2306 7.09041893516008 -12.0670123466298 15.6076331340999
2307 8.4655065436351 -11.9637548406265 -5.96603099476773
2308 12.3857224650119 13.3441194420939 16.9647560450636
2309 -5.79683304159824 3.81155826408642 -18.7868931493689
2310 -1.12531847972686 -10.1137959966572 7.51743205491824
2311 -25.492223395524 -21.7300911915913 -32.3875457484431
2312 21.6861258011772 12.9882664676061 14.1626006966135
2313 0.214338175976754 1.86448250235544 5.54221841366316
2314 -1.52815529575556 -26.8700778840654 31.4262035851127
2315 -8.63731032534833 -33.1443817239868 -34.7963790499541
2316 13.9799885086139 52.2201871372948 6.46395942875018
2317 -39.6512968656546 -36.8899670806441 -3.45342194774441
2318 55.301744701273 0.813907637460479 -0.942227972181271
2319 -2.69578125193796 35.8970846091096 -16.3565707983854
2320 1.05724731109829 -9.28409900994877 5.55086444869339
2321 -4.25401201452185 -1.74226207926761 13.4480172972808
2322 -4.45095753112949 15.8906148355769 -12.2508723567439
2323 0.541259318438078 54.971278524878 6.33978931557059
2324 21.8096892523675 -7.15398360617583 3.30027831305725
2325 -2.85316694284781 -21.3798070927525 22.9342469640047
2326 -12.6474184905402 -4.86515351940192 11.9996932233687
2327 5.81766805342783 2.83557990226769 -9.18639674478545
2328 5.62755644414747 9.74002700536953 0.332185114919527
2329 6.14710415086946 -6.0944706608637 -52.5412928018282
2330 -3.04840062703824 -0.0514157907237863 7.9913560198154
2331 17.2719047162939 33.8831354608919 -26.4333704500356
2332 -47.7378272899334 -42.5597595939267 -29.8437353492242
2333 17.9004758308994 20.1801277349426 -1.58633812917651
2334 29.3557912333782 34.8735922553439 13.7886801284375
2335 -49.0719951433529 -1.02467362868951 -25.2589787917595
2336 48.3976143074465 -7.7271881643741 6.7531474454159
2337 1.21742638520018 15.6991514163042 16.8315564234119
2338 -8.49234369068601 -12.0458905361838 1.369366595453
2339 -1.73363011447138 1.55996700140223 -4.55554233803398
2340 2.16507048653394 5.11597473751294 2.82280364636543
2341 -15.1941447015642 -5.60955864886546 14.8992628629072
2342 8.55445399237353 9.42354785957472 -8.34063551000628
2343 9.28587448606307 -2.75786028951638 -5.4669700295529
2344 6.19249182282805 -45.1948502596807 31.8438289142718
2345 -12.5885248184406 -6.83549496544579 4.13094458030151
2346 -14.8831107742358 27.6594024910042 -22.9208925286988
2347 13.0209365943533 26.8320665853084 38.9176285461193
2348 -15.8486149218091 -32.8252439552664 -35.6891487837175
2349 0.564708650555018 9.89427880872889 6.52637552606968
2350 -23.5124078786635 -9.95488295564575 4.27851264779438
2351 12.9379434167455 15.6086780738631 -6.24819798033013
2352 9.97264822377168 7.7875376770069 -10.0021220394184
2353 -2.94782273751153 -6.07007745652502 28.5798678158035
2354 -11.8959803067578 25.0473495806953 33.8628287317758
2355 8.91000318201005 13.6535317780634 -25.7295678674189
2356 -9.79255830692625 -38.8909700933149 4.14476901292772
2357 -6.52253770600482 11.1020705392476 -0.663156079595079
2358 22.2855323011493 25.9130592302385 5.98567302239506
2359 -3.85219806898614 -47.3514363739448 19.3164089310665
2360 -6.6041279089998 33.1763650261222 -9.27812524569974
2361 10.2507630734466 7.17655927155119 -8.58300324479731
2362 20.4975364227602 -20.1910890149588 -0.719756613697625
2363 -6.90421690233769 0.133963556264248 -1.14479248254758
2364 -7.47288464383021 15.0804699018738 -4.9268404809878
2365 -26.4919792201163 37.1511597507896 -2.7528444202566
2366 3.45038635928127 -21.7809549104651 19.0009884255639
2367 23.9414936426154 -11.5134090173985 -18.5541926742008
2368 -4.35970976232541 -18.8554515939515 20.345554997722
2369 -2.95951368467966 7.36320719212755 -23.7711574889527
2370 0.311189567542842 15.9396355583213 4.06229274907349
2371 -10.6636992158334 -9.07522724662575 -11.2337605000432
2372 20.4039685437349 -6.63327925906678 11.5346287051785
2373 20.5920425621138 2.39450242563435 31.5534377171689
2374 -4.84371581150141 -26.861163028387 9.03994265891855
2375 1.67923259706214 17.149943598208 6.05365119252055
2376 5.9595831357352 8.94383303971244 -16.2857918332624
2377 -55.5485760287438 7.8116112075241 6.9327677542816
2378 5.13787086987413 -13.450006039844 -1.83183914643307
2379 14.7756566456515 2.2288797396543 16.172539980884
2380 4.36147244257738 -20.7544461745719 2.81186557997782
2381 -1.78934906002438 10.7880393548316 8.87187315597896
2382 -4.83768796914319 9.35272197651409 -10.0913161816766
2383 15.2965927574838 -26.447362933281 24.9858976140892
2384 1.57645970975726 2.5142600432304 -41.7884307050612
2385 -12.836043126114 31.2399794191431 26.0584474941904
2386 -45.601614725297 21.3397296199326 -11.8095370815513
2387 25.3278516040734 -18.0459393090148 2.49992795092107
2388 -37.5148883073762 1.20858978530543 -35.7722634187731
2389 27.3828707960616 28.415776863263 21.9798072315795
2390 2.63927177339916 3.91478576084541 -1.7633541279636
2391 -18.9743971561706 -19.2610192399522 -13.9238151325043
2392 -19.318152278365 -8.30963306363292 -12.6266350641524
2393 5.77464251905457 9.59734712091491 15.4908649441758
2394 15.1019837015219 4.40649127938363 -4.95530279006598
2395 -17.3330736934727 -20.8212893476365 16.3281771389333
2396 7.55196334045975 -2.03318826347448 -21.6499020507223
2397 18.5741769947118 -0.5480679617606 1.46579243641899
2398 21.2610994022958 30.4838024199584 12.9980242575014
2399 -7.46145863170418 -26.1284900636395 5.12604875995975
2400 -14.6374384578558 3.24288090146457 -11.2200038964024
2401 11.8248348463794 -6.08056461750319 -18.4034950205225
2402 -13.8204821298207 20.84029670123 6.87940200011439
2403 -2.17760493824817 3.0005135252027 6.68026601882534
2404 10.3621779067643 12.546641542539 7.70651075241711
2405 -1.94997798350623 -9.14083527846199 -7.46604056246883
2406 -8.71397064928148 -2.73226350588734 2.99246992121674
2407 -17.5058926768532 6.91137443573284 3.76178163501785
2408 1.27888627216197 -12.8587453971237 -2.49752200534348
2409 13.2178634252565 4.94877365582036 -3.91875183529763
2410 -17.9170056940968 5.57188521501366 -14.9571682173736
2411 6.59640291774368 -2.44326519390149 -6.63133833386416
2412 17.542278698353 -3.57776885200157 19.2389703869447
2413 -7.04015699506211 0.806294246994486 0.664399795158704
2414 1.94687239585439 -5.93882710111419 -13.1506429113794
2415 6.48120958316397 3.354431021142 16.2538163863346
2416 8.17902211261864 18.9290024156144 -21.4272008567792
2417 -1.35833589983084 2.87229975246032 -20.1911240343474
2418 3.39673580271413 -31.3953996718211 20.3822553736242
2419 -47.0887555428995 -11.1371081387291 -25.0329715070218
2420 -14.8240404875105 5.59901650915313 -10.7934665881151
2421 1.50131020777103 -2.3153111685024 0.717423015214321
2422 44.4099971161072 28.6940253893158 7.42634876348907
2423 -47.6740075205733 -42.0163397918215 0.199604467443456
2424 -2.15514267167761 0.087891515980576 7.04871418921065
2425 46.1138884995048 -14.5913610366524 -34.4776143989473
2426 -42.6881261890889 2.14772284795045 22.502188271527
2427 2.27094094303765 17.7066912484338 9.98811493163879
2428 7.86968469886366 -24.045396201764 5.34646861975928
2429 -5.40184452721964 9.31392883212607 -21.8058605680281
2430 2.88836169383387 16.1348722438178 12.262868148977
2431 3.74939487969354 5.40762718100202 14.7452253519465
2432 0.0994823727730771 0.254387903736736 -12.3471938265749
2433 0.478943567728529 -3.82998695443386 -8.45121291378093
2434 13.4079893528232 1.85719567168567 1.23200776195313
2435 -3.2862592786489 -2.07997246199167 1.71077072061121
2436 -8.57926664252254 -15.4334528406202 0.92813558281414
2437 27.3763543015562 15.6282258739536 -15.905465908889
2438 -29.5178970742376 -4.11072088272462 2.49644249536703
2439 -2.66465964345862 -9.17466269846073 18.4650830324754
2440 -4.86710425800717 18.5882418136208 15.818597049915
2441 10.8516846438208 -7.42327168499701 -20.1800671004075
2442 -4.61506496262762 -0.399392973455071 11.5656767789707
2443 -0.777775530996094 6.91440710553066 3.83526429024834
2444 -4.18068622227965 -9.83507241927033 2.24060898829169
2445 1.01997663639887 3.63853132164484 -2.5100198303781
2446 -16.6226005127592 7.96784570447483 -18.2750786891712
2447 4.61626597527246 -1.47879229611223 3.12904211821996
2448 10.8251425990906 -6.66299793832453 12.8574843690466
2449 14.7873087924969 35.7103525808156 -8.34830314045028
2450 24.5216250027044 -3.15952138975851 -36.8064738578315
2451 0.492066679872019 -24.94262212467 -0.448269287822322
2452 -21.5978871398871 8.59268486634385 19.1432227589465
2453 0.735003421425255 4.95495250799022 5.97407930140247
2454 -4.04642355733485 -2.29395152421623 17.7208425339449
2455 9.18761608234975 -25.3927020303705 20.1952126176064
2456 9.76796146879957 3.94522302913647 5.06256041507113
2457 -2.87061308188674 27.0827018878122 -10.0736393488187
2458 -21.609825091852 -6.47773592586407 56.9651229055731
2459 12.8570869993571 4.95450065286567 -7.64389358488631
2460 2.33709792416759 2.22872342947068 -30.9891597778972
2461 16.4901765111896 4.47395531910758 23.7571359881927
2462 -14.0393192177243 -8.76558895673682 -12.7244066282879
2463 -10.5357102329945 -17.1341994592487 -1.99438167255263
2464 -7.03046698079627 34.2602750067913 -4.68736618687477
2465 -1.26603950223773 -5.63648654172463 -1.60585926911363
2466 -0.73764865239138 -5.80567655237155 5.25868553290706
2467 26.6726654483827 36.0318727195315 5.58551328906823
2468 -0.198604278341648 -1.32412784900376 -1.90044947480821
2469 -22.0525594987897 -30.5393564130836 -15.2628009786127
2470 0.171092985236337 6.55444361873818 -5.2406549751194
2471 -14.5334626364602 13.4231610012196 9.50645221793197
2472 24.3997972013352 -11.6608400244281 4.33907883401762
2473 -0.753002613055188 24.2180187142882 -6.3841324503601
2474 23.340788051079 11.7569113058574 -14.4655823904546
2475 16.2778441291478 -2.57267393796176 28.5508156813819
2476 21.7151865250725 11.1182171202521 17.9602732425046
2477 2.77376569203747 -8.8211850079044 2.69002171736575
2478 -27.1465763358836 -6.87525103988385 -17.9550820964796
2479 4.82001013547749 -24.034749959841 -9.03272751709728
2480 2.6932180102526 -8.07738982145269 3.96704156942096
2481 0.028198240426792 21.3942571878206 -11.3670256754414
2482 -0.985079129459933 30.9423594228104 2.11774034549504
2483 -4.77473413986089 -1.10097475887881 -3.10421302613047
2484 -1.88364542488383 -28.8259817492272 17.3167456730527
2485 25.4212464280332 0.473756719449481 -5.5454448851373
2486 -46.0559582637096 -13.0994667306994 7.02669965439048
2487 10.8696501175856 14.7916933314339 1.20417158937941
2488 0.99095145619775 25.3337927673839 -11.9122973751962
2489 -2.70900335135025 -13.4310912617615 10.8022599117923
2490 0.664865131106262 -4.99249057099194 7.60713359104136
2491 -4.67644053402128 20.5180278598431 -2.8457644347461
2492 11.2316464897646 -19.3904910339957 8.13301328320584
2493 8.97328332963954 -6.22109430882917 11.6949213902254
2494 1.77118076742664 13.8076480183507 2.69692450747833
2495 -16.3648779769253 11.6170262609882 -4.07308967390187
2496 17.8660569285015 -17.9757277824752 18.8103874887127
2497 0.997810796326955 -16.0903687972798 -20.1393866767336
2498 21.5729045144607 6.42475978862701 12.8527550008953
2499 -8.09024497311652 25.8614585430358 2.44452717442021
2500 31.7411352523278 -7.89935910359007 -81.8535506942841
2501 -21.1070948531696 -27.9186562640227 48.8854627126504
2502 -18.6524651841802 31.4646109261778 26.0917696200727
2503 3.64413222136146 24.5035004053572 -32.6027354764576
2504 -2.54982445802146 12.9484986766024 -21.3290560901902
2505 5.22685799826444 2.80904724864226 16.1138533704607
2506 25.2732379034705 -20.6631978833302 -4.2255254486253
2507 6.01615306852407 7.61925640493608 3.39568271148487
2508 -24.213859664057 -8.32896981213738 8.55795220669334
2509 16.0688697897408 -17.6952718442295 -22.9864983540087
2510 -2.42359053789632 -7.66982308915212 -10.9464074470857
2511 -15.5609875500902 16.6834233868636 26.3243961913004
2512 -18.7149155941718 3.6105829361894 -36.152225057614
2513 -7.99600255003414 -5.3795973121402 15.3046198092047
2514 21.5394590369792 -10.1532659611372 0.194807991384597
2515 8.81798929699467 -6.80472005738071 0.642049759483177
2516 12.5950499384911 17.3237762887169 -6.88313494920957
2517 -19.5160855934418 -5.56187316990029 -0.234902454003071
2518 0.578256937389469 1.99647418178369 7.73166390991086
2519 -0.478494137465329 5.27054334460453 3.52362384110225
2520 -0.893389669406064 -0.296667153273146 -1.37996726877562
2521 -17.3735364103974 3.30541225951234 21.9989613761335
2522 3.23827391980264 -0.52065914941446 7.89192951262994
2523 13.6104215754709 4.91706934882561 -10.2198463089312
2524 -7.77895014806678 0.65909791859008 37.9321604444143
2525 -6.40121693827422 12.0138506317433 -44.9179783838156
2526 -7.62805776005394 2.24328897385459 -10.4478127586536
2527 19.7132490536983 -23.3277404103092 5.15967321674887
2528 -19.4904845678281 -8.33756886054205 3.63896111527793
2529 5.24580864079367 23.5215063532482 0.111864761523526
2530 26.6856957248347 -14.1231704187911 10.8355255949176
2531 -21.8459167914674 7.56066080455069 -10.3003460165636
2532 -5.35926968810882 2.17750730376204 -6.07783363472886
2533 -18.0914510579868 -44.8579682758152 23.1180785559753
2534 15.0006746924349 34.5365041082491 -17.7975610554518
2535 5.02433462408625 7.82514753079687 -3.92400443809059
2536 -12.0641593511284 13.6002791010134 9.44478706353635
2537 23.7614745347196 -19.7366612032042 -10.156779549333
2538 -12.5717750286203 3.76270754716486 -8.40839822611421
2539 8.65185839500634 12.9313831378375 2.39547092218686
2540 -5.11659302692297 -5.04138826363546 -6.12532275046314
2541 -3.75812326027984 1.80900971612285 6.69405807786315
2542 14.5704752807171 10.1891458142741 -17.3173282030782
2543 -15.2959828312162 -11.5828762500513 6.18836665307148
2544 -2.57025422827017 6.59293184710513 -4.94910315778701
2545 -12.4580235045895 -7.57408857045664 15.4106956395452
2546 0.701908621441575 1.24703404442261 -4.13166621037845
2547 4.88890861008825 14.0891909167558 -7.17039067284354
2548 28.3154022852725 -52.6572431429595 -22.807457968439
2549 -23.6771589287332 41.5206348865921 8.77508912373147
2550 -13.423310190121 5.92850299957228 6.71870747819706
2551 3.29429013322626 31.4246068218296 7.47105099797897
2552 -14.7717092441862 -13.9721618912386 4.56819975437944
2553 1.97307986861721 -5.67730370405811 -12.1698893636485
2554 40.4432098999351 -3.017899736138 38.3373674785928
2555 -16.6900808652636 1.68491987507407 -25.0704561103172
2556 -13.3179042462642 2.60915604667522 -16.6850909281013
2557 1.75231328872812 5.81251156371317 -8.9450151091847
2558 -4.11698551028064 -2.73922878266394 13.3057894633637
2559 -2.4753377358549 -1.80774361938311 -2.36112476187462
2560 -16.928025035885 -33.2919174563233 5.23660203030449
2561 22.7121500443971 21.6731862309342 9.30941407866154
2562 -0.0791932049001005 -22.9541438860218 -5.34699984786091
2563 27.8355009168395 -7.12649126972966 29.7517160075603
2564 -9.58087532434061 -3.10398260125312 -8.50338832349693
2565 -10.1247137896472 8.29301864473463 -5.15984436361456
2566 -31.5098130451408 -19.4560178219851 -53.3983554828108
2567 2.40967124230738 23.0648105999519 -20.5323272664196
2568 26.3203673815863 15.9572069827758 44.5139008418704
2569 -15.8992355663683 -24.3221740324301 17.1251294328441
2570 -0.127531150599536 -3.20006426111345 -40.0530112114403
2571 13.0338658195737 23.8051544990312 30.0197575698531
2572 26.7856498151266 10.3098211334463 24.357220192138
2573 2.27852774778833 1.4927766045179 1.80173120310495
2574 -24.8688021657023 -8.12048325766099 -25.5359417297264
2575 32.1165097109138 14.4136829086813 10.8826206518034
2576 8.77589269338361 28.782057535348 6.98529885194645
2577 -13.3281959213551 -24.8754465116744 9.00435182557261
2578 -5.79867807500399 11.3482653548607 -7.51535626937042
2579 7.34955966716817 -10.6764415034007 15.0963688657885
2580 -3.99279205868467 -6.90560692229667 1.82398830242044
2581 -3.24409374956356 6.84400586787104 -0.118625296761537
2582 -8.01578084364319 -4.51789789147511 1.12427914935478
2583 -5.82066400935974 -14.2955250014867 -5.74616820210921
2584 9.07600405721265 -4.21352120705976 -9.01152691210643
2585 0.367918078468809 1.24635097279549 3.22515656838175
2586 -9.14593209262994 1.3939688777316 -1.51643436260304
2587 -27.0814952162875 -58.7486143242295 -28.685676143214
2588 8.18880189530349 0.422498202832759 29.2996641994624
2589 16.3434823662795 45.5231770690236 -9.52996178639853
2590 -4.53565838464617 22.9342515956094 -39.2655008703503
2591 -10.2244666887468 -25.7222777802405 19.9613060390389
2592 20.9737948831165 -1.25917234460074 21.7080638024573
2593 -29.4049731343605 0.718565555938882 -33.5055930645651
2594 7.49316233868036 13.9138988202996 46.4299090361783
2595 31.0571302889699 -12.8052958975846 -14.8398292557512
2596 9.1035546158037 -6.7954164758863 -2.57204760659698
2597 4.61643816214173 8.05635522269904 -1.70969012233402
2598 -4.38801229180624 -7.63886157661035 1.61664668009735
2599 -13.5704094406398 -33.0895733439472 25.859473022382
2600 -1.97082455009474 -22.7908697673447 5.54822811771773
2601 -5.72201922460498 -2.1035723368256 1.26764693658713
2602 11.5923247477213 20.085160999757 -5.49886717506079
2603 -5.5778690664117 -3.26933819764809 2.75823455508294
2604 -4.09498249684618 -5.28882919547794 1.84529140219809
2605 14.0852375673492 22.79665090715 -3.16867801298167
2606 -5.79688761288089 -26.3055264988686 0.832735444624155
2607 -4.82513200159373 -7.32780553657856 -0.155212263999438
2608 12.6797901150701 6.04986067410876 14.2082072210305
2609 6.59060470012591 3.54865714279537 2.96818801594776
2610 -7.65832912259797 -0.7939853607624 -6.4724158491878
2611 -8.00561492411451 -6.93103570434845 21.2864822490392
2612 -1.82063924838149 -13.0351249190298 -19.8028462245991
2613 4.191042917256 -0.596509517662938 -3.34431504481483
2614 17.4089857440643 16.831777806787 10.4198965783258
2615 -13.4597847146159 -6.43290168818501 1.96196982919209
2616 -10.7527572669786 -12.7136582174251 -12.4112471961971
2617 -13.119224350426 -48.1636312989471 -1.03703852891744
2618 -0.75234026878166 24.0888474799911 -1.81096621645286
2619 8.72783268704836 -3.40723042065902 18.6574112765186
2620 24.5125459170564 -31.1675004373908 -4.00700661252727
2621 -30.2430644676308 7.70436245551395 9.16840631563865
2622 8.74469772764016 14.0495480170644 -0.911540468419247
2623 -36.7550335723987 13.4970182007067 -26.9346192046311
2624 -18.0385200401701 8.85010128813475 38.257684271988
2625 51.3317385390235 -20.3397531764741 -14.63926684295
2626 -6.39875083806349 -1.82882786926353 -2.96308033833721
2627 6.84776551153266 -9.52865696845413 -8.41081070469721
2628 -6.50786676280243 9.75577670342741 11.1786984884458
2629 -27.7291842335323 -28.4731834358895 -43.4301395992361
2630 -7.04210238747909 5.17400750365244 -0.519588032139641
2631 33.1000055736843 26.0169357146889 42.1308803617475
2632 29.9489026630811 6.69661141174937 -2.53149948203833
2633 -7.29563848268504 -15.0247731810125 3.3095954707932
2634 -5.88893245898428 5.25361902768023 -6.67654933862385
2635 -1.44053224680018 -4.76715471875772 23.0510144915159
2636 -3.37844497443669 7.89732623610103 -3.06503330816098
2637 2.10090533671333 10.636482920143 -9.88633626643984
2638 -19.4345928232992 -15.303517208937 16.9083806614689
2639 3.95040265244092 15.6167343521408 -21.7522515082556
2640 3.81001418626344 6.81437290893071 4.89699109387635
2641 13.0626947577489 29.9232887118744 11.6150810232517
2642 -8.09043084312182 0.63094080060012 -29.8676088946281
2643 -8.90537060241399 -27.800326864083 -0.168004355068846
2644 7.43785073227831 -2.89454326476769 -10.0147977927532
2645 9.07988034342417 -6.72032433820725 -10.8879734424435
2646 -15.6321695833496 7.32599552101579 26.8351063602443
2647 -20.1417334699924 -21.9448950405524 -23.8576396012254
2648 12.999354973308 1.83682880087166 13.7541373013635
2649 10.2961075946218 25.441329760355 6.44724302536292
2650 2.27453385267489 -6.94946251466188 11.0669681538912
2651 11.0176943518037 -7.80168160929459 21.2566523628995
2652 6.89983189592684 -5.10567133049722 11.5807760443003
2653 -8.8781197246464 15.5312812876275 50.8283583017453
2654 9.60022976646233 7.31459790826699 6.25811046368471
2655 -9.99061813302692 -26.5591443919414 -49.1922907294349
2656 -8.39365839553439 -18.4810295793738 7.62460277268047
2657 13.7950415198383 9.64076924867659 -9.93482707959621
2658 -4.71820875293126 10.1895724189409 6.22634549952625
2659 32.7068605902606 -9.0014758771868 -21.5400975913167
2660 14.3885094356156 -9.49999966729248 3.68501947901693
2661 -12.920610781566 8.83439442565085 14.1136708975291
2662 -5.44089426887201 -3.09363762193638 7.38091976817329
2663 3.1130845010555 2.08086976517692 0.948501869193518
2664 -3.55696768306781 4.93881905206773 -7.78706589986188
2665 -23.3527734930098 20.9409263399584 -4.69527467489405
2666 11.6049007100465 -1.76594187749349 4.700799308677
2667 22.0945325869289 -17.8872363761024 2.01350444977593
2668 2.10897334583717 -31.9115897586168 0.0315112556501695
2669 0.904143201124404 17.5624993993448 -10.5631906509866
2670 -4.93574521295164 4.87089396714567 9.28434397906324
2671 -39.0432027640956 18.9685201019431 17.2507191050207
2672 5.78921389717589 -0.189334662688051 -4.06585226085968
2673 35.9427696504186 3.4633705329165 -9.39998204874159
2674 -3.65807688685384 13.847209692411 15.6521344108905
2675 13.4528389167425 -18.2085000485495 -19.3309862504565
2676 -11.2277089222171 0.047473704115419 5.59821772845955
2677 15.9895855374155 10.490422181133 -4.15483596541605
2678 1.97903009716448 6.49779549506898 7.85086109243429
2679 -21.5488347678791 2.71814543274996 7.59603210230304
2680 12.2934465806411 3.52777193707971 -22.3410365642164
2681 2.85003462086784 -4.94145286890087 0.486097249797493
2682 -7.9591473901112 -2.09371947413705 9.27821259571512
2683 37.8092200409455 14.2906014763661 4.25410065338551
2684 -34.0932311933132 5.5902365678157 6.70286286393105
2685 3.33089838662015 -21.919281022176 -9.31967753309731
2686 0.54551345751743 18.9198170131556 -0.0159584748174364
2687 -10.52839820121 -26.9296793711742 -0.630359287805804
2688 10.0328179230434 5.04508804218363 0.85015366074177
2689 -12.332197683104 -4.27590832391608 5.76287524661573
2690 23.9587828273052 12.5157140347556 -8.93943170451194
2691 -6.56243655242548 2.22544313117444 -3.60749982554639
2692 12.5508458972108 25.3374403045496 4.43148790556082
2693 -0.259911171392751 -3.62129145708938 4.4554098785903
2694 -14.4271265140707 -16.6803402576762 -7.97673642563174
2695 -23.8889022026008 20.2746309025871 -1.48507454468305
2696 6.97034770115764 -8.90254257443909 -1.44252082662575
2697 14.8807573232957 -11.3746320194417 8.74334320708208
2698 13.2568049033778 -17.8715949682614 -11.8377010801962
2699 8.19990452429741 21.3750777760446 25.2453949427043
2700 -0.859051432408048 6.13692555981031 8.24277028736084
2701 9.37378117048232 -17.2071575599207 -7.09974108821103
2702 3.68504039804927 24.7592960426248 6.56540204953145
2703 -9.78320227825188 -5.94528088016071 -2.49533698098854
2704 -10.083172236921 2.20711673040232 17.3206685042119
2705 12.8372629210208 -9.66950561442407 -14.5336352111961
2706 0.511274180814482 8.54150090515439 4.55514005399461
2707 3.65800386699023 0.118023585798227 10.0727020183994
2708 -2.58618898550363 -3.81511661947419 5.82652610022824
2709 -4.19891736429873 0.0505137457183247 -8.00820587591526
2710 0.107557855841602 25.5836274850849 -28.4082567823265
2711 9.59120223638281 -7.79870893396111 27.9158163183823
2712 1.7564665344067 -9.79314424115022 -8.28159470290278
2713 -7.21175494621951 20.3397995646482 24.6712171125162
2714 -1.24544808815867 -1.28521571388984 -10.278166913222
2715 -3.36889936482592 -21.376953061488 -10.917703719546
2716 41.1200954330329 2.99017352095465 57.2225712080184
2717 -40.5429959306507 -3.08905377232887 -28.141140468964
2718 -1.19114657645337 -7.47851308292848 -2.90301753245708
2719 -2.70238164214752 22.1673471357742 -25.4194850129729
2720 22.7639074957282 -7.53596341510209 -9.50111229991343
2721 -5.53776096834452 -0.906469498790047 17.6184104623842
2722 13.3879035615938 -18.5129985423581 9.55589187223158
2723 -7.0281791204864 14.710915370035 -3.03769698829134
2724 -7.87297602232069 -0.507457747711336 -1.68987962689473
2725 -1.44400111647901 9.40759101160366 8.42052858498502
2726 0.314378798957529 4.08790316171427 -8.96376767871542
2727 4.35655117248807 -10.0662842104542 5.83398786319128
2728 -9.58915771090665 -30.8381371655422 -16.2986175834121
2729 -4.38847627052933 12.500359759678 6.84849437284749
2730 4.76554445548758 25.8151133193812 9.84343012096252
2731 -28.8266230298894 9.59831556445985 13.5009213968343
2732 -5.68992784276727 6.23516244290574 4.33929878300254
2733 11.4715885644063 1.73453449439378 -0.792682993807199
2734 25.7630199553422 -48.4009143144854 -21.9035636163825
2735 -11.8540495882255 35.4030846945208 -7.69118622519622
2736 3.73534316737271 10.7369597835332 16.5207745319976
2737 22.7776835795639 8.09708297633572 -10.2500977640253
2738 -12.1783260000612 -0.0190051785142735 5.4094971657798
2739 1.21141342708398 -5.98158557423444 3.26321726448783
2740 30.4429804886569 19.5910122870703 25.2607168857722
2741 -13.6249014209409 9.58558424419182 -9.99906844139607
2742 -15.8016104850671 -28.4424512727238 -20.7404981986338
2743 -20.7986659340901 -12.6810600676343 16.1220174795551
2744 21.6096085120246 2.91119426362066 -22.3449450475182
2745 -1.72086128956124 8.44815959098562 5.95585364674609
2746 -53.9885553057284 26.4932905428825 -27.3870424095199
2747 21.7293446815857 -8.44120127576986 -5.01374006474924
2748 26.7854314243474 -17.7670811595336 21.502320438949
2749 6.43701807432945 8.33456737756827 -29.0617054384005
2750 2.85086138910622 -2.0055585449497 19.4920495890425
2751 -3.13111723868789 1.46915528903918 -0.0379849814379926
2752 -36.5445512804014 -7.59930313486591 -7.94614862419106
2753 14.4643859774308 -9.36465719334085 -10.1862852914865
2754 8.89758965730727 -5.49176265479261 -0.991023677069737
2755 20.5845370518192 21.5560325109055 11.7312068945093
2756 -10.5091490250912 -8.21841820635933 -10.1899309011603
2757 -16.3103923449862 -2.9262961896653 -5.26437827419775
2758 -30.9182456770183 1.24481046209391 21.3064688449611
2759 -0.609280910559186 3.21487250280074 -1.53866046332415
2760 7.41625398130333 8.54365666544626 -15.0389011512091
2761 6.98505730336437 -6.93548376726766 -32.5242700137739
2762 -22.1843598246425 -13.395022410459 1.05815989576291
2763 -15.4609417284659 -10.8516394501167 -8.42620624657968
2764 -3.31736261495901 -25.9461474699216 -18.6089255303995
2765 7.19689861120114 5.49211470772828 26.3968758062087
2766 -1.89425062892843 16.6900611284856 -5.51101440291374
2767 10.9168103850335 -25.2458673216847 -10.9903333131694
2768 -7.37561240134892 8.38168351814485 3.74084082325067
2769 -5.77801036986951 18.2273449010506 6.87857217191899
2770 -37.2127626502685 19.6689406706148 -35.9769096355442
2771 25.3376521555097 -0.54288040109845 9.41031864697387
2772 -3.78383004411121 -7.52884401448782 23.7471025072424
2773 19.2957242243033 -3.93004410359319 -15.9396753655906
2774 -3.25241019410492 0.346060803620467 -9.92562140766096
2775 3.53078013011331 -1.20114861024189 9.23554800368892
2776 2.0406449279681 -3.49867797637414 -4.51228216695418
2777 6.07837220784561 2.64460495764297 5.29506294524111
2778 32.1977099266339 -17.4010532626723 -4.52367874757928
2779 7.89502394443547 6.58644360646098 23.7024393287426
2780 7.93752841504901 -23.0177629071984 33.4575264444672
2781 -13.1884216983066 11.1683599996731 -8.89792456130242
2782 13.3273288276258 12.9113932205989 -28.4640128885141
2783 -1.79984372278352 6.40786063564839 12.1140856849167
2784 1.76260492570699 -3.28993989305793 3.37980448587366
2785 -18.569563867994 -8.88405298883452 16.3180379186231
2786 17.3297506773179 10.9463062614164 -20.4084022574812
2787 -0.010384956408047 5.48311662049623 5.81074972418972
2788 -4.36263513894771 15.8005438054178 41.043676637738
2789 -19.5241567002663 -29.1282016775065 -24.5064983305893
2790 15.2025361955705 8.34396952875471 -14.1090634546128
2791 -0.280200192944147 0.205602755175592 17.4611818511058
2792 -11.8450543289653 6.86131901740179 2.20378830744481
2793 6.21384419723481 0.210796913785398 -17.4459454225359
2794 4.85876131501892 12.347459503705 -14.8796275379294
2795 -9.63131514190708 -0.272897165421675 2.04843171117289
2796 6.31477593716371 6.45443837423138 16.8462677062907
2797 -32.581741850288 21.079950046254 2.03265513625732
2798 -1.35130423440616 5.85854099449874 0.206446113543842
2799 23.7753911921595 -2.63661223424225 -6.8840288782923
2800 -6.69645341764631 -23.1026519713007 6.37274352839099
2801 -4.7053843358916 34.2299101207248 9.03800273162256
2802 2.87008351026829 -7.52285385164838 -15.5311041083745
2803 -0.464583088014896 14.6481331197794 14.6139377017141
2804 1.68622175895749 -6.95895621761665 -11.0205268256585
2805 1.18134093896143 -2.21771065670309 14.7585330475677
2806 -11.431527494697 -19.1464503887438 43.7792376555361
2807 8.67654991020868 11.0485039683782 -4.90603723549391
2808 9.58539595943392 19.0690458820951 -18.8297170352229
2809 25.4818306971551 16.8574023489765 -10.0859310420685
2810 -7.99524718217321 -2.71815633315889 4.6489071965783
2811 12.7494736565279 5.68308996439793 -0.539780625854576
2812 -11.0054772016781 11.2231369025685 -24.8680581837098
2813 12.2968441274199 -2.7969586443576 -2.74387614024599
2814 -7.23557734893008 -9.23921892847574 32.6764543537453
2815 5.0959730645196 9.46511832778558 48.0749899117755
2816 -2.9692303275177 1.27580363496366 -6.87642723478185
2817 -1.64039171166756 -10.3438017472466 -39.4366244738193
2818 28.4512638331428 -19.1021078520667 -5.35959654791459
2819 -13.8287982160404 -2.93330145020774 -5.66794503635057
2820 6.72767111329241 -48.1424545975287 -15.6469828387713
2821 -17.0126547552328 -26.6288024265137 2.56883292202583
2822 15.3396224307128 23.000542127691 -5.6021042537277
2823 -32.9870086971473 -14.1918167447598 -28.5903824174687
2824 -48.8514617746813 -1.14843768395058 -4.86950884813695
2825 17.827511454705 -4.80077170594128 8.41523785081087
2826 30.9801533912096 7.07783135847758 -6.65809798210408
2827 -34.3361751009985 -33.1965136282214 -18.6314164949857
2828 -0.361797213203891 -2.69619943410039 -11.1109878702634
2829 6.78659991311337 -20.9533449433056 20.2179193809563
2830 5.26542950825219 -20.6020657252928 -23.8204786402315
2831 -6.50189843123762 12.289852651226 18.7090570471173
2832 10.243775951956 -2.23781423908137 -13.8382421870609
2833 -49.1173850058497 49.9833650114802 14.6282927598489
2834 1.86020365476732 1.67590304396056 -10.1965633472729
2835 24.4983370939294 -11.5094898771479 -22.9043990829619
2836 -52.9266567962688 22.5900022869148 13.1212900662781
2837 6.09547841488689 0.621990626086467 7.49224624323935
2838 4.01786582212627 0.977621282866121 -11.1436524691542
2839 16.7099706003682 -21.4526327134346 22.1715313066261
2840 -0.454373712660067 -8.62782145915883 -15.1134479244218
2841 -5.60522367366314 1.63997733429831 -1.44074283043835
2842 -28.3754696820327 60.2545706340234 10.1086291060138
2843 20.252998808984 1.03856540940575 -19.5255855158327
2844 13.3990065948164 -12.2991449939655 17.8387026505825
2845 -18.456998586275 39.4285601574664 3.9950414293321
2846 1.73329888619794 -11.1193513499045 5.10056537429511
2847 15.1619237697269 -28.1644740473013 -5.14702923150955
2848 27.337277895581 20.1062919388413 52.6036859780882
2849 -2.03006789787424 -2.72655080915939 -9.60749516177574
2850 19.1416796660594 17.9296506289003 20.0638233476565
2851 -0.705484162329257 12.2439917138082 -28.6141905040845
2852 4.02898881951772 0.296846582991224 2.06151869708181
2853 1.39187526869432 -10.8323465446431 32.6201506296257
2854 2.76578311712027 11.1664256228042 -19.5086710232894
2855 -2.68162936124015 -9.55856163095017 19.7229034884354
2856 5.19180182558065 -0.879584579227166 -3.17952643711101
2857 11.6721272912845 22.0086321997549 -18.3560706264262
2858 -9.47836285674071 -22.172040841715 9.69595845021839
2859 -3.04345284452271 -3.04226872488803 8.33545155835818
2860 7.10588292178164 5.34005392189509 13.7666313538009
2861 5.78522782454754 -12.8410100050489 -21.0535609787887
2862 2.93685696122833 -3.67235959656438 -2.59718549698773
2863 -7.89531107325036 48.2140470304639 21.1693222154672
2864 42.2934887753266 -22.0975434058764 -19.2548467830314
2865 -13.2922549169647 -49.1904857505643 -6.27263221798855
2866 9.52923985868929 -13.4692088300373 19.7368581192582
2867 -14.4424442716172 32.6182759065027 -0.273262543742295
2868 6.38301077431204 -9.09907267435964 -13.0871909156381
2869 6.9156293606584 -16.9011710175707 -3.54575813486675
2870 0.488588382837543 1.74004711491854 -0.396370904279528
2871 -4.05292863509557 5.94889756863722 3.49315150080348
2872 23.3246629011636 -0.952139103156305 17.9223443779325
2873 50.7128142365061 5.10303186024271 -2.2255022297717
2874 -1.29003189654251 -1.78754937597836 -0.640223379764944
2875 21.1601102373852 -4.38623069857452 6.93573694740599
2876 13.1834546979038 6.27918386407784 -17.6975060188251
2877 -30.5581900423939 -7.57712563524874 15.6118756287817
2878 16.2923377441888 -40.2723987158386 -49.970620498568
2879 -1.55066875178449 18.2950501221818 24.2237053710575
2880 -14.8274284085221 26.2009363968824 22.9989006352966
2881 -2.93678716460159 22.7867672288918 -0.447315733627067
2882 14.5587477530571 -10.9339843828996 3.37599555373452
2883 -8.1862595922931 -8.18668218189986 0.487171024561002
2884 22.307732432432 -9.48108939192136 -31.1176775069192
2885 -34.351068249639 -3.39365780720627 22.2240068534089
2886 3.03666983195941 17.9650052323172 14.1547073686235
2887 28.367621477897 8.80505351334649 31.6973536266877
2888 -13.4503691809811 8.98124079556356 -7.95976002904414
2889 2.12029684035982 7.66769255456423 -10.3610780335117
2890 21.9617445563993 -2.76789565468106 0.818906699928743
2891 -24.4823489072635 2.71278561398134 2.86912017201948
2892 20.2556041696864 7.83353533985112 11.3058422905673
2893 -6.31550852353027 -8.85459619614535 -17.5480310925798
2894 15.269862345406 -1.79930907466585 11.1767044947035
2895 -2.86961555063092 7.25298417308587 8.49503362197234
2896 -1.27994549053346 44.5514659931139 15.8135309866387
2897 -8.86683364727962 -23.3074864394841 -11.3889190625909
2898 13.414918634486 -18.1168610166541 -7.82969741636991
2899 11.1282078589837 11.064362533035 -2.54416462709064
2900 1.64325446097551 -10.8194076533688 -0.929390485367763
2901 -1.29784228558291 4.22844393165077 -7.19315399302315
2902 -4.50536563552922 -6.62535406368004 -7.63158262384489
2903 -28.4807382760883 22.8809853380089 8.88156835349685
2904 31.8389335910265 -18.9062128786461 -4.77798374544921
2905 -11.4625393112231 16.2873473482332 -3.66333625009173
2906 8.41567364568678 -25.5772755022303 3.91545187920078
2907 0.889490841796242 9.27689132150471 10.1063674634556
2908 0.562835377010774 -15.4131003194544 -7.66109490915969
2909 -1.85128202422243 -22.150615405588 -6.9402742458613
2910 0.0724009649202282 23.017758125666 16.115105269991
2911 24.9373630170939 -0.698532057733183 -14.0342152146307
2912 -1.96634026931 1.22452032877272 -2.08653572074659
2913 20.264233817656 -7.75551697093664 3.29396492652821
2914 -21.1115728328148 -33.6274186907593 -0.170595895865404
2915 18.2499666726226 41.8082486481336 -4.9764916124768
2916 -5.54491883524739 -9.21224018025029 -0.236090813175091
2917 0.274323030519346 -9.13526777361675 -5.49521320661078
2918 -4.6664098324007 -0.115334465584429 -6.8403928098526
2919 16.5937288515968 12.3850546338202 3.17900117793978
2920 -7.43515864039048 24.4816429884689 -2.23166813408171
2921 -7.75433487700662 -13.378725608731 -3.96174741614853
2922 14.9979386229035 -12.7008793726462 4.58910941597161
2923 22.2908565322373 5.73060235525469 17.4991109166095
2924 2.21371143848637 -7.09414071730187 -2.57689207555573
2925 -25.2595689292722 4.45965911062491 -8.65952959960814
2926 30.7830615584173 -42.3557473542989 -2.92967883860734
2927 -5.16782414697603 32.9752831151486 -6.97434183088118
2928 -23.2369292650979 11.8126046723845 7.41124196037188
2929 -10.0290738017483 -5.37244991860925 -45.9102689684674
2930 12.5998640932887 0.187352368561994 -3.17488150341475
2931 -12.8156730267939 5.15912490071294 6.15822122864007
2932 -11.2198632810774 -30.5540522778303 0.571499239642258
2933 -3.93651805419612 -0.283755389616285 -9.64896502562493
2934 -5.91034853528342 4.60144665491784 -12.7213491553295
2935 -34.7069744933613 -43.9940806858343 13.9500806305955
2936 -0.23193863891423 20.7052099326417 -8.99406005251428
2937 33.6923479832021 17.4300859588579 -12.2799020737025
2938 -25.3346883533499 -48.7392746768713 -11.7576663851932
2939 24.0121931034536 8.75340095300765 18.150164377719
2940 -0.360832812950298 30.5644624337558 -7.14290674738415
2941 -25.9816873339087 20.6059855484787 29.5135232398611
2942 -8.67379353555014 -3.66626315473823 5.74151681915076
2943 8.50030405277647 -15.9337816170052 -5.32338230789155
2944 13.1188062837211 14.5623907042696 7.56867422301805
2945 -20.6884041490622 -15.1248187189694 -14.3576026512034
2946 8.66315968782388 -18.1687091329352 5.99784433690327
2947 -0.763216672481762 -2.47688291760814 13.6519395990653
2948 5.91860500604656 -5.86993791832441 -11.8551796472253
2949 -2.81153662440852 11.1477425236899 1.92166304340542
2950 4.87644565778582 6.72247712356832 -59.3394767982446
2951 -16.9432072800843 -11.7570404107563 55.0202749810131
2952 15.5692216384192 -3.11559723773621 6.64913812382948
2953 -10.1131366691079 3.25723646551618 -34.1863720139195
2954 -2.8308349300776 -7.7403558772743 -4.20667626874236
2955 4.79129533702003 -6.8542171177884 29.8333192156246
2956 -2.33492810814631 -0.179705788033866 -6.40938179366883
2957 21.7814392559589 -2.01406327007027 -12.5007877276717
2958 -9.08950758417359 3.36899164447772 18.2238427528892
2959 5.92310405002277 -11.9570743767808 -9.32869948742322
2960 1.9672838377388 8.40486658017153 0.559755606821479
2961 -0.0785849653790094 -5.12714194761325 13.421666183278
2962 -22.0749226077807 5.33545098421988 -11.7552406241632
2963 7.19636914671555 -36.9926468319602 5.91617445125999
2964 17.4568813788159 29.6899754337642 11.0762183491969
2965 33.7976662266316 16.1289180800761 11.6946293414573
2966 -8.56218425325239 9.76179816485261 -0.555263304534253
2967 -22.2592762474758 -20.9213336590657 -2.93864270449207
2968 -0.901337672696116 20.3925383533216 10.3792438622486
2969 -6.08139975059954 -10.6613356581874 -4.49299737976483
2970 3.99013815193104 -4.24529303892056 1.22655215732382
2971 -28.6854566995913 -28.3010506838787 -0.381650799426597
2972 -0.0684159517770873 21.1500640159108 -8.14998266966272
2973 27.0931678966352 -5.20798183021921 3.9163861499514
2974 6.76833058468388 -6.78488471263903 8.62638769055318
2975 -13.7684010642471 -14.3344845989505 -9.04650751760259
2976 2.43793064043932 13.2061436897589 -1.44210230306613
2977 20.5190174560753 2.23307527903272 3.93990526028138
2978 -18.5891170201299 -14.1600276092982 6.77452452690876
2979 -2.18314502420909 7.00103840405074 -8.22579693631021
2980 -3.51082932594691 6.38065200664295 0.821691323908182
2981 1.35052226925051 11.1413396124756 7.79623552644484
2982 -4.31989246028948 -5.84184534783439 0.72207978623009
2983 34.6524730144928 14.3674932932773 42.5074025428598
2984 1.97380601853094 -6.15059622067316 -5.60568459485266
2985 -2.91961899208458 2.60735952000669 0.0903225801078866
2986 -0.836534298649308 -1.69295140839272 3.31895641905729
2987 7.84170732760949 -6.39051123537214 -4.1633327090633
2988 0.963207152644817 3.86265924683542 -8.84379198297173
2989 18.485059702521 -12.0551862263582 53.1504188445168
2990 -17.220747902109 14.255882649651 -1.34569264679099
2991 3.26029016690998 -7.28827812007021 -45.9392300339012
2992 -5.01445440014976 13.9396483835324 2.63905187067573
2993 -26.2000707291686 -9.84133784838108 11.2368364406904
2994 -17.8740566548256 -8.78223494829211 -3.55438540044023
2995 3.3685533634294 19.5474082621147 17.0654145749355
2996 10.3712256732039 -5.17092908733848 -11.4301078819584
2997 -8.68763765447751 -7.52417975047749 -5.79465148124409
2998 -15.0774043046756 9.92198551780673 -23.0681884569472
2999 7.71899134240154 8.7939026096897 1.09898330768667
3000 6.54082192761461 -11.7573257084094 24.2751816464304
