ITEM: TIMESTEP
0
ITEM: NUMBER OF ATOMS
3000
ITEM: BOX BOUNDS pp pp pp
0.0000000000000000e+00 3.1043045599999999e+01
0.0000000000000000e+00 3.1043045599999999e+01
0.0000000000000000e+00 3.1043045599999999e+01
ITEM: ATOMS id type q
1 1 0.78370557386568
2 2 -0.211374204264635
3 2 -0.687880125533554
4 1 0.893316677865216
5 2 -0.00961874715180372
6 2 -0.616323869688718
7 1 0.7650962908787
8 2 -0.473529382853494
9 2 -0.314570254878621
10 1 0.762277712156468
11 2 -0.219635214137318
12 2 -0.204964260265763
13 1 0.893270264282311
14 2 -0.452290417612547
15 2 -0.334167627592256
16 1 0.842072460368325
17 2 -0.493804899347563
18 2 -0.251327030440323
19 1 0.768213517675891
20 2 -0.552359200809919
21 2 -0.316982025700796
22 1 0.889577274922191
23 2 -0.726885138387112
24 2 -0.122530540112928
25 1 0.754060855739699
26 2 -0.479781212040262
27 2 -0.224491467167533
28 1 0.784509321851879
29 2 -0.581139151409865
30 2 -0.410919525560135
31 1 0.815529061700106
32 2 -0.465209764259331
33 2 -0.253597180640211
34 1 0.839473051209028
35 2 -0.956268664355133
36 2 -0.266920411235134
37 1 0.861151216019368
38 2 -0.752674687277439
39 2 -0.0814775422335027
40 1 0.832950171473999
41 2 -0.444422250808606
42 2 -0.371787424419479
43 1 0.834754539236057
44 2 -0.362347140156878
45 2 -0.394491774247375
46 1 0.820131978887127
47 2 -0.630814279750737
48 2 0.128265131582831
49 1 0.836642201722375
50 2 -0.23194586362073
51 2 -0.67386471569041
52 1 0.750694399344752
53 2 -0.103877878237661
54 2 -0.578005163506233
55 1 0.834183839921482
56 2 -0.225536171427915
57 2 -0.277995915174667
58 1 0.888068008718152
59 2 -0.568589305417564
60 2 -0.122677797882046
61 1 0.648248588181482
62 2 -0.472793428639064
63 2 -0.228158255134242
64 1 0.824484812562158
65 2 -0.259319148920471
66 2 -0.629093291915835
67 1 0.812776922043554
68 2 -0.55490191856003
69 2 -0.239111984067978
70 1 0.791750459567991
71 2 -1.01688133114877
72 2 -1.33531962443937
73 1 0.786379595747801
74 2 -0.616949219674722
75 2 -0.752770157806595
76 1 0.74023432335371
77 2 -0.538824300900007
78 2 -0.254988849526695
79 1 0.854600450894357
80 2 -0.650744507250283
81 2 -0.289275255920594
82 1 0.889241885668636
83 2 -1.11364783479229
84 2 0.379502087524601
85 1 0.77666664648842
86 2 -0.404565191418272
87 2 -0.530967845550457
88 1 0.777516058250236
89 2 -0.343343605237281
90 2 -0.475829509744021
91 1 0.811490147485495
92 2 -0.355050569289282
93 2 -0.557546533748049
94 1 0.86822213553266
95 2 -0.346405273762453
96 2 -0.415289095252173
97 1 0.748970227018395
98 2 -0.509768374140162
99 2 -0.141490881814715
100 1 0.787702715153224
101 2 -0.388276651390098
102 2 -0.512601603360404
103 1 0.748385061569839
104 2 -0.570593255014238
105 2 -0.305692256459233
106 1 0.804476712863446
107 2 -0.242842774727542
108 2 -0.596758724618824
109 1 0.882628861116528
110 2 -0.208981464939178
111 2 -0.371676206783382
112 1 0.893614152435661
113 2 0.505289179777491
114 2 -1.20630180583053
115 1 0.804359225854215
116 2 -0.0335610880915493
117 2 -0.688266326947385
118 1 0.826710902798811
119 2 -0.6423297541367
120 2 -0.190263982616342
121 1 0.82665603957404
122 2 -0.515890926352204
123 2 -0.30424818545933
124 1 0.757988736791699
125 2 -0.401399911647349
126 2 -0.496980825089426
127 1 0.767130760154439
128 2 -0.372707478263151
129 2 -0.688306936617926
130 1 0.905092744668683
131 2 -0.634950989307128
132 2 -0.232356667478536
133 1 0.804921540886519
134 2 -0.621458251044394
135 2 -0.459478908554274
136 1 0.734578958798875
137 2 -0.396471793971328
138 2 -0.266574183658158
139 1 0.894271725528121
140 2 -0.234394425999654
141 2 -0.539656851058995
142 1 0.806845394600673
143 2 -0.433278027581105
144 2 -0.385994209739989
145 1 0.790411573991125
146 2 -0.329937866838625
147 2 -0.468174516170789
148 1 0.755416803950259
149 2 -0.508523572503888
150 2 -0.526787815504987
151 1 0.829743973187684
152 2 -0.18114022655922
153 2 -0.576216435537332
154 1 0.824391638781473
155 2 -0.375548204662108
156 2 -0.475128571439527
157 1 0.812826295635506
158 2 -0.236762603441051
159 2 -0.497676452067501
160 1 0.8064039572622
161 2 -0.131119932525412
162 2 -0.372913371300962
163 1 0.783506706861087
164 2 -0.403151356167024
165 2 -0.405054099660654
166 1 0.778584770728652
167 2 0.0329900669702196
168 2 -0.722218534538215
169 1 0.716481146228451
170 2 -0.111349467799902
171 2 -0.73544797410327
172 1 0.96151599550976
173 2 -0.236666887404917
174 2 -0.640769497852239
175 1 0.731426955305843
176 2 -0.386094814817692
177 2 -0.262631491790457
178 1 0.824511272633242
179 2 -0.458589705238558
180 2 -0.501515326036895
181 1 0.817437938483392
182 2 -0.615700750180315
183 2 -0.123060386832445
184 1 0.82644287583294
185 2 -0.231676330546589
186 2 -0.582186635201681
187 1 0.725398508971119
188 2 -0.606709911473035
189 2 -0.387135024305939
190 1 0.78733604047106
191 2 -0.155914075163847
192 2 -0.63928958054481
193 1 0.845223935546665
194 2 -0.119910239192357
195 2 -0.676924868626775
196 1 0.735866759579882
197 2 -0.32639578265931
198 2 -0.438683271555603
199 1 0.88275963805582
200 2 -0.326087662698548
201 2 -0.453625964634605
202 1 0.854318516616724
203 2 -0.3576518648118
204 2 -0.328123705529271
205 1 0.866189130437874
206 2 -0.880367183403386
207 2 -0.139296310482636
208 1 0.769031190514517
209 2 -0.621929488039934
210 2 -0.279956714932357
211 1 0.856693499533999
212 2 -0.609338642879614
213 2 -0.417566254575849
214 1 0.815193277610339
215 2 -0.244048845415492
216 2 -0.526625531558763
217 1 0.728814328655611
218 2 -0.452675401849093
219 2 -0.439167190610446
220 1 0.88827831928311
221 2 -0.16311522285242
222 2 -0.651993174048739
223 1 0.841366235713318
224 2 -0.540715780026949
225 2 -0.370870439886153
226 1 0.724010734732203
227 2 -0.333554678727181
228 2 -0.488651179771695
229 1 0.779065157807774
230 2 -0.300674739068799
231 2 -0.640749068017934
232 1 0.843497257841763
233 2 0.324280628676237
234 2 -0.846313642351332
235 1 0.912671167237866
236 2 -0.109107569254665
237 2 -0.761652576444803
238 1 0.892629361221392
239 2 0.0307273772254403
240 2 -0.257117808785202
241 1 0.783438201705318
242 2 -0.424192138097284
243 2 -0.459259891450369
244 1 0.841217463305426
245 2 0.382321307041776
246 2 -1.16344866270624
247 1 0.83508112024565
248 2 -0.2047197489385
249 2 -0.456775329566191
250 1 0.756068106102585
251 2 -0.472306989212347
252 2 -0.421301989781444
253 1 0.835796025801187
254 2 0.357197926079242
255 2 -0.817687336343324
256 1 0.759835852001447
257 2 -0.479580863635464
258 2 -0.249171692964775
259 1 0.910657097226948
260 2 -0.416623703484217
261 2 -0.128704844416551
262 1 0.787777495700869
263 2 -0.184314888245368
264 2 -0.63118728997449
265 1 0.806971781820273
266 2 -0.399205600030461
267 2 -0.0704611032702964
268 1 0.73511483846302
269 2 -0.14064212940121
270 2 -0.654594676796671
271 1 0.791981952231022
272 2 -0.30271901505674
273 2 -0.442233291649981
274 1 0.808520843503213
275 2 -0.368656128557039
276 2 -0.363035072053239
277 1 0.740274343485638
278 2 -0.497918542985128
279 2 -0.399468198411237
280 1 0.76620873826352
281 2 -0.355511396593365
282 2 -0.473029191352583
283 1 0.829082403373667
284 2 -0.480524346917642
285 2 -0.167110532913179
286 1 0.823945654193677
287 2 0.0104210469981418
288 2 -0.70315903552427
289 1 0.838002930946473
290 2 -0.770043239592031
291 2 -0.0955896371456937
292 1 0.821443700805344
293 2 -0.557096115000507
294 2 -0.389046619092518
295 1 0.708358087649074
296 2 -0.564809112972507
297 2 -0.229200936957607
298 1 0.811200646105875
299 2 -0.34604399672812
300 2 -0.460639997402002
301 1 0.778670208820964
302 2 -0.25678597035552
303 2 -0.328688768158687
304 1 0.788240332370261
305 2 -0.373610496803792
306 2 -0.491725451930035
307 1 0.786032505979389
308 2 -0.436076711640417
309 2 -0.302138739985143
310 1 0.876111977262482
311 2 -0.806280805440735
312 2 0.00988363589307549
313 1 0.821538342411135
314 2 -0.555298687428616
315 2 -0.417805371849375
316 1 0.796123441299709
317 2 0.504009538652004
318 2 -1.28656113194771
319 1 0.818722604203457
320 2 -0.419275149846893
321 2 -0.296544502528585
322 1 0.804757947343328
323 2 -0.489765314375147
324 2 -0.536720973343598
325 1 0.822681913900661
326 2 -0.190667849626574
327 2 -0.634152943338964
328 1 0.826652326008195
329 2 -0.572215927505469
330 2 -0.40237612848875
331 1 0.907584399689906
332 2 -0.285846451728378
333 2 -0.73804420603548
334 1 0.791999413910101
335 2 -0.573089506208547
336 2 -0.35110746756445
337 1 0.870646189606116
338 2 -0.646647887001093
339 2 -0.140798937820331
340 1 0.807336984027327
341 2 -0.135958383087051
342 2 -0.731290005744157
343 1 0.882726867421062
344 2 -0.0655056780022029
345 2 -0.838384629743678
346 1 0.808112823841495
347 2 -0.754224260205854
348 2 -0.314050777576175
349 1 0.940699510441351
350 2 -0.429948366904028
351 2 -0.372679958480123
352 1 0.829538866158296
353 2 -0.659160658441318
354 2 -0.345219435895124
355 1 0.773047362701868
356 2 -0.247434726591557
357 2 -0.969408776445801
358 1 0.767503295235049
359 2 -0.854311384527349
360 2 0.141763755231526
361 1 0.771198044373307
362 2 -0.778222317592019
363 2 -0.161131532243626
364 1 0.826113805044008
365 2 -0.374549054925109
366 2 -0.432392006257376
367 1 0.809432368995567
368 2 -0.509584348304627
369 2 -0.487061862362503
370 1 0.805554023835884
371 2 -0.26369959214846
372 2 -0.461896022517132
373 1 0.845527991494305
374 2 -0.608141745444336
375 2 -0.331707757966936
376 1 0.826039537467426
377 2 -0.39175311098235
378 2 -0.390971985565475
379 1 0.768407588220491
380 2 -0.305269698546567
381 2 -0.487211940457715
382 1 0.856755277729386
383 2 -0.319332158703907
384 2 -0.0765896086310658
385 1 0.754193058262691
386 2 -0.914434199973328
387 2 -0.489289488403222
388 1 0.74652799284882
389 2 -0.447727323994405
390 2 -0.36869700008436
391 1 0.8860555587502
392 2 -0.330155091592718
393 2 -0.474244741152931
394 1 0.73413172311869
395 2 -0.0135978124680206
396 2 -0.610344569069129
397 1 0.905061571959659
398 2 -0.11339828691751
399 2 -0.805047891506341
400 1 0.806257838037085
401 2 -0.387516813652518
402 2 -0.0901469529072179
403 1 0.727709886380522
404 2 -0.325759320525026
405 2 -0.454318852524631
406 1 0.867106363178675
407 2 -0.491521003797455
408 2 -0.305384789513219
409 1 0.745395179890168
410 2 -0.290848769273481
411 2 -0.657322386032845
412 1 0.800647190965498
413 2 -0.625626338345917
414 2 -0.168899331392729
415 1 0.774569528577205
416 2 -0.643656148787803
417 2 -0.245827993163313
418 1 0.76575703767657
419 2 -0.503182249641455
420 2 -0.408296718403138
421 1 0.875504791545149
422 2 -0.522917683234194
423 2 -0.632051128577757
424 1 0.75218399131582
425 2 -0.22712505049554
426 2 -0.537683075128974
427 1 0.805142252246732
428 2 0.0180690566096727
429 2 -0.813113755577913
430 1 0.730060752131644
431 2 -0.510472068420209
432 2 -0.874875278082396
433 1 0.8022229232257
434 2 -0.367339702445672
435 2 -0.33272648514328
436 1 0.818881491741694
437 2 -0.648379053599491
438 2 -0.228811941064269
439 1 0.806241322906079
440 2 -0.348833902093844
441 2 -0.441297553471475
442 1 0.713957654131236
443 2 0.153741191998051
444 2 -0.792342242826155
445 1 0.833856708464987
446 2 -0.169121626222035
447 2 -0.0869979255032452
448 1 0.855418403384938
449 2 -0.154788470957954
450 2 -0.511032759357576
451 1 0.776002098319344
452 2 -0.368537383753471
453 2 -0.480162893827471
454 1 0.75299476769648
455 2 -0.2789473047641
456 2 -0.606991111477717
457 1 0.731265189681857
458 2 -0.870456322284025
459 2 0.0543909878093334
460 1 0.832781763087798
461 2 -0.46205809488635
462 2 -0.434247689355948
463 1 0.803463656127653
464 2 -0.231543978168703
465 2 -0.612134575791493
466 1 0.807541374425362
467 2 -0.602063951831131
468 2 -0.279350020470043
469 1 0.800884328935945
470 2 -0.324804634923576
471 2 -0.49227997135479
472 1 0.830532007297563
473 2 -0.526286993444748
474 2 -0.265416787052928
475 1 0.816875379454899
476 2 -1.61899048250037
477 2 -0.681175830274211
478 1 0.734828492452899
479 2 -0.12007673231928
480 2 -0.291601976520065
481 1 0.868077561322796
482 2 -1.00610165466349
483 2 0.28355755185543
484 1 0.810888429191158
485 2 -0.656431665583278
486 2 -0.116093259844804
487 1 0.814278025129993
488 2 -0.32661692308877
489 2 -0.424658630082481
490 1 0.827567583704509
491 2 -0.820102187854954
492 2 0.0211495508914643
493 1 0.722775490100324
494 2 -0.420355062293323
495 2 -0.462522725112202
496 1 0.849627321143007
497 2 -0.810482852901331
498 2 0.225295038492674
499 1 0.800696063173565
500 2 -0.593714901899384
501 2 -0.178538124780289
502 1 0.846976062975449
503 2 -0.53144837243286
504 2 1.9746619825377
505 1 0.763246160287113
506 2 -0.334796321821652
507 2 0.142478512983856
508 1 0.797718119426411
509 2 -0.518525816949358
510 2 -0.580117662043504
511 1 0.764494005702898
512 2 -0.646234724486367
513 2 -0.000478234528994491
514 1 0.788105776168339
515 2 -0.499263698322643
516 2 -0.223359827727431
517 1 0.774680151547283
518 2 -0.610557397199328
519 2 -0.236971854166892
520 1 0.75399100246115
521 2 -0.540346988482113
522 2 -0.333218924092794
523 1 0.790844245377681
524 2 -0.579155714560423
525 2 -0.243162566838376
526 1 0.792217008305432
527 2 -0.292847836029775
528 2 -0.559102626707785
529 1 0.837368444171138
530 2 -0.534263024708939
531 2 -0.319323508488417
532 1 0.816316835725407
533 2 -0.439071040683069
534 2 -0.479397788934097
535 1 0.904515402898729
536 2 0.155448028903378
537 2 -1.33244177206064
538 1 0.664700624037525
539 2 -0.383938186840157
540 2 -0.3382551562952
541 1 0.834942940657994
542 2 -0.44275712265714
543 2 -0.477082084031508
544 1 0.763637014142025
545 2 -0.624105582427279
546 2 -0.293252904895161
547 1 0.753554100008651
548 2 -0.625687289727793
549 2 -0.560921853010832
550 1 0.923087544594304
551 2 -1.73558857038988
552 2 0.846814542948907
553 1 0.844460794781826
554 2 -0.729535450699927
555 2 -0.158464584732015
556 1 0.807097955578173
557 2 -0.303554962166872
558 2 -0.527070139144013
559 1 0.691020004791778
560 2 -0.745253840597018
561 2 -0.0889352377877843
562 1 0.778384658909666
563 2 -0.198013585637899
564 2 -0.642828275912203
565 1 0.759697115033117
566 2 -0.67284752380562
567 2 -0.448107804408889
568 1 0.780058159932763
569 2 -0.327880801484559
570 2 -0.273365993342344
571 1 0.853287371708022
572 2 -0.368751166305674
573 2 -0.347238845189763
574 1 0.891280896141354
575 2 -0.545387440015587
576 2 -0.203422403072794
577 1 0.758528835920669
578 2 -0.518150052740563
579 2 -0.583853072169839
580 1 0.78993365191267
581 2 -0.277668248404642
582 2 -0.446594233858609
583 1 0.769084820816947
584 2 0.0651040473284337
585 2 -0.206295685503889
586 1 0.887259158192806
587 2 -0.13652754816029
588 2 -0.596848944651418
589 1 0.815258136571072
590 2 -0.331457765711057
591 2 -0.463272588085127
592 1 0.846614181248668
593 2 -0.673992097493084
594 2 -0.0998718223748026
595 1 0.706384867329754
596 2 -0.705113137352362
597 2 -0.250845262198987
598 1 0.825017137752916
599 2 -0.588787128248302
600 2 -0.911985994905285
601 1 0.814561182825078
602 2 -0.418803710756247
603 2 -0.335133632767612
604 1 0.770719485906676
605 2 -0.573889110187336
606 2 -0.318984948267859
607 1 0.883797532282696
608 2 -0.206470338174557
609 2 -0.0957306217332345
610 1 0.809966390019459
611 2 -0.411231554989773
612 2 -0.349633082270555
613 1 0.757071824487333
614 2 -0.379721503017535
615 2 -0.344659117641049
616 1 0.767491118281374
617 2 -0.407288650708166
618 2 -0.408033620167764
619 1 0.831508864263723
620 2 -0.76306163957211
621 2 -0.120351883179044
622 1 0.819212349509064
623 2 -0.378580528067345
624 2 -0.278855673917395
625 1 0.801383145379723
626 2 -0.450478768432021
627 2 -0.465102350703823
628 1 0.6747629442346
629 2 -0.253953717828137
630 2 -0.589929097782195
631 1 0.790551372160711
632 2 -0.162171820849404
633 2 -0.35995476914151
634 1 0.83972215155995
635 2 -0.528984398756075
636 2 -0.456263691880915
637 1 0.840819359895197
638 2 -0.651238844192903
639 2 -0.0094545921189514
640 1 0.798550931259657
641 2 -0.842141284314248
642 2 -0.830485151450719
643 1 0.828341464184418
644 2 -0.404022896984547
645 2 -0.330332781984124
646 1 0.760311650110366
647 2 0.0713249883859296
648 2 -0.784676819543728
649 1 0.966271295738468
650 2 -1.1197051780822
651 2 -1.18547428894974
652 1 0.800655030038445
653 2 -0.560587689503928
654 2 -0.214694046887899
655 1 0.77292494192469
656 2 -0.287787165831172
657 2 -0.450721119680683
658 1 0.822609369044844
659 2 -0.680487056413688
660 2 -0.130400625322444
661 1 0.737407544479626
662 2 -0.592511920515705
663 2 -0.295380615123614
664 1 0.862424528459387
665 2 -1.04644236648097
666 2 0.37484826363403
667 1 0.792354054252183
668 2 -0.338395717438109
669 2 0.0563114029152885
670 1 0.799410407633018
671 2 -0.14072995848558
672 2 -0.778624514553205
673 1 0.705417706808098
674 2 0.488885130880458
675 2 -1.19334560622905
676 1 0.80701560045211
677 2 -0.855799121036051
678 2 0.0442435218973134
679 1 0.831883996718207
680 2 -0.48544921086966
681 2 -0.335986820239116
682 1 0.806918353159133
683 2 -0.289883262303497
684 2 -0.622428360965025
685 1 0.761332200489328
686 2 -0.493294254229591
687 2 -0.362610384373346
688 1 0.862994358001827
689 2 -0.236422718833408
690 2 -0.545789974231783
691 1 0.864330598169244
692 2 -0.773287615180125
693 2 -0.428165148016881
694 1 0.832192541443201
695 2 -0.552824879141985
696 2 -0.13260869701818
697 1 0.781811922731661
698 2 -0.496554272736397
699 2 -0.444013363258985
700 1 0.75574676104193
701 2 -0.401581983756833
702 2 -0.345756739615744
703 1 0.783934633789761
704 2 -0.0805502042147824
705 2 -0.423690485033588
706 1 0.805513982389926
707 2 -0.392214989718051
708 2 -0.473888962276535
709 1 0.769772097846016
710 2 -0.20396397647292
711 2 -0.527053784465977
712 1 0.801201178589044
713 2 -0.786963561789998
714 2 -0.033302568434699
715 1 0.861143572803007
716 2 -0.493658836122672
717 2 -0.61795377461826
718 1 0.806082181688006
719 2 -0.392319048843817
720 2 -0.454231128373418
721 1 0.790847585022178
722 2 -0.3620622076958
723 2 -0.0545680761094642
724 1 0.840562699090155
725 2 -0.503041799512518
726 2 -0.509088935239513
727 1 0.851472451818893
728 2 -0.187825671741807
729 2 -0.619040393522391
730 1 0.794712411602344
731 2 -0.358479890703034
732 2 -0.525257748272781
733 1 0.79323887044937
734 2 -0.643981561363609
735 2 -0.342811469782554
736 1 0.839147690622585
737 2 -0.689194669314433
738 2 -0.0694442294504343
739 1 0.751032839977227
740 2 -0.528934028972454
741 2 -0.377467973448757
742 1 0.845148487630905
743 2 -0.590214621365295
744 2 -0.256613295132387
745 1 0.863920872682801
746 2 -0.6445484719397
747 2 -0.17526132356338
748 1 0.848514630814886
749 2 -0.060976768562697
750 2 -0.65330746043897
751 1 0.807841699126459
752 2 -0.45012364813317
753 2 -0.484146478699838
754 1 0.80215203617
755 2 -0.527297735858231
756 2 -0.514545458783873
757 1 0.731476575899481
758 2 -0.421271476189301
759 2 -0.657679194817937
760 1 0.801551240653165
761 2 -0.035758276454643
762 2 -0.47621345237096
763 1 0.782340628530881
764 2 -0.439575283603121
765 2 -0.353369255821671
766 1 0.757858503941158
767 2 -0.793651283010295
768 2 0.0414311603917361
769 1 0.867522970565266
770 2 0.0572583125678284
771 2 -0.761476432549769
772 1 0.784189759363616
773 2 -0.550061963052851
774 2 -0.184739803885353
775 1 0.750279730190469
776 2 0.394752545622646
777 2 -0.349532237376074
778 1 0.875449332387795
779 2 -0.318296803243425
780 2 -0.463010415579973
781 1 1.17922928748477
782 2 -2.00812578229061
783 2 1.40167383732493
784 1 0.735873445312864
785 2 -0.762190260754541
786 2 -0.070168103691822
787 1 0.884597381909535
788 2 -0.817374621744276
789 2 0.0840449173246989
790 1 0.780238824989431
791 2 -0.390684041071893
792 2 -0.45204293793089
793 1 0.758741723323334
794 2 -0.472672910521109
795 2 -0.328076656916928
796 1 0.70345472552924
797 2 -0.639659607374019
798 2 -0.247586156621971
799 1 0.821431690949624
800 2 -0.178315861421128
801 2 -1.03549403241316
802 1 0.788723133863223
803 2 -0.409215088848917
804 2 -0.424061968837279
805 1 0.770242916588286
806 2 0.103920790280135
807 2 -0.390950081604024
808 1 0.771703069636689
809 2 -0.148347193785159
810 2 -0.805435490796883
811 1 0.83709025324628
812 2 -0.493621231072115
813 2 -0.379777067234454
814 1 0.805285627744321
815 2 0.0894709100032455
816 2 -0.935284953776905
817 1 0.81741568982208
818 2 -0.420639514011416
819 2 -0.473287484561107
820 1 0.866163429353245
821 2 -0.450818890238695
822 2 -0.300555218561222
823 1 0.789492618395986
824 2 -0.260096666325716
825 2 -0.445082537746703
826 1 0.807348457466583
827 2 -0.600289716462803
828 2 -0.284713802375927
829 1 0.804527945528678
830 2 -0.597463038612326
831 2 -0.031117750161703
832 1 0.895297105424143
833 2 -0.654596846590658
834 2 -0.476859390206146
835 1 0.777490691655924
836 2 0.112946626950923
837 2 -0.320407056581965
838 1 0.76494126379615
839 2 -0.274663164430766
840 2 -0.472214850865983
841 1 0.792734063325026
842 2 -0.21584006136519
843 2 -0.596044232895014
844 1 0.785851455976512
845 2 -0.533580481281275
846 2 -0.201556008120901
847 1 0.911021906366498
848 2 -0.388446636689643
849 2 -0.103040375258596
850 1 0.946449813947549
851 2 -0.136224213063874
852 2 -0.717626015170837
853 1 0.837942195566398
854 2 -0.577093705311311
855 2 -0.450614690902852
856 1 0.79607505088322
857 2 -0.489095639009096
858 2 -0.299842667625742
859 1 0.739818764195355
860 2 -0.533883249442385
861 2 -0.332419607208518
862 1 0.776335433828592
863 2 -0.336746126929156
864 2 -0.549554742296092
865 1 0.811427497659632
866 2 -0.853747743542896
867 2 0.0774616536997005
868 1 0.791139070586931
869 2 -0.487311310947288
870 2 -0.311062419027509
871 1 0.936966078767921
872 2 -0.771236895709949
873 2 0.0876859598587383
874 1 0.812928658654476
875 2 -0.173405943486916
876 2 -0.598051442750235
877 1 0.85727053030038
878 2 -0.230766434418033
879 2 0.0979818735873919
880 1 0.774706164436765
881 2 -0.77436475863022
882 2 -0.0633416819881236
883 1 0.771245100281834
884 2 -0.80323226519729
885 2 -0.229987885965812
886 1 0.787678854188435
887 2 -0.481412640630157
888 2 -0.319553638961467
889 1 0.726635807861484
890 2 -0.391064480545314
891 2 -0.484479831183088
892 1 0.844134184463913
893 2 -0.527592272343557
894 2 -0.265726660686765
895 1 0.630872967557197
896 2 -1.81613324424016
897 2 0.614090007589436
898 1 0.712627505799586
899 2 -0.669417037409523
900 2 -0.136712657856624
901 1 0.772678508845871
902 2 -0.278754704814335
903 2 -0.171797794971642
904 1 0.85648884487761
905 2 -0.613705994094796
906 2 -0.32820254776
907 1 0.795937691677674
908 2 -0.597504471140443
909 2 -0.219408875283972
910 1 0.869364700122601
911 2 0.0631805137631894
912 2 -0.792592306705394
913 1 0.818578230018866
914 2 -0.412474768630888
915 2 -0.28695787590895
916 1 0.842936410369135
917 2 -0.381892407006713
918 2 -0.451990695871355
919 1 0.721279171995847
920 2 -0.173622127487231
921 2 -0.71014637745398
922 1 0.806498319199482
923 2 0.143121258429713
924 2 -0.294012253747422
925 1 0.862092423593694
926 2 -0.32732802624748
927 2 -0.447680214795998
928 1 0.846351863941403
929 2 -0.309708029098181
930 2 -0.528415863101076
931 1 0.742812324467602
932 2 -0.357440867376469
933 2 -0.298220501724693
934 1 0.788419328516154
935 2 -0.28016176948683
936 2 -0.502354228264737
937 1 0.796423703764244
938 2 -0.334637486525756
939 2 -0.416609867410863
940 1 0.956319115430536
941 2 0.141117979778367
942 2 -0.787677780513102
943 1 0.845898400397404
944 2 0.219372172387969
945 2 1.01184983897058
946 1 0.720461895952452
947 2 -0.264929118993133
948 2 -0.668837476504444
949 1 0.859747120953396
950 2 -0.318491796026274
951 2 -0.378936068619502
952 1 0.893008863627809
953 2 0.550740764583603
954 2 0.0161341653987996
955 1 0.758984298058954
956 2 0.0994548315845411
957 2 -0.77009327248132
958 1 0.848588637729052
959 2 -0.757443485169932
960 2 -0.716404339981877
961 1 0.736368641285728
962 2 -0.31415904895765
963 2 -0.421064484356501
964 1 0.792268361999545
965 2 -0.368664925668879
966 2 -0.458907640993316
967 1 0.640027859866655
968 2 -0.404055161128092
969 2 0.106839631997792
970 1 0.857994095096864
971 2 0.167665335639247
972 2 -0.476512640916211
973 1 0.794802051199675
974 2 -0.0895647619748304
975 2 -0.685081068467677
976 1 0.742753085072299
977 2 -2.0618446104941
978 2 0.125229406835499
979 1 0.798178712734392
980 2 -0.74973354326767
981 2 -0.257230388972684
982 1 0.816331439293198
983 2 -0.691080201524676
984 2 -0.11864969747435
985 1 0.735883806299253
986 2 -0.481716926277782
987 2 -0.301397147540173
988 1 0.86123465847213
989 2 -0.363012680151262
990 2 -0.388510350262174
991 1 0.682394941301415
992 2 -0.486065338030246
993 2 -0.407161739285578
994 1 0.78427287664516
995 2 -0.498293066893218
996 2 -0.608983356373178
997 1 0.865037172769262
998 2 -0.184964605465726
999 2 -0.853166157025554
1000 1 0.819180424893456
1001 2 -0.15430150328217
1002 2 -0.573796933059061
1003 1 0.805036249116435
1004 2 -0.421664252561263
1005 2 -0.435873977143778
1006 1 0.885716055726924
1007 2 -0.300509923448393
1008 2 -0.476260849225135
1009 1 0.910503520965078
1010 2 -0.216725354270139
1011 2 -0.106170345018299
1012 1 0.855319050174378
1013 2 -0.447192534762001
1014 2 -0.207181257741473
1015 1 0.796881575196437
1016 2 -0.370275637601282
1017 2 -0.563929648184921
1018 1 0.929819120883657
1019 2 -1.03980258999918
1020 2 0.208716213541613
1021 1 0.782009517754396
1022 2 -0.287569542907887
1023 2 -0.442700167128483
1024 1 0.809490935106435
1025 2 -0.637138470899226
1026 2 -0.359050422091067
1027 1 0.797062654240959
1028 2 -0.227747026589496
1029 2 -0.373843903417893
1030 1 0.86218891700191
1031 2 -0.383573039395192
1032 2 -0.402411659107915
1033 1 0.784203049038247
1034 2 -0.954963974409922
1035 2 0.324579372154741
1036 1 0.807623337280602
1037 2 -0.563317649519867
1038 2 -0.359885985414674
1039 1 0.814709557948215
1040 2 -0.477582769039512
1041 2 -0.333226880637786
1042 1 0.705635907378005
1043 2 -0.0551199362094951
1044 2 -0.639219122819672
1045 1 0.879201600316224
1046 2 -0.221590382067408
1047 2 -0.643935907993911
1048 1 0.751643738288017
1049 2 -0.0708519533845608
1050 2 -0.740636975061184
1051 1 0.816947239257533
1052 2 -0.457171563110816
1053 2 -0.41371834554373
1054 1 0.828570626405325
1055 2 -0.560974745268315
1056 2 -0.360870307012896
1057 1 0.80536449391819
1058 2 -0.398015459865231
1059 2 -0.379061320235023
1060 1 0.723022948856093
1061 2 -0.546144875599291
1062 2 -0.536543164985849
1063 1 0.862482679334231
1064 2 -0.772063301448511
1065 2 -0.128826353934502
1066 1 0.764610973331003
1067 2 -0.295990140506782
1068 2 -0.672651744151238
1069 1 0.800460320863625
1070 2 -0.685434048992932
1071 2 -0.707196871640635
1072 1 0.799135361234798
1073 2 -0.726633403837993
1074 2 -0.124890126080505
1075 1 0.881396095119264
1076 2 -0.508210747435854
1077 2 -0.464623573744185
1078 1 0.768417849945357
1079 2 -0.644272688838688
1080 2 0.0595170621631331
1081 1 0.851531721357528
1082 2 -0.485130441344374
1083 2 -0.30435139951362
1084 1 0.881810610742146
1085 2 -0.609547333780858
1086 2 -0.293824466847366
1087 1 0.823732741417846
1088 2 -0.523401938604806
1089 2 -0.219475320646478
1090 1 0.792904112943317
1091 2 -0.00228172353592282
1092 2 -0.808618370074473
1093 1 0.798257881017231
1094 2 -0.601350249678695
1095 2 -0.108584477988402
1096 1 0.850520492248345
1097 2 -0.291701839219495
1098 2 -0.419202516231275
1099 1 0.7839784838937
1100 2 -0.640096907735196
1101 2 -0.436654517995476
1102 1 0.829705929461995
1103 2 -0.547985602885157
1104 2 -0.459939338207525
1105 1 0.854320296855779
1106 2 -0.794133355191819
1107 2 -0.0631913530648246
1108 1 0.898169935136022
1109 2 -0.61818563856173
1110 2 0.0469347925214837
1111 1 0.781295473621874
1112 2 -0.458940383958143
1113 2 -0.303070926081738
1114 1 0.811173869414398
1115 2 -0.57069392256206
1116 2 -0.365210464795657
1117 1 0.762057605321074
1118 2 -0.225744610848345
1119 2 -0.568390741007025
1120 1 0.803736545014728
1121 2 -0.255237008858296
1122 2 -0.590117475938528
1123 1 0.727296153104856
1124 2 -0.61590341182531
1125 2 -0.296583603295983
1126 1 0.827919242797938
1127 2 -1.08461532373926
1128 2 0.286451073434593
1129 1 0.832419932134826
1130 2 -0.389246372375559
1131 2 -0.663534277597272
1132 1 0.737903545810243
1133 2 -0.531637580254943
1134 2 -0.168920831023865
1135 1 0.814709100809938
1136 2 -0.889569231017507
1137 2 -0.000583386341768929
1138 1 0.908988776962389
1139 2 -0.272082269268824
1140 2 -0.011551306185593
1141 1 0.825832584264525
1142 2 -0.64400755925529
1143 2 -0.360621551061113
1144 1 0.836084047377466
1145 2 -0.291787889333839
1146 2 -0.220868720539491
1147 1 0.780281060142113
1148 2 -0.259970192157913
1149 2 -0.620936827660971
1150 1 0.859582983699351
1151 2 -1.01758032756452
1152 2 0.367246894349499
1153 1 0.832841729190064
1154 2 0.0445829257773527
1155 2 -0.882219130617961
1156 1 0.733425121544328
1157 2 -0.432338877861465
1158 2 -0.521210880535924
1159 1 0.842924627312577
1160 2 0.86301563367289
1161 2 -0.180864707585682
1162 1 0.749061560813855
1163 2 -0.59448506912528
1164 2 -0.306195517078854
1165 1 0.803765283129095
1166 2 -0.303884251877392
1167 2 -0.460159201283831
1168 1 0.775801138770081
1169 2 -0.374808119923971
1170 2 -0.410647693421816
1171 1 1.01511410123825
1172 2 -0.672978216682655
1173 2 -1.76259051274207
1174 1 0.720675033482043
1175 2 -0.430698445156514
1176 2 -0.469463205138708
1177 1 0.809212635088862
1178 2 -0.529869997085514
1179 2 -0.530867325889944
1180 1 0.764363706644262
1181 2 -0.612761246671556
1182 2 -0.0840512817444566
1183 1 0.849513135351723
1184 2 -0.438066467739561
1185 2 -0.305538034054267
1186 1 0.894885524341955
1187 2 -0.157993138475875
1188 2 -0.638784473669221
1189 1 0.845378377058989
1190 2 -0.55949289385355
1191 2 -0.319710958761043
1192 1 0.80570527162177
1193 2 -0.512094757814744
1194 2 -0.144470699651813
1195 1 0.800702850967765
1196 2 -0.181372067012455
1197 2 -0.61769022484092
1198 1 0.736519661043612
1199 2 0.143034600138799
1200 2 -0.604801472823288
1201 1 0.79700032232464
1202 2 -0.386401480909774
1203 2 -0.457962346101552
1204 1 0.766796686198308
1205 2 -0.295175174852963
1206 2 -0.512843785548144
1207 1 0.809644911263957
1208 2 -0.494159632384464
1209 2 -0.462833145560965
1210 1 0.750965353062955
1211 2 -0.59801771634988
1212 2 -0.258440063705261
1213 1 0.864360643445816
1214 2 -0.296690770384453
1215 2 -0.41527492930038
1216 1 0.785533201595759
1217 2 -0.413515461791313
1218 2 -0.568273199890397
1219 1 0.876779734262886
1220 2 -0.38484436753727
1221 2 -0.331063389691015
1222 1 0.755145414252554
1223 2 -0.468472682398151
1224 2 -0.258583294140669
1225 1 0.73630928422718
1226 2 -0.177832895440164
1227 2 -0.769604883931332
1228 1 0.851064218231944
1229 2 -0.759418017826571
1230 2 -0.0899960493433731
1231 1 0.817858746781094
1232 2 -0.249328505296717
1233 2 -0.55933728893172
1234 1 0.770150585623885
1235 2 -0.152183822534841
1236 2 -0.674870769287498
1237 1 0.853408780101063
1238 2 -0.411486582279249
1239 2 -0.198427739527537
1240 1 0.763859025996461
1241 2 -0.631613979386316
1242 2 -0.112851808811849
1243 1 0.835232039242903
1244 2 0.0505848957780076
1245 2 -0.972610865946017
1246 1 0.75287180323859
1247 2 -0.387883226441641
1248 2 -0.33974103386546
1249 1 0.800459736701556
1250 2 -0.555177592150859
1251 2 -0.422764064555871
1252 1 0.864229291862492
1253 2 -0.636252351242937
1254 2 -0.0215706674740888
1255 1 0.781956794593821
1256 2 -0.500505576436344
1257 2 -0.00538934339810213
1258 1 0.797416987669614
1259 2 -0.202415824781788
1260 2 -0.464825592105383
1261 1 0.835289296642135
1262 2 -0.714392027017945
1263 2 -0.832270545576861
1264 1 0.814829486074895
1265 2 -1.36332627481625
1266 2 0.648178722780118
1267 1 0.761905314243849
1268 2 -0.4098958516325
1269 2 -0.406852525387658
1270 1 0.773274585229878
1271 2 -0.178978135787688
1272 2 -0.0358434601890784
1273 1 0.750924211252594
1274 2 -0.384788152628104
1275 2 -0.186946459928096
1276 1 0.81039771815936
1277 2 -0.719808551474368
1278 2 0.238986377869062
1279 1 0.908181873859523
1280 2 -0.206075470285386
1281 2 -0.559639539914837
1282 1 0.738510885387954
1283 2 -0.39953355167802
1284 2 -0.416244998591019
1285 1 0.856740429230724
1286 2 -0.201015118616582
1287 2 -0.687447503978541
1288 1 0.78589721657625
1289 2 -0.199252235506155
1290 2 -0.468156215625358
1291 1 0.738259453303088
1292 2 -0.17445611942728
1293 2 -0.532088536664897
1294 1 0.820842318790085
1295 2 -0.524391322625504
1296 2 -0.304905393801601
1297 1 0.597936761920542
1298 2 -0.163512852289887
1299 2 0.588884464213728
1300 1 0.784561232406222
1301 2 -0.464959629550885
1302 2 -0.269081844522998
1303 1 0.755021590976343
1304 2 -0.293194060619717
1305 2 -0.392932786653698
1306 1 0.870494363568004
1307 2 -0.445554985116581
1308 2 -0.439173929642367
1309 1 0.758181264431475
1310 2 -0.207805858150713
1311 2 -0.558508279301302
1312 1 0.78089578705283
1313 2 -0.119203540603077
1314 2 -0.711465436474083
1315 1 0.767990486040554
1316 2 -0.128797688442241
1317 2 -0.644110922304842
1318 1 0.845642899627268
1319 2 -0.627695559722696
1320 2 -0.216428117733268
1321 1 0.909272443165433
1322 2 -0.516486693064134
1323 2 -0.358298453652741
1324 1 0.791588751505097
1325 2 -0.230671127254469
1326 2 -0.545109759449402
1327 1 0.795073746765245
1328 2 -0.726276778221793
1329 2 -0.502812880314911
1330 1 0.785187384697308
1331 2 -0.642231959407514
1332 2 -0.194795674793161
1333 1 0.92668486153236
1334 2 0.503338162218956
1335 2 -1.10895259967658
1336 1 0.818538109376831
1337 2 -0.963040182692669
1338 2 0.346272133803417
1339 1 0.803366738209014
1340 2 -0.508289636335993
1341 2 -0.279131917173222
1342 1 0.85319165827829
1343 2 -0.590290288306422
1344 2 -0.299733678001713
1345 1 0.761495638789017
1346 2 -0.737485241907013
1347 2 -0.312188720757324
1348 1 0.891226686653446
1349 2 -1.16803893278267
1350 2 0.526471933317925
1351 1 0.826722638889488
1352 2 -0.564661631129827
1353 2 -0.379165093676027
1354 1 0.841288682212432
1355 2 -0.556479766597175
1356 2 -0.287268515498807
1357 1 0.812253668381409
1358 2 -0.515645189790269
1359 2 -0.308846276833041
1360 1 0.732789999770538
1361 2 -0.187836806905741
1362 2 -0.463977819567742
1363 1 0.796639955730003
1364 2 -0.2668306248412
1365 2 -0.545677428452014
1366 1 0.538869333563458
1367 2 1.07754816708379
1368 2 -2.00084336307295
1369 1 0.792655109734674
1370 2 -0.337787173418034
1371 2 -0.329020168662294
1372 1 0.802961744088416
1373 2 -0.526918964273235
1374 2 -1.1227432044333
1375 1 0.798403591812079
1376 2 -0.37825912480144
1377 2 -0.3180722592918
1378 1 0.805491336819675
1379 2 -0.473955757107916
1380 2 -0.423044067779565
1381 1 0.825632033112604
1382 2 -0.63362479988168
1383 2 -0.262120148159686
1384 1 0.831048784258315
1385 2 -0.202710975582646
1386 2 -0.779950883441889
1387 1 0.831402383594931
1388 2 -0.401980772552059
1389 2 -0.370858260753356
1390 1 0.813795551262655
1391 2 -0.633812404580792
1392 2 -0.626206333241517
1393 1 0.772898806107887
1394 2 -0.359084305934792
1395 2 -0.443187421675046
1396 1 0.832765963906839
1397 2 -0.615524960995876
1398 2 -0.272851831716912
1399 1 0.765642536171533
1400 2 -0.490591383527263
1401 2 -0.475245922288214
1402 1 0.806840849230415
1403 2 -0.695163783010389
1404 2 0.00925448945629002
1405 1 0.820668843938952
1406 2 -0.403707947359345
1407 2 -0.411225172340332
1408 1 0.753063181433792
1409 2 -0.227705556626677
1410 2 -0.391331952002406
1411 1 0.91747406460969
1412 2 -0.734845267444185
1413 2 -0.039564904312799
1414 1 0.81143247533629
1415 2 -0.284233194313002
1416 2 -0.63057713658047
1417 1 0.8645519853464
1418 2 -0.348438101729131
1419 2 -0.489230232317427
1420 1 0.791553653187189
1421 2 -0.623445958710605
1422 2 -0.285063229251717
1423 1 0.758892134399043
1424 2 -0.336466800409129
1425 2 -0.347145153207248
1426 1 0.898617770002712
1427 2 0.345681553227743
1428 2 -0.94252228372699
1429 1 0.725698340159317
1430 2 -0.180623483226618
1431 2 -0.787804914588962
1432 1 0.819844651789305
1433 2 -0.342473189234116
1434 2 -0.640108946497724
1435 1 0.805951749598261
1436 2 -0.746954075607465
1437 2 -0.0758282076847021
1438 1 0.857561077115944
1439 2 -0.436283418384951
1440 2 -0.261229240242999
1441 1 0.781222876235721
1442 2 -0.217215609693931
1443 2 -0.469037457765097
1444 1 0.796850600986102
1445 2 -0.273855124036142
1446 2 -0.700671224549524
1447 1 0.786522693279559
1448 2 -0.579191237809371
1449 2 -0.213138519135426
1450 1 0.752737525410289
1451 2 0.102635893084881
1452 2 -0.984780229373203
1453 1 0.762847015005532
1454 2 -0.185699173352621
1455 2 -0.253573207052779
1456 1 0.920333714877866
1457 2 -0.657790065186619
1458 2 -0.275115119853964
1459 1 0.74164849118993
1460 2 -0.435399566461659
1461 2 -0.466385317082763
1462 1 0.835937190059146
1463 2 -0.645955679553219
1464 2 -0.158145626514172
1465 1 0.759382397290135
1466 2 -0.677913832362781
1467 2 -0.0397766910168648
1468 1 0.738032508412561
1469 2 -0.819062939591253
1470 2 -0.500572366307971
1471 1 0.775262844566458
1472 2 -0.778635537575127
1473 2 -0.122005866977088
1474 1 0.841495283371965
1475 2 -0.590462525945405
1476 2 -0.301678852960019
1477 1 0.854110838232181
1478 2 -0.576816009240747
1479 2 -0.27356050991751
1480 1 0.867668483142618
1481 2 -0.864007984644086
1482 2 0.218344365134886
1483 1 0.813664900621703
1484 2 -0.718333472006619
1485 2 -0.387526101041394
1486 1 0.873059212759727
1487 2 -0.257520096609085
1488 2 -0.675705399093707
1489 1 0.887154801949434
1490 2 -0.211971884042698
1491 2 -0.463414985124735
1492 1 0.834384186480512
1493 2 0.384285857292629
1494 2 -0.993951766606609
1495 1 0.764689496626817
1496 2 -0.18916412551177
1497 2 -0.408960059709922
1498 1 0.779950310152166
1499 2 -0.652072067304489
1500 2 -0.0936955582433927
1501 1 0.907526352267405
1502 2 0.333407682094239
1503 2 -0.943251279423359
1504 1 0.811741790624614
1505 2 -0.105415654658975
1506 2 -0.633748203928865
1507 1 0.773328764200395
1508 2 -0.705500301975172
1509 2 -0.0524052904383707
1510 1 0.801654954712003
1511 2 -0.670896887195299
1512 2 -0.27160917916741
1513 1 0.824974135648483
1514 2 -0.152437248291853
1515 2 -0.415958836953097
1516 1 0.802921922839626
1517 2 -0.0709283820609813
1518 2 -0.737722348583494
1519 1 0.81039771253648
1520 2 -0.134963497687904
1521 2 -0.539110707091546
1522 1 0.832309951806332
1523 2 -0.406125162158786
1524 2 -0.33307712037231
1525 1 0.721193389694583
1526 2 -0.453941489240158
1527 2 -0.417790552878263
1528 1 0.77325160815888
1529 2 -0.35262814519459
1530 2 -0.534700857169384
1531 1 0.837254783443462
1532 2 -0.870981173706049
1533 2 -0.782879670478419
1534 1 0.832856013445119
1535 2 -0.594686437832154
1536 2 -0.178305360104917
1537 1 0.806387508536542
1538 2 -0.220324879781501
1539 2 -0.412894625814577
1540 1 0.764263114052717
1541 2 -0.310396656056685
1542 2 -0.374691437948085
1543 1 0.805908608724296
1544 2 -0.592643522921389
1545 2 -0.465086387654623
1546 1 0.71867295239378
1547 2 -0.666408504128193
1548 2 -0.626271012457013
1549 1 0.75020964648604
1550 2 0.254174967998173
1551 2 -0.954832462031178
1552 1 0.911330218376528
1553 2 -0.236209974815232
1554 2 -0.538350876745226
1555 1 0.771920931038377
1556 2 -0.866900821779848
1557 2 -0.58241623082102
1558 1 0.826778476417494
1559 2 -0.225926656480475
1560 2 -0.618741292856627
1561 1 0.724812818047465
1562 2 -0.586838701519294
1563 2 -0.353465141099487
1564 1 0.799403324095873
1565 2 -0.390839155466243
1566 2 -0.462552996622763
1567 1 0.851557031116031
1568 2 -0.468174255869798
1569 2 -0.168252979483283
1570 1 0.749391362833463
1571 2 -0.421847588392333
1572 2 -0.445373611872752
1573 1 0.797990317651051
1574 2 -0.7271158539667
1575 2 -0.132350234767368
1576 1 0.763308271124808
1577 2 -0.493583999273396
1578 2 -0.552774973004701
1579 1 0.714173511880884
1580 2 0.568260508690583
1581 2 -1.60092339616465
1582 1 0.722617347912436
1583 2 -0.321471031066088
1584 2 -0.959364055052024
1585 1 0.607266066490714
1586 2 0.0947206109905648
1587 2 -0.974639503176646
1588 1 0.853596653996942
1589 2 -0.276518736991009
1590 2 -0.558161116324898
1591 1 0.880019901184019
1592 2 -0.6739199016502
1593 2 -0.0715460789763561
1594 1 0.785103972791752
1595 2 -0.224087176781068
1596 2 -0.522747674815585
1597 1 0.893913825956388
1598 2 -0.53225383720665
1599 2 -0.289398404852618
1600 1 0.770375909837263
1601 2 0.200184020843639
1602 2 -0.703397874403772
1603 1 0.793479788607574
1604 2 -0.200553352766058
1605 2 -0.567769740510783
1606 1 0.792432906742688
1607 2 -0.165018379760153
1608 2 -0.511817816885818
1609 1 0.830323086479391
1610 2 -0.349239302221219
1611 2 -0.431013756320696
1612 1 0.771039395685658
1613 2 -0.253672621023737
1614 2 -0.486391293344898
1615 1 0.784587531230711
1616 2 -0.507308509503203
1617 2 -0.38428682932892
1618 1 0.850255475455207
1619 2 -0.179986532652996
1620 2 -0.680484733841878
1621 1 0.902146963427808
1622 2 -0.963309535580198
1623 2 -0.0400439498322522
1624 1 0.87026703111097
1625 2 -0.625399572623548
1626 2 -0.0222055593365986
1627 1 0.88874143746356
1628 2 -0.573388118879249
1629 2 -0.331163243735782
1630 1 0.8284696222148
1631 2 -0.761462330751471
1632 2 -0.681610569153652
1633 1 0.787966204790985
1634 2 -0.398187762100877
1635 2 -0.335296656265567
1636 1 0.813404715256164
1637 2 -0.156300321572914
1638 2 -0.395352732568546
1639 1 0.808921591706772
1640 2 0.280447195563709
1641 2 -1.18525610657438
1642 1 0.877390557585108
1643 2 -1.17520951122797
1644 2 0.668238157965401
1645 1 0.783977000509602
1646 2 -1.0184867573005
1647 2 0.0609948910677686
1648 1 0.793154644420271
1649 2 -0.471349860638962
1650 2 -0.380234070450537
1651 1 0.796890118579811
1652 2 -0.176459345345727
1653 2 -0.495549367239806
1654 1 0.779966441325132
1655 2 -0.6593854348374
1656 2 -0.468464535980164
1657 1 0.709286052449488
1658 2 -0.988505450482389
1659 2 -0.059126280470407
1660 1 0.806141829379903
1661 2 1.82681357497948
1662 2 -2.76350041601745
1663 1 0.792068217658486
1664 2 -0.265752564429427
1665 2 -0.0166809113525242
1666 1 0.81312137808433
1667 2 -0.230821077645216
1668 2 -0.435055786836949
1669 1 0.900276189094003
1670 2 -0.424053473093168
1671 2 -0.488628396206146
1672 1 0.774735260460958
1673 2 -0.179880552645456
1674 2 -0.614701813559298
1675 1 0.789478725433151
1676 2 -0.530327744754033
1677 2 -0.335754477974517
1678 1 0.752669998066966
1679 2 -0.586745124977293
1680 2 -0.213841742777125
1681 1 0.839347326503203
1682 2 -0.496487791788247
1683 2 -0.1559159700266
1684 1 0.781847939616224
1685 2 -0.285754910161236
1686 2 -0.400626232239986
1687 1 0.815550691852677
1688 2 -0.630677236503332
1689 2 0.0867765061712417
1690 1 0.790111892406562
1691 2 -0.713811988152987
1692 2 -0.19199279728133
1693 1 0.767134264609067
1694 2 -0.39113253038919
1695 2 -0.288685744136402
1696 1 0.839878222230638
1697 2 -0.288350774345246
1698 2 -0.581625613345147
1699 1 0.837692331271022
1700 2 -0.282567635785259
1701 2 -0.589048467312842
1702 1 0.754090297356381
1703 2 -0.138064544714549
1704 2 -0.410190608330834
1705 1 0.752074496125442
1706 2 -0.607810133469543
1707 2 -0.252489877489471
1708 1 0.899259909390223
1709 2 -0.149926617342795
1710 2 -0.286595865988579
1711 1 0.76665589575076
1712 2 -0.218951604295782
1713 2 -0.434135394716748
1714 1 0.828290601659273
1715 2 -0.5342660763323
1716 2 -0.275835933250075
1717 1 0.675762464348345
1718 2 -0.0853924387064809
1719 2 -0.633517558647367
1720 1 0.924395182855924
1721 2 -1.44749580364342
1722 2 0.58757402403922
1723 1 0.852716969471948
1724 2 -0.0638845460200054
1725 2 -0.790472316203485
1726 1 0.818060006857523
1727 2 -0.550719344065662
1728 2 -0.320930561131299
1729 1 0.80117751943123
1730 2 -0.71992055363609
1731 2 -0.169429567126424
1732 1 0.752291650762615
1733 2 -0.648848765168194
1734 2 -0.0574041292952919
1735 1 0.845646977571863
1736 2 -0.540014191285878
1737 2 -0.205982207462535
1738 1 0.814359668687741
1739 2 -0.55141047938811
1740 2 -0.284953541326345
1741 1 0.756302229849719
1742 2 -0.368678990346526
1743 2 -0.53463814801734
1744 1 0.75896299738762
1745 2 -0.303963451986051
1746 2 -0.547359838939107
1747 1 0.691534748744497
1748 2 -0.434379809229297
1749 2 -0.819776215240148
1750 1 0.780891368453439
1751 2 -0.653551801714117
1752 2 -0.0894570411767925
1753 1 0.792703715606987
1754 2 -0.464485109794511
1755 2 -0.438418696069279
1756 1 0.852944422954318
1757 2 -0.402650215635957
1758 2 -0.518770449100557
1759 1 0.901977311546202
1760 2 -1.04870115138221
1761 2 0.326016648513744
1762 1 0.807705352546788
1763 2 -0.48926360260444
1764 2 -0.335330222020315
1765 1 0.78782536346353
1766 2 -0.355509191944638
1767 2 -0.283742144755509
1768 1 0.845811790105431
1769 2 -0.429661931974712
1770 2 -0.343067417275848
1771 1 0.788043997287663
1772 2 -0.30745964609708
1773 2 -0.638835593361127
1774 1 0.730626697240885
1775 2 -0.669598543265123
1776 2 -0.251826451495534
1777 1 0.865536974181873
1778 2 -0.613306412030964
1779 2 -0.278055669835672
1780 1 0.821489020144521
1781 2 -0.656048910857809
1782 2 -0.166271374005554
1783 1 0.832034762907057
1784 2 -0.620847677601797
1785 2 -0.374140707179323
1786 1 0.80307795323533
1787 2 -0.351048001601194
1788 2 -0.408094553686962
1789 1 0.71544575823718
1790 2 -0.31853027961808
1791 2 -0.582719499469935
1792 1 0.710673630349313
1793 2 -0.411497004044921
1794 2 -0.509901845067903
1795 1 0.73300477228666
1796 2 -0.449396386428602
1797 2 -0.691127009978599
1798 1 0.750622897510733
1799 2 -0.315855167371667
1800 2 -0.511764850851822
1801 1 0.869416671495267
1802 2 -0.412885650195783
1803 2 -0.267698848350153
1804 1 0.813391000204514
1805 2 -0.642849446011691
1806 2 -0.155023239286335
1807 1 0.768897080236858
1808 2 -0.765666515498164
1809 2 -0.121209950885173
1810 1 0.935292041045799
1811 2 -0.526387768187456
1812 2 -0.395396779610396
1813 1 0.836499890042965
1814 2 -0.0281809636436524
1815 2 -0.819767986188817
1816 1 0.818396090377813
1817 2 -0.505768012634004
1818 2 -0.196524137563439
1819 1 0.792384699826783
1820 2 -0.0303663364386755
1821 2 -0.353980444582645
1822 1 0.811854284686171
1823 2 -0.0654410616110873
1824 2 -0.703227078730924
1825 1 0.855245628933467
1826 2 -0.276912016675926
1827 2 -0.585463199893552
1828 1 0.875039207236012
1829 2 -0.935555517907625
1830 2 -0.0236183745202848
1831 1 0.799682049669049
1832 2 -0.287910393688924
1833 2 -0.55416457511555
1834 1 0.861214727689601
1835 2 -0.224464269224161
1836 2 -0.703249676417839
1837 1 0.85647606361557
1838 2 -0.548036790309638
1839 2 -0.307532134985071
1840 1 0.768007462869456
1841 2 -0.725791436758686
1842 2 -0.0864571987047515
1843 1 0.70922564411496
1844 2 -0.144421837096647
1845 2 -0.446417461210048
1846 1 0.852254385301934
1847 2 0.040140173382622
1848 2 -0.835415685732847
1849 1 0.85859427961114
1850 2 0.495893446238541
1851 2 -1.23490531439466
1852 1 0.80723402974802
1853 2 -0.493479995636025
1854 2 -0.0838326719138001
1855 1 0.847901058719613
1856 2 -0.448788465230664
1857 2 -0.303335669315291
1858 1 0.766264262897737
1859 2 -0.380547586393708
1860 2 -0.136353318290698
1861 1 0.775930150723932
1862 2 -0.467333427912795
1863 2 -0.236278400743047
1864 1 0.776904398020403
1865 2 -0.316459065650391
1866 2 -0.373979146921402
1867 1 0.792000361424347
1868 2 -0.513106170957275
1869 2 -0.437441320348772
1870 1 0.75128932849683
1871 2 -0.641383615149754
1872 2 -0.238165939081553
1873 1 0.90520595281594
1874 2 -0.878435827485169
1875 2 0.190917809396284
1876 1 0.892539673821378
1877 2 -0.190500680420762
1878 2 -0.353064333030227
1879 1 0.774835363777607
1880 2 -0.235319037547583
1881 2 -0.541042210684546
1882 1 0.79840089915073
1883 2 -0.314180875661085
1884 2 -0.514087182988234
1885 1 0.775478197758863
1886 2 -0.66289256307843
1887 2 -0.146827731497279
1888 1 0.783166400103121
1889 2 -0.414763534968136
1890 2 -0.389907760485709
1891 1 0.822692850970889
1892 2 -0.385698585069297
1893 2 -0.556277137953817
1894 1 0.888887966344652
1895 2 -0.523631815431644
1896 2 -0.215152875386742
1897 1 0.815410106435137
1898 2 -0.265306982871934
1899 2 -0.335980101007761
1900 1 0.777035623126056
1901 2 -0.620368910290458
1902 2 -0.402331500997017
1903 1 0.822927349255587
1904 2 -0.466221473021673
1905 2 -0.418282572521983
1906 1 0.797403304214357
1907 2 -0.7656028500381
1908 2 0.113407653892433
1909 1 0.797554522071287
1910 2 -0.345789509941423
1911 2 -0.533820286619509
1912 1 0.74704515467743
1913 2 -0.60186214022584
1914 2 -0.267574242112323
1915 1 0.804443596616762
1916 2 -0.0975744103475301
1917 2 -0.549473165413681
1918 1 0.766553006756267
1919 2 -0.315760281795905
1920 2 -0.253227949861789
1921 1 0.807427646904475
1922 2 -0.473531366049318
1923 2 -0.209415863694958
1924 1 0.83156153502042
1925 2 -0.279354397307513
1926 2 -0.542348883955132
1927 1 0.814437621731339
1928 2 -0.381646763633212
1929 2 -0.529072950344285
1930 1 0.813598922120471
1931 2 -0.356645366784642
1932 2 -0.214377773743966
1933 1 0.814929491045687
1934 2 -0.193285593852476
1935 2 -0.534770684821118
1936 1 0.792097347680644
1937 2 -0.716529581857562
1938 2 -0.398836723336958
1939 1 0.839202367354601
1940 2 0.164075597865807
1941 2 -0.61708428778993
1942 1 0.764060896621255
1943 2 0.341965622488655
1944 2 -0.472792525403851
1945 1 0.843849629496352
1946 2 -0.259877618681459
1947 2 -0.439138097836475
1948 1 0.989219272615399
1949 2 0.0431922054007189
1950 2 -0.395295849310211
1951 1 0.750836943015677
1952 2 -0.482924024550015
1953 2 -0.265659857402876
1954 1 0.845996567315345
1955 2 0.143152798478057
1956 2 -0.686491001912641
1957 1 0.827931475423379
1958 2 -0.235829039334974
1959 2 -0.710685380756286
1960 1 0.75183840139833
1961 2 -0.0763527591234665
1962 2 0.103340138551831
1963 1 0.674948463255155
1964 2 -0.660013614432411
1965 2 0.00186703445576157
1966 1 0.846821861192883
1967 2 -0.319677093130384
1968 2 -0.568205851982612
1969 1 0.832020675821448
1970 2 -0.639607150738494
1971 2 -0.137170474589501
1972 1 0.761671568164404
1973 2 -0.449079874051521
1974 2 -0.445028811066079
1975 1 0.781178746562886
1976 2 -0.218205938499788
1977 2 -0.457559093989832
1978 1 0.839993986521059
1979 2 -0.488167424916846
1980 2 -0.272144937658447
1981 1 0.856010026529429
1982 2 -0.40812024706775
1983 2 -0.508716518980587
1984 1 0.887223458674491
1985 2 -0.334258629132341
1986 2 -0.511745969057121
1987 1 0.798724881411551
1988 2 -0.680787102928172
1989 2 -0.0469109601387323
1990 1 0.747444545045777
1991 2 -0.443033220788064
1992 2 -0.414553215995871
1993 1 0.767306524918454
1994 2 -0.495192046187398
1995 2 -0.186484399831422
1996 1 0.776746881631571
1997 2 -0.386285846311874
1998 2 -0.506438983652215
1999 1 0.849137386235025
2000 2 -0.669204105711874
2001 2 -0.0516481632802244
2002 1 0.803835007442601
2003 2 -0.345372042564256
2004 2 -0.689681001635769
2005 1 0.789839551698199
2006 2 -0.499762453553073
2007 2 -0.300771690716924
2008 1 0.87992064160467
2009 2 -1.55390397856713
2010 2 0.714786912682321
2011 1 0.74226011005984
2012 2 -0.765901907522164
2013 2 -0.385250658871702
2014 1 0.802451531403222
2015 2 -0.686782947912111
2016 2 -0.241743234525121
2017 1 0.744355227819106
2018 2 -0.128852969709291
2019 2 -0.679037730202137
2020 1 0.757877253697031
2021 2 -0.31532636861841
2022 2 -0.27076972224518
2023 1 0.807868902099867
2024 2 0.0511374817002025
2025 2 -0.0519963618558619
2026 1 0.805435122068939
2027 2 -0.427973770458016
2028 2 -0.394637580953019
2029 1 0.820179096394698
2030 2 -0.61903083967844
2031 2 -0.633875656862515
2032 1 0.790082735970278
2033 2 -0.654252301747193
2034 2 -0.226114485844978
2035 1 0.786380895959363
2036 2 0.145771844769357
2037 2 -1.02738779406211
2038 1 0.789209761948451
2039 2 -0.444742592586202
2040 2 -0.0483168757820058
2041 1 0.763260493106017
2042 2 -0.291081395952192
2043 2 -0.5024665097456
2044 1 0.965890170912103
2045 2 -0.428308298915954
2046 2 -1.43209928902964
2047 1 0.90840409918237
2048 2 -0.174913233843651
2049 2 -0.955524972938736
2050 1 0.755622850809334
2051 2 -0.341772994122159
2052 2 -0.528083010910712
2053 1 0.771518141022652
2054 2 -0.29283592196862
2055 2 -0.431840395901237
2056 1 0.80763717403759
2057 2 -0.625405633970801
2058 2 -0.226507512327666
2059 1 0.8204556896838
2060 2 -1.33198928472034
2061 2 0.673271011001192
2062 1 0.813039895348918
2063 2 -0.575288827493712
2064 2 -0.23273399279156
2065 1 0.845205443186653
2066 2 -0.427704753722737
2067 2 -0.53253238987103
2068 1 0.753508710629605
2069 2 -0.495670683473231
2070 2 -0.317378089667337
2071 1 0.768368726062971
2072 2 -0.474579142147467
2073 2 -0.452272808992492
2074 1 0.767805771508605
2075 2 -0.375248643841529
2076 2 -0.444181348613952
2077 1 0.739648604681698
2078 2 -0.298921746507105
2079 2 -0.20403577687293
2080 1 0.791497062834089
2081 2 -0.405984775728178
2082 2 -0.360427863169751
2083 1 0.757683014109204
2084 2 -0.121915859358404
2085 2 -0.712397765653905
2086 1 0.773379948927004
2087 2 -0.290231708032179
2088 2 -0.57780761507736
2089 1 0.827659210974676
2090 2 -0.431422212463314
2091 2 -0.25352786247209
2092 1 0.832725652263503
2093 2 -0.424199917539364
2094 2 -0.29022422978213
2095 1 0.85200520559042
2096 2 -0.393547829556857
2097 2 0.159192884419842
2098 1 0.799706015756967
2099 2 -0.379049761315785
2100 2 -0.221637424888631
2101 1 0.767556907853242
2102 2 -0.26557460854587
2103 2 -0.491743952599564
2104 1 0.843166549148978
2105 2 0.076596933355306
2106 2 -0.79852764338759
2107 1 0.795662268812653
2108 2 -0.488597090277708
2109 2 -0.262263427761259
2110 1 0.877978737430227
2111 2 -0.123534534947677
2112 2 -0.966903612565711
2113 1 0.796907408912452
2114 2 -0.398273332989211
2115 2 -0.291520104301605
2116 1 0.858564596320276
2117 2 -0.53043447708693
2118 2 -0.195989741259761
2119 1 0.803183711754206
2120 2 -0.196589333212742
2121 2 -0.50146885388232
2122 1 0.748563617648206
2123 2 -0.241333736903486
2124 2 -0.33356334350227
2125 1 0.752900808426796
2126 2 -0.704772832256012
2127 2 -0.5239377378842
2128 1 0.86429172626994
2129 2 -0.440569552066306
2130 2 -0.21809953747957
2131 1 0.77438026707138
2132 2 -0.509660733507287
2133 2 -0.428122702062227
2134 1 0.779610615606817
2135 2 -0.423417194807597
2136 2 -0.461720620426009
2137 1 0.860364374590391
2138 2 -0.28360162016462
2139 2 -0.625081731760463
2140 1 0.790940114870173
2141 2 -0.229478774579709
2142 2 -0.625034904203591
2143 1 0.834249005544964
2144 2 -0.0517827899792882
2145 2 -0.54380498851428
2146 1 0.789916635085915
2147 2 -0.560331752924219
2148 2 -0.281131162234981
2149 1 0.785152490370874
2150 2 -0.366859011701712
2151 2 -0.488669730247117
2152 1 0.807732679244979
2153 2 -0.307680190434097
2154 2 -0.496764943797529
2155 1 0.828486861351848
2156 2 -1.18353219779829
2157 2 0.753563666796676
2158 1 0.813305657804907
2159 2 -0.45690731751164
2160 2 -0.228366113222255
2161 1 0.878678218352775
2162 2 -0.408894004317391
2163 2 -0.321298962495661
2164 1 0.814154866275895
2165 2 -0.593450831073742
2166 2 -0.141930222043776
2167 1 0.843910832945127
2168 2 -0.699015675563052
2169 2 -0.269188953262365
2170 1 0.794866808036274
2171 2 -0.5906771710665
2172 2 -0.0837641772256952
2173 1 0.783117067722387
2174 2 -0.716343692017929
2175 2 -0.118269640882731
2176 1 0.897867453616728
2177 2 -0.259697104025235
2178 2 -0.739070665541322
2179 1 0.810965281165994
2180 2 -0.570766310206173
2181 2 -0.182649386419724
2182 1 0.795103043474908
2183 2 -0.327400592599691
2184 2 -0.415244143282252
2185 1 0.851950792229591
2186 2 -0.562871698399808
2187 2 -0.44237639950557
2188 1 0.743782648600863
2189 2 -0.524995551308161
2190 2 -0.242112431532008
2191 1 0.83585348006777
2192 2 -0.425478614239774
2193 2 -0.458165664280607
2194 1 0.765385404831079
2195 2 -0.380296352431998
2196 2 -0.518672268344522
2197 1 0.805191117178117
2198 2 -0.616927328515027
2199 2 -0.174147905722563
2200 1 0.795315662175891
2201 2 -0.480808149382716
2202 2 -0.336628954371295
2203 1 0.810398262263457
2204 2 -0.173189738825053
2205 2 -0.292450780172095
2206 1 0.783215320464555
2207 2 -0.0454483823168384
2208 2 -0.731641112726736
2209 1 0.736380984586074
2210 2 -0.50844960794653
2211 2 -0.236115902745608
2212 1 0.730523830828841
2213 2 -0.524221517515425
2214 2 -0.195083896851242
2215 1 0.797068872086938
2216 2 -0.165152714667295
2217 2 -0.485005529405128
2218 1 0.783949865172908
2219 2 -0.867022056396632
2220 2 0.126411436909401
2221 1 0.749727104654732
2222 2 -0.833214470100382
2223 2 -0.101859315642938
2224 1 0.844436869670928
2225 2 -0.449465535799862
2226 2 -0.255371229337245
2227 1 0.899868190818867
2228 2 -0.647809585400011
2229 2 0.108819462895639
2230 1 0.798509585685521
2231 2 -0.673749561246824
2232 2 -0.206636563484421
2233 1 0.789150218037741
2234 2 -0.485244525567623
2235 2 -0.76847222609974
2236 1 0.767026994632411
2237 2 -0.220244391831913
2238 2 -0.386807966864061
2239 1 0.798952120610286
2240 2 -0.333285915438195
2241 2 -0.405470495837462
2242 1 0.790061715049856
2243 2 -0.302003141846988
2244 2 -0.656614289096934
2245 1 0.823197178910448
2246 2 -0.472257929882686
2247 2 -0.442973618707612
2248 1 0.811508395042601
2249 2 -0.604538494334831
2250 2 -0.251484844906212
2251 1 0.827816404965931
2252 2 -0.268946090975072
2253 2 -0.743104596796945
2254 1 0.814084107840427
2255 2 -0.310960335058629
2256 2 -0.467466158083973
2257 1 0.752069165582138
2258 2 -0.729362628398447
2259 2 -0.132153527519177
2260 1 0.758206541917034
2261 2 -0.569140402968208
2262 2 -0.574844032794915
2263 1 0.82141240253501
2264 2 -0.41968988206642
2265 2 -0.373416295047358
2266 1 0.751171825479969
2267 2 0.397688146215295
2268 2 -0.354752504007104
2269 1 0.797436431681318
2270 2 -0.0121171366857146
2271 2 -0.79811605003575
2272 1 0.770495971709846
2273 2 0.0651455340306274
2274 2 -0.828054848805078
2275 1 0.856224004580299
2276 2 -1.38939593746999
2277 2 0.0793957144904698
2278 1 0.869598447258147
2279 2 0.503241688701032
2280 2 -1.09402210050784
2281 1 0.697291552432801
2282 2 -0.589714089317684
2283 2 -0.412229280368264
2284 1 0.866119708192313
2285 2 -0.672019164176713
2286 2 -0.435120057789568
2287 1 0.762438201072467
2288 2 0.00859134755330374
2289 2 -0.15866773009014
2290 1 0.927197739402136
2291 2 0.00208012259152984
2292 2 -0.757440367956824
2293 1 0.819082867911012
2294 2 -0.179236315861324
2295 2 -0.229652561297476
2296 1 0.809165637664559
2297 2 -0.609064075157669
2298 2 -0.216074609784683
2299 1 0.81261913762643
2300 2 -0.465046893979999
2301 2 -0.0995659226695504
2302 1 0.904197993918245
2303 2 -0.463509966435552
2304 2 -0.370870308692651
2305 1 0.769001588490553
2306 2 -1.01797545973138
2307 2 -0.504777519825455
2308 1 0.764154225508064
2309 2 -0.4471385170267
2310 2 -0.509228866982067
2311 1 0.720426740361073
2312 2 -0.213777958609322
2313 2 -0.581534797483315
2314 1 0.787017422983441
2315 2 -0.220823029668735
2316 2 -0.80257148078932
2317 1 0.695778416273044
2318 2 -0.578647159105391
2319 2 -0.253746379085139
2320 1 0.880022323582262
2321 2 -0.546802333865584
2322 2 -0.18064801914935
2323 1 0.792288493340099
2324 2 -0.521990068159164
2325 2 -0.845965549578836
2326 1 0.811192480224757
2327 2 -0.214254071772353
2328 2 -0.642881982680715
2329 1 0.982048503121885
2330 2 -0.630059464571188
2331 2 -0.294609217846267
2332 1 0.786204716748218
2333 2 -0.071678862847653
2334 2 -0.69731276404441
2335 1 0.796541367964675
2336 2 -0.47732126292477
2337 2 -0.465769867491133
2338 1 0.843415676170747
2339 2 -0.576671167454381
2340 2 -0.322091438037468
2341 1 0.80132509549576
2342 2 -0.507625253437911
2343 2 -0.356545074123226
2344 1 0.769026030921136
2345 2 -0.462285350229534
2346 2 -0.608171532764642
2347 1 0.63293145312484
2348 2 -1.6331444390962
2349 2 0.884039173836312
2350 1 0.908749168786838
2351 2 -0.785672535166568
2352 2 -0.123945571687828
2353 1 0.826160748372476
2354 2 -0.323506257347111
2355 2 -0.0478484236159027
2356 1 0.813844755406197
2357 2 -0.510187803216146
2358 2 -0.366466592310707
2359 1 0.849585984503665
2360 2 -0.278977265931122
2361 2 -0.51020512175065
2362 1 0.795608425603435
2363 2 -0.164215434618254
2364 2 -0.37966542813947
2365 1 0.756901072940763
2366 2 -0.120509972165381
2367 2 -0.809401328125837
2368 1 0.716230150378971
2369 2 -0.475231276152233
2370 2 -0.468868427811883
2371 1 0.835531930217972
2372 2 -0.613657080191823
2373 2 -1.42659083526925
2374 1 0.882587885448115
2375 2 -0.539548771966659
2376 2 -0.279907375770503
2377 1 0.734553884886247
2378 2 -0.356421044912804
2379 2 -0.376954229242997
2380 1 0.872341646931094
2381 2 -0.653944044193273
2382 2 -0.246174323023973
2383 1 0.796409855205069
2384 2 -0.550228205135891
2385 2 0.708215001681521
2386 1 0.79447033730692
2387 2 -0.123122903343884
2388 2 -0.306037484055796
2389 1 0.75220377257937
2390 2 -0.475460826668891
2391 2 -0.514685256422032
2392 1 0.779468191755566
2393 2 -0.643655224478566
2394 2 -0.165504891932264
2395 1 0.800031720929166
2396 2 -0.315749189686926
2397 2 -0.27055641443543
2398 1 0.820575624063242
2399 2 -0.796284743062628
2400 2 -0.000424963930634581
2401 1 0.802467180760756
2402 2 -0.134948079244934
2403 2 -0.0739208082856852
2404 1 0.836206883141592
2405 2 -0.288431028148674
2406 2 -0.450242386779719
2407 1 0.850647505138138
2408 2 -0.32840553048948
2409 2 -0.447962146926022
2410 1 0.861154672873525
2411 2 -0.526972088194468
2412 2 -0.274091340261811
2413 1 0.771652668383628
2414 2 -0.327021575473798
2415 2 -0.455836793223055
2416 1 0.790031461211442
2417 2 -0.462659367490093
2418 2 -0.153949078407185
2419 1 0.819835821343226
2420 2 -1.08995955856522
2421 2 0.00519803376165267
2422 1 0.684125044323119
2423 2 -0.60447671807948
2424 2 -0.57502441806498
2425 1 0.675546949831327
2426 2 -0.257226184901314
2427 2 -0.657397587547142
2428 1 0.726690047898761
2429 2 -0.364249190342254
2430 2 -0.309025128743287
2431 1 0.755613170529222
2432 2 -0.673975812112013
2433 2 -0.287667935381513
2434 1 0.867303141438482
2435 2 -0.606804814603586
2436 2 -0.128780269530538
2437 1 0.763099508776247
2438 2 -0.379752231012609
2439 2 -0.440919706023618
2440 1 0.768727550962271
2441 2 0.0554139149206025
2442 2 -1.0554848065613
2443 1 0.794498123623921
2444 2 -0.493046697754381
2445 2 -0.363915010437666
2446 1 0.749456009119235
2447 2 -0.4656024665193
2448 2 -0.505703703156362
2449 1 0.834378115076072
2450 2 -0.251227913987151
2451 2 -0.463139864303788
2452 1 0.880571981858534
2453 2 -0.166238792655698
2454 2 -0.103199682543866
2455 1 0.834436088226864
2456 2 -0.999897713161651
2457 2 0.148385172210723
2458 1 0.855928545692287
2459 2 -0.415578061711123
2460 2 -0.342221600728525
2461 1 0.821621264553615
2462 2 -0.643349647883876
2463 2 0.133670670795164
2464 1 0.620564068639197
2465 2 -0.727541739182036
2466 2 -0.136725399075068
2467 1 0.770256509634749
2468 2 -0.168624233172587
2469 2 -0.63201134348286
2470 1 0.831060351299353
2471 2 -0.606324886602304
2472 2 -0.205603963222451
2473 1 0.73375063974511
2474 2 -0.830554441944689
2475 2 -0.415632017110158
2476 1 0.859442888145164
2477 2 -0.476592044123049
2478 2 -0.2509557889022
2479 1 0.792740907061726
2480 2 -0.204291002559464
2481 2 -0.587016417560065
2482 1 0.816967779669857
2483 2 -0.519452112377399
2484 2 -0.503713492340757
2485 1 0.785152404848818
2486 2 -0.529427378259951
2487 2 -0.338469252644214
2488 1 0.763262436862286
2489 2 -0.565057159556757
2490 2 -0.190216865296743
2491 1 0.855099424935393
2492 2 -0.513131470806591
2493 2 -0.425913718145361
2494 1 0.761192523989976
2495 2 -0.382128789676341
2496 2 -0.439103630262203
2497 1 0.755177903533798
2498 2 -0.386787322155987
2499 2 -0.332967249227975
2500 1 0.739947212013333
2501 2 -0.897062345911123
2502 2 0.0925186391455902
2503 1 0.844205185410107
2504 2 -0.465374122537193
2505 2 -0.565040763326962
2506 1 0.828734831766143
2507 2 -0.29628916601103
2508 2 -0.345645240219999
2509 1 0.768928073840896
2510 2 -0.652200703034773
2511 2 -0.32205455927755
2512 1 0.825427305641062
2513 2 -0.481943556201457
2514 2 -0.320229980274439
2515 1 0.867812714935417
2516 2 0.174179492011068
2517 2 -0.998812641132678
2518 1 0.765518563351008
2519 2 -0.404131674778486
2520 2 -0.496608974469248
2521 1 0.855171558485767
2522 2 -0.603932640243081
2523 2 -0.200214167035521
2524 1 0.881601049589506
2525 2 -0.350672112327051
2526 2 -0.691469706346762
2527 1 0.896937839550189
2528 2 -0.137244055911576
2529 2 -0.577057979082925
2530 1 0.809638639670624
2531 2 -0.294896340719812
2532 2 -0.447424577685437
2533 1 0.82341517114835
2534 2 -0.228295973270223
2535 2 -0.46522172748133
2536 1 0.8093467184729
2537 2 -0.232029489280155
2538 2 -0.538592734245266
2539 1 0.818658721771774
2540 2 -0.530529817040658
2541 2 -0.142996122444952
2542 1 0.765813927623084
2543 2 -0.527917844323512
2544 2 -0.243465719484014
2545 1 0.755466443609626
2546 2 -0.227835741184678
2547 2 -0.508238889888679
2548 1 0.824693883615335
2549 2 -0.147133726000085
2550 2 -0.66227975029337
2551 1 0.852796771249868
2552 2 -0.264773383738285
2553 2 -0.52881465866562
2554 1 0.826753473420541
2555 2 -0.292293193180755
2556 2 -0.508297960780492
2557 1 0.811560297312526
2558 2 -0.471788640102263
2559 2 -0.336697204535081
2560 1 0.750435339415857
2561 2 -0.510591352052213
2562 2 -1.38689909221493
2563 1 0.713457715790759
2564 2 -0.752754668148713
2565 2 -0.289362214130384
2566 1 0.783065803835651
2567 2 -0.157835196911764
2568 2 -0.233605233458143
2569 1 0.705448670966924
2570 2 -0.211804906652844
2571 2 -0.701142591201973
2572 1 0.839477168542748
2573 2 -0.270198913229525
2574 2 -0.366483198859903
2575 1 0.72294150242926
2576 2 -0.379819715608491
2577 2 -0.42023080268585
2578 1 0.767754971627887
2579 2 -0.510471042632417
2580 2 -0.431397743348602
2581 1 0.782055192300979
2582 2 -0.604084264510194
2583 2 -0.646027742820992
2584 1 0.810906538615018
2585 2 -0.587400637788087
2586 2 -0.281679720815757
2587 1 0.830528181293837
2588 2 -0.430188861375369
2589 2 -0.29929441287462
2590 1 0.828752422762282
2591 2 -0.546097894044303
2592 2 -0.179907497436023
2593 1 0.711836561065867
2594 2 -0.372957590015741
2595 2 -0.45372933849038
2596 1 0.826087141075818
2597 2 -0.373148125944967
2598 2 -0.346287141162552
2599 1 0.820806272663348
2600 2 -0.601931497529955
2601 2 -0.5367364556817
2602 1 0.906978680896367
2603 2 -0.0474760678958527
2604 2 -0.754898598715319
2605 1 0.782534165069779
2606 2 -0.389847717286098
2607 2 -0.535758635593193
2608 1 0.777676372112426
2609 2 1.09271791872859
2610 2 -0.535037375775874
2611 1 0.731085714720692
2612 2 -0.793615285172502
2613 2 -0.41491482669828
2614 1 0.784397353892663
2615 2 -0.558723845252141
2616 2 -0.155084362552843
2617 1 0.867335499602214
2618 2 -0.535913255827303
2619 2 -0.227149163851716
2620 1 0.747502660460481
2621 2 -0.106831157972486
2622 2 -0.724346870588752
2623 1 0.869070964991806
2624 2 -0.174262616273843
2625 2 -0.492303039371111
2626 1 0.932426849166043
2627 2 -0.14869410841758
2628 2 -0.60945372587002
2629 1 0.782379125428412
2630 2 -0.502082127267694
2631 2 -0.448036417813669
2632 1 0.761153052579701
2633 2 -0.675249583135499
2634 2 -0.125524450490487
2635 1 0.790731584073737
2636 2 -0.77091264446172
2637 2 -0.483291601118654
2638 1 0.837977061923161
2639 2 -0.132331829179635
2640 2 -0.625043449453077
2641 1 0.928868719459061
2642 2 -0.270578525273148
2643 2 -0.453942760772833
2644 1 0.814760896194931
2645 2 -0.383528293332338
2646 2 -0.55098507073977
2647 1 0.765420744504971
2648 2 0.0368270497559398
2649 2 -0.960242075511204
2650 1 0.83234531284901
2651 2 -0.413841893447333
2652 2 -0.515895344889071
2653 1 0.80963665432384
2654 2 -0.651789557323887
2655 2 -0.0559851409286823
2656 1 0.831553947171054
2657 2 -0.532279138541271
2658 2 -0.305306510289724
2659 1 0.79993649792981
2660 2 -0.397619084674185
2661 2 -0.330213949148813
2662 1 0.774517683292438
2663 2 -0.869082695527319
2664 2 -0.101827499141779
2665 1 0.905307598654899
2666 2 -0.468305937263104
2667 2 -0.326027238300766
2668 1 0.786812411660901
2669 2 -0.254583524382134
2670 2 -0.651740323160705
2671 1 0.81763735667346
2672 2 -0.16123208379263
2673 2 -0.2868077486656
2674 1 0.821365561737214
2675 2 -0.436940142065096
2676 2 -0.307579117446617
2677 1 0.838356927347837
2678 2 -0.15664773105372
2679 2 -0.270637171587584
2680 1 0.776295721556739
2681 2 -0.407144819193692
2682 2 -0.446815808297119
2683 1 0.790259213502213
2684 2 -0.540097290132938
2685 2 -0.243763939516662
2686 1 0.854301616260945
2687 2 -0.66253772201506
2688 2 -0.104342382941309
2689 1 0.819214387044898
2690 2 -0.779902191253562
2691 2 -0.0951562752264614
2692 1 0.852843935007943
2693 2 -0.427176097617192
2694 2 -0.386913502634401
2695 1 0.779172021336452
2696 2 0.0233242979818155
2697 2 -0.619969023903897
2698 1 0.826834532095082
2699 2 -0.647552434579304
2700 2 -0.548579024044778
2701 1 0.834099635661911
2702 2 -0.31190191954566
2703 2 -0.482114459879287
2704 1 0.79435934921456
2705 2 -0.102060539721818
2706 2 -0.69109006051094
2707 1 0.830106563344459
2708 2 -0.292191894230948
2709 2 -0.490250513688309
2710 1 0.792116323899206
2711 2 -0.420903439763428
2712 2 -0.407001923734267
2713 1 0.736265720608554
2714 2 -0.620582275316048
2715 2 -0.134213442408654
2716 1 0.809097006018283
2717 2 0.0593865075202761
2718 2 -0.904195009627067
2719 1 0.808017614805146
2720 2 -0.395909949438913
2721 2 -0.487968423603805
2722 1 0.803236645858558
2723 2 -0.371273474253824
2724 2 -0.427139630318996
2725 1 0.8195289779166
2726 2 -0.554832894262467
2727 2 -0.266447330116569
2728 1 0.771694244317931
2729 2 -0.299859462989285
2730 2 -0.725617263573518
2731 1 0.750790176783349
2732 2 -0.488272258595894
2733 2 -0.224548996496472
2734 1 0.798274064265747
2735 2 -0.660456618538986
2736 2 -0.0902890274449538
2737 1 0.815802767460739
2738 2 -0.263448031687641
2739 2 -0.638442895773233
2740 1 0.807253166408416
2741 2 -0.274152956740019
2742 2 -0.283250116956058
2743 1 0.814404891288968
2744 2 -0.32762409273395
2745 2 -0.537939752397559
2746 1 0.792239343835599
2747 2 -0.463932158987808
2748 2 -0.389427237462187
2749 1 0.828098749983592
2750 2 -0.466292439797708
2751 2 -0.433890035877644
2752 1 0.787984191765417
2753 2 -0.421132946020456
2754 2 -0.28758082409452
2755 1 0.74094861478038
2756 2 -0.760378759720701
2757 2 -0.537168445397307
2758 1 0.88018774240182
2759 2 -0.545786396791941
2760 2 -0.850323585888066
2761 1 0.845641571493598
2762 2 -0.30697943440713
2763 2 -0.454252929003357
2764 1 0.851928541950065
2765 2 -0.0439544423604987
2766 2 -0.640693362527967
2767 1 0.783283357213409
2768 2 -0.40377621167991
2769 2 -0.341282110721205
2770 1 0.806370756401678
2771 2 -0.291137027333225
2772 2 -0.293483543056631
2773 1 0.799067130282778
2774 2 -0.38523303813381
2775 2 -0.932055578067502
2776 1 0.757507174602063
2777 2 0.122497914604476
2778 2 0.0968947939900994
2779 1 0.744972100860871
2780 2 -0.428721023049959
2781 2 -0.333876766878508
2782 1 0.768952385348257
2783 2 0.297379713812659
2784 2 -1.00506594664951
2785 1 0.81157055333914
2786 2 -0.431909891179264
2787 2 -0.526707046033069
2788 1 0.836596160783479
2789 2 -0.450942149104829
2790 2 -0.509958719742778
2791 1 0.77511625384657
2792 2 -0.44268249535019
2793 2 -0.389194820640957
2794 1 0.761513821021008
2795 2 -0.567271713536514
2796 2 -0.49665809235698
2797 1 0.789064095652152
2798 2 -0.188983052442145
2799 2 -0.288139671531121
2800 1 0.771726014345082
2801 2 -0.306579305022225
2802 2 -0.379439902563495
2803 1 0.818146985333306
2804 2 -0.0919881680793199
2805 2 -0.5855750709886
2806 1 0.731859777164776
2807 2 -0.528740286770293
2808 2 -0.418365065175009
2809 1 0.782659222236966
2810 2 -0.60095697333461
2811 2 -0.23132881815467
2812 1 0.745091771721462
2813 2 -0.508852096591314
2814 2 -0.412203009688107
2815 1 0.806156493977633
2816 2 -0.434478772348608
2817 2 -0.305808285343372
2818 1 0.836045785698359
2819 2 -0.712761610974142
2820 2 -0.245231821575907
2821 1 0.81868810696933
2822 2 -0.508730477116702
2823 2 -0.242329256415209
2824 1 0.82786594031556
2825 2 -0.198278413870848
2826 2 -0.496165031966992
2827 1 0.878081615040447
2828 2 -0.807331125728896
2829 2 -1.12895387692145
2830 1 0.776008703932172
2831 2 -0.813200513395447
2832 2 -0.00906711821784943
2833 1 0.800932433490092
2834 2 -0.0761214359232769
2835 2 0.311653827841651
2836 1 0.83684542155334
2837 2 -0.732851557587119
2838 2 -0.452129030253485
2839 1 0.821366964617542
2840 2 0.0197809052791232
2841 2 -0.416043139655569
2842 1 0.774729465552258
2843 2 -0.00178397359779524
2844 2 -0.704774165853795
2845 1 0.680418536189164
2846 2 -0.537591343216287
2847 2 -0.360285987260032
2848 1 0.835888217931592
2849 2 -0.52602181743137
2850 2 -0.364759716717287
2851 1 0.892235406146496
2852 2 -0.898131331950825
2853 2 0.0863274521792938
2854 1 0.721015407219284
2855 2 -0.692661751933215
2856 2 -0.300937149249839
2857 1 0.845702801114577
2858 2 -0.439977614670363
2859 2 -0.309358278084323
2860 1 0.760804270391297
2861 2 -0.576195895383018
2862 2 -0.635320243612852
2863 1 0.795675974199951
2864 2 -0.0552460210123428
2865 2 -0.816533462583427
2866 1 0.907671905733951
2867 2 -0.163294822642052
2868 2 -0.62496938051189
2869 1 0.824494747411995
2870 2 -0.593403522476114
2871 2 -0.295523350099312
2872 1 0.876130568334608
2873 2 -0.508090140587988
2874 2 0.853387911939919
2875 1 0.813560173960944
2876 2 -0.491034060430887
2877 2 -0.407564984805519
2878 1 0.839673788510587
2879 2 -0.661359782929015
2880 2 -0.0613320769794692
2881 1 0.845623133631333
2882 2 -0.490772307385558
2883 2 -0.182640899700548
2884 1 0.843126853671642
2885 2 -0.739014629213918
2886 2 -0.0923881152844058
2887 1 0.809960309637176
2888 2 -0.848075220799431
2889 2 -0.66096494488416
2890 1 0.85944313801541
2891 2 -0.246136324703704
2892 2 -0.448083888433749
2893 1 0.848739828070369
2894 2 -0.633386984596454
2895 2 -0.229836389348642
2896 1 0.826201479598706
2897 2 -0.655298110519037
2898 2 -0.0691391795418076
2899 1 0.784495268006019
2900 2 -0.417398290766954
2901 2 -0.716192981250902
2902 1 0.992607615757196
2903 2 -0.898665067703448
2904 2 0.483039925059901
2905 1 0.857304596097361
2906 2 -0.675771662094247
2907 2 -0.303849925129343
2908 1 0.78306094763115
2909 2 -0.506655839935211
2910 2 -0.457696156369873
2911 1 0.724538131728788
2912 2 -0.345033869692105
2913 2 -0.52078386226116
2914 1 0.786902527803826
2915 2 -0.633462968261085
2916 2 -0.103131140542424
2917 1 0.80020628690409
2918 2 -0.43434815645893
2919 2 -0.372359945450631
2920 1 0.729073726450755
2921 2 -0.530234508061687
2922 2 -0.240283718986965
2923 1 0.854943625813454
2924 2 -0.0726600649964281
2925 2 -0.562225963605554
2926 1 0.804163419890703
2927 2 -0.384486448135947
2928 2 -0.56750156293558
2929 1 0.666447877222963
2930 2 0.0979497610476589
2931 2 0.562455005217833
2932 1 0.660232236285568
2933 2 -0.411697828522074
2934 2 -0.548652555492571
2935 1 0.818077066384108
2936 2 -0.49250921151667
2937 2 -0.0328709718638175
2938 1 0.79735328114731
2939 2 -0.587610230568133
2940 2 -0.188211520825922
2941 1 0.758621307281494
2942 2 -0.613315165294873
2943 2 -0.537287772568694
2944 1 0.788103907969357
2945 2 -0.343412940203688
2946 2 -0.197013263241697
2947 1 0.759499871526103
2948 2 -0.473564189838197
2949 2 -0.350286455755958
2950 1 0.868357256311269
2951 2 -0.581091209799767
2952 2 -2.41674764742653
2953 1 0.810095879835434
2954 2 -0.180382778571254
2955 2 -0.513873993532805
2956 1 0.832024874517684
2957 2 0.0174360602592732
2958 2 -0.888367666798785
2959 1 0.741022485325711
2960 2 -0.359222906927453
2961 2 -0.588622398326338
2962 1 0.799566972985993
2963 2 -0.541189278877286
2964 2 -0.391241124528951
2965 1 0.732250931432105
2966 2 -0.101450523058393
2967 2 -0.892753808252585
2968 1 0.902993564856453
2969 2 -0.879585257587117
2970 2 0.0430325075499555
2971 1 0.909700280230919
2972 2 -0.381434323831789
2973 2 -0.161847426332914
2974 1 0.729161636554997
2975 2 -0.39970160059658
2976 2 -0.391644450561147
2977 1 0.82033275146191
2978 2 -0.270690397224725
2979 2 -0.644245593964987
2980 1 0.898889860472192
2981 2 -0.312899462621966
2982 2 -0.289501227942074
2983 1 0.842522965972512
2984 2 -0.451943461718167
2985 2 -0.536262093103026
2986 1 0.826081407553193
2987 2 -0.303202932820198
2988 2 -0.293572479186552
2989 1 0.888178812357566
2990 2 -0.726622945097845
2991 2 0.054437899105076
2992 1 0.849097458699745
2993 2 -0.280706196664474
2994 2 -0.327376346394932
2995 1 0.841278960683631
2996 2 -0.857668918761355
2997 2 0.108667496032156
2998 1 0.84111649071977
2999 2 -0.251507649091968
3000 2 -0.434736754703116
