ITEM: TIMESTEP
500
ITEM: NUMBER OF ATOMS
1600
ITEM: BOX BOUNDS pp pp pp
0.0000000000000000e+00 3.6149999999999999e+01
0.0000000000000000e+00 3.6149999999999999e+01
0.0000000000000000e+00 1.5834399999999999e+02
ITEM: ATOMS id mol z q
1 90001 26.1231 -4.81097e-05
2 90001 25.9702 -0.000297592
3 90001 27.7217 -0.000471069
4 90001 27.6621 -0.0036477
5 90001 29.6045 0.00163756
6 90001 29.595 0.00404297
7 90001 31.5535 -0.0180892
8 90001 31.3241 0.000682266
9 90001 26.0274 -0.00279684
10 90001 26.0226 -0.00199769
11 90001 27.7969 -0.000540254
12 90001 27.7295 -0.00117178
13 90001 29.6303 -0.000343454
14 90001 29.6069 -0.00176161
15 90001 31.3517 0.00812723
16 90001 31.4671 -0.00880637
17 90001 26.0738 0.000747069
18 90001 25.8778 -0.00399077
19 90001 27.8038 0.000855368
20 90001 27.8198 0.000859155
21 90001 29.6419 -0.00122255
22 90001 29.7467 0.00139388
23 90001 31.4568 0.0238711
24 90001 31.3948 0.0148756
25 90001 25.9667 -0.000163886
26 90001 26.0669 0.00211999
27 90001 27.8211 -0.000356561
28 90001 27.7684 -0.00204429
29 90001 29.5809 -0.000321135
30 90001 29.6322 0.00187253
31 90001 31.2721 -0.00676322
32 90001 31.3536 0.0167853
33 90001 25.9503 -0.00271445
34 90001 25.7899 -0.00271197
35 90001 27.8022 0.0011563
36 90001 27.8752 5.75471e-05
37 90001 29.572 0.00088374
38 90001 29.7111 -0.00265911
39 90001 31.4667 0.00170975
40 90001 31.4423 -0.00529092
41 90001 26.0217 -0.00120916
42 90001 25.9971 -0.000603066
43 90001 27.6874 7.12728e-05
44 90001 27.8393 0.000302707
45 90001 29.5796 0.000900939
46 90001 29.4775 0.000261195
47 90001 31.351 0.00210815
48 90001 31.3358 0.00110536
49 90001 25.7765 -0.000998311
50 90001 25.9665 -0.00202912
51 90001 27.7991 -0.000449084
52 90001 27.637 0.00107073
53 90001 29.6533 0.000756633
54 90001 29.5346 -0.000662294
55 90001 31.3245 0.0191112
56 90001 31.5324 0.00943428
57 90001 26.1912 -0.000935253
58 90001 25.9272 -7.30262e-05
59 90001 27.7427 0.000189963
60 90001 27.7319 -0.000815515
61 90001 29.4916 0.00215013
62 90001 29.5272 0.00183091
63 90001 31.3839 0.0314503
64 90001 31.4295 0.0163924
65 90001 26.065 -0.000707067
66 90001 25.757 -0.00350897
67 90001 27.7247 -0.00093384
68 90001 27.7896 0.00255591
69 90001 29.6386 0.00554449
70 90001 29.5665 -0.00142716
71 90001 31.3722 0.0353171
72 90001 31.4257 0.0702946
73 90001 25.8692 0.000462516
74 90001 25.8519 0.00019192
75 90001 27.7455 -0.00111178
76 90001 27.6989 -0.000722624
77 90001 29.5677 -0.000738981
78 90001 29.4891 0.00203481
79 90001 31.463 -0.00741287
80 90001 31.3417 0.0207092
81 90001 26.0589 -0.00171201
82 90001 26.0066 -0.00181484
83 90001 27.7978 -0.00115922
84 90001 27.8607 0.00221985
85 90001 29.5334 0.00249402
86 90001 29.6428 0.00239763
87 90001 31.3138 0.0119998
88 90001 31.3983 0.00433355
89 90001 25.9814 0.000306589
90 90001 26.0965 -0.00223285
91 90001 27.8409 0.000280418
92 90001 27.7328 -0.000401607
93 90001 29.6186 0.00175533
94 90001 29.6989 0.000249104
95 90001 31.5104 0.0078591
96 90001 31.3618 0.0087865
97 90001 26.2527 0.00141169
98 90001 26.2052 0.000371526
99 90001 27.9434 -0.00142276
100 90001 27.9112 0.000552451
101 90001 29.7028 0.000119449
102 90001 29.6066 0.00204847
103 90001 31.4472 0.0238301
104 90001 31.4553 0.0168976
105 90001 26.035 0.000294755
106 90001 26.0255 -0.00107336
107 90001 27.8399 -0.00268597
108 90001 27.8534 -0.00212947
109 90001 29.6914 0.00514673
110 90001 29.5416 0.00193749
111 90001 31.3665 -0.00626801
112 90001 31.3877 0.00361386
113 90001 25.9555 0.000477008
114 90001 25.9416 -0.00431993
115 90001 27.6865 0.00255686
116 90001 27.6535 0.00266884
117 90001 29.6846 -0.00280059
118 90001 29.5897 -0.00106307
119 90001 31.5297 0.00397094
120 90001 31.3944 -0.0107484
121 90001 25.9494 -0.000532131
122 90001 25.9877 0.00321749
123 90001 27.7857 -0.00279925
124 90001 27.7379 -0.000943866
125 90001 29.5729 0.000543904
126 90001 29.6384 -0.000620947
127 90001 31.3143 0.000423424
128 90001 31.2559 0.0226361
129 90001 25.8917 -2.56571e-05
130 90001 26.0857 -0.00156857
131 90001 27.7505 0.000388759
132 90001 27.8153 -0.0023372
133 90001 29.5828 0.000707314
134 90001 29.539 0.00405837
135 90001 31.3514 0.024721
136 90001 31.3865 0.00292316
137 90001 26.0067 0.00202553
138 90001 25.8712 -0.00105504
139 90001 27.7804 0.000436745
140 90001 27.6787 -0.00101637
141 90001 29.4678 -0.00532176
142 90001 29.6375 -0.00240631
143 90001 31.1659 0.0140185
144 90001 31.3869 -0.00866297
145 90001 25.8821 -0.00300747
146 90001 26.0524 -0.00306484
147 90001 27.8371 0.00259953
148 90001 27.837 0.00113275
149 90001 29.5785 -0.000806567
150 90001 29.5879 -0.00212238
151 90001 31.388 0.0706553
152 90001 31.4379 0.0158297
153 90001 26.01 0.00159452
154 90001 26.0468 0.00170034
155 90001 27.6797 -0.00267952
156 90001 28.0066 -0.000283434
157 90001 29.6408 0.000947849
158 90001 29.4893 -0.00239714
159 90001 31.4065 0.0289712
160 90001 31.1648 0.003925
161 90001 26.0449 -0.00350684
162 90001 25.8016 -0.00279415
163 90001 27.8173 -0.000962131
164 90001 27.8311 0.00273801
165 90001 29.6059 -0.00135385
166 90001 29.7562 0.000966001
167 90001 31.3801 -0.00960124
168 90001 31.2536 -0.0164699
169 90001 25.9187 0.000991286
170 90001 25.9852 0.0024028
171 90001 27.6662 0.000686653
172 90001 27.7483 -0.00122606
173 90001 29.6159 -0.00284994
174 90001 29.4861 -0.00059381
175 90001 31.4423 0.00667089
176 90001 31.3312 -0.0128125
177 90001 26.1581 -0.00324541
178 90001 26.0691 1.18259e-05
179 90001 27.8919 -0.00105197
180 90001 27.8085 0.00140823
181 90001 29.6849 0.000545558
182 90001 29.6682 0.000573416
183 90001 31.3294 0.00309234
184 90001 31.3755 -0.00581725
185 90001 26.1981 0.00112947
186 90001 26.1942 -0.000871305
187 90001 27.8406 -0.00137191
188 90001 27.9227 -0.00211937
189 90001 29.557 -0.00360502
190 90001 29.5845 -9.90527e-05
191 90001 31.3592 -0.0116552
192 90001 31.2446 0.00129983
193 90001 25.9569 -0.00394468
194 90001 25.9294 -0.00253384
195 90001 27.6546 0.0038599
196 90001 27.739 0.000516053
197 90001 29.606 0.00116754
198 90001 29.5824 0.00014036
199 90001 31.4547 0.0147447
200 90001 31.421 -0.00897462
201 90001 25.9445 0.00087389
202 90001 26.0357 0.00189986
203 90001 27.7622 -0.00125086
204 90001 27.8613 -0.0018589
205 90001 29.5368 0.000730732
206 90001 29.6725 -0.00131895
207 90001 31.2285 0.00492834
208 90001 31.2059 0.0135214
209 90001 26.1097 -0.00279695
210 90001 26.0103 7.04119e-06
211 90001 27.8314 -0.00117074
212 90001 27.877 0.00141545
213 90001 29.5378 0.00267009
214 90001 29.6457 -0.00468186
215 90001 31.3874 0.000458065
216 90001 31.3213 0.0126871
217 90001 26.0091 -0.000192763
218 90001 26.0216 -0.00144475
219 90001 27.7058 0.00437957
220 90001 27.8078 0.00371436
221 90001 29.7895 -0.00433526
222 90001 29.5414 -0.00341595
223 90001 31.5309 -0.0103658
224 90001 31.4486 -0.0042545
225 90001 25.9026 -0.00341134
226 90001 26.0717 -0.00118186
227 90001 27.8608 0.00334844
228 90001 27.6847 0.00277792
229 90001 29.6687 -0.00467496
230 90001 29.6058 -0.00314781
231 90001 31.5258 0.0349301
232 90001 31.4263 0.00370784
233 90001 25.9999 -0.000360548
234 90001 26.0752 -0.00367526
235 90001 27.6874 0.00173305
236 90001 27.7896 0.00425448
237 90001 29.6387 -0.00418832
238 90001 29.3591 -0.000363157
239 90001 31.326 0.00161015
240 90001 31.2176 0.00501068
241 90001 26.0303 -0.00264497
242 90001 25.9597 -0.000642943
243 90001 27.7339 0.00175948
244 90001 27.8129 0.000940635
245 90001 29.4559 -0.000415861
246 90001 29.6482 -0.00214886
247 90001 31.3896 -0.0193188
248 90001 31.5267 -0.0159794
249 90001 26.0329 -0.00068364
250 90001 26.1486 -0.00130843
251 90001 27.7687 0.00288331
252 90001 27.798 -0.00179352
253 90001 29.4309 0.000727715
254 90001 29.6478 -0.00309124
255 90001 31.2988 -0.0185078
256 90001 31.5398 -0.00753299
257 90001 26.1466 -0.00549917
258 90001 25.9394 -0.00448874
259 90001 27.7911 0.00447234
260 90001 27.7929 0.0019646
261 90001 29.542 -0.00095973
262 90001 29.556 -0.00544201
263 90001 31.4511 0.00325075
264 90001 31.3979 -0.0208495
265 90001 26.0273 -0.000394225
266 90001 25.9087 -0.000514342
267 90001 27.7955 -0.00262111
268 90001 27.7536 0.00117546
269 90001 29.4746 0.00118434
270 90001 29.6519 0.00237757
271 90001 31.378 -0.00872105
272 90001 31.3692 -0.0311853
273 90001 25.8619 -0.00130666
274 90001 26.0242 -0.00121369
275 90001 27.7965 -1.21721e-05
276 90001 27.7252 -0.000547345
277 90001 29.6961 0.00065956
278 90001 29.6936 -0.000259369
279 90001 31.4876 -0.00245612
280 90001 31.5938 0.000591946
281 90001 26.0812 -0.00101978
282 90001 26.0138 -0.0011397
283 90001 27.7769 0.0013293
284 90001 27.7982 0.00140959
285 90001 29.616 -0.00299626
286 90001 29.6141 -0.000282963
287 90001 31.2872 0.000362015
288 90001 31.4895 -0.0216883
289 90001 26.1021 -0.000912936
290 90001 26.0369 -0.00153509
291 90001 27.7254 -0.000300405
292 90001 27.8311 -0.000726784
293 90001 29.6354 -0.00203629
294 90001 29.6441 0.00264709
295 90001 31.5573 0.00628716
296 90001 31.3569 0.00573988
297 90001 26.0461 -0.000436625
298 90001 25.9963 -0.00146015
299 90001 27.7933 0.00250637
300 90001 27.8763 -0.00131426
301 90001 29.6291 -0.00259274
302 90001 29.5847 -0.00253472
303 90001 31.4122 -0.0274355
304 90001 31.3467 0.00262081
305 90001 26.1473 -0.00293218
306 90001 26.0677 -0.000569782
307 90001 27.7498 0.00144491
308 90001 27.8259 0.000670832
309 90001 29.6164 -0.00458793
310 90001 29.6219 -0.00224339
311 90001 31.4503 0.00129852
312 90001 31.3391 -0.008223
313 90001 26.1385 -0.00361873
314 90001 25.9771 -0.00146497
315 90001 27.7279 0.000879829
316 90001 27.7331 0.00229739
317 90001 29.5713 0.0012597
318 90001 29.6166 -0.00153144
319 90001 31.3501 -0.00993987
320 90001 31.5587 -0.00194388
321 90001 25.9333 -0.00291732
322 90001 25.9902 -0.00124918
323 90001 27.8395 -0.00153189
324 90001 27.8151 0.00157993
325 90001 29.7182 -0.00563162
326 90001 29.5423 0.00181903
327 90001 31.5462 -0.00661905
328 90001 31.4112 -0.0140061
329 90001 26.169 -0.000487298
330 90001 26.0195 -0.00180809
331 90001 27.9231 0.00072439
332 90001 27.9379 -0.00133672
333 90001 29.7186 0.00350482
334 90001 29.6276 -0.000703348
335 90001 31.6173 -0.020502
336 90001 31.4233 -0.0262189
337 90001 26.0431 -0.000596653
338 90001 25.9578 -0.000334713
339 90001 27.7802 -0.00114987
340 90001 27.7313 0.00226174
341 90001 29.6885 -0.00380742
342 90001 29.6334 -0.0062653
343 90001 31.3612 -0.0630213
344 90001 31.2761 -0.0210504
345 90001 25.9679 -0.000442283
346 90001 25.8386 -0.00103674
347 90001 27.7406 0.00221112
348 90001 27.7171 0.00144211
349 90001 29.5054 -0.00121538
350 90001 29.5773 -0.0013567
351 90001 31.5677 -0.0226895
352 90001 31.4712 -0.0691182
353 90001 25.8919 -0.000915324
354 90001 26.0157 -0.00202642
355 90001 27.8386 -0.00062614
356 90001 27.7237 -0.00116023
357 90001 29.5864 -0.000674778
358 90001 29.7439 0.00177806
359 90001 31.409 0.0216069
360 90001 31.3855 6.49845e-05
361 90001 26.0255 -0.000992043
362 90001 26.0899 0.000313733
363 90001 27.8401 -0.00156847
364 90001 27.9162 -0.000583686
365 90001 29.6672 0.00473788
366 90001 29.7514 -0.000133977
367 90001 31.6721 0.0167479
368 90001 31.4805 0.0433788
369 90001 26.0289 -0.00226306
370 90001 26.0235 0.000207035
371 90001 27.9051 -0.0013931
372 90001 27.8498 0.0017965
373 90001 29.5965 0.00181481
374 90001 29.5441 0.00196652
375 90001 31.51 0.0232059
376 90001 31.3803 0.0107283
377 90001 26.1179 -0.00118009
378 90001 26.0825 0.00301357
379 90001 27.8367 -0.00237724
380 90001 27.9495 -0.00305042
381 90001 29.6286 0.00415149
382 90001 29.6825 9.67495e-05
383 90001 31.2943 -0.0115608
384 90001 31.4083 0.00049717
385 90001 26.037 0.00221579
386 90001 26.1644 -0.00383944
387 90001 27.7397 0.00117589
388 90001 27.8064 0.00070457
389 90001 29.6827 -0.0020402
390 90001 29.5792 -0.0020721
391 90001 31.392 -0.00440007
392 90001 31.5339 -0.00694644
393 90001 26.0454 -0.000543357
394 90001 25.9658 -0.00163091
395 90001 27.7957 0.0024318
396 90001 27.9377 0.00185397
397 90001 29.6049 -0.00487053
398 90001 29.5536 -0.0021038
399 90001 31.4401 -0.0163128
400 90001 31.1944 -0.000930664
401 90001 25.9071 -0.00106188
402 90001 25.8666 0.000833566
403 90001 27.6159 0.000598153
404 90001 27.7124 0.000185355
405 90001 29.5339 0.000349125
406 90001 29.6691 -0.00147282
407 90001 31.7185 -0.00968372
408 90001 31.2997 0.00568901
409 90001 25.9719 0.000231237
410 90001 26.0307 0.000221893
411 90001 27.8389 0.000321282
412 90001 27.7042 -0.00045261
413 90001 29.6179 -0.00257817
414 90001 29.5372 -0.00117331
415 90001 31.4428 -0.0141831
416 90001 31.3674 -0.00857125
417 90001 26.0419 0.00211917
418 90001 25.8721 8.14798e-06
419 90001 27.8169 -0.00100133
420 90001 27.7338 0.0010042
421 90001 29.622 -0.00115848
422 90001 29.654 -0.00661397
423 90001 31.5303 -0.062492
424 90001 31.4164 -0.0215078
425 90001 25.9849 -0.00327493
426 90001 26.0017 0.00265659
427 90001 27.7521 -0.00111499
428 90001 27.6495 0.000792928
429 90001 29.6106 -0.00631937
430 90001 29.4817 0.000472077
431 90001 31.4957 -0.0297915
432 90001 31.6022 0.0294985
433 90001 25.931 0.000589052
434 90001 26.1398 -0.00273209
435 90001 27.8743 0.00363482
436 90001 27.8541 -0.00157018
437 90001 29.5158 0.00034085
438 90001 29.6919 0.00164692
439 90001 31.4578 0.0151406
440 90001 31.2506 -0.00679168
441 90001 26.084 0.000183233
442 90001 26.1696 -0.00182009
443 90001 27.8884 -0.00068966
444 90001 27.8536 -0.00167941
445 90001 29.7231 0.00104362
446 90001 29.6636 0.001087
447 90001 31.545 0.0137638
448 90001 31.511 -0.00829965
449 90001 26.1714 -0.0021409
450 90001 26.1538 0.000576476
451 90001 27.854 0.00156746
452 90001 27.9368 -0.000397923
453 90001 29.6891 -0.000169215
454 90001 29.6627 -0.00350618
455 90001 31.4557 -0.00225588
456 90001 31.5466 0.00592458
457 90001 26.103 -0.00371271
458 90001 26.1711 -0.00142162
459 90001 27.8632 0.00183452
460 90001 27.9648 0.000685963
461 90001 29.5681 -0.000965551
462 90001 29.6908 0.00112985
463 90001 31.4646 -0.00835012
464 90001 31.4356 0.000412779
465 90001 25.9472 -0.00145555
466 90001 25.9456 -0.000875389
467 90001 27.8725 0.0019431
468 90001 27.7868 -0.000231777
469 90001 29.7748 -0.000781257
470 90001 29.6555 -0.000404284
471 90001 31.5214 0.00611883
472 90001 31.6244 0.0273687
473 90001 26.0535 -0.00096577
474 90001 26.1048 7.02414e-05
475 90001 27.8695 -0.000318376
476 90001 27.8061 0.000468388
477 90001 29.6505 -0.000279527
478 90001 29.5875 -0.000184521
479 90001 31.4905 -0.00123885
480 90001 31.5839 0.0214114
481 90001 25.9347 -0.00267142
482 90001 25.9466 -0.00153929
483 90001 27.615 -0.000156016
484 90001 27.772 -0.00165195
485 90001 29.5975 0.00164689
486 90001 29.5463 0.000508119
487 90001 31.3537 0.00467015
488 90001 31.3347 0.0370543
489 90001 25.8566 -0.000684229
490 90001 26.0181 -0.000479815
491 90001 27.8594 -0.000294406
492 90001 27.8549 -0.000855306
493 90001 29.5559 0.000208894
494 90001 29.6015 -0.00459299
495 90001 31.2937 -0.0228466
496 90001 31.5001 -0.0186095
497 90001 25.9451 0.000283639
498 90001 26.0874 -0.000841309
499 90001 27.726 0.000569925
500 90001 27.8792 0.00203067
501 90001 29.6999 -7.28323e-05
502 90001 29.5057 -0.0014881
503 90001 31.4268 -0.0127521
504 90001 31.3846 -0.00919298
505 90001 25.92 -0.00201698
506 90001 25.9016 -0.00257643
507 90001 27.7394 -0.00107455
508 90001 27.6722 5.60126e-05
509 90001 29.6345 -0.000769031
510 90001 29.6087 0.00231954
511 90001 31.38 0.0117071
512 90001 31.4497 0.00615117
513 90001 26.0307 -0.00181222
514 90001 26.0327 -0.000974591
515 90001 27.9278 0.00055613
516 90001 27.8215 0.00232326
517 90001 29.5824 0.00135877
518 90001 29.6382 0.000580078
519 90001 31.3574 -0.0106776
520 90001 31.3428 -0.00554431
521 90001 26.1504 -0.000505773
522 90001 26.1591 -0.0025969
523 90001 27.8336 0.00170029
524 90001 27.7892 0.000628579
525 90001 29.5377 0.000221615
526 90001 29.5519 0.00147365
527 90001 31.3786 -0.00745862
528 90001 31.3932 -0.00922944
529 90001 26.0732 0.000753373
530 90001 26.066 -0.00088367
531 90001 27.8236 0.000181122
532 90001 27.8675 -0.000661979
533 90001 29.525 -0.00134745
534 90001 29.5827 0.00088075
535 90001 31.325 0.0039357
536 90001 31.4115 0.0551557
537 90001 26.0234 -0.00129685
538 90001 26.0056 -0.00249078
539 90001 27.7764 0.000451786
540 90001 27.9027 0.000480061
541 90001 29.5565 0.00154639
542 90001 29.6349 -0.000229361
543 90001 31.5355 0.0153842
544 90001 31.3613 -0.0254736
545 90001 25.8837 -0.000773949
546 90001 25.9991 -0.00205883
547 90001 27.7796 0.00100397
548 90001 27.7772 0.00232856
549 90001 29.6514 -0.000225593
550 90001 29.6909 0.00332425
551 90001 31.3455 0.0542767
552 90001 31.3654 -0.011199
553 90001 25.9312 0.000814317
554 90001 26.018 3.69616e-05
555 90001 27.8111 -0.00287136
556 90001 27.8491 -0.00180831
557 90001 29.7376 0.000530918
558 90001 29.5547 0.00361703
559 90001 31.1971 -0.0128385
560 90001 31.3044 -0.00297918
561 90001 26.0091 -0.00153891
562 90001 25.9943 -0.00241066
563 90001 27.6882 0.000257086
564 90001 27.7844 0.00417303
565 90001 29.5274 0.00107563
566 90001 29.6203 -0.00117548
567 90001 31.4996 0.00659911
568 90001 31.3687 0.00694303
569 90001 26.0288 0.000543566
570 90001 25.8971 -0.00338041
571 90001 27.7746 0.00012052
572 90001 27.8635 0.00250215
573 90001 29.7633 -0.0035898
574 90001 29.689 0.000897821
575 90001 31.6126 -0.00907667
576 90001 31.3352 -0.0135792
577 90001 25.9922 -0.0036425
578 90001 26.0532 0.000714957
579 90001 27.7997 0.000760668
580 90001 27.7274 0.00169468
581 90001 29.6117 -0.000680672
582 90001 29.7089 -0.00358624
583 90001 31.4102 0.0048725
584 90001 31.6331 -0.0141218
585 90001 26.0942 0.000362179
586 90001 26.0899 -0.000231083
587 90001 27.8484 0.000165828
588 90001 27.7968 -0.00205688
589 90001 29.5517 1.50357e-05
590 90001 29.6759 0.002003
591 90001 31.551 -0.000584898
592 90001 31.4648 0.00717987
593 90001 25.9534 -0.00254678
594 90001 25.9894 -0.00174286
595 90001 27.7476 0.000772695
596 90001 27.8003 0.00180183
597 90001 29.5546 -0.0014296
598 90001 29.6456 -0.00295252
599 90001 31.4006 -0.011637
600 90001 31.2701 0.0124506
601 90001 25.953 -0.00251574
602 90001 26.1506 0.000925408
603 90001 27.8527 0.00149609
604 90001 27.8083 0.0014812
605 90001 29.6298 -0.000932606
606 90001 29.5578 0.00227211
607 90001 31.3982 0.0299853
608 90001 31.3139 0.00661656
609 90001 26.0912 -0.0026264
610 90001 26.099 -0.00107623
611 90001 27.8761 -0.000834996
612 90001 27.8736 -0.000360064
613 90001 29.7093 0.00479913
614 90001 29.7407 -0.000183097
615 90001 31.3614 -0.0178796
616 90001 31.5035 0.00934173
617 90001 26.0666 -0.000996637
618 90001 26.0045 -0.00217308
619 90001 27.844 5.2594e-05
620 90001 27.7045 -0.00159737
621 90001 29.5709 0.000514983
622 90001 29.6122 -0.000555701
623 90001 31.58 -0.0310094
624 90001 31.504 -0.023595
625 90001 26.0433 -0.000348806
626 90001 26.1661 0.00199466
627 90001 27.8667 -0.000750683
628 90001 27.8029 -0.00252851
629 90001 29.5839 -0.00204493
630 90001 29.6111 0.00165608
631 90001 31.4372 -0.0191997
632 90001 31.3941 0.0134389
633 90001 25.9642 -0.000214488
634 90001 25.8483 -0.00544693
635 90001 27.8395 0.000305698
636 90001 27.7167 -0.001953
637 90001 29.6874 0.00113604
638 90001 29.5063 0.00158454
639 90001 31.2659 0.0271166
640 90001 31.4671 0.00345754
641 90001 26.0494 -0.00170173
642 90001 25.9682 5.79311e-05
643 90001 27.7874 0.000749377
644 90001 27.9062 7.01623e-05
645 90001 29.589 0.00367694
646 90001 29.6396 -0.00209005
647 90001 31.5251 -0.0214444
648 90001 31.2654 0.00217103
649 90001 25.8312 -0.00051902
650 90001 26.053 0.000830175
651 90001 27.7237 0.00195272
652 90001 27.834 0.000722204
653 90001 29.586 -0.0056655
654 90001 29.5674 -0.00377844
655 90001 31.3523 -0.042027
656 90001 31.4787 -0.022667
657 90001 25.9837 0.00128841
658 90001 26.0607 0.00100321
659 90001 27.7785 -0.00134622
660 90001 27.8852 -0.00284896
661 90001 29.6288 -0.00372603
662 90001 29.7768 0.00134413
663 90001 31.6397 0.0186506
664 90001 31.4644 -0.00943862
665 90001 26.0301 0.000172856
666 90001 26.0169 -0.000393125
667 90001 27.8623 -0.00262241
668 90001 27.6916 -0.00132464
669 90001 29.6365 0.00515091
670 90001 29.725 -0.000243845
671 90001 31.3262 0.0309061
672 90001 31.658 0.0477055
673 90001 26.1095 -0.00250396
674 90001 26.0552 -0.000287622
675 90001 27.8664 0.00425046
676 90001 27.9808 -0.000403948
677 90001 29.672 0.00202674
678 90001 29.6126 -0.00352528
679 90001 31.4455 0.0443555
680 90001 31.4913 0.028021
681 90001 25.9271 -0.00463038
682 90001 26.2224 0.00174972
683 90001 27.8256 -0.000175676
684 90001 27.924 0.000239589
685 90001 29.6239 -0.00411146
686 90001 29.5087 0.00071941
687 90001 31.3719 0.0488856
688 90001 31.2914 0.00733651
689 90001 26.075 0.00060716
690 90001 25.9364 -0.00387778
691 90001 27.7077 0.00036368
692 90001 27.7119 -0.0010789
693 90001 29.7119 -0.00146678
694 90001 29.4626 0.000371054
695 90001 31.432 -0.0202755
696 90001 31.3823 -0.0267243
697 90001 25.9783 0.000426722
698 90001 25.9403 0.000401061
699 90001 27.7418 0.000491263
700 90001 27.6524 0.00252827
701 90001 29.5667 -0.000540838
702 90001 29.5031 -0.00167687
703 90001 31.2711 -0.0414152
704 90001 31.2264 -0.0170037
705 90001 26.0733 -0.000533244
706 90001 26.0717 0.000556532
707 90001 27.8888 -0.0025782
708 90001 27.7398 -0.000807899
709 90001 29.5865 4.53286e-05
710 90001 29.6723 0.000424882
711 90001 31.4085 0.00838227
712 90001 31.3268 -0.0120921
713 90001 25.9129 0.000525094
714 90001 25.9562 -0.000598518
715 90001 27.6522 0.000746787
716 90001 27.7946 -0.000453729
717 90001 29.5635 -0.000328311
718 90001 29.6245 0.00292398
719 90001 31.2927 0.00627931
720 90001 31.3917 0.0136427
721 90001 26.0108 9.63757e-05
722 90001 25.9443 -0.00272457
723 90001 27.8578 0.00179832
724 90001 27.7413 -0.00248236
725 90001 29.5631 0.00339819
726 90001 29.5471 0.00155961
727 90001 31.4541 -0.0048092
728 90001 31.5328 -0.00965638
729 90001 26.0338 -0.00464225
730 90001 26.0044 0.00265842
731 90001 27.7953 -0.00070789
732 90001 27.7306 0.000423103
733 90001 29.7262 0.00226857
734 90001 29.4526 -0.00167658
735 90001 31.4006 -0.00209432
736 90001 31.3841 0.00573317
737 90001 26.1906 3.9244e-05
738 90001 26.1147 -0.0027715
739 90001 27.8774 -0.00321981
740 90001 27.9667 -8.9124e-05
741 90001 29.6209 0.0014675
742 90001 29.6615 0.00198614
743 90001 31.4462 0.00750044
744 90001 31.5339 0.000554403
745 90001 25.9082 0.000456373
746 90001 25.8046 0.000822544
747 90001 27.8021 0.000703906
748 90001 27.7803 0.00199606
749 90001 29.7845 -0.00161142
750 90001 29.6624 -0.00164283
751 90001 31.574 -0.00325282
752 90001 31.4429 0.00735661
753 90001 26.0503 -0.000114427
754 90001 25.8653 -0.00269599
755 90001 27.8007 -0.000279393
756 90001 27.6873 -0.00213578
757 90001 29.6017 -0.00167715
758 90001 29.6188 0.00412287
759 90001 31.3478 0.0153936
760 90001 31.4232 0.00768997
761 90001 25.9938 -0.000702584
762 90001 25.8741 -0.0018883
763 90001 27.8497 0.00069487
764 90001 27.7651 0.00145156
765 90001 29.55 -0.000915889
766 90001 29.6129 -0.00051995
767 90001 31.3356 -0.0110116
768 90001 31.1525 -0.000459346
769 90001 25.9621 -0.000639316
770 90001 26.1081 0.00171866
771 90001 27.859 0.00164864
772 90001 27.7567 -0.0011667
773 90001 29.5493 -0.00104784
774 90001 29.4128 -0.000915826
775 90001 31.2227 -0.0301795
776 90001 31.1211 -0.000530096
777 90001 25.9265 -0.00041008
778 90001 25.8965 0.00250173
779 90001 27.7358 -0.00578146
780 90001 27.7381 -0.00360177
781 90001 29.4923 -0.000508881
782 90001 29.6357 0.00128205
783 90001 31.4252 -0.0137341
784 90001 31.2676 0.00192449
785 90001 25.949 0.00183914
786 90001 25.945 -0.000301701
787 90001 27.907 0.00137751
788 90001 27.8283 -0.000427939
789 90001 29.6516 -0.000126197
790 90001 29.5455 -0.00097844
791 90001 31.2979 0.0225948
792 90001 31.2328 0.0215671
793 90001 26.1379 -0.00439469
794 90001 25.9396 0.00219558
795 90001 27.8082 -0.00314993
796 90001 27.6479 -0.000310696
797 90001 29.4641 -0.00109611
798 90001 29.592 0.00203567
799 90001 31.3534 0.01992
800 90001 31.4006 0.00785044
801 90002 132.414 0.000401056
802 90002 132.33 0.0015613
803 90002 130.49 -0.00296581
804 90002 130.464 -0.00313894
805 90002 128.841 0.00257765
806 90002 128.741 0.00226125
807 90002 126.735 0.0201171
808 90002 126.931 -0.00987348
809 90002 132.34 0.0019026
810 90002 132.345 -0.000321727
811 90002 130.584 0.00024617
812 90002 130.581 -0.000541971
813 90002 128.702 9.61943e-05
814 90002 128.652 -0.00193411
815 90002 126.875 0.00892116
816 90002 126.843 0.0159727
817 90002 132.196 0.000854781
818 90002 132.26 -0.000322565
819 90002 130.646 -0.000290332
820 90002 130.51 0.00305804
821 90002 128.877 0.00249909
822 90002 128.617 -0.010923
823 90002 126.892 -0.0585251
824 90002 126.996 -0.020307
825 90002 132.323 0.0040449
826 90002 132.253 -0.000155126
827 90002 130.487 -0.000772849
828 90002 130.558 0.00182633
829 90002 128.816 -0.00584042
830 90002 128.824 0.00229481
831 90002 126.885 -0.0185724
832 90002 126.936 -0.0355982
833 90002 132.497 0.00108401
834 90002 132.333 0.000970309
835 90002 130.551 0.00150199
836 90002 130.507 -0.000212601
837 90002 128.748 0.00154545
838 90002 128.806 -0.000924176
839 90002 126.866 0.00532144
840 90002 126.989 0.0128413
841 90002 132.288 0.0031959
842 90002 132.282 0.000476686
843 90002 130.564 -0.00172324
844 90002 130.453 0.00161386
845 90002 128.79 -0.00408908
846 90002 128.803 -0.00126471
847 90002 126.963 -0.00915244
848 90002 127.021 -0.00171279
849 90002 132.414 0.000738073
850 90002 132.309 -2.84353e-06
851 90002 130.562 -0.00148644
852 90002 130.533 0.00220185
853 90002 128.616 0.00406268
854 90002 128.564 -0.00218561
855 90002 126.842 -0.014199
856 90002 126.759 -0.00236392
857 90002 132.152 0.00278106
858 90002 132.273 -0.00303676
859 90002 130.543 0.000822602
860 90002 130.364 0.00172335
861 90002 128.736 -0.00087799
862 90002 128.615 -0.00480416
863 90002 126.841 -0.0233891
864 90002 126.793 -0.0238167
865 90002 132.251 0.000606676
866 90002 132.185 0.00178888
867 90002 130.363 -0.000179295
868 90002 130.446 -0.000518702
869 90002 128.59 -0.000184029
870 90002 128.595 -0.000366965
871 90002 126.961 -0.00850253
872 90002 126.858 -0.0309121
873 90002 132.204 0.00148238
874 90002 132.271 0.00387226
875 90002 130.543 -0.0025139
876 90002 130.519 -0.00342486
877 90002 128.777 -0.00393669
878 90002 128.71 0.000418191
879 90002 126.865 -0.0226647
880 90002 126.936 -0.0161137
881 90002 132.249 0.00261759
882 90002 132.53 0.000518588
883 90002 130.502 -0.00137775
884 90002 130.598 -0.00144361
885 90002 128.82 0.00109792
886 90002 128.729 -0.00323216
887 90002 126.986 -0.00402646
888 90002 126.86 -0.0113446
889 90002 132.329 -2.12902e-05
890 90002 132.377 0.000222735
891 90002 130.512 0.00120256
892 90002 130.469 0.00119645
893 90002 128.729 -0.00122733
894 90002 128.78 -0.00101307
895 90002 127.116 0.00256277
896 90002 127.091 -0.00356724
897 90002 132.351 0.000382556
898 90002 132.354 0.00232124
899 90002 130.56 0.0021589
900 90002 130.5 -6.56982e-05
901 90002 128.756 -0.00255289
902 90002 128.791 -0.00160448
903 90002 127.004 0.00133728
904 90002 127.031 0.000690682
905 90002 132.398 -0.00145529
906 90002 132.375 0.00501162
907 90002 130.57 0.00193173
908 90002 130.624 0.00137157
909 90002 128.805 -0.0027349
910 90002 128.76 0.00181409
911 90002 126.998 0.00549877
912 90002 126.831 0.0334597
913 90002 132.292 8.6003e-05
914 90002 132.43 0.00306024
915 90002 130.51 -0.0020107
916 90002 130.591 -0.00178287
917 90002 128.624 -0.000501893
918 90002 128.809 0.000724774
919 90002 126.873 0.0121307
920 90002 126.872 0.00906342
921 90002 132.201 -0.00171786
922 90002 132.381 0.000611428
923 90002 130.421 0.00220727
924 90002 130.551 -3.73696e-05
925 90002 128.626 0.00303009
926 90002 128.775 7.47529e-05
927 90002 127.044 0.0111684
928 90002 126.931 -0.00349203
929 90002 132.265 0.00132177
930 90002 132.282 0.000474971
931 90002 130.436 0.00107433
932 90002 130.608 0.000775207
933 90002 128.715 -0.00125219
934 90002 128.755 0.000796046
935 90002 126.938 0.00562839
936 90002 126.988 -0.000821473
937 90002 132.309 -0.000715534
938 90002 132.243 0.00244716
939 90002 130.47 0.00297985
940 90002 130.46 0.00147162
941 90002 128.717 -0.00173265
942 90002 128.641 -0.00135034
943 90002 126.946 -0.0221091
944 90002 126.846 6.09606e-05
945 90002 132.256 0.00107014
946 90002 132.126 0.00295375
947 90002 130.46 -0.00149374
948 90002 130.43 0.0001392
949 90002 128.642 -0.00231198
950 90002 128.698 -3.92423e-05
951 90002 126.919 -0.0286044
952 90002 126.882 -0.0035336
953 90002 132.315 0.00172123
954 90002 132.204 0.00137072
955 90002 130.456 -0.0010902
956 90002 130.462 0.000214676
957 90002 128.64 0.0018666
958 90002 128.703 0.00041232
959 90002 126.912 -0.0212538
960 90002 127.001 -0.0143682
961 90002 132.317 0.001107
962 90002 132.462 0.000261787
963 90002 130.622 0.00272669
964 90002 130.446 -0.000499107
965 90002 128.691 -0.0011404
966 90002 128.845 -0.00150958
967 90002 126.897 -0.00930999
968 90002 127.053 0.0101589
969 90002 132.371 -0.0020983
970 90002 132.365 -0.000144846
971 90002 130.587 0.00250343
972 90002 130.663 0.00105489
973 90002 128.787 -0.00176092
974 90002 128.695 -0.000853534
975 90002 127.054 -0.00796356
976 90002 126.893 0.0161997
977 90002 132.223 0.000389107
978 90002 132.251 0.000793539
979 90002 130.594 -0.000259423
980 90002 130.542 -0.000665066
981 90002 128.824 -0.00186012
982 90002 128.762 0.00226765
983 90002 126.959 0.00284727
984 90002 127.155 -0.0033288
985 90002 132.435 -0.00307547
986 90002 132.335 0.00149032
987 90002 130.741 -0.00272969
988 90002 130.557 -0.000661619
989 90002 128.795 0.00320128
990 90002 128.716 -0.00105993
991 90002 126.94 0.0309373
992 90002 127.001 -0.00998809
993 90002 132.343 0.00330065
994 90002 132.298 0.00116052
995 90002 130.634 -0.000495393
996 90002 130.517 -0.00044597
997 90002 128.713 0.00230048
998 90002 128.814 -0.00121675
999 90002 126.896 0.00922651
1000 90002 126.967 -0.0189224
1001 90002 132.439 1.32545e-07
1002 90002 132.328 -0.00189518
1003 90002 130.504 0.000635011
1004 90002 130.461 0.000387228
1005 90002 128.723 0.0016987
1006 90002 128.734 0.00170564
1007 90002 126.968 -0.0182157
1008 90002 126.863 -0.00939318
1009 90002 132.428 0.00241225
1010 90002 132.236 0.000371232
1011 90002 130.557 0.00117011
1012 90002 130.588 0.000867421
1013 90002 128.592 -0.0054078
1014 90002 128.661 -0.00436499
1015 90002 126.962 -0.0587072
1016 90002 127.033 -0.0568912
1017 90002 132.279 -0.00134674
1018 90002 132.393 0.00263195
1019 90002 130.414 -0.00108272
1020 90002 130.504 0.000540883
1021 90002 128.667 -0.00162065
1022 90002 128.61 0.00312813
1023 90002 126.75 -0.00911901
1024 90002 126.867 -0.0478223
1025 90002 132.223 0.00179952
1026 90002 132.354 -0.000874319
1027 90002 130.368 -0.00216231
1028 90002 130.389 0.000893684
1029 90002 128.607 0.00118403
1030 90002 128.784 -0.0020623
1031 90002 126.938 -0.00921761
1032 90002 126.958 0.0160865
1033 90002 132.188 -0.000558649
1034 90002 132.13 -0.0021969
1035 90002 130.363 0.00116236
1036 90002 130.476 0.000550446
1037 90002 128.731 0.00178276
1038 90002 128.719 0.000749485
1039 90002 127.004 0.0142878
1040 90002 127.032 -0.00385171
1041 90002 132.232 0.00124595
1042 90002 132.331 0.00116274
1043 90002 130.547 -0.00263559
1044 90002 130.616 0.000567957
1045 90002 128.727 -0.00245508
1046 90002 128.791 0.00189271
1047 90002 127.009 0.00914326
1048 90002 126.905 -0.000476106
1049 90002 132.37 0.00392202
1050 90002 132.413 -0.000468397
1051 90002 130.575 0.00139071
1052 90002 130.524 -0.000708193
1053 90002 128.807 -0.00148771
1054 90002 128.68 -0.00179573
1055 90002 126.988 -0.00498609
1056 90002 126.721 -0.00274335
1057 90002 132.339 0.00121773
1058 90002 132.349 -0.000553874
1059 90002 130.589 -0.00215748
1060 90002 130.494 -0.00205231
1061 90002 128.811 -0.00292107
1062 90002 128.666 -0.000264751
1063 90002 126.891 0.0147749
1064 90002 126.978 0.0102168
1065 90002 132.396 -0.000814164
1066 90002 132.158 -5.30233e-05
1067 90002 130.431 0.000954568
1068 90002 130.661 -0.00073292
1069 90002 128.748 0.00243424
1070 90002 128.833 -0.000860001
1071 90002 127.011 -0.00733257
1072 90002 126.969 0.0143857
1073 90002 132.31 0.00152274
1074 90002 132.484 -0.00140971
1075 90002 130.401 6.34722e-05
1076 90002 130.509 0.00257628
1077 90002 128.759 -0.00304998
1078 90002 128.538 -0.00205095
1079 90002 126.981 0.018383
1080 90002 127.15 -0.00281229
1081 90002 132.278 -0.000500839
1082 90002 132.577 0.000977407
1083 90002 130.464 0.00253221
1084 90002 130.48 0.000286214
1085 90002 128.732 0.000722063
1086 90002 128.719 0.000397362
1087 90002 126.877 -0.0135172
1088 90002 126.802 0.0302798
1089 90002 132.407 0.000699767
1090 90002 132.232 0.00238173
1091 90002 130.619 -0.00131963
1092 90002 130.514 -0.00307476
1093 90002 128.673 0.000513636
1094 90002 128.727 -0.00070131
1095 90002 126.86 -0.0357163
1096 90002 126.852 -0.00909774
1097 90002 132.381 -0.000435142
1098 90002 132.386 -0.000468237
1099 90002 130.623 0.00144449
1100 90002 130.648 0.00268706
1101 90002 128.732 0.000306855
1102 90002 128.709 -0.00223323
1103 90002 127.029 -0.00266298
1104 90002 126.891 -0.0325612
1105 90002 132.228 0.00157232
1106 90002 132.469 0.00213099
1107 90002 130.621 0.000123784
1108 90002 130.606 -0.00178885
1109 90002 128.692 -0.00453485
1110 90002 128.647 0.000250632
1111 90002 126.837 -0.0195454
1112 90002 126.899 0.000452049
1113 90002 132.41 -0.003197
1114 90002 132.262 0.000519901
1115 90002 130.547 0.00033669
1116 90002 130.438 -0.000679547
1117 90002 128.647 -0.00112197
1118 90002 128.774 -0.000118334
1119 90002 126.672 0.00502554
1120 90002 126.813 0.00531667
1121 90002 132.315 0.00120919
1122 90002 132.203 -0.00140609
1123 90002 130.51 -0.00112106
1124 90002 130.337 0.000569881
1125 90002 128.747 -0.00175291
1126 90002 128.598 -0.00141106
1127 90002 126.759 0.0225876
1128 90002 126.994 0.00129276
1129 90002 132.509 0.00217535
1130 90002 132.372 0.00185644
1131 90002 130.542 -0.000381822
1132 90002 130.52 0.000321126
1133 90002 128.663 -0.00150564
1134 90002 128.7 0.000196104
1135 90002 126.84 0.014306
1136 90002 126.849 -0.00312118
1137 90002 132.444 0.00134398
1138 90002 132.347 0.00194515
1139 90002 130.478 -0.000335014
1140 90002 130.604 -0.00148773
1141 90002 128.741 0.00341986
1142 90002 128.629 0.000758718
1143 90002 126.851 0.011229
1144 90002 126.916 0.0116654
1145 90002 132.434 0.00169359
1146 90002 132.419 0.000674082
1147 90002 130.609 0.00067081
1148 90002 130.597 0.000161485
1149 90002 128.708 -0.000530907
1150 90002 128.638 0.00441739
1151 90002 126.916 0.0181206
1152 90002 126.723 0.0395846
1153 90002 132.412 0.000804982
1154 90002 132.365 -0.000197442
1155 90002 130.515 -0.000271388
1156 90002 130.584 0.000537412
1157 90002 128.71 -0.00127351
1158 90002 128.656 0.00178491
1159 90002 126.939 0.00577871
1160 90002 126.902 0.025122
1161 90002 132.222 0.00300151
1162 90002 132.283 0.000740484
1163 90002 130.515 -0.000337944
1164 90002 130.467 -0.000447438
1165 90002 128.713 -0.00234279
1166 90002 128.626 0.00025518
1167 90002 126.885 -0.00769347
1168 90002 126.906 -0.015384
1169 90002 132.194 0.00274852
1170 90002 132.323 0.00272669
1171 90002 130.575 0.000258432
1172 90002 130.453 0.00192401
1173 90002 128.662 -0.00135651
1174 90002 128.683 -0.000749814
1175 90002 127.006 -0.00701288
1176 90002 126.79 0.0387729
1177 90002 132.403 -3.48637e-05
1178 90002 132.522 -0.000487571
1179 90002 130.63 -0.000114509
1180 90002 130.657 -0.00189816
1181 90002 128.741 -0.00215301
1182 90002 128.778 -0.000828814
1183 90002 126.998 -0.0029645
1184 90002 126.873 -0.0138892
1185 90002 132.427 0.00275182
1186 90002 132.327 0.00184173
1187 90002 130.442 0.000673473
1188 90002 130.536 -0.00144074
1189 90002 128.735 0.00125317
1190 90002 128.713 -0.00288026
1191 90002 127.019 0.00719179
1192 90002 126.99 0.00470543
1193 90002 132.386 -0.000771157
1194 90002 132.24 -0.00077156
1195 90002 130.539 0.000476957
1196 90002 130.421 0.00184925
1197 90002 128.697 0.00227583
1198 90002 128.711 0.0019873
1199 90002 126.822 -0.00765003
1200 90002 126.971 -0.0209821
1201 90002 132.183 0.00135551
1202 90002 132.129 0.000649022
1203 90002 130.371 -0.000214689
1204 90002 130.371 -0.00230743
1205 90002 128.612 -0.000417279
1206 90002 128.714 0.00393667
1207 90002 126.818 -0.00109816
1208 90002 126.911 -0.011661
1209 90002 132.342 0.000840177
1210 90002 132.32 0.00120474
1211 90002 130.591 -0.00238078
1212 90002 130.477 -0.00363309
1213 90002 128.606 0.000798438
1214 90002 128.838 0.0014647
1215 90002 126.965 0.000234338
1216 90002 126.821 0.0525963
1217 90002 132.421 -0.00121487
1218 90002 132.229 0.00104427
1219 90002 130.509 -0.00214741
1220 90002 130.59 0.00158957
1221 90002 128.678 0.00130862
1222 90002 128.789 0.00055662
1223 90002 126.791 0.00755103
1224 90002 127.076 -0.0112176
1225 90002 132.324 0.00114446
1226 90002 132.248 0.00322939
1227 90002 130.532 -0.00116664
1228 90002 130.417 -0.00236574
1229 90002 128.756 -1.47457e-05
1230 90002 128.709 -0.00103223
1231 90002 126.696 0.0421768
1232 90002 126.892 0.00998615
1233 90002 132.295 0.00163661
1234 90002 132.378 -0.000263261
1235 90002 130.481 -0.0028462
1236 90002 130.643 -0.000982962
1237 90002 128.693 0.00170409
1238 90002 128.775 0.000886237
1239 90002 127.053 0.00439911
1240 90002 126.991 -0.00314852
1241 90002 132.24 0.000662125
1242 90002 132.242 0.00261685
1243 90002 130.431 0.00203733
1244 90002 130.53 0.00016955
1245 90002 128.775 -5.32062e-05
1246 90002 128.747 -0.00186664
1247 90002 126.928 0.000467472
1248 90002 127.061 -0.00211533
1249 90002 132.213 -0.000787827
1250 90002 132.313 0.00273084
1251 90002 130.555 -0.00276335
1252 90002 130.496 -0.000720077
1253 90002 128.714 0.00365875
1254 90002 128.726 -0.000836785
1255 90002 126.847 0.00637124
1256 90002 126.856 -0.0147086
1257 90002 132.517 0.00223267
1258 90002 132.471 -0.00287396
1259 90002 130.616 0.00106436
1260 90002 130.6 0.000160495
1261 90002 128.709 -0.00467807
1262 90002 128.741 -0.00142877
1263 90002 126.862 -0.0130308
1264 90002 126.797 -0.0189906
1265 90002 132.206 0.00147358
1266 90002 132.36 0.00162246
1267 90002 130.561 -0.00136944
1268 90002 130.633 -0.00184732
1269 90002 128.743 -0.00172723
1270 90002 128.728 0.000580291
1271 90002 127.003 7.18764e-06
1272 90002 126.828 0.0305256
1273 90002 132.265 0.00152336
1274 90002 132.28 0.00233909
1275 90002 130.424 -0.00201871
1276 90002 130.467 -0.00172044
1277 90002 128.629 -0.000399863
1278 90002 128.623 9.20893e-05
1279 90002 127.066 -0.0104316
1280 90002 126.884 0.000366084
1281 90002 132.252 -0.00217802
1282 90002 132.384 0.000591601
1283 90002 130.458 0.000710943
1284 90002 130.563 0.00331193
1285 90002 128.548 -0.00349901
1286 90002 128.745 0.00110217
1287 90002 126.889 -0.0139467
1288 90002 126.917 -0.0239551
1289 90002 132.312 0.00320461
1290 90002 132.369 1.59039e-05
1291 90002 130.528 -0.00359398
1292 90002 130.544 -0.000464035
1293 90002 128.634 -2.81219e-05
1294 90002 128.765 0.000265978
1295 90002 126.972 -0.00348335
1296 90002 126.982 -0.00238901
1297 90002 132.464 0.00174414
1298 90002 132.402 -0.000903348
1299 90002 130.584 0.00107973
1300 90002 130.658 -0.000839804
1301 90002 128.803 -0.00359054
1302 90002 128.863 0.00196552
1303 90002 127.08 -0.000287551
1304 90002 126.967 -0.00982698
1305 90002 132.283 -0.000680152
1306 90002 132.287 -0.00043037
1307 90002 130.459 -0.00045987
1308 90002 130.473 -0.000992549
1309 90002 128.678 0.00291899
1310 90002 128.566 0.000558066
1311 90002 126.899 -0.0114831
1312 90002 127.027 0.0530497
1313 90002 132.463 0.00145877
1314 90002 132.464 -0.00187617
1315 90002 130.678 -0.00103134
1316 90002 130.535 -0.000326607
1317 90002 128.619 -6.90681e-05
1318 90002 128.649 0.00210762
1319 90002 126.917 0.0157195
1320 90002 126.833 -0.0110388
1321 90002 132.214 0.00118888
1322 90002 132.348 0.00103903
1323 90002 130.594 -0.000202027
1324 90002 130.595 0.000992851
1325 90002 128.657 0.000232041
1326 90002 128.654 0.00094671
1327 90002 126.922 0.0108951
1328 90002 126.801 0.0320832
1329 90002 132.35 0.000916718
1330 90002 132.325 0.00138507
1331 90002 130.462 -0.00126913
1332 90002 130.476 0.0025331
1333 90002 128.755 -0.0016769
1334 90002 128.714 0.000203729
1335 90002 126.949 -0.0188867
1336 90002 126.958 -0.00411945
1337 90002 132.454 0.00213623
1338 90002 132.335 0.00125977
1339 90002 130.585 0.00122827
1340 90002 130.503 0.000760925
1341 90002 128.694 -0.00215937
1342 90002 128.646 0.000121847
1343 90002 127.114 0.00664947
1344 90002 126.947 0.0119675
1345 90002 132.383 -0.00143954
1346 90002 132.514 0.00154767
1347 90002 130.543 0.000379268
1348 90002 130.674 0.00137212
1349 90002 128.792 0.00149268
1350 90002 128.712 -0.000461794
1351 90002 126.912 0.0112693
1352 90002 127.059 0.00328917
1353 90002 132.337 -0.0010209
1354 90002 132.249 -0.00199255
1355 90002 130.466 0.00219706
1356 90002 130.487 0.000982515
1357 90002 128.755 0.00147174
1358 90002 128.754 -0.00267712
1359 90002 126.865 -0.0394949
1360 90002 126.928 -0.0023205
1361 90002 132.464 -0.000837525
1362 90002 132.328 0.00206049
1363 90002 130.507 -0.00187519
1364 90002 130.513 0.000532186
1365 90002 128.678 -0.00180517
1366 90002 128.798 0.00109324
1367 90002 126.985 -0.00131781
1368 90002 126.947 -0.00637479
1369 90002 132.2 0.00165324
1370 90002 132.311 0.00176557
1371 90002 130.731 0.000438018
1372 90002 130.527 -0.001319
1373 90002 128.796 0.000358046
1374 90002 128.732 -0.00353836
1375 90002 126.909 -0.0237234
1376 90002 126.82 -0.00688053
1377 90002 132.577 0.000626109
1378 90002 132.409 0.00163581
1379 90002 130.665 0.000358626
1380 90002 130.549 -0.000340202
1381 90002 128.749 0.0018955
1382 90002 128.943 0.000723192
1383 90002 127.043 0.0518175
1384 90002 126.945 0.010363
1385 90002 132.368 0.00103873
1386 90002 132.347 0.000910494
1387 90002 130.536 -0.000880049
1388 90002 130.617 -0.00122331
1389 90002 128.722 0.0026978
1390 90002 128.982 0.000421547
1391 90002 127.001 -0.0137345
1392 90002 127.094 0.021932
1393 90002 132.414 -0.000856109
1394 90002 132.408 0.00105319
1395 90002 130.619 0.00286719
1396 90002 130.794 0.00317369
1397 90002 128.763 7.69019e-05
1398 90002 128.894 -0.000334258
1399 90002 127.1 -0.00416116
1400 90002 127.078 -0.0183772
1401 90002 132.463 0.00224606
1402 90002 132.192 0.00210784
1403 90002 130.511 -0.00107737
1404 90002 130.578 -0.000852841
1405 90002 128.677 0.000719907
1406 90002 128.626 -0.00180382
1407 90002 126.899 0.0108815
1408 90002 126.943 0.00347573
1409 90002 132.34 -0.000639245
1410 90002 132.433 0.00235623
1411 90002 130.506 -0.000423482
1412 90002 130.56 0.000283347
1413 90002 128.658 0.000803834
1414 90002 128.714 -0.000739116
1415 90002 126.891 0.0213433
1416 90002 126.793 0.00161386
1417 90002 132.191 0.000383212
1418 90002 132.275 0.00202478
1419 90002 130.546 -0.00135294
1420 90002 130.454 -0.00210551
1421 90002 128.774 0.00407031
1422 90002 128.705 0.00475423
1423 90002 126.849 0.0593118
1424 90002 126.993 0.0276684
1425 90002 132.225 0.00179897
1426 90002 132.27 -0.00311385
1427 90002 130.506 0.00271294
1428 90002 130.5 -0.00011665
1429 90002 128.79 -0.00106872
1430 90002 128.71 -0.000326741
1431 90002 126.918 -0.0116236
1432 90002 126.872 0.023957
1433 90002 132.229 -0.00102025
1434 90002 132.377 0.00137408
1435 90002 130.517 0.0010416
1436 90002 130.482 0.0033124
1437 90002 128.731 -0.003085
1438 90002 128.63 -0.00233534
1439 90002 126.817 -0.018229
1440 90002 126.753 -0.0188153
1441 90002 132.341 0.000982027
1442 90002 132.37 -0.000365343
1443 90002 130.538 0.000193017
1444 90002 130.419 -0.00200306
1445 90002 128.684 0.0034181
1446 90002 128.603 0.000723497
1447 90002 126.814 -0.000667544
1448 90002 126.847 -0.00413673
1449 90002 132.177 0.00306242
1450 90002 132.197 0.00139788
1451 90002 130.428 -0.002532
1452 90002 130.434 -0.000857348
1453 90002 128.723 -0.00180541
1454 90002 128.782 -0.00229786
1455 90002 126.999 0.00264088
1456 90002 126.989 -0.00379694
1457 90002 132.272 0.000890838
1458 90002 132.437 -0.000408176
1459 90002 130.626 -0.00136928
1460 90002 130.458 0.00327011
1461 90002 128.775 -0.000869815
1462 90002 128.831 0.000170646
1463 90002 127.054 0.0199667
1464 90002 126.982 0.00476978
1465 90002 132.412 0.00251358
1466 90002 132.308 0.00358501
1467 90002 130.649 -0.00170913
1468 90002 130.624 -0.00261154
1469 90002 128.85 -0.000386055
1470 90002 128.693 0.00254061
1471 90002 126.965 0.00438132
1472 90002 127.016 0.00130486
1473 90002 132.405 0.00231343
1474 90002 132.454 0.00326216
1475 90002 130.676 -0.00104998
1476 90002 130.421 -0.000342612
1477 90002 128.779 0.00155357
1478 90002 128.844 0.00148023
1479 90002 126.894 0.0306949
1480 90002 127.048 0.012057
1481 90002 132.462 0.00281026
1482 90002 132.365 -0.000924068
1483 90002 130.619 -0.000366465
1484 90002 130.582 -0.00223315
1485 90002 128.775 -0.000334903
1486 90002 128.838 0.00172912
1487 90002 127.058 -0.0117032
1488 90002 126.97 0.00651193
1489 90002 132.459 0.00185473
1490 90002 132.363 0.000865676
1491 90002 130.619 -0.00367024
1492 90002 130.539 0.000551512
1493 90002 128.709 -0.00416639
1494 90002 128.855 4.2762e-05
1495 90002 126.964 0.00365668
1496 90002 127.029 -0.0117559
1497 90002 132.287 0.0031882
1498 90002 132.382 0.00232966
1499 90002 130.351 -0.00235143
1500 90002 130.65 0.00129613
1501 90002 128.663 0.00189834
1502 90002 128.757 0.00348699
1503 90002 126.928 0.0134777
1504 90002 127.096 0.00348006
1505 90002 132.37 0.00168747
1506 90002 132.46 0.00218252
1507 90002 130.623 0.0027294
1508 90002 130.659 -0.000859332
1509 90002 128.679 -0.00112602
1510 90002 128.727 -0.000885754
1511 90002 126.812 0.0130538
1512 90002 127.006 0.0158589
1513 90002 132.408 -0.00260439
1514 90002 132.308 0.000187156
1515 90002 130.579 0.000257879
1516 90002 130.643 0.000624576
1517 90002 128.615 -0.00165116
1518 90002 128.679 0.000239775
1519 90002 126.764 -0.00166494
1520 90002 126.998 0.00640482
1521 90002 132.238 0.00143059
1522 90002 132.26 -0.0012816
1523 90002 130.452 0.00182829
1524 90002 130.423 0.00113481
1525 90002 128.751 -0.00169098
1526 90002 128.632 -0.000727899
1527 90002 126.808 -0.0114681
1528 90002 127.022 -0.00290679
1529 90002 132.265 0.00117092
1530 90002 132.248 0.0018561
1531 90002 130.452 0.00120284
1532 90002 130.467 0.0010501
1533 90002 128.817 -0.00480986
1534 90002 128.641 0.000513885
1535 90002 126.96 0.00947246
1536 90002 126.877 0.00535343
1537 90002 132.124 0.000341261
1538 90002 132.388 0.00184193
1539 90002 130.543 0.000368853
1540 90002 130.467 -0.00308116
1541 90002 128.691 -0.000771679
1542 90002 128.758 0.00174341
1543 90002 127.132 -0.00459948
1544 90002 126.985 0.00848332
1545 90002 132.421 0.000491082
1546 90002 132.379 -0.000628296
1547 90002 130.498 0.00205608
1548 90002 130.521 -0.00203588
1549 90002 128.765 0.00331346
1550 90002 128.783 0.00105357
1551 90002 127.025 0.00354434
1552 90002 127.23 -0.0458331
1553 90002 132.462 -0.00307051
1554 90002 132.226 0.000135314
1555 90002 130.605 0.000712439
1556 90002 130.592 -0.00154578
1557 90002 128.668 0.000201365
1558 90002 128.771 -0.000546437
1559 90002 126.988 0.00849517
1560 90002 126.964 0.0147452
1561 90002 132.321 0.00339484
1562 90002 132.476 0.00132729
1563 90002 130.66 0.00035071
1564 90002 130.616 0.000598303
1565 90002 128.733 0.000801074
1566 90002 128.708 -0.00178683
1567 90002 126.973 -0.00426929
1568 90002 126.91 -0.00543608
1569 90002 132.368 0.00072491
1570 90002 132.293 0.0021853
1571 90002 130.537 0.00118255
1572 90002 130.536 0.00171827
1573 90002 128.811 0.00166295
1574 90002 128.808 -9.41559e-05
1575 90002 127.085 0.00986674
1576 90002 126.901 0.0345512
1577 90002 132.32 -0.00161104
1578 90002 132.272 0.00149704
1579 90002 130.637 0.00256646
1580 90002 130.546 -0.00133032
1581 90002 128.825 -0.00190738
1582 90002 128.803 -0.00269455
1583 90002 126.918 -0.0241188
1584 90002 127.103 -0.0357363
1585 90002 132.308 0.00267926
1586 90002 132.362 -0.0023306
1587 90002 130.623 -0.000437174
1588 90002 130.551 -0.00133571
1589 90002 128.753 -7.39213e-05
1590 90002 128.808 0.00176257
1591 90002 127.025 0.0156485
1592 90002 126.76 0.00246197
1593 90002 132.312 -0.000885204
1594 90002 132.324 0.00119006
1595 90002 130.523 0.000792149
1596 90002 130.587 0.00324776
1597 90002 128.766 0.000487797
1598 90002 128.76 -0.00106514
1599 90002 127.147 -0.00980766
1600 90002 127.061 -0.0226572
