ITEM: TIMESTEP
0
ITEM: NUMBER OF ATOMS
21
ITEM: BOX BOUNDS pp pp pp
3.5000000000000000e+01 4.8000000000000000e+01
3.5000000000000000e+01 4.8000000000000000e+01
3.5000000000000000e+01 4.8000000000000000e+01
ITEM: ATOMS id type q
1 1 0.0375152221124567
2 4 -0.310859745787122
3 1 0.0367344171712564
4 4 -0.310008230555759
5 1 0.036600927698569
6 4 -0.311126300811266
7 4 0.526467614735681
8 4 0.525043489676018
9 4 0.526092801139954
10 3 -0.311230511620883
11 3 -0.309961506583258
12 3 -0.309581141936351
13 3 -0.30934034905996
14 3 -0.31027382926668
15 3 -0.309876010313928
16 2 0.221589601342548
17 2 0.146227185811925
18 2 0.146088011430896
19 2 0.221455716073834
20 2 0.146376860979268
21 2 0.222065777762802
