LAMMPS (30 Mar 2026)
OMP_NUM_THREADS environment is not set. Defaulting to 1 thread.
  using 1 OpenMP thread(s) per MPI task
# Reference: stock ReaxFF RDX (LAMMPS examples/reaxff), single point, fix qeq/reaxff at a tight tolerance.
units           real
atom_style      charge
read_data       ../data.rdx
Reading data file ...
  orthogonal box = (35 35 35) to (48 48 48)
  1 by 1 by 1 MPI processor grid
  reading atoms ...
  21 atoms
  read_data CPU = 0.004 seconds
pair_style      reaxff ../control.reax_c.rdx
WARNING: Ignoring inactive control parameter: simulation_name (src/REAXFF/reaxff_control.cpp:93)
WARNING: Ignoring inactive control parameter: energy_update_freq (src/REAXFF/reaxff_control.cpp:93)
WARNING: Support for writing native trajectories has been removed after LAMMPS version 8 April 2021 (src/REAXFF/reaxff_control.cpp:108)
WARNING: Ignoring inactive control parameter: traj_title (src/REAXFF/reaxff_control.cpp:93)
WARNING: Ignoring inactive control parameter: atom_info (src/REAXFF/reaxff_control.cpp:93)
WARNING: Ignoring inactive control parameter: atom_forces (src/REAXFF/reaxff_control.cpp:93)
WARNING: Ignoring inactive control parameter: atom_velocities (src/REAXFF/reaxff_control.cpp:93)
WARNING: Ignoring inactive control parameter: bond_info (src/REAXFF/reaxff_control.cpp:93)
WARNING: Ignoring inactive control parameter: angle_info (src/REAXFF/reaxff_control.cpp:93)
pair_coeff      * * ../ffield.reax C H O N
Reading potential file ../ffield.reax with DATE: 2010-02-19
neighbor        2.5 bin
neigh_modify    every 10 delay 0 check no
fix             2 all qeq/reaxff 1 0.0 10.0 1.0e-10 reaxff maxiter 2000
compute         reax all pair reaxff
variable        eqeq equal c_reax[14]
thermo_style    custom step pe v_eqeq
thermo_modify   format float %.10f
run             0

CITE-CITE-CITE-CITE-CITE-CITE-CITE-CITE-CITE-CITE-CITE-CITE-CITE

Your simulation uses code contributions which should be cited:

- pair reaxff command: https://doi.org/10.1016/j.parco.2011.08.005

@Article{Aktulga12,
 author = {H. M. Aktulga and J. C. Fogarty and S. A. Pandit and A. Y. Grama},
 title = {Parallel Reactive Molecular Dynamics: {N}umerical Methods and Algorithmic Techniques},
 journal = {Parallel Computing},
 year =    2012,
 volume =  38,
 number =  {4--5},
 pages =   {245--259}
}

- fix qeq/reaxff command: https://doi.org/10.1016/j.parco.2011.08.005

@Article{Aktulga12,
 author = {H. M. Aktulga and J. C. Fogarty and S. A. Pandit and A. Y. Grama},
 title = {Parallel Reactive Molecular Dynamics: {N}umerical Methods and Algorithmic Techniques},
 journal = {Parallel Computing},
 year =    2012,
 volume =  38,
 pages =   {245--259}
}

CITE-CITE-CITE-CITE-CITE-CITE-CITE-CITE-CITE-CITE-CITE-CITE-CITE

WARNING: No fixes with time integration, atoms won't move
For more information see https://docs.lammps.org/err0028 (src/verlet.cpp:60)
Neighbor list info ...
  update: every = 10 steps, delay = 0 steps, check = no
  max neighbors/atom: 2000, page size: 100000
  master list distance cutoff = 12.5
  ghost atom cutoff = 12.5
  binsize = 6.25, bins = 3 3 3
  2 neighbor lists, perpetual/occasional/extra = 2 0 0
  (1) pair reaxff, perpetual
      attributes: half, newton off, ghost
      pair build: half/bin/ghost/newtoff
      stencil: full/ghost/bin/3d
      bin: standard
  (2) fix qeq/reaxff, perpetual, copy from (1)
      attributes: half, newton off
      pair build: copy
      stencil: none
      bin: none
Per MPI rank memory allocation (min/avg/max) = 13.36 | 13.36 | 13.36 Mbytes
   Step         PotEng         v_eqeq    
         0  -1884.3080826952 168.8841959193
Loop time of 8.58e-07 on 1 procs for 0 steps with 21 atoms

349.7% CPU use with 1 MPI tasks x 1 OpenMP threads

MPI task timing breakdown:
Section |  min time  |  avg time  |  max time  |%varavg| %total
---------------------------------------------------------------
Pair    | 0          | 0          | 0          |   0.0 |  0.00
Neigh   | 0          | 0          | 0          |   0.0 |  0.00
Comm    | 0          | 0          | 0          |   0.0 |  0.00
Output  | 0          | 0          | 0          |   0.0 |  0.00
Modify  | 0          | 0          | 0          |   0.0 |  0.00
Other   |            | 8.58e-07   |            |       |100.00

Nlocal:             21 ave          21 max          21 min
Histogram: 1 0 0 0 0 0 0 0 0 0
Nghost:            546 ave         546 max         546 min
Histogram: 1 0 0 0 0 0 0 0 0 0
Neighs:           1106 ave        1106 max        1106 min
Histogram: 1 0 0 0 0 0 0 0 0 0

Total # of neighbors = 1106
Ave neighs/atom = 52.666667
Neighbor list builds = 0
Dangerous builds not checked
variable        peval equal pe
print           "pe ${peval} eqeq ${eqeq}" file energies.txt screen no
write_dump      all custom charges.dump id type q modify sort id format line "%d %d %.15g"
Total wall time: 0:00:00
