ITEM: TIMESTEP
0
ITEM: NUMBER OF ATOMS
324
ITEM: BOX BOUNDS pp pp ff
0.0000000000000000e+00 1.7650658050000001e+01
0.0000000000000000e+00 2.0381224350000000e+01
0.0000000000000000e+00 6.0000000000000000e+01
ITEM: ATOMS id mol type q x y z
1 1 2 0 8.24512 15.5811 22.6078
2 1 3 0.589682 8.99931 15.9949 23.0275
3 1 3 0.474616 7.50381 16.1396 22.8419
4 1 4 -1.0643 8.24677 15.7056 22.6915
5 2 2 0 15.9474 18.3987 22.6904
6 2 3 0.553315 16.7177 18.4609 22.1255
7 2 3 0.482506 15.5517 17.5568 22.4646
8 2 4 -1.03582 15.9953 18.2989 22.5891
9 3 2 0 17.4336 10.1601 22.7313
10 3 3 0.462884 17.0473 9.37133 22.3508
11 3 3 0.52652 0.666335 9.89505 22.9876
12 3 4 -0.989403 17.4973 10.0252 22.7154
13 4 2 0 1.34938 4.55603 22.8066
14 4 3 0.448238 2.25303 4.29537 22.6286
15 4 3 0.515196 1.36125 4.85803 23.7149
16 4 4 -0.963433 1.46658 4.56132 22.9001
17 5 2 0 13.7945 8.69815 22.9189
18 5 3 0.547246 13.7682 9.65499 22.9198
19 5 3 0.542423 14.3148 8.47168 23.6898
20 5 4 -1.08967 13.8578 8.79165 23.0177
21 6 2 0 2.45384 11.1318 23.0093
22 6 3 0.483572 3.34523 10.8882 23.2589
23 6 3 0.489097 2.56798 11.7872 22.3211
24 6 4 -0.972669 2.58256 11.1845 22.9532
25 7 2 0 5.78675 16.9269 23.0964
26 7 3 0.486822 5.28323 16.4758 23.774
27 7 3 0.45161 5.17678 17.0172 22.3643
28 7 4 -0.938432 5.64421 16.8807 23.0894
29 8 2 0 9.01 19.5718 23.1809
30 8 3 0.565373 8.78239 19.2523 24.054
31 8 3 0.448316 8.18499 19.553 22.6959
32 8 4 -1.01369 8.87525 19.5285 23.2306
33 9 2 0 8.83043 2.85816 23.1944
34 9 3 0.551743 9.21769 2.02206 23.4536
35 9 3 0.546094 9.56649 3.46996 23.1819
36 9 4 -1.09784 8.97423 2.82945 23.2259
37 10 2 0 6.02784 0.121735 23.207
38 10 3 0.474457 5.47822 0.331622 22.452
39 10 3 0.590613 5.79198 19.6032 23.4328
40 10 4 -1.06507 5.92729 0.03342 23.1393
41 11 2 0 4.18398 8.35953 23.2649
42 11 3 0.599104 5.05229 7.96143 23.3264
43 11 3 0.503377 3.81528 8.0072 22.4549
44 11 4 -1.10248 4.24793 8.26346 23.1691
45 12 2 0 0.455538 19.5148 23.3731
46 12 3 0.491549 0.121261 20.358 23.6789
47 12 3 0.53675 0.154066 18.8853 24.0281
48 12 4 -1.0283 0.374155 19.5422 23.4961
49 13 2 0 15.0973 11.5452 23.4974
50 13 3 0.590146 15.2885 12.4294 23.8101
51 13 3 0.58032 15.9118 11.2543 23.0872
52 13 4 -1.17047 15.2261 11.6211 23.4849
53 14 2 0 10.7461 16.7668 23.5645
54 14 3 0.55665 10.7994 17.511 24.1641
55 14 3 0.526798 11.0965 16.0299 24.0649
56 14 4 -1.08345 10.7978 16.7678 23.7053
57 15 2 0 10.921 4.4994 23.5767
58 15 3 0.628129 10.7333 5.43784 23.5955
59 15 3 0.535542 11.4399 4.37429 22.7822
60 15 4 -1.16367 10.9634 4.60351 23.4774
61 16 2 0 11.2076 7.43499 23.639
62 16 3 0.592361 12.0804 7.79234 23.4753
63 16 3 0.577158 10.72 8.16114 24.0278
64 16 4 -1.16952 11.2569 7.57369 23.6678
65 17 2 0 2.77487 2.13963 23.8056
66 17 3 0.50043 1.87563 2.20241 24.1275
67 17 3 0.537615 3.06143 1.26345 24.0633
68 17 4 -1.03804 2.69644 2.0355 23.8798
69 18 2 0 6.66557 7.03158 23.8598
70 18 3 0.650098 7.1212 7.12855 24.696
71 18 3 0.525671 7.35394 7.11666 23.2001
72 18 4 -1.17577 6.81202 7.05488 23.8824
73 19 2 0 13.6469 1.83258 24.1953
74 19 3 0.53983 12.8577 1.41329 24.5381
75 19 3 0.505301 13.9692 2.36706 24.921
76 19 4 -1.04513 13.5871 1.84732 24.3321
77 20 2 0 5.00715 4.70371 24.2236
78 20 3 0.598205 5.69863 5.36155 24.1506
79 20 3 0.506619 4.7139 4.56278 23.3234
80 20 4 -1.10482 5.05813 4.76988 24.099
81 21 2 0 15.0774 5.32895 24.2771
82 21 3 0.531071 15.7355 6.01264 24.4026
83 21 3 0.513288 14.9344 5.30425 23.331
84 21 4 -1.04436 15.1433 5.41331 24.172
85 22 2 0 1.93369 15.4749 24.3177
86 22 3 0.556968 2.65042 14.8675 24.5009
87 22 3 0.48431 2.23596 15.9827 23.5647
88 22 4 -1.04128 2.06413 15.4622 24.2447
89 23 2 0 9.6367 9.69834 24.3185
90 23 3 0.550838 8.68004 9.72352 24.2988
91 23 3 0.539602 9.90755 10.4084 23.7365
92 23 4 -1.09044 9.54891 9.79246 24.2415
93 24 2 0 4.31715 14.0659 24.39
94 24 3 0.545598 4.78989 13.851 23.5859
95 24 3 0.588341 4.04767 13.2182 24.7438
96 24 4 -1.13394 4.34317 13.9299 24.3324
97 25 2 0 8.26061 12.8318 24.4457
98 25 3 0.645825 9.17833 13.1021 24.4768
99 25 3 0.616214 7.78735 13.5382 24.8853
100 25 4 -1.26204 8.31751 12.9568 24.5059
101 26 2 0 3.49509 18.9521 24.4756
102 26 3 0.451701 2.58902 18.6657 24.3604
103 26 3 0.605587 3.69139 18.7642 25.3934
104 26 4 -1.05729 3.40423 18.8914 24.5783
105 27 2 0 6.70189 10.4889 24.5724
106 27 3 0.488999 6.4601 10.3188 23.662
107 27 3 0.694116 7.31297 11.2241 24.525
108 27 4 -1.18312 6.74916 10.5612 24.4498
109 28 2 0 15.2988 14.0888 24.76
110 28 3 0.688057 14.6094 14.7458 24.8572
111 28 3 0.461759 16.086 14.5151 25.0989
112 28 4 -1.14982 15.3113 14.2275 24.8158
113 29 2 0 10.7718 14.1551 24.806
114 29 3 0.565138 10.5783 14.6285 25.6151
115 29 3 0.580066 11.4787 13.5546 25.0425
116 29 4 -1.1452 10.8376 14.1388 24.9398
117 30 2 0 16.9127 2.62313 24.9699
118 30 3 0.524547 16.9991 3.50638 25.3285
119 30 3 0.471901 16.3092 2.72118 24.2334
120 30 4 -0.996448 16.8465 2.74875 24.9215
121 31 2 0 6.30171 2.2317 24.986
122 31 3 0.56564 5.83234 3.00106 24.6635
123 31 3 0.659125 6.3327 1.63768 24.2361
124 31 4 -1.22477 6.24559 2.25415 24.8487
125 32 2 0 11.0113 1.83247 25.2033
126 32 3 0.588008 10.72 2.0168 26.0962
127 32 3 0.516719 11.1065 2.6949 24.799
128 32 4 -1.10473 10.9862 1.96647 25.2658
129 33 2 0 13.3281 15.9054 25.2163
130 33 3 0.580806 13.8555 16.6134 25.5864
131 33 3 0.557895 12.9724 15.4477 25.978
132 33 4 -1.1387 13.3501 15.9375 25.3612
133 34 2 0 12.5202 12.012 25.2517
134 34 3 0.581409 13.1685 11.765 24.5922
135 34 3 0.565056 12.465 11.2516 25.8305
136 34 4 -1.14647 12.5961 11.8831 25.2414
137 35 2 0 16.4084 19.4574 25.2643
138 35 3 0.553454 16.4595 0.0160556 25.0903
139 35 3 0.611201 16.0168 19.0878 24.4729
140 35 4 -1.16465 16.3648 19.5304 25.1407
141 36 2 0 8.47518 18.0613 25.4228
142 36 3 0.534813 9.37482 18.03 25.7482
143 36 3 0.613529 8.14607 17.1703 25.5409
144 36 4 -1.14834 8.54821 17.9432 25.4795
145 37 2 0 15.1933 8.74581 25.5353
146 37 3 0.598994 15.441 8.06498 26.1609
147 37 3 0.540738 15.7833 9.47464 25.7277
148 37 4 -1.13973 15.3006 8.75196 25.64
149 38 2 0 0.849383 5.70515 25.5358
150 38 3 0.523384 1.03248 6.5923 25.8451
151 38 3 0.573878 1.58163 5.1816 25.8613
152 38 4 -1.09726 0.966558 5.7517 25.6171
153 39 2 0 11.2248 18.6822 25.5988
154 39 3 0.553771 11.2233 19.6021 25.3342
155 39 3 0.570076 12.0392 18.5752 26.0902
156 39 4 -1.12385 11.3289 18.7863 25.6279
157 40 2 0 0.411834 11.5579 25.6059
158 40 3 0.543978 0.646138 10.6415 25.7526
159 40 3 0.49672 1.16805 11.9291 25.1514
160 40 4 -1.0407 0.538633 11.4881 25.5665
161 41 2 0 8.12633 4.17882 25.8171
162 41 3 0.495227 8.77925 3.69358 26.3215
163 41 3 0.683994 7.91021 3.60076 25.0854
164 41 4 -1.17922 8.18225 4.0427 25.788
165 42 2 0 7.56909 15.3645 25.8381
166 42 3 0.597158 8.22538 15.1392 26.4975
167 42 3 0.55662 6.7305 15.2491 26.285
168 42 4 -1.15378 7.54575 15.3209 25.9797
169 43 2 0 0.993709 8.71986 25.8512
170 43 3 0.440321 0.751348 8.66391 24.9269
171 43 3 0.691964 1.94997 8.7619 25.8464
172 43 4 -1.13229 1.0851 8.71808 25.7322
173 44 2 0 12.8093 5.16015 25.9068
174 44 3 0.538514 12.1585 4.87924 25.2635
175 44 3 0.630363 13.6088 5.29227 25.3974
176 44 4 -1.16888 12.8283 5.14111 25.7593
177 45 2 0 8.66085 7.03337 26.0497
178 45 3 0.625786 8.59535 6.07872 26.0738
179 45 3 0.652172 9.58679 7.21455 26.2111
180 45 4 -1.27796 8.771 6.93436 26.0734
181 46 2 0 3.89554 11.6023 26.0632
182 46 3 0.497166 4.36256 11.8708 26.8544
183 46 3 0.6168 4.10647 10.674 25.9633
184 46 4 -1.11397 3.98232 11.5179 26.1517
185 47 2 0 3.62979 8.71462 26.079
186 47 3 0.692409 4.19972 8.1061 26.5492
187 47 3 0.573695 3.81499 8.551 25.1542
188 47 4 -1.2661 3.72645 8.61578 26.0208
189 48 2 0 3.21465 4.26028 26.4933
190 48 3 0.506665 3.37191 4.89379 27.1934
191 48 3 0.572699 3.82221 4.51448 25.7987
192 48 4 -1.07936 3.31256 4.37391 26.494
193 49 2 0 14.1833 18.3928 26.573
194 49 3 0.538149 14.0528 18.7079 27.4674
195 49 3 0.641834 14.9661 18.852 26.2687
196 49 4 -1.17998 14.2668 18.4919 26.6486
197 50 2 0 6.69367 8.81958 26.694
198 50 3 0.60846 6.66206 9.56284 26.0916
199 50 3 0.595641 7.4921 8.34957 26.4535
200 50 4 -1.2041 6.79183 8.85456 26.5861
201 51 2 0 9.63566 11.0181 26.7854
202 51 3 0.546671 9.80181 10.8072 25.8667
203 51 3 0.513749 8.84713 11.5605 26.7683
204 51 4 -1.06042 9.55599 11.0606 26.6656
205 52 2 0 2.56207 1.3178 26.8614
206 52 3 0.546238 2.86473 2.03251 26.3012
207 52 3 0.64078 3.10343 1.38371 27.648
208 52 4 -1.18702 2.67012 1.41773 26.8904
209 53 2 0 1.35573 16.7658 26.9744
210 53 3 0.439529 0.761873 16.1909 27.4572
211 53 3 0.529432 1.52887 16.2996 26.1565
212 53 4 -0.968961 1.30187 16.6325 26.9315
213 54 2 0 15.2029 12.0084 26.9958
214 54 3 0.501023 16.0244 11.6363 26.6749
215 54 3 0.563173 15.0191 12.7342 26.3993
216 54 4 -1.0642 15.2846 12.0537 26.8783
217 55 2 0 14.2005 2.9421 26.9987
218 55 3 0.552882 13.9477 3.86531 27.0028
219 55 3 0.479857 14.8959 2.88072 27.6536
220 55 4 -1.03274 14.2572 3.05242 27.083
221 56 2 0 11.2498 7.42906 27.0286
222 56 3 0.582617 11.6552 6.82977 26.4019
223 56 3 0.601601 10.9878 6.87013 27.7602
224 56 4 -1.18422 11.2681 7.2808 27.0421
225 57 2 0 4.12557 17.8566 27.0474
226 57 3 0.580274 4.62033 17.0373 27.0354
227 57 3 0.509915 3.20873 17.5839 27.0121
228 57 4 -1.09019 4.07154 17.7168 27.0414
229 58 2 0 13.0276 9.70643 27.0728
230 58 3 0.613195 12.4523 8.95603 26.9238
231 58 3 0.565987 13.8432 9.47563 26.6282
232 58 4 -1.17918 13.0583 9.58083 26.9968
233 59 2 0 5.09464 15.28 27.1594
234 59 3 0.517399 4.68903 14.9903 26.3422
235 59 3 0.613147 5.01627 14.5278 27.7461
236 59 4 -1.13055 5.03268 15.1466 27.1299
237 60 2 0 6.66158 0.627939 27.1878
238 60 3 0.643052 6.64215 1.2715 26.4795
239 60 3 0.575762 6.86267 20.1802 26.7534
240 60 4 -1.21881 6.68483 0.60421 27.0415
241 61 2 0 9.88209 14.9365 27.2976
242 61 3 0.489603 9.67707 14.1418 27.7902
243 61 3 0.669324 10.3756 15.4793 27.9124
244 61 4 -1.15893 9.91902 14.9042 27.4393
245 62 2 0 7.39682 12.8253 27.5178
246 62 3 0.574562 6.44357 12.8815 27.584
247 62 3 0.448846 7.67312 12.4423 28.3504
248 62 4 -1.02341 7.31016 12.7834 27.6328
249 63 2 0 10.3271 2.90882 27.5535
250 63 3 0.68263 9.59638 2.71213 28.1396
251 63 3 0.596668 10.4709 3.84955 27.6564
252 63 4 -1.2793 10.252 3.00407 27.6417
253 64 2 0 13.0864 14.7025 27.7565
254 64 3 0.48136 13.8495 14.8337 28.3192
255 64 3 0.795649 12.8916 13.7682 27.8303
256 64 4 -1.27701 13.1591 14.5997 27.838
257 65 2 0 15.8689 6.9906 27.7592
258 65 3 0.490177 15.2977 7.08061 28.5219
259 65 3 0.512195 16.6647 7.46601 27.9978
260 65 4 -1.00237 15.8977 7.06298 27.8874
261 66 2 0 5.11344 6.80446 27.879
262 66 3 0.518764 5.75586 7.32599 27.3978
263 66 3 0.625423 5.57738 5.9971 28.1007
264 66 4 -1.14419 5.25507 6.76787 27.8458
265 67 2 0 0.211954 1.70798 27.8963
266 67 3 0.669171 1.01377 1.56701 27.3929
267 67 3 0.377509 17.3435 0.917692 27.7472
268 67 4 -1.04668 0.248149 1.58877 27.8128
269 68 2 0 12.4 12.2025 28.078
270 68 3 0.691888 13.0635 11.5883 27.7639
271 68 3 0.554825 11.6385 12.0385 27.5217
272 68 4 -1.24671 12.3874 12.1029 27.9666
273 69 2 0 12.13 1.09928 28.3372
274 69 3 0.493987 12.9972 1.38319 28.0481
275 69 3 0.572175 11.5346 1.77162 28.006
276 69 4 -1.06616 12.1648 1.22169 28.2578
277 70 2 0 4.82941 12.9409 28.4631
278 70 3 0.534039 5.04059 12.1379 28.9394
279 70 3 0.692879 3.90801 13.1041 28.6646
280 70 4 -1.22692 4.73849 12.859 28.5498
281 71 2 0 6.39772 4.46443 28.6396
282 71 3 0.620984 7.00223 3.77492 28.9142
283 71 3 0.459121 6.37639 4.39875 27.6849
284 71 4 -1.08011 6.47237 4.36776 28.5526
285 72 2 0 1.91487 13.2385 28.6604
286 72 3 0.531832 1.83367 12.4644 28.1032
287 72 3 0.528362 1.06628 13.6755 28.5891
288 72 4 -1.06019 1.79584 13.1953 28.58
289 73 2 0 9.81652 18.7515 28.7025
290 73 3 0.547144 10.301 17.9839 29.0061
291 73 3 0.538175 10.4067 19.1774 28.0808
292 73 4 -1.08532 9.9541 18.7078 28.6618
293 74 2 0 11.3866 16.466 28.8776
294 74 3 0.712502 12.1494 16.0075 28.5251
295 74 3 0.481244 11.2219 16.0444 29.721
296 74 4 -1.19375 11.4632 16.3533 28.9405
297 75 2 0 4.50753 1.14806 28.9451
298 75 3 0.579058 5.27862 1.26248 28.3896
299 75 3 0.499111 4.52804 0.224816 29.1969
300 75 4 -1.07817 4.60886 1.04452 28.9062
301 76 2 0 10.1626 5.47986 28.9569
302 76 3 0.571558 9.46083 5.86992 29.4781
303 76 3 0.501997 10.7844 5.14589 29.6034
304 76 4 -1.07355 10.1524 5.48704 29.1064
305 77 2 0 8.19493 2.24313 29.0867
306 77 3 0.673161 7.9238 1.55035 28.4844
307 77 3 0.5502 8.54769 1.77743 29.8449
308 77 4 -1.22336 8.20538 2.09483 29.1067
309 78 2 0 15.0516 19.3119 29.1214
310 78 3 0.463633 14.4723 19.2936 29.8832
311 78 3 0.495095 15.3583 20.2174 29.0749
312 78 4 -0.958727 15.0167 19.4255 29.213
313 79 2 0 2.52582 9.94933 29.3324
314 79 3 0.435689 2.51448 10.6325 30.0028
315 79 3 0.466197 3.45518 9.79256 29.1653
316 79 4 -0.901885 2.64334 10.0167 29.3968
317 80 2 0 7.65495 9.21183 29.3654
318 80 3 0.407959 8.27486 9.81541 29.7748
319 80 3 0.543626 7.81335 9.30574 28.426
320 80 4 -0.951585 7.75458 9.30112 29.2975
321 81 2 0 7.30022 17.6751 29.5017
322 81 3 0.570958 8.09222 18.0895 29.1592
323 81 3 0.380398 7.51513 16.7433 29.542
324 81 4 -0.951356 7.42912 17.6089 29.463
ITEM: TIMESTEP
1000
ITEM: NUMBER OF ATOMS
324
ITEM: BOX BOUNDS pp pp ff
0.0000000000000000e+00 1.7650658050000001e+01
0.0000000000000000e+00 2.0381224350000000e+01
0.0000000000000000e+00 6.0000000000000000e+01
ITEM: ATOMS id mol type q x y z
1 1 2 0 8.78242 16.0784 21.7809
2 1 3 0.631973 9.5236 15.9687 22.3766
3 1 3 0.528149 8.17598 15.3777 22.0208
4 1 4 -1.16012 8.79967 15.9746 21.8879
5 2 2 0 13.689 0.220627 22.9185
6 2 3 0.447454 13.1542 0.846416 23.407
7 2 3 0.493656 14.3607 -0.0580825 23.5408
8 2 4 -0.941109 13.7065 0.265058 23.0607
9 3 2 0 0.364338 10.1099 24.5458
10 3 3 0.804804 17.0916 10.1814 24.3038
11 3 3 0.802429 0.765044 10.9084 24.2022
12 3 4 -1.60723 0.297433 10.2212 24.4708
13 4 2 0 2.08314 4.02188 23.3146
14 4 3 0.462099 1.19459 3.68061 23.2134
15 4 3 0.673337 1.97923 4.80527 23.8548
16 4 4 -1.13544 1.95609 4.07848 23.3708
17 5 2 0 13.7956 8.29708 24.3982
18 5 3 0.642991 14.4331 8.83492 23.9285
19 5 3 0.545408 14.3147 7.59115 24.7835
20 5 4 -1.1884 13.9437 8.27556 24.3874
21 6 2 0 1.85427 12.5783 23.9238
22 6 3 0.584188 2.31402 13.2186 23.3807
23 6 3 0.566495 2.35093 12.5567 24.7417
24 6 4 -1.15068 1.9767 12.6575 23.959
25 7 2 0 7.20143 14.4505 22.6321
26 7 3 0.722479 7.85839 15.0845 22.3444
27 7 3 0.739006 7.65171 13.6065 22.599
28 7 4 -1.46149 7.34317 14.4236 22.5911
29 8 2 0 8.19701 0.331555 24.3121
30 8 3 0.644174 8.9336 20.1019 24.3334
31 8 3 0.763258 7.42179 20.1527 24.2723
32 8 4 -1.40743 8.19206 0.181655 24.3098
33 9 2 0 8.66235 3.45732 24.2773
34 9 3 0.557225 8.39188 2.61582 23.9099
35 9 3 0.493057 9.47595 3.26525 24.7435
36 9 4 -1.05028 8.73187 3.32501 24.2899
37 10 2 0 4.74691 1.0399 24.1919
38 10 3 0.667152 3.83898 1.12211 23.9001
39 10 3 0.459533 5.26473 1.12203 23.3911
40 10 4 -1.12669 4.69697 1.06093 24.052
41 11 2 0 5.21539 9.58814 22.7764
42 11 3 0.654713 6.15189 9.62347 22.9713
43 11 3 0.53689 4.7918 9.58113 23.6348
44 11 4 -1.1916 5.28105 9.59176 22.9113
45 12 2 0 6.08618 19.0656 24.1054
46 12 3 0.632493 5.42789 19.7101 24.3651
47 12 3 0.518789 5.83022 18.8042 23.2209
48 12 4 -1.15128 5.96914 19.1146 24.0254
49 13 2 0 15.8557 10.4543 24.0162
50 13 3 0.753424 15.6725 11.3566 24.2779
51 13 3 0.728592 16.7658 10.3094 24.2748
52 13 4 -1.48202 15.9487 10.5512 24.0828
53 14 2 0 10.6896 18.9005 21.0576
54 14 3 0.462706 9.79623 18.8695 21.3997
55 14 3 0.452745 10.9265 19.8274 21.0886
56 14 4 -0.915451 10.6056 19.0152 21.1054
57 15 2 0 11.42 4.86092 25.3731
58 15 3 0.762016 11.3359 5.71185 24.9429
59 15 3 0.757324 12.3634 4.70414 25.4125
60 15 4 -1.51934 11.53 4.94978 25.3231
61 16 2 0 11.287 7.49502 24.7452
62 16 3 0.717588 12.1524 7.88259 24.6148
63 16 3 0.724653 10.7128 7.98674 24.158
64 16 4 -1.44224 11.3243 7.60758 24.6533
65 17 2 0 2.11718 1.27771 23.3415
66 17 3 0.652233 2.18759 2.22182 23.2003
67 17 3 0.452402 2.27629 1.16263 24.2783
68 17 4 -1.10463 2.14656 1.38383 23.4433
69 18 2 0 7.27727 6.71432 24.0898
70 18 3 0.861731 7.82216 6.20367 24.6886
71 18 3 0.828282 7.87832 7.34997 23.7014
72 18 4 -1.69001 7.42397 6.73032 24.1168
73 19 2 0 11.2813 2.31679 24.0849
74 19 3 0.53236 10.9287 3.16018 24.3688
75 19 3 0.487506 11.6934 1.95299 24.8686
76 19 4 -1.01987 11.2889 2.37818 24.2216
77 20 2 0 5.30305 5.04981 23.7718
78 20 3 0.792474 6.0532 5.64437 23.7688
79 20 3 0.604951 5.50819 4.40797 24.4516
80 20 4 -1.39742 5.42534 5.04376 23.8584
81 21 2 0 16.1266 5.2742 24.3778
82 21 3 0.62997 15.323 5.00417 24.8222
83 21 3 0.511424 16.191 4.68984 23.6224
84 21 4 -1.14139 16.032 5.16483 24.3379
85 22 2 0 1.73041 16.4802 23.8093
86 22 3 0.441318 1.75734 15.8367 23.1012
87 22 3 0.475334 2.34594 16.1454 24.4614
88 22 4 -0.916652 1.81265 16.355 23.8021
89 23 2 0 8.87689 8.00652 23.4194
90 23 3 0.911081 8.43337 8.84779 23.528
91 23 3 0.954687 8.21695 7.35495 23.6564
92 23 4 -1.86577 8.73563 8.03081 23.4637
93 24 2 0 4.16276 14.3398 23.4242
94 24 3 0.584328 5.05596 14.6587 23.2949
95 24 3 0.477287 4.2717 13.4733 23.8162
96 24 4 -1.06161 4.29104 14.2697 23.4578
97 25 2 0 8.51845 12.5698 22.5325
98 25 3 0.654954 9.1683 12.8767 23.1647
99 25 3 0.682056 7.87565 13.2776 22.4863
100 25 4 -1.33701 8.51936 12.6997 22.6075
101 26 2 0 5.18898 19.7472 27.4738
102 26 3 0.477347 5.32079 20.5113 28.0351
103 26 3 0.435665 5.00505 20.1136 26.6089
104 26 4 -0.913012 5.18231 19.8919 27.435
105 27 2 0 7.75281 9.87125 23.7215
106 27 3 0.728767 8.17945 9.01601 23.6687
107 27 3 0.806932 8.37724 10.4761 23.3208
108 27 4 -1.5357 7.88736 9.83919 23.6634
109 28 2 0 15.9299 13.1818 24.671
110 28 3 0.550233 15.5475 13.3892 23.8184
111 28 3 0.547775 16.7869 13.6079 24.6597
112 28 4 -1.09801 15.9906 13.2629 24.5604
113 29 2 0 11.5069 12.8028 23.8683
114 29 3 0.656681 11.9429 12.6016 24.6963
115 29 3 0.522491 12.1809 12.6656 23.2026
116 29 4 -1.17917 11.6489 12.7595 23.8891
117 30 2 0 16.5442 3.81245 22.1954
118 30 3 0.473574 16.1487 4.32278 22.902
119 30 3 0.523807 16.3521 4.31216 21.4019
120 30 4 -0.997381 16.469 3.94174 22.1843
121 31 2 0 5.86685 3.73518 25.6058
122 31 3 0.713913 5.64144 4.2888 24.8582
123 31 3 0.616115 6.43434 3.05686 25.2397
124 31 4 -1.33003 5.91064 3.71922 25.4633
125 32 2 0 6.87459 5.21274 20.6548
126 32 3 0.424752 7.79847 5.17212 20.9018
127 32 3 0.454221 6.72575 4.41309 20.1501
128 32 4 -0.878973 6.97381 5.10517 20.6218
129 33 2 0 13.6642 12.8536 22.4884
130 33 3 0.527939 13.3453 12.3931 21.7122
131 33 3 0.554405 12.9024 12.9072 23.0655
132 33 4 -1.08234 13.5258 12.8015 22.4629
133 34 2 0 13.5385 11.3848 25.9685
134 34 3 0.456369 14.2285 11.0771 25.3807
135 34 3 0.603112 13.8719 11.2013 26.8467
136 34 4 -1.05948 13.6695 11.3219 26.0056
137 35 2 0 15.9089 0.176129 25.8567
138 35 3 0.433551 16.1196 0.986444 25.3928
139 35 3 0.496939 16.7298 20.0651 25.865
140 35 4 -0.930491 16.0409 0.216848 25.7984
141 36 2 0 8.28576 19.3066 31.0323
142 36 3 0.490517 8.3212 18.3858 31.2912
143 36 3 0.443406 8.30129 19.7891 31.8589
144 36 4 -0.933923 8.29229 19.2505 31.1713
145 37 2 0 14.7495 10.5163 28.394
146 37 3 0.521621 14.916 9.57397 28.4187
147 37 3 0.521135 15.4714 10.9006 28.8914
148 37 4 -1.04276 14.8632 10.4448 28.4608
149 38 2 0 1.58668 6.14347 25.0551
150 38 3 1.03502 1.03629 6.60189 25.6901
151 38 3 0.862537 2.41754 6.00865 25.5109
152 38 4 -1.89756 1.62258 6.1849 25.1948
153 39 2 0 9.78302 19.0532 24.3503
154 39 3 0.750208 9.13876 19.7534 24.2457
155 39 3 0.705789 9.53091 18.6145 25.1628
156 39 4 -1.456 9.66827 19.0867 24.4409
157 40 2 0 1.58549 8.82545 26.5001
158 40 3 1.02091 1.13751 7.98021 26.4667
159 40 3 0.937089 1.22132 9.31926 25.7654
160 40 4 -1.958 1.48153 8.78046 26.4018
161 41 2 0 7.97551 4.34101 28.0146
162 41 3 0.848881 8.68207 3.71757 28.183
163 41 3 0.651567 8.22245 4.76782 27.1942
164 41 4 -1.50045 8.09757 4.31584 27.9312
165 42 2 0 9.24077 15.2827 24.61
166 42 3 0.51603 8.53922 15.9259 24.5084
167 42 3 0.483971 9.69499 15.5472 25.4099
168 42 4 -1 9.20911 15.3989 24.6994
169 43 2 0 0.482045 7.12529 26.4676
170 43 3 1.33198 0.902379 7.98482 26.495
171 43 3 1.26665 0.990453 6.62993 25.8254
172 43 4 -2.59863 0.600935 7.17191 26.3889
173 44 2 0 13.6993 4.51001 25.3399
174 44 3 0.701084 12.7551 4.66165 25.2998
175 44 3 0.804048 13.8619 4.24715 26.2459
176 44 4 -1.50513 13.5992 4.49578 25.4508
177 45 2 0 8.52193 5.91267 26.3176
178 45 3 0.720454 8.40809 5.24135 26.9904
179 45 3 0.758551 9.18492 6.50232 26.6768
180 45 4 -1.47901 8.59222 5.90221 26.4497
181 46 2 0 4.44466 11.7566 25.82
182 46 3 0.575951 5.03135 11.8365 26.5721
183 46 3 0.741667 4.29895 10.815 25.7283
184 46 4 -1.31762 4.50111 11.6463 25.9045
185 47 2 0 4.34995 9.16542 24.9765
186 47 3 0.700297 5.08 8.82577 25.4941
187 47 3 0.726042 4.68905 9.20809 24.0824
188 47 4 -1.42634 4.48681 9.1274 24.9283
189 48 2 0 4.2301 6.55234 25.6535
190 48 3 0.626484 4.14182 7.44492 25.3192
191 48 3 0.639856 4.46775 6.03126 24.8866
192 48 4 -1.26634 4.24922 6.5999 25.5125
193 49 2 0 12.155 17.7753 23.6483
194 49 3 0.49646 12.5054 18.3255 24.3489
195 49 3 0.532393 11.8356 18.3956 22.993
196 49 4 -1.02885 12.159 17.9252 23.6541
197 50 2 0 6.57445 8.29242 26.7286
198 50 3 0.615775 6.92167 8.48857 27.5988
199 50 3 0.578067 6.95042 7.4406 26.5066
200 50 4 -1.19384 6.66703 8.20849 26.8116
201 51 2 0 11.3041 9.97634 23.0673
202 51 3 0.472564 11.8034 9.21045 23.3506
203 51 3 0.52041 11.5135 10.6516 23.7126
204 51 4 -0.992974 11.3948 9.96474 23.1862
205 52 2 0 1.49287 1.87867 26.8047
206 52 3 0.537972 0.621382 1.98811 27.1852
207 52 3 0.700683 2.02662 2.54949 27.2305
208 52 4 -1.23866 1.44963 1.97855 26.9079
209 53 2 0 5.40314 15.8814 28.41
210 53 3 0.472651 4.76696 16.4211 28.8793
211 53 3 0.4377 5.69229 15.2358 29.055
212 53 4 -0.910351 5.35872 15.8678 28.5527
213 54 2 0 14.2077 13.4178 29.6539
214 54 3 0.49289 13.8524 12.6863 29.149
215 54 3 0.471569 13.4651 14.0097 29.774
216 54 4 -0.964459 14.0672 13.3999 29.6046
217 55 2 0 14.7036 3.896 27.6895
218 55 3 0.630949 15.0092 4.78877 27.5289
219 55 3 0.615774 15.4192 3.48023 28.1704
220 55 4 -1.24672 14.8343 3.95706 27.7305
221 56 2 0 10.3668 7.56348 27.276
222 56 3 0.757685 10.7436 7.5819 26.3963
223 56 3 0.643931 10.8676 6.89088 27.7376
224 56 4 -1.40162 10.4791 7.47974 27.2225
225 57 2 0 13.7128 15.9131 27.2058
226 57 3 0.480076 13.8393 16.659 27.7922
227 57 3 0.370866 12.784 15.6972 27.2892
228 57 4 -0.850942 13.6101 15.981 27.2916
229 58 2 0 16.867 1.99569 34.7097
230 58 3 0.445941 16.4704 1.58008 33.944
231 58 3 0.444264 16.3314 2.77371 34.8648
232 58 4 -0.890205 16.7477 2.04208 34.6315
233 59 2 0 6.71177 13.9062 25.9121
234 59 3 0.44286 6.55168 13.1863 26.5223
235 59 3 0.498976 5.84578 14.2804 25.7499
236 59 4 -0.941836 6.58042 13.862 25.9695
237 60 2 0 5.22552 3.30793 28.3032
238 60 3 0.723771 5.75714 3.61418 27.5685
239 60 3 0.434471 4.37619 3.73117 28.1777
240 60 4 -1.15824 5.18485 3.40132 28.1931
241 61 2 0 10.5475 13.2459 26.6658
242 61 3 0.574896 10.077 12.5825 27.1706
243 61 3 0.513877 9.95773 13.4605 25.9431
244 61 4 -1.08877 10.4118 13.1884 26.6379
245 62 2 0 8.59901 11.2446 28.1542
246 62 3 0.691412 7.75533 11.6852 28.0528
247 62 3 0.681709 8.37601 10.3691 28.4704
248 62 4 -1.37312 8.46246 11.1889 28.1817
249 63 2 0 9.67183 2.8594 28.345
250 63 3 0.790518 9.15943 2.09477 28.0823
251 63 3 0.599235 9.05328 3.58871 28.3032
252 63 4 -1.38975 9.52705 2.85488 28.3061
253 64 2 0 11.8807 14.843 29.5128
254 64 3 0.508912 12.8023 15.072 29.3925
255 64 3 0.53648 11.58 14.5913 28.6396
256 64 4 -1.04539 11.9602 14.8401 29.3856
257 65 2 0 15.8731 6.3029 27.0687
258 65 3 0.857642 16.7651 6.5801 26.8599
259 65 3 0.373329 15.5968 5.79075 26.3087
260 65 4 -1.23097 15.9519 6.27282 26.9447
261 66 2 0 5.10343 7.26664 28.9469
262 66 3 0.636665 5.5065 7.58857 28.1406
263 66 3 0.608378 5.83321 6.91306 29.4554
264 66 4 -1.24504 5.24844 7.26259 28.9088
265 67 2 0 17.1864 2.57358 27.9412
266 67 3 0.692561 0.301122 2.22576 27.4835
267 67 3 0.518097 16.6795 3.01521 27.2599
268 67 4 -1.21066 17.2195 2.58559 27.7954
269 68 2 0 7.89748 13.8814 31.6862
270 68 3 0.468349 8.71326 14.2223 31.3193
271 68 3 0.43772 7.8727 12.9662 31.4069
272 68 4 -0.906069 7.99874 13.8079 31.6034
273 69 2 0 12.6791 1.96652 26.9026
274 69 3 0.543698 13.4195 1.59464 27.382
275 69 3 0.537841 12.0408 2.18759 27.5808
276 69 4 -1.08154 12.6922 1.94722 27.0508
277 70 2 0 5.79586 11.672 27.7976
278 70 3 0.715273 5.24065 11.1922 28.4121
279 70 3 0.663518 5.33779 11.6075 26.9596
280 70 4 -1.37879 5.66614 11.6023 27.769
281 71 2 0 7.18556 6.66482 30.0605
282 71 3 0.553779 6.39025 6.97218 29.6254
283 71 3 0.55017 7.02409 5.73627 30.2277
284 71 4 -1.10395 7.06308 6.5853 30.0262
285 72 2 0 2.11357 13.4522 26.9889
286 72 3 0.480384 3.05074 13.343 27.1502
287 72 3 0.451705 1.69005 12.9821 27.7072
288 72 4 -0.932089 2.17932 13.3781 27.1015
289 73 2 0 8.95629 18.3417 26.5117
290 73 3 0.773372 9.6728 17.8816 26.9489
291 73 3 0.563159 9.31497 18.5898 25.6596
292 73 4 -1.33653 9.09393 18.3146 26.4586
293 74 2 0 10.9165 16.7804 27.5714
294 74 3 0.612454 11.1296 16.3617 28.4053
295 74 3 0.496429 11.307 16.2097 26.9095
296 74 4 -1.10888 10.9937 16.6538 27.5934
297 75 2 0 2.91415 4.1347 27.7876
298 75 3 0.680154 3.81531 3.88401 27.9909
299 75 3 0.547967 2.66106 4.71999 28.5015
300 75 4 -1.22812 2.99711 4.17754 27.905
301 76 2 0 11.4607 5.54787 28.0943
302 76 3 0.511781 11.129 6.43004 27.9272
303 76 3 0.613594 11.1751 5.0366 27.3372
304 76 4 -1.12538 11.3817 5.59535 27.976
305 77 2 0 8.19319 0.736994 27.5879
306 77 3 0.612773 8.32723 0.0841916 26.9008
307 77 3 0.561511 8.18806 0.231979 28.4011
308 77 4 -1.17428 8.20969 0.588779 27.6041
309 78 2 0 12.377 19.4807 25.6762
310 78 3 0.533794 12.006 19.4357 24.795
311 78 3 0.511785 12.3521 0.0298753 25.8998
312 78 4 -1.04558 12.3263 19.5941 25.592
313 79 2 0 3.89283 9.65784 28.1511
314 79 3 0.593224 4.00116 8.79817 28.5579
315 79 3 0.613411 3.03603 9.61612 27.7264
316 79 4 -1.20663 3.79702 9.54245 28.1488
317 80 2 0 7.97947 9.21035 28.9459
318 80 3 0.630109 8.66461 8.69669 28.5182
319 80 3 0.730382 8.20991 10.1204 28.7592
320 80 4 -1.36049 8.09668 9.2611 28.8672
321 81 2 0 7.99279 16.6644 28.5193
322 81 3 0.538026 8.01871 17.3951 27.9014
323 81 3 0.46161 7.74919 15.9078 27.9861
324 81 4 -0.999636 7.96492 16.6611 28.3719
ITEM: TIMESTEP
2000
ITEM: NUMBER OF ATOMS
324
ITEM: BOX BOUNDS pp pp ff
0.0000000000000000e+00 1.7650658050000001e+01
0.0000000000000000e+00 2.0381224350000000e+01
0.0000000000000000e+00 6.0000000000000000e+01
ITEM: ATOMS id mol type q x y z
1 1 2 0 8.87523 14.8895 23.4028
2 1 3 0.784701 8.96601 15.1154 24.3285
3 1 3 0.70167 8.49729 14.0101 23.4063
4 1 4 -1.48637 8.83847 14.8058 23.5217
5 2 2 0 0.842053 0.279216 22.3645
6 2 3 0.471339 1.42827 19.906 22.3066
7 2 3 0.448344 0.039833 20.3752 21.9271
8 2 4 -0.919683 0.814401 0.146114 22.3011
9 3 2 0 0.517197 11.4424 25.0816
10 3 3 0.686091 17.3832 11.9743 24.9491
11 3 3 0.878823 1.18964 11.8705 24.5517
12 3 4 -1.56491 0.50283 11.5653 24.9968
13 4 2 0 4.3275 2.71225 13.8335
14 4 3 0.453447 4.65147 3.1578 13.0508
15 4 3 0.42873 4.74099 3.17567 14.5619
16 4 4 -0.882177 4.42191 2.82861 13.8266
17 5 2 0 15.2467 7.22903 21.1891
18 5 3 0.560193 15.6298 7.8642 21.7941
19 5 3 0.758843 15.849 7.21249 20.4454
20 5 4 -1.31904 15.3728 7.30822 21.1713
21 6 2 0 2.62809 12.3855 23.7709
22 6 3 0.733162 3.55034 12.1382 23.7033
23 6 3 0.571554 2.64487 13.3161 23.9939
24 6 4 -1.30472 2.7483 12.4729 23.7908
25 7 2 0 7.93493 12.9068 23.5793
26 7 3 0.987574 8.30107 13.7885 23.5108
27 7 3 0.926086 8.5434 12.438 24.1504
28 7 4 -1.91366 8.05969 12.9596 23.6436
29 8 2 0 7.65347 3.7103 23.9469
30 8 3 0.516943 7.16114 3.45853 24.7283
31 8 3 0.564442 7.00649 4.13134 23.3809
32 8 4 -1.08139 7.50762 3.73197 23.9745
33 9 2 0 9.64473 5.45635 22.5719
34 9 3 0.65945 8.90936 4.98737 22.9663
35 9 3 0.558744 10.2535 5.60072 23.2963
36 9 4 -1.21819 9.62853 5.41479 22.7151
37 10 2 0 4.69981 1.80399 24.203
38 10 3 0.435493 5.4305 2.13966 23.6837
39 10 3 0.628391 4.62423 2.41631 24.9348
40 10 4 -1.06388 4.78367 1.92534 24.2302
41 11 2 0 17.1078 8.71819 22.77
42 11 3 0.637749 16.491 9.45018 22.7645
43 11 3 0.676369 17.4913 8.73413 23.6469
44 11 4 -1.31412 17.0779 8.81393 22.8816
45 12 2 0 4.57058 18.7626 25.7714
46 12 3 0.52629 4.37596 19.6777 25.569
47 12 3 0.490677 5.09997 18.8004 26.568
48 12 4 -1.01697 4.61343 18.8845 25.8475
49 13 2 0 16.264 12.7533 24.8742
50 13 3 0.651599 15.739 12.2172 24.2799
51 13 3 0.764045 17.0827 12.2679 24.9754
52 13 4 -1.41564 16.3016 12.6226 24.8111
53 14 2 0 13.0412 5.07941 5.79849
54 14 3 0.444007 13.4672 4.99873 4.94513
55 14 3 0.444242 12.1046 5.05204 5.60271
56 14 4 -0.888249 12.9758 5.06558 5.66419
57 15 2 0 11.8406 4.27626 27.9416
58 15 3 0.779412 12.2174 3.3968 27.9134
59 15 3 0.67599 12.3922 4.79261 27.3539
60 15 4 -1.4554 11.9594 4.22978 27.8627
61 16 2 0 1.02098 5.73278 25.4394
62 16 3 0.567505 0.288934 5.16176 25.2064
63 16 3 0.589753 0.713598 6.61469 25.2297
64 16 4 -1.15726 0.88792 5.77258 25.3827
65 17 2 0 2.37674 20.0702 35.1061
66 17 3 0.425029 3.17756 20.2134 34.6017
67 17 3 0.465958 1.80597 19.5783 34.5158
68 17 4 -0.890987 2.40619 20.0256 34.966
69 18 2 0 5.1802 4.51401 22.3855
70 18 3 0.591069 4.58596 3.99322 21.8453
71 18 3 0.438059 5.05954 5.41225 22.0776
72 18 4 -1.02913 5.08868 4.56233 22.277
73 19 2 0 11.2001 5.6593 24.4033
74 19 3 0.655708 10.5958 5.51784 23.6746
75 19 3 0.638232 12.0116 5.95217 23.9886
76 19 4 -1.29394 11.2267 5.67868 24.2569
77 20 2 0 3.20654 3.2106 20.551
78 20 3 0.622268 2.76316 2.47532 20.9741
79 20 3 0.588476 2.89215 3.19245 19.6471
80 20 4 -1.21074 3.10953 3.11415 20.4895
81 21 2 0 13.4702 6.35763 23.0913
82 21 3 0.827341 13.9892 6.65185 22.3427
83 21 3 0.778858 14.1138 6.00454 23.7056
84 21 4 -1.6062 13.619 6.35009 23.0741
85 22 2 0 3.02898 15.2531 24.4284
86 22 3 0.474143 3.55604 15.2375 23.6295
87 22 3 0.528874 3.24217 16.0905 24.8402
88 22 4 -1.00302 3.12374 15.3583 24.3788
89 23 2 0 7.86681 6.83803 24.6068
90 23 3 0.5617 8.24764 6.56388 25.441
91 23 3 0.525804 8.6203 6.97585 24.0328
92 23 4 -1.0875 8.01201 6.82058 24.6401
93 24 2 0 5.33995 12.3075 23.5553
94 24 3 0.706982 6.27257 12.5108 23.4838
95 24 3 0.518503 5.26715 11.7944 24.3601
96 24 4 -1.22549 5.45002 12.2678 23.6492
97 25 2 0 9.32702 11.9199 24.9928
98 25 3 0.872036 10.1579 11.8947 24.5182
99 25 3 0.808724 8.72352 12.3634 24.3968
100 25 4 -1.68076 9.35613 11.9734 24.8558
101 26 2 0 5.4928 17.3678 27.9947
102 26 3 0.447788 5.41326 17.5517 27.0587
103 26 3 0.646828 6.28393 16.8339 28.0679
104 26 4 -1.09462 5.58389 17.323 27.8842
105 27 2 0 9.76306 11.2979 11.8365
106 27 3 0.449313 10.0244 11.9922 12.4413
107 27 3 0.439566 10.4036 10.6012 11.9798
108 27 4 -0.888879 9.87851 11.2976 11.9323
109 28 2 0 15.5122 11.0419 22.856
110 28 3 0.768679 14.6115 11.047 22.5321
111 28 3 0.519483 15.9761 11.6541 22.2848
112 28 4 -1.28816 15.4563 11.1209 22.7414
113 29 2 0 11.6154 12.1139 23.7255
114 29 3 0.803094 12.2429 12.4572 24.3617
115 29 3 0.857093 12.1571 11.7775 23.0117
116 29 4 -1.66019 11.7651 12.1148 23.7156
117 30 2 0 15.1935 5.6136 24.4099
118 30 3 0.637972 14.5418 5.92363 23.7811
119 30 3 0.689838 14.6784 5.27706 25.1431
120 30 4 -1.32781 15.0441 5.61021 24.4232
121 31 2 0 2.43919 3.23852 18.2438
122 31 3 0.565271 2.71096 3.37598 19.1513
123 31 3 0.534048 3.25022 3.03265 17.779
124 31 4 -1.09932 2.57781 3.22977 18.3005
125 32 2 0 17.027 7.61404 19.2929
126 32 3 0.564586 17.0133 7.01398 18.5473
127 32 3 0.602443 0.178855 7.39183 19.765
128 32 4 -1.16703 17.128 7.50878 19.2579
129 33 2 0 13.0716 11.407 22.2321
130 33 3 0.799724 12.8682 10.4721 22.26
131 33 3 0.832371 12.5451 11.7883 22.9347
132 33 4 -1.6321 12.9782 11.3361 22.3256
133 34 2 0 13.5012 13.0569 25.3801
134 34 3 0.747965 14.4566 12.9988 25.3792
135 34 3 0.665933 13.3161 13.9626 25.6287
136 34 4 -1.4139 13.5998 13.1654 25.4118
137 35 2 0 16.8122 16.1466 21.4454
138 35 3 0.452151 16.9923 15.2875 21.8273
139 35 3 0.448437 16.2301 16.5719 22.0751
140 35 4 -0.900588 16.7608 16.091 21.5749
141 36 2 0 10.4406 1.38123 34.2059
142 36 3 0.44783 9.82356 1.56228 33.4969
143 36 3 0.451706 11.0835 2.08829 34.1509
144 36 4 -0.899536 10.4439 1.49492 34.1081
145 37 2 0 17.3683 17.5099 33.5469
146 37 3 0.431498 16.872 17.8479 32.8014
147 37 3 0.468019 17.2843 16.5587 33.4797
148 37 4 -0.899517 17.294 17.4314 33.4428
149 38 2 0 1.99715 7.04223 20.4704
150 38 3 0.474247 2.78501 7.15638 19.9389
151 38 3 0.502778 2.30519 6.60825 21.266
152 38 4 -0.977026 2.13744 7.00129 20.5042
153 39 2 0 11.8526 8.70439 16.76
154 39 3 0.445367 10.9365 8.55573 16.5259
155 39 3 0.444149 12.3467 8.4095 15.995
156 39 4 -0.889516 11.7986 8.64761 16.6321
157 40 2 0 2.46029 10.7714 27.0826
158 40 3 0.575371 3.32205 10.8463 26.6728
159 40 3 0.562965 1.84389 11.0127 26.3912
160 40 4 -1.13834 2.4917 10.8119 26.9416
161 41 2 0 6.81063 4.13248 27.3299
162 41 3 0.963464 7.03346 3.97839 28.248
163 41 3 0.933268 7.24141 4.95954 27.114
164 41 4 -1.89673 6.8943 4.21863 27.4198
165 42 2 0 8.77701 15.1042 26.1202
166 42 3 0.788087 8.24682 15.5286 26.7948
167 42 3 0.819136 9.3212 14.4799 26.6002
168 42 4 -1.60722 8.7788 15.0786 26.268
169 43 2 0 3.85354 12.8502 28.3989
170 43 3 0.659058 3.15375 12.2355 28.1785
171 43 3 0.439725 3.48584 13.3921 29.0971
172 43 4 -1.09878 3.71689 12.8409 28.4601
173 44 2 0 13.293 5.27083 26.446
174 44 3 0.747763 12.7041 4.89211 27.0987
175 44 3 0.634576 12.7118 5.59722 25.759
176 44 4 -1.38234 13.1432 5.26413 26.4416
177 45 2 0 8.13648 6.07156 27.0903
178 45 3 0.69217 7.77615 5.1848 27.0975
179 45 3 0.93831 7.40661 6.6294 27.3592
180 45 4 -1.63048 7.99692 6.02945 27.1256
181 46 2 0 5.10394 11.0164 26.0112
182 46 3 0.685485 5.94566 11.2925 26.3739
183 46 3 0.744333 5.17478 10.0646 25.9379
184 46 4 -1.42982 5.22076 10.9299 26.0483
185 47 2 0 0.424853 8.7128 24.8957
186 47 3 0.736576 0.389917 9.64488 25.1108
187 47 3 0.61686 -0.0173346 8.64501 24.0495
188 47 4 -1.35344 0.363776 8.82344 24.8149
189 48 2 0 3.51987 6.35503 26.0029
190 48 3 0.734683 3.75673 5.67939 26.6383
191 48 3 0.802154 2.56294 6.34215 25.9844
192 48 4 -1.53684 3.42769 6.26689 26.0819
193 49 2 0 13.1245 17.7923 25.982
194 49 3 0.659013 13.5709 16.9774 26.2119
195 49 3 0.473522 13.7451 18.4812 26.2197
196 49 4 -1.13254 13.2611 17.7761 26.0419
197 50 2 0 5.61378 8.21903 25.7305
198 50 3 0.647586 4.79359 7.72572 25.7436
199 50 3 0.582308 6.17596 7.73396 25.1265
200 50 4 -1.22989 5.58075 8.09379 25.6549
201 51 2 0 12.847 8.69155 22.1522
202 51 3 0.550063 13.2869 8.54303 21.3152
203 51 3 0.695143 12.9254 7.85778 22.6158
204 51 4 -1.24521 12.9133 8.56581 22.1044
205 52 2 0 0.184175 3.81246 30.9203
206 52 3 0.447407 17.7538 2.94388 31.3144
207 52 3 0.47735 1.02621 3.7921 30.4656
208 52 4 -0.924757 0.281594 3.69866 30.9126
209 53 2 0 6.64481 13.5014 28.9122
210 53 3 0.625248 5.7265 13.2899 28.7442
211 53 3 0.627349 6.71424 14.437 28.7223
212 53 4 -1.2526 6.53614 13.5941 28.8664
213 54 2 0 8.91865 16.9848 34.5957
214 54 3 0.445557 8.22401 17.1826 33.9675
215 54 3 0.45091 8.98704 17.7733 35.134
216 54 4 -0.896467 8.83848 17.111 34.5842
217 55 2 0 13.8131 20.1231 31.3894
218 55 3 0.457221 13.793 0.521234 31.9447
219 55 3 0.442961 14.2958 19.4751 31.9026
220 55 4 -0.900182 13.8723 20.1399 31.5262
221 56 2 0 9.99216 7.42834 27.4453
222 56 3 0.802487 9.14608 7.02624 27.2486
223 56 3 0.729343 10.3304 6.9255 28.1863
224 56 4 -1.53183 9.92715 7.3125 27.515
225 57 2 0 15.7789 13.6461 28.9382
226 57 3 0.475879 15.4212 12.765 28.829
227 57 3 0.475489 15.0097 14.2063 29.0412
228 57 4 -0.951369 15.6346 13.605 28.9374
229 58 2 0 2.55269 17.1588 38.9993
230 58 3 0.435493 2.35258 16.2655 39.2789
231 58 3 0.443738 2.39265 17.6949 39.776
232 58 4 -0.879232 2.50658 17.1131 39.1345
233 59 2 0 7.64669 16.0005 27.8332
234 59 3 0.843839 8.35942 16.2619 28.4163
235 59 3 0.797751 8.07746 15.5125 27.1314
236 59 4 -1.64159 7.79307 15.9715 27.818
237 60 2 0 5.10945 3.45851 26.2046
238 60 3 0.974039 5.85536 3.6414 26.7759
239 60 3 0.736919 4.37346 3.90853 26.6193
240 60 4 -1.71096 5.11072 3.53953 26.3308
241 61 2 0 10.4961 13.6694 27.5449
242 61 3 0.949868 10.3264 12.7275 27.5601
243 61 3 0.779642 10.5826 13.9126 28.4666
244 61 4 -1.72951 10.4854 13.58 27.6648
245 62 2 0 10.0523 11.2182 27.5308
246 62 3 0.878964 9.54416 11.3363 26.7282
247 62 3 0.9333 9.66763 10.4469 27.9471
248 62 4 -1.81226 9.93805 11.1346 27.4813
249 63 2 0 7.62465 4.17939 29.4023
250 63 3 0.580507 6.94213 3.5982 29.7379
251 63 3 0.626181 7.43604 4.25611 28.467
252 63 4 -1.20669 7.51314 4.11481 29.3256
253 64 2 0 10.652 14.1485 29.7134
254 64 3 0.770046 9.93696 13.6539 30.1137
255 64 3 0.767804 10.6536 13.8697 28.7977
256 64 4 -1.53785 10.5607 14.0495 29.6474
257 65 2 0 0.19164 6.64517 32.8348
258 65 3 0.433031 17.3723 6.69041 33.6675
259 65 3 0.489121 17.6311 5.77885 32.4868
260 65 4 -0.922152 0.104434 6.54006 32.8969
261 66 2 0 6.56409 7.22666 28.787
262 66 3 1.04085 6.95351 7.90735 29.3359
263 66 3 0.832121 5.99289 6.73809 29.3797
264 66 4 -1.87297 6.54082 7.25125 28.9332
265 67 2 0 15.7776 5.57604 17.7608
266 67 3 0.4885 14.8305 5.55728 17.8984
267 67 3 0.475173 16.0854 4.7334 18.0947
268 67 4 -0.963673 15.6958 5.46577 17.8212
269 68 2 0 6.83868 13.9145 32.7307
270 68 3 0.475394 6.03476 14.1041 32.247
271 68 3 0.494333 6.57656 13.271 33.389
272 68 4 -0.969727 6.70221 13.8564 32.7531
273 69 2 0 12.8506 1.76956 27.2637
274 69 3 0.539976 12.5954 0.987795 26.7739
275 69 3 0.536031 13.7774 1.63618 27.4627
276 69 4 -1.07601 12.9366 1.65241 27.2265
277 70 2 0 7.13091 11.6344 27.0507
278 70 3 0.713657 6.84331 12.3183 27.6554
279 70 3 0.635648 6.33048 11.3548 26.6064
280 70 4 -1.3493 6.99163 11.6861 27.0712
281 71 2 0 5.36543 6.18319 30.3887
282 71 3 0.713886 5.89936 6.64217 29.7403
283 71 3 0.588662 4.51281 6.0781 29.9666
284 71 4 -1.30255 5.32463 6.22849 30.2517
285 72 2 0 16.865 15.5409 26.4881
286 72 3 0.483084 16.4498 14.8846 27.0476
287 72 3 0.463208 0.0950867 15.6416 26.8491
288 72 4 -0.946293 16.9246 15.4698 26.6059
289 73 2 0 9.51051 16.7562 29.5587
290 73 3 0.636733 9.97566 15.9333 29.7093
291 73 3 0.562412 10.0818 17.4268 29.9329
292 73 4 -1.19914 9.64319 16.7367 29.6259
293 74 2 0 13.1037 15.1096 26.5413
294 74 3 0.623442 12.179 15.1199 26.294
295 74 3 0.627386 13.4254 14.2628 26.2318
296 74 4 -1.25083 13.0265 15.0025 26.47
297 75 2 0 3.83366 4.69363 27.4519
298 75 3 0.953187 4.429 4.12336 26.9655
299 75 3 0.858648 3.5842 5.37163 26.824
300 75 4 -1.81184 3.87793 4.70742 27.3093
301 76 2 0 10.2899 5.93577 29.2517
302 76 3 0.550965 10.0778 6.50048 28.5085
303 76 3 0.71485 10.8008 5.22097 28.8719
304 76 4 -1.26581 10.3281 5.91656 29.1079
305 77 2 0 14.731 5.84519 38.2006
306 77 3 0.445394 14.5769 6.77985 38.3381
307 77 3 0.447102 14.5274 5.44174 39.0444
308 77 4 -0.892496 14.6852 5.91319 38.3262
309 78 2 0 14.76 19.687 26.1619
310 78 3 0.489851 14.5162 20.267 25.4405
311 78 3 0.583725 14.1415 18.9589 26.104
312 78 4 -1.07358 14.6496 19.6681 26.0621
313 79 2 0 7.40715 8.79302 30.1836
314 79 3 0.548198 7.00226 8.13218 29.6218
315 79 3 0.914154 8.07323 9.20215 29.6312
316 79 4 -1.46235 7.44059 8.7608 30.041
317 80 2 0 9.08221 9.52508 28.5177
318 80 3 0.903303 9.57325 8.80305 28.1256
319 80 3 0.921446 9.43153 10.31 28.0957
320 80 4 -1.82475 9.18979 9.53313 28.4135
321 81 2 0 8.52032 12.7264 30.9119
322 81 3 0.578245 8.37373 13.1408 31.7622
323 81 3 0.592737 7.67148 12.7742 30.4721
324 81 4 -1.17098 8.39289 12.7856 30.9645
ITEM: TIMESTEP
3000
ITEM: NUMBER OF ATOMS
324
ITEM: BOX BOUNDS pp pp ff
0.0000000000000000e+00 1.7650658050000001e+01
0.0000000000000000e+00 2.0381224350000000e+01
0.0000000000000000e+00 6.0000000000000000e+01
ITEM: ATOMS id mol type q x y z
1 1 2 0 12.2438 5.2627 14.9706
2 1 3 0.497176 12.7045 5.47443 15.7825
3 1 3 0.50133 12.6046 4.41728 14.7035
4 1 4 -0.998506 12.349 5.18158 15.0404
5 2 2 0 0.63742 3.05539 22.0833
6 2 3 0.492187 1.16352 3.72799 21.6508
7 2 3 0.444536 1.23487 2.65111 22.7125
8 2 4 -0.936723 0.781249 3.08974 22.1085
9 3 2 0 13.4058 12.4488 27.4938
10 3 3 0.675663 13.708 12.552 26.5914
11 3 3 0.779286 12.8252 11.6883 27.4669
12 3 4 -1.45495 13.3702 12.3647 27.3748
13 4 2 0 3.73636 3.78407 17.1062
14 4 3 0.592126 3.84245 4.19518 17.9641
15 4 3 0.472249 3.52279 2.87178 17.302
16 4 4 -1.06437 3.7226 3.71991 17.2411
17 5 2 0 16.2253 7.3817 21.7426
18 5 3 0.917774 16.7177 8.1824 21.5619
19 5 3 0.967868 15.5298 7.37409 21.085
20 5 4 -1.88564 16.1993 7.48323 21.6353
21 6 2 0 3.42029 15.8593 30.2019
22 6 3 0.501151 3.40529 16.2493 31.0759
23 6 3 0.674428 4.10208 16.3425 29.7351
24 6 4 -1.17558 3.50565 15.9711 30.254
25 7 2 0 9.49044 8.46839 10.539
26 7 3 0.417794 10.1382 7.77791 10.3981
27 7 3 0.51566 9.9476 9.27706 10.3081
28 7 4 -0.933454 9.63189 8.48352 10.4914
29 8 2 0 9.0282 7.29699 22.8427
30 8 3 0.785657 8.12122 7.00204 22.9241
31 8 3 0.557052 9.1623 7.8715 23.5965
32 8 4 -1.34271 8.92927 7.33278 22.9496
33 9 2 0 11.7442 7.43172 22.5656
34 9 3 0.878728 10.8202 7.33297 22.795
35 9 3 0.846374 12.215 6.98047 23.2663
36 9 4 -1.7251 11.6862 7.36132 22.6846
37 10 2 0 5.83018 14.813 15.7776
38 10 3 0.446689 5.85262 13.9097 16.0934
39 10 3 0.44352 4.89941 15.0033 15.6605
40 10 4 -0.890209 5.71391 14.7217 15.8031
41 11 2 0 17.2085 9.31106 23.858
42 11 3 0.926576 16.5674 9.93257 24.2029
43 11 3 0.857558 0.364977 9.81911 23.7768
44 11 4 -1.78413 17.2297 9.45565 23.8918
45 12 2 0 5.81604 17.4102 26.5455
46 12 3 0.779197 5.10441 16.9059 26.1511
47 12 3 0.640982 5.76932 17.2018 27.4786
48 12 4 -1.42018 5.71896 17.319 26.6145
49 13 2 0 13.9957 12.5606 25.2594
50 13 3 0.806446 14.7046 11.9336 25.1164
51 13 3 0.702444 13.7772 12.4685 26.1867
52 13 4 -1.50889 14.0584 12.4685 25.3598
53 14 2 0 13.4551 6.08725 3.53174
54 14 3 0.444954 12.9117 5.93797 4.30549
55 14 3 0.444803 12.8641 6.4944 2.89836
56 14 4 -0.889757 13.3099 6.12026 3.54971
57 15 2 0 12.1006 3.82467 27.0115
58 15 3 0.821654 12.272 2.88333 27.0391
59 15 3 0.778068 12.8385 4.18865 26.5223
60 15 4 -1.59972 12.217 3.75076 26.9524
61 16 2 0 1.10324 5.27477 24.6443
62 16 3 0.909072 0.161592 5.30651 24.8132
63 16 3 0.723128 1.48538 5.85055 25.3066
64 16 4 -1.6322 1.03162 5.35254 24.7507
65 17 2 0 2.91839 19.6026 40.5002
66 17 3 0.42965 2.62794 19.3574 41.3787
67 17 3 0.523822 2.76331 18.8214 39.9693
68 17 4 -0.953472 2.86136 19.4712 40.5447
69 18 2 0 6.47649 6.30881 22.8482
70 18 3 0.75124 5.78545 6.30178 22.1859
71 18 3 0.471644 6.48813 5.41571 23.1924
72 18 4 -1.22288 6.38952 6.19359 22.8075
73 19 2 0 12.7363 6.26898 24.1453
74 19 3 0.831628 12.2018 6.71279 23.4868
75 19 3 0.818963 13.5861 6.7071 24.0996
76 19 4 -1.65059 12.7766 6.38188 24.0552
77 20 2 0 4.38714 6.40793 21.3551
78 20 3 0.767901 3.62162 6.24316 21.9056
79 20 3 0.795007 4.17027 6.00334 20.5151
80 20 4 -1.56291 4.26138 6.33505 21.318
81 21 2 0 15.0996 7.18793 24.0871
82 21 3 0.881862 15.6719 7.30886 23.3294
83 21 3 0.831569 15.5121 6.48547 24.5897
84 21 4 -1.71343 15.2257 7.11349 24.0544
85 22 2 0 3.72978 15.8454 25.9495
86 22 3 0.683325 3.31728 15.1673 26.4845
87 22 3 0.469952 4.2035 15.362 25.2726
88 22 4 -1.15328 3.73762 15.6967 25.9313
89 23 2 0 4.81186 6.40873 16.8296
90 23 3 0.492865 5.25477 6.76407 16.059
91 23 3 0.584311 4.65594 5.48924 16.6141
92 23 4 -1.07718 4.8486 6.33651 16.7033
93 24 2 0 17.3965 9.27791 20.3347
94 24 3 0.637214 17.3564 9.33194 19.3798
95 24 3 0.590874 17.0975 10.1357 20.6363
96 24 4 -1.22809 17.3531 9.39463 20.251
97 25 2 0 8.41348 11.0888 24.3335
98 25 3 0.603565 8.68173 10.1769 24.4463
99 25 3 0.692743 7.76657 11.2357 25.0235
100 25 4 -1.29631 8.36501 10.9908 24.4363
101 26 2 0 5.41889 16.7482 28.6914
102 26 3 0.777813 5.42878 17.0668 27.7889
103 26 3 0.650449 6.21248 16.2184 28.7677
104 26 4 -1.42826 5.52174 16.7212 28.5857
105 27 2 0 10.6279 11.3734 10.1414
106 27 3 0.458348 11.0699 11.5502 9.31101
107 27 3 0.483937 10.8276 12.1345 10.6864
108 27 4 -0.942285 10.7101 11.4934 10.1049
109 28 2 0 15.9475 10.8326 24.6945
110 28 3 0.738797 15.1162 10.6525 24.2556
111 28 3 0.906035 16.5484 10.1715 24.3509
112 28 4 -1.64483 15.918 10.7249 24.5943
113 29 2 0 11.5595 11.3326 23.3639
114 29 3 0.661802 11.7586 12.1903 23.7394
115 29 3 0.732323 12.4138 10.9671 23.1341
116 29 4 -1.39413 11.6944 11.3956 23.3826
117 30 2 0 16.1704 5.57365 25.1622
118 30 3 0.778664 15.8063 6.29471 24.6486
119 30 3 0.916827 15.4058 5.07986 25.4583
120 30 4 -1.69549 16.0259 5.60274 25.1343
121 31 2 0 3.89537 5.42956 19.3888
122 31 3 0.735833 4.0811 5.82329 20.2412
123 31 3 0.708889 4.11777 6.11211 18.7556
124 31 4 -1.44472 3.94761 5.56734 19.4168
125 32 2 0 14.7039 7.58875 20.2915
126 32 3 1.09295 15.3927 7.50318 20.9506
127 32 3 1.1764 14.0465 8.1498 20.7028
128 32 4 -2.26935 14.7079 7.64962 20.4285
129 33 2 0 13.6307 10.6544 22.9191
130 33 3 0.896902 13.4169 9.95632 22.3
131 33 3 0.835605 12.7828 11.0215 23.1691
132 33 4 -1.73251 13.4948 10.612 22.8718
133 34 2 0 12.0067 14.052 24.1243
134 34 3 0.741804 12.8925 13.8405 24.4191
135 34 3 0.678152 11.7915 14.8676 24.5769
136 34 4 -1.41996 12.0926 14.1294 24.2199
137 35 2 0 15.5247 11.478 21.1819
138 35 3 0.455942 15.966 12.2623 21.508
139 35 3 0.641724 14.8021 11.3372 21.7937
140 35 4 -1.09767 15.4887 11.5604 21.302
141 36 2 0 10.2142 17.0704 32.9873
142 36 3 0.583692 9.4953 17.3117 32.4031
143 36 3 0.54576 9.78281 16.7689 33.7868
144 36 4 -1.12945 10.0669 17.0627 33.0148
145 37 2 0 17.3484 18.4644 32.7588
146 37 3 0.464258 16.5902 18.4856 32.1749
147 37 3 0.428285 17.0781 17.8995 33.4827
148 37 4 -0.892543 17.2167 18.3948 32.7767
149 38 2 0 1.79715 5.85111 22.1038
150 38 3 0.550953 1.07901 6.44406 21.8826
151 38 3 0.676578 1.50691 5.40995 22.9021
152 38 4 -1.22753 1.66807 5.87054 22.1776
153 39 2 0 13.6756 5.49601 17.0716
154 39 3 0.506561 13.4391 5.41869 16.1473
155 39 3 0.503897 12.8924 5.8528 17.4906
156 39 4 -1.01046 13.545 5.53178 17.0069
157 40 2 0 2.54509 13.5987 27.1662
158 40 3 0.745171 2.84801 12.7564 26.827
159 40 3 0.634888 2.89689 13.6399 28.0555
160 40 4 -1.38006 2.6289 13.4962 27.2366
161 41 2 0 7.62046 19.299 27.6068
162 41 3 0.524501 7.97682 18.6974 28.2604
163 41 3 0.628006 7.16189 18.7338 26.9851
164 41 4 -1.15251 7.60737 19.1497 27.6109
165 42 2 0 9.20382 15.1917 26.5883
166 42 3 0.648843 8.65509 15.4771 27.3188
167 42 3 0.80672 9.40692 14.2769 26.7838
168 42 4 -1.45556 9.15958 15.1111 26.7068
169 43 2 0 3.67492 13.2765 29.1652
170 43 3 0.667952 3.21487 13.3649 28.3305
171 43 3 0.737403 3.60092 14.1395 29.5726
172 43 4 -1.40535 3.60655 13.3983 29.1105
173 44 2 0 13.885 4.50362 25.8405
174 44 3 0.865172 13.1588 4.152 26.3555
175 44 3 0.775063 13.4635 4.99605 25.1362
176 44 4 -1.64024 13.7381 4.52164 25.8163
177 45 2 0 9.23123 8.93912 24.6805
178 45 3 0.74816 8.82318 9.79404 24.5432
179 45 3 0.622678 8.82823 8.37248 24.0226
180 45 4 -1.37084 9.12741 8.97603 24.5787
181 46 2 0 3.7081 11.4559 25.9946
182 46 3 0.646222 4.65938 11.432 25.8911
183 46 3 0.719496 3.4253 10.5578 25.8225
184 46 4 -1.36572 3.79367 11.3379 25.9593
185 47 2 0 1.35635 10.7624 23.6724
186 47 3 0.716519 2.00492 10.3766 24.2613
187 47 3 0.57535 0.620974 10.1499 23.691
188 47 4 -1.29187 1.34524 10.6346 23.7502
189 48 2 0 1.91086 6.82164 26.0215
190 48 3 0.983081 2.67714 6.35305 26.3523
191 48 3 0.974432 1.52295 6.22531 25.381
192 48 4 -1.95751 1.95929 6.68532 25.9818
193 49 2 0 10.9957 17.5773 27.4466
194 49 3 0.92519 11.2684 17.2023 26.6093
195 49 3 1.03302 11.6726 18.222 27.6527
196 49 4 -1.95821 11.1172 17.6118 27.3658
197 50 2 0 2.80443 8.96479 25.0165
198 50 3 0.841235 2.40004 8.23149 25.4802
199 50 3 0.533496 3.25276 8.56098 24.2734
200 50 4 -1.37473 2.81005 8.81923 24.9807
201 51 2 0 13.303 8.85186 21.1521
202 51 3 0.989512 12.5951 8.2597 21.4059
203 51 3 1.01224 13.9365 8.29071 20.7049
204 51 4 -2.00175 13.2935 8.70422 21.1273
205 52 2 0 1.77842 6.04341 30.4514
206 52 3 0.53583 1.47669 5.13924 30.3638
207 52 3 0.669682 1.26769 6.39737 31.1795
208 52 4 -1.20551 1.67441 5.97298 30.5334
209 53 2 0 6.26257 13.1014 28.009
210 53 3 0.667452 5.4659 12.9577 28.5197
211 53 3 0.630932 6.71479 13.8116 28.4644
212 53 4 -1.29838 6.21847 13.1739 28.1326
213 54 2 0 8.12152 17.9921 31.5885
214 54 3 0.416187 8.86189 18.0116 32.1949
215 54 3 0.64712 8.49064 17.6612 30.7697
216 54 4 -1.06331 8.26355 17.9522 31.5613
217 55 2 0 12.2704 17.1073 31.2082
218 55 3 0.462199 13.019 16.5147 31.277
219 55 3 0.677046 11.7031 16.8631 31.9395
220 55 4 -1.13925 12.2936 17.0002 31.3106
221 56 2 0 3.09396 9.37456 32.0285
222 56 3 0.470006 3.29531 9.90309 31.2563
223 56 3 0.556243 3.58937 8.56546 31.9014
224 56 4 -1.02625 3.18316 9.33864 31.9134
225 57 2 0 12.976 14.9443 28.4597
226 57 3 0.440126 13.7688 15.3848 28.7657
227 57 3 0.625499 13.2803 14.0925 28.1465
228 57 4 -1.06562 13.1164 14.8917 28.4588
229 58 2 0 2.59356 16.9952 39.306
230 58 3 0.492435 3.17027 16.4496 38.7713
231 58 3 0.467636 1.79649 17.0856 38.7838
232 58 4 -0.960071 2.56535 16.9369 39.1707
233 59 2 0 7.97877 15.5397 28.4182
234 59 3 0.866755 8.38961 16.3571 28.7
235 59 3 0.935207 8.42586 15.3153 27.6021
236 59 4 -1.80196 8.08859 15.6156 28.3498
237 60 2 0 9.54474 0.484573 28.5573
238 60 3 0.428251 9.34274 0.613177 29.4841
239 60 3 0.638446 8.78789 0.0126029 28.2099
240 60 4 -1.0667 9.422 0.440618 28.6315
241 61 2 0 9.9072 12.609 26.3643
242 61 3 0.729815 9.86066 12.4446 25.4225
243 61 3 0.718404 10.5275 11.9574 26.6913
244 61 4 -1.44822 9.98064 12.5046 26.2856
245 62 2 0 5.73651 7.50657 46.3943
246 62 3 0.442147 5.54414 7.99773 45.5955
247 62 3 0.445618 4.96542 7.63514 46.9466
248 62 4 -0.887765 5.61318 7.5859 46.3627
249 63 2 0 13.4166 6.48374 43.2701
250 63 3 0.45151 13.6516 5.55623 43.2431
251 63 3 0.529936 13.8592 6.86558 42.5121
252 63 4 -0.981446 13.5034 6.41388 43.1696
253 64 2 0 11.4137 10.8539 26.866
254 64 3 0.831358 10.8061 10.2135 27.2359
255 64 3 0.619965 10.8568 11.5825 26.5915
256 64 4 -1.45132 11.2646 10.8652 26.8782
257 65 2 0 0.616667 7.35747 32.5269
258 65 3 0.521797 17.5025 7.87707 32.7744
259 65 3 0.553897 1.36317 7.8556 32.8598
260 65 4 -1.07569 0.61432 7.48775 32.6012
261 66 2 0 4.74495 7.12096 28.4402
262 66 3 1.19359 5.50119 7.70624 28.4825
263 66 3 1.12277 4.3357 7.19504 29.3024
264 66 4 -2.31635 4.78937 7.20537 28.556
265 67 2 0 15.6711 8.31804 18.0061
266 67 3 0.479075 15.1805 7.68493 17.4819
267 67 3 0.601865 15.4988 8.06377 18.9127
268 67 4 -1.08094 15.5862 8.20445 18.0551
269 68 2 0 7.72906 11.1374 29.1602
270 68 3 0.603796 7.1561 11.7776 28.7382
271 68 3 0.530801 7.2414 10.3148 29.1186
272 68 4 -1.1346 7.59329 11.114 29.1008
273 69 2 0 12.5979 1.27739 26.8793
274 69 3 0.405679 11.7454 1.69452 26.7547
275 69 3 0.775313 12.3919 0.409136 27.2256
276 69 4 -1.18099 12.4624 1.21964 26.9077
277 70 2 0 6.12245 11.3884 25.806
278 70 3 0.69387 6.30452 11.9639 26.5489
279 70 3 0.634173 5.16713 11.3586 25.754
280 70 4 -1.32804 6.02346 11.4582 25.8945
281 71 2 0 4.18279 7.39283 30.4563
282 71 3 0.865089 4.52632 7.30951 29.5668
283 71 3 0.825253 3.33912 6.94138 30.431
284 71 4 -1.69034 4.11877 7.32437 30.3392
285 72 2 0 13.7205 18.0167 29.0934
286 72 3 0.758528 13.0988 17.6232 29.7057
287 72 3 0.731298 13.1754 18.5169 28.4861
288 72 4 -1.48983 13.5712 18.0303 29.094
289 73 2 0 8.98299 17.4529 29.123
290 73 3 0.927571 9.77278 17.5861 28.5989
291 73 3 0.694958 8.5836 16.6629 28.7588
292 73 4 -1.62253 9.03297 17.3688 29.0093
293 74 2 0 11.5385 16.069 25.1048
294 74 3 0.585095 11.1791 15.7768 25.9425
295 74 3 0.791319 11.6883 15.2616 24.6131
296 74 4 -1.37641 11.5117 15.9283 25.1491
297 75 2 0 3.67288 5.64779 26.6224
298 75 3 0.864096 4.10867 6.28485 27.1885
299 75 3 0.642704 2.86136 6.07955 26.3555
300 75 4 -1.5068 3.62478 5.78461 26.6607
301 76 2 0 9.73532 5.34377 27.7259
302 76 3 0.479223 9.17683 4.7861 28.2675
303 76 3 0.741249 10.5384 4.83648 27.6075
304 76 4 -1.22047 9.76662 5.20744 27.78
305 77 2 0 14.706 7.22408 41.1794
306 77 3 0.513014 14.1544 7.70762 40.5645
307 77 3 0.47516 14.1215 6.57043 41.5633
308 77 4 -0.988174 14.5606 7.2023 41.1499
309 78 2 0 12.4399 19.0104 27.61
310 78 3 1.00684 12.9897 18.5637 28.2538
311 78 3 1.11572 11.7055 18.4137 27.4663
312 78 4 -2.12256 12.4163 18.8768 27.674
313 79 2 0 6.26746 8.48023 28.6866
314 79 3 0.955442 5.50212 7.90804 28.631
315 79 3 0.891326 6.93518 8.03963 28.161
316 79 4 -1.84677 6.25497 8.35058 28.6122
317 80 2 0 8.30246 7.51685 27.4074
318 80 3 0.790931 8.83053 8.29231 27.5972
319 80 3 0.882046 8.85659 6.78016 27.6652
320 80 4 -1.67298 8.44099 7.52182 27.4647
321 81 2 0 9.49666 9.2699 27.9899
322 81 3 0.743643 8.80023 9.86142 28.2751
323 81 3 0.819372 9.05811 8.42963 27.8563
324 81 4 -1.56301 9.35137 9.23806 28.0093
