LAMMPS (2 Sep 2026)
OMP_NUM_THREADS environment is not set. Defaulting to 1 thread.
  using 1 OpenMP thread(s) per MPI task
# conductor demonstration, dynamics: arm samqeq, eta_Au 5.172 (run_dyn.py)
units           metal
atom_style      full
boundary        p p f
fix             pb all property/atom i_body ghost yes
read_data       data fix pb NULL RigidBodies
Reading data file ...
  orthogonal box = (0 0 0) to (17.650658 20.381224 60)
  1 by 1 by 1 MPI processor grid
  reading atoms ...
  564 atoms
  scanning bonds ...
  2 = max bonds/atom
  scanning angles ...
  1 = max angles/atom
  orthogonal box = (0 0 0) to (17.650658 20.381224 60)
  1 by 1 by 1 MPI processor grid
  reading bonds ...
  162 bonds
  reading angles ...
  81 angles
Finding 1-2 1-3 1-4 neighbors ...
  special bond factors lj:    0        0        0       
  special bond factors coul:  0        0        0       
     2 = max # of 1-2 neighbors
     1 = max # of 1-3 neighbors
     1 = max # of 1-4 neighbors
     2 = max # of special neighbors
  special bonds CPU = 0.000 seconds
  read_data CPU = 0.007 seconds
group           au   type 1
240 atoms in group au
group           water type 2 3 4
324 atoms in group water
group           fq   type 1 3 4
483 atoms in group fq
delete_atoms    group au bond yes
Deleted 240 atoms, new total = 324
Deleted 0 bonds, new total = 162
Deleted 0 angles, new total = 81
group           fq   type 3 4
243 atoms in group fq
pair_style      hybrid/overlay lj/cut 12.0 coul/long 12.0 coul/shield/intra 12.0 all gaussian
pair_coeff      * * lj/cut 0.0 1.0
pair_coeff      2 2 lj/cut 0.012412 3.159
pair_coeff      1 2 lj/cut 0.05 3.0            # illustrative Au-O term (not a fitted gold-water potential)
pair_coeff      * * coul/long
pair_coeff      1 1 coul/shield/intra 1.618
pair_coeff      2 2 coul/shield/intra 0.315328
pair_coeff      3 3 coul/shield/intra 0.404355
pair_coeff      4 4 coul/shield/intra 0.315328
special_bonds   lj/coul 1.0e-8 1.0e-8 1.0
Finding 1-2 1-3 1-4 neighbors ...
  special bond factors lj:    1e-08    1e-08    1       
  special bond factors coul:  1e-08    1e-08    1       
     2 = max # of 1-2 neighbors
     1 = max # of 1-3 neighbors
     2 = max # of special neighbors
  special bonds CPU = 0.000 seconds
kspace_style    pppm/samqeq 1.0e-6
kspace_modify   slab 3.0 mesh 24 28 80 gewald 0.35
Updated KSpace settings:
  KSpace computation is turned:    ON
  Use MPI collective operations:   OFF
  Use MPI non-blocking operations: OFF
  Gewald manually set to:          0.35
  Slab volfactor manually set to:    3
neighbor        2.0 bin
neigh_modify    every 1 delay 0 check yes
# per-molecule constraints
fix             chg fq qeq/sam 1 0.0 10.0 1.0e-8 param
fix_modify      chg shield gaussian
samqeq: lr-solve shielding = PQEq Gaussian erf(a_ij r)/r (param 4th col = Rc (Gaussian radius)); routed through compute_H + add_fixed_charge_field + the legacy gas path (calc_Hval)
fix_modify      chg energy yes
velocity        water create 298.0 4928459 mom yes rot yes dist gaussian
fix             rig water rigid/nvt/small custom i_body temp 298.0 298.0 0.1
Fix rigid/nvt/small setup ...
  create bodies CPU = 0.000 seconds
  81 rigid bodies with 324 atoms
  0.87348128 = max distance from body owner to body atom
variable        aq atom abs(q)
compute         qmax fq reduce max v_aq
thermo_style    custom step pe c_qmax
thermo          100
timestep        0.001
dump            dq all custom 1000 charges.lammpstrj id mol type q x y z
dump_modify     dq sort id
run             3000

CITE-CITE-CITE-CITE-CITE-CITE-CITE-CITE-CITE-CITE-CITE-CITE-CITE

Your simulation uses code contributions which should be cited:

- fix acks2/reaxff command: https://doi.org/10.1137/18M1224684

@Article{O'Hearn2020,
 author = {K. A. {O'Hearn} and A. Alperen and H. M. Aktulga},
 title = {Fast Solvers for Charge Distribution Models on Shared Memory Platforms},
 journal = {SIAM J.\ Sci.\ Comput.},
 year =    2020,
 volume =  42,
 number =  1,
 pages =   {1--22}
}

CITE-CITE-CITE-CITE-CITE-CITE-CITE-CITE-CITE-CITE-CITE-CITE-CITE

PPPM initialization ...
WARNING: Using kspace solver on system with no charge (src/kspace.cpp:317)
  using 12-bit tables for long-range coulomb
  G vector (1/distance) = 0.35
  grid = 24 30 80
  stencil order = 5
  estimated absolute RMS force accuracy = 0
  estimated relative force accuracy = 0
  using double precision FFTW3
  3d grid and FFT values/proc = 94054 57600
Generated 0 of 6 mixed pair_coeff terms from geometric mixing rule
WARNING: Bonds are defined but no bond style is set (src/force.cpp:165)
WARNING: Likewise 1-2 special neighbor interactions != 1.0 (src/force.cpp:167)
WARNING: Angles are defined but no angle style is set (src/force.cpp:170)
WARNING: Likewise 1-3 special neighbor interactions != 1.0 (src/force.cpp:172)
samqeq: E_self = sum(chi q + 1/2 eta qs^2) INCLUDED in pe/etotal (fix_modify chg energy yes; eselfref qs = q - q0) -- pe + E_self is the energy the forces integrate
Neighbor list info ...
  update: every = 1 steps, delay = 0 steps, check = yes
  max neighbors/atom: 2000, page size: 100000
  master list distance cutoff = 14
  ghost atom cutoff = 14
  binsize = 7, bins = 3 3 9
  5 neighbor lists, perpetual/occasional/extra = 5 0 0
  (1) pair lj/cut, perpetual, half/full from (5)
      attributes: half, newton on
      pair build: halffull/newton
      stencil: none
      bin: none
  (2) pair coul/long, perpetual, copy from (1)
      attributes: half, newton on
      pair build: copy
      stencil: none
      bin: none
  (3) pair coul/shield/intra, perpetual, skip from (1)
      attributes: half, newton on
      pair build: skip
      stencil: none
      bin: none
  (4) fix qeq/sam, perpetual, half/full from (5)
      attributes: half, newton off
      pair build: halffull/newtoff
      stencil: none
      bin: none
  (5) fix qeq/sam, perpetual
      attributes: full, newton on
      pair build: full/bin
      stencil: full/bin/3d
      bin: standard
samqeq: recip_self ACTIVE at run start (step 0): not yet calibrated -- measured at the first solve by the K=16 deterministic-probe route
samqeq: calibrated grid reciprocal self-term recip_self=0.39461 +/- 0.00022 (raw, K=16 deterministic probes) = 5.6822 eV/e (subtracted so the QEq diagonal stays = eta)
samqeq SOLVER-DIAG step 0: CG 18 iters (=18 matvecs), resid/b=4.55e-09
Per MPI rank memory allocation (min/avg/max) = 32.19 | 32.19 | 32.19 Mbytes
   Step         PotEng         c_qmax    
         0  -537.1019       1.2792977    
       100  -549.99002      1.457661     
samqeq SOLVER-DIAG step 200: CG 20 iters (=20 matvecs), resid/b=4.36e-09
       200  -576.70756      1.4936202    
       300  -659.01395      2.047643     
samqeq SOLVER-DIAG step 400: CG 21 iters (=21 matvecs), resid/b=6.70e-09
       400  -642.04987      1.6418178    
       500  -709.85987      1.9838144    
samqeq SOLVER-DIAG step 600: CG 23 iters (=23 matvecs), resid/b=8.56e-09
       600  -744.82326      2.1685702    
       700  -763.88058      1.9924008    
samqeq SOLVER-DIAG step 800: CG 24 iters (=24 matvecs), resid/b=9.10e-09
       800  -804.64728      2.2909672    
WARNING: samqeq: near-critical config at step 813 bounded with adaptive ridge=0.5 eV (max|q|=2.115) [1 engaged solves so far] (src/SAMQEQ/fix_qeq_sam_lr.cpp:2197)
WARNING: samqeq: near-critical config at step 840 bounded with adaptive ridge=0.5 eV (max|q|=2.212) [2 engaged solves so far] (src/SAMQEQ/fix_qeq_sam_lr.cpp:2197)
       900  -702.63123      2.3455406    
samqeq SOLVER-DIAG step 1000: CG 23 iters (=23 matvecs), resid/b=9.71e-09, ridge=0 (engaged 2 solves)
      1000  -684.84879      2.5986251    
WARNING: samqeq: near-critical config at step 1024 bounded with adaptive ridge=0.5 eV (max|q|=2.182) [3 engaged solves so far] (src/SAMQEQ/fix_qeq_sam_lr.cpp:2197)
      1100  -650.99053      2.027948     
samqeq SOLVER-DIAG step 1200: CG 22 iters (=22 matvecs), resid/b=7.03e-09, ridge=0 (engaged 3 solves)
      1200  -647.6175       1.845281     
WARNING: samqeq: near-critical config at step 1288 bounded with adaptive ridge=0.5 eV (max|q|=2.166) [4 engaged solves so far] (src/SAMQEQ/fix_qeq_sam_lr.cpp:2197)
      1300  -622.51969      1.8435639    
samqeq SOLVER-DIAG step 1400: CG 23 iters (=23 matvecs), resid/b=9.85e-09, ridge=0 (engaged 4 solves)
      1400  -715.29956      3.007053     
WARNING: samqeq: near-critical config at step 1406 bounded with adaptive ridge=0.5 eV (max|q|=2.151) [5 engaged solves so far] (src/SAMQEQ/fix_qeq_sam_lr.cpp:2197)
      1500  -616.55773      1.8609757    
samqeq SOLVER-DIAG step 1600: CG 23 iters (=23 matvecs), resid/b=4.11e-09, ridge=0 (engaged 5 solves)
      1600  -652.65781      1.9675305    
      1700  -677.84003      1.8785974    
samqeq SOLVER-DIAG step 1800: CG 22 iters (=22 matvecs), resid/b=7.79e-09, ridge=0 (engaged 6 solves)
      1800  -665.01969      1.8325854    
      1900  -715.08868      2.1259488    
samqeq SOLVER-DIAG step 2000: CG 23 iters (=23 matvecs), resid/b=4.05e-09, ridge=0 (engaged 7 solves)
      2000  -712.18496      1.9136598    
      2100  -588.4325       1.7630312    
samqeq SOLVER-DIAG step 2200: CG 21 iters (=21 matvecs), resid/b=6.24e-09, ridge=0 (engaged 8 solves)
      2200  -578.37876      1.7886483    
      2300  -592.53286      1.9248187    
samqeq SOLVER-DIAG step 2400: CG 21 iters (=21 matvecs), resid/b=9.42e-09, ridge=0 (engaged 8 solves)
      2400  -647.3318       1.7399152    
      2500  -658.70749      1.8219826    
samqeq SOLVER-DIAG step 2600: CG 23 iters (=23 matvecs), resid/b=5.17e-09, ridge=0 (engaged 8 solves)
      2600  -673.61273      2.1297847    
      2700  -744.61786      2.3674749    
samqeq SOLVER-DIAG step 2800: CG 23 iters (=23 matvecs), resid/b=5.26e-09, ridge=0 (engaged 8 solves)
      2800  -753.61867      1.9302914    
      2900  -761.63764      2.1103063    
samqeq SOLVER-DIAG step 3000: CG 25 iters (=25 matvecs), resid/b=6.29e-09, ridge=0 (engaged 8 solves)
      3000  -853.93343      2.3163542    
Loop time of 203.835 on 1 procs for 3000 steps with 324 atoms

Performance: 1.272 ns/day, 18.874 hours/ns, 14.718 timesteps/s, 4.769 katom-step/s
100.0% CPU use with 1 MPI tasks x 1 OpenMP threads

MPI task timing breakdown:
Section |  min time  |  avg time  |  max time  |%varavg| %total
---------------------------------------------------------------
Pair    | 6.8624     | 6.8624     | 6.8624     |   0.0 |  3.37
Bond    | 0.0012012  | 0.0012012  | 0.0012012  |   0.0 |  0.00
Kspace  | 16.408     | 16.408     | 16.408     |   0.0 |  8.05
Neigh   | 0.65458    | 0.65458    | 0.65458    |   0.0 |  0.32
Comm    | 0.058958   | 0.058958   | 0.058958   |   0.0 |  0.03
Output  | 0.0028625  | 0.0028625  | 0.0028625  |   0.0 |  0.00
Modify  | 179.82     | 179.82     | 179.82     |   0.0 | 88.22
Other   |            | 0.02471    |            |       |  0.01

Nlocal:            324 ave         324 max         324 min
Histogram: 1 0 0 0 0 0 0 0 0 0
Nghost:           1834 ave        1834 max        1834 min
Histogram: 1 0 0 0 0 0 0 0 0 0
Neighs:          60935 ave       60935 max       60935 min
Histogram: 1 0 0 0 0 0 0 0 0 0
FullNghs:       121870 ave      121870 max      121870 min
Histogram: 1 0 0 0 0 0 0 0 0 0

Total # of neighbors = 121870
Ave neighs/atom = 376.14198
Ave special neighs/atom = 1.5
Neighbor list builds = 193
Dangerous builds = 0
print           "DYN_DONE" file done.txt screen no
Total wall time: 0:03:23
