ITEM: TIMESTEP
500
ITEM: NUMBER OF ATOMS
1600
ITEM: BOX BOUNDS pp pp pp
0.0000000000000000e+00 3.6149999999999999e+01
0.0000000000000000e+00 3.6149999999999999e+01
0.0000000000000000e+00 1.5834399999999999e+02
ITEM: ATOMS id mol z q
1 90001 25.9995 -0.00424525
2 90001 25.9995 0.000166274
3 90001 27.8065 0.00164772
4 90001 27.8065 -0.00161241
5 90001 29.6145 0.000401578
6 90001 29.6145 -0.00152509
7 90001 31.4215 -0.0227026
8 90001 31.4215 0.00314256
9 90001 25.9995 0.0010538
10 90001 25.9995 -0.00287023
11 90001 27.8065 -0.00261003
12 90001 27.8065 0.000929348
13 90001 29.6145 0.000606904
14 90001 29.6145 0.00341702
15 90001 31.4215 -0.00314247
16 90001 31.4215 -0.0326974
17 90001 25.9995 -0.00170052
18 90001 25.9995 -0.00105089
19 90001 27.8065 0.00128794
20 90001 27.8065 0.00217149
21 90001 29.6145 -0.000617996
22 90001 29.6145 -0.00224349
23 90001 31.4215 -0.0170844
24 90001 31.4215 -0.0299632
25 90001 25.9995 0.00024534
26 90001 25.9995 -0.00208282
27 90001 27.8065 0.00106303
28 90001 27.8065 -0.000820312
29 90001 29.6145 -0.0044923
30 90001 29.6145 -0.00119382
31 90001 31.4215 -0.0012953
32 90001 31.4215 0.00587316
33 90001 25.9995 -0.0034062
34 90001 25.9995 -0.00119532
35 90001 27.8065 0.00339069
36 90001 27.8065 0.00405996
37 90001 29.6145 -0.000442878
38 90001 29.6145 -0.00130652
39 90001 31.4215 0.00742337
40 90001 31.4215 0.00471655
41 90001 25.9995 0.00144739
42 90001 25.9995 0.00221032
43 90001 27.8065 -0.00198172
44 90001 27.8065 -0.00243495
45 90001 29.6145 0.000948921
46 90001 29.6145 0.000739825
47 90001 31.4215 0.00719415
48 90001 31.4215 0.00660807
49 90001 25.9995 0.000218875
50 90001 25.9995 0.000646305
51 90001 27.8065 -0.000909271
52 90001 27.8065 -0.00159507
53 90001 29.6145 0.000658635
54 90001 29.6145 0.00245415
55 90001 31.4215 -0.0173809
56 90001 31.4215 -0.00551383
57 90001 25.9995 -0.000136909
58 90001 25.9995 -0.000686207
59 90001 27.8065 -0.000845252
60 90001 27.8065 -0.00179588
61 90001 29.6145 -0.000391246
62 90001 29.6145 0.00138445
63 90001 31.4215 0.0358109
64 90001 31.4215 0.00784573
65 90001 25.9995 -0.000466213
66 90001 25.9995 -0.00277082
67 90001 27.8065 -0.00396212
68 90001 27.8065 -0.001992
69 90001 29.6145 0.00114393
70 90001 29.6145 -0.00105583
71 90001 31.4215 -0.00973397
72 90001 31.4215 0.035559
73 90001 25.9995 0.000896915
74 90001 25.9995 -0.00192214
75 90001 27.8065 0.00258414
76 90001 27.8065 0.0015583
77 90001 29.6145 0.00280698
78 90001 29.6145 -0.000394615
79 90001 31.4215 0.0126122
80 90001 31.4215 0.0114829
81 90001 25.9995 0.00114752
82 90001 25.9995 0.000468191
83 90001 27.8065 -0.00144336
84 90001 27.8065 -0.00177549
85 90001 29.6145 0.00293918
86 90001 29.6145 0.0059518
87 90001 31.4215 -0.000194933
88 90001 31.4215 0.0280955
89 90001 25.9995 0.000721631
90 90001 25.9995 -0.00278566
91 90001 27.8065 0.00148647
92 90001 27.8065 0.000862774
93 90001 29.6145 -0.000895061
94 90001 29.6145 5.82013e-05
95 90001 31.4215 -0.0285382
96 90001 31.4215 0.0257958
97 90001 25.9995 -0.00014624
98 90001 25.9995 -0.00142763
99 90001 27.8065 0.000599426
100 90001 27.8065 -0.00264744
101 90001 29.6145 -0.00146243
102 90001 29.6145 0.000331869
103 90001 31.4215 -0.0105468
104 90001 31.4215 -0.0212456
105 90001 25.9995 -0.000525224
106 90001 25.9995 -0.000836373
107 90001 27.8065 0.00070012
108 90001 27.8065 0.00294232
109 90001 29.6145 0.00350587
110 90001 29.6145 -0.00299862
111 90001 31.4215 -0.0115929
112 90001 31.4215 0.0106048
113 90001 25.9995 -0.00314202
114 90001 25.9995 -0.00100303
115 90001 27.8065 0.00264493
116 90001 27.8065 0.00129896
117 90001 29.6145 -0.00427783
118 90001 29.6145 0.000629521
119 90001 31.4215 0.00255467
120 90001 31.4215 -0.0131946
121 90001 25.9995 -0.000937608
122 90001 25.9995 0.00102986
123 90001 27.8065 -0.0012101
124 90001 27.8065 -0.000386081
125 90001 29.6145 -0.00106295
126 90001 29.6145 0.00195349
127 90001 31.4215 -0.00333614
128 90001 31.4215 0.00556116
129 90001 25.9995 0.00210776
130 90001 25.9995 0.00458081
131 90001 27.8065 -0.00512601
132 90001 27.8065 -0.00635602
133 90001 29.6145 0.00115679
134 90001 29.6145 0.00518171
135 90001 31.4215 0.0114634
136 90001 31.4215 -0.00821308
137 90001 25.9995 -9.65244e-05
138 90001 25.9995 0.00157538
139 90001 27.8065 -0.00281214
140 90001 27.8065 -0.00533919
141 90001 29.6145 0.00571433
142 90001 29.6145 0.00141229
143 90001 31.4215 0.0142071
144 90001 31.4215 0.00568127
145 90001 25.9995 0.00165935
146 90001 25.9995 -0.000382279
147 90001 27.8065 -0.000118126
148 90001 27.8065 -0.000978807
149 90001 29.6145 -0.00294107
150 90001 29.6145 -0.000572217
151 90001 31.4215 0.0084379
152 90001 31.4215 0.00976688
153 90001 25.9995 -0.0019924
154 90001 25.9995 -0.00164105
155 90001 27.8065 0.00264759
156 90001 27.8065 0.00131631
157 90001 29.6145 0.00121729
158 90001 29.6145 0.000972603
159 90001 31.4215 0.0301846
160 90001 31.4215 -0.00624352
161 90001 25.9995 0.000425377
162 90001 25.9995 0.00290095
163 90001 27.8065 -0.000281568
164 90001 27.8065 -0.00166118
165 90001 29.6145 0.00413896
166 90001 29.6145 -0.000971297
167 90001 31.4215 0.02326
168 90001 31.4215 -0.0163694
169 90001 25.9995 -0.0015849
170 90001 25.9995 -0.0019863
171 90001 27.8065 0.00277263
172 90001 27.8065 0.00112946
173 90001 29.6145 0.00207854
174 90001 29.6145 0.00144847
175 90001 31.4215 0.00502594
176 90001 31.4215 0.00367567
177 90001 25.9995 0.001197
178 90001 25.9995 -0.00194004
179 90001 27.8065 0.000976756
180 90001 27.8065 0.00175238
181 90001 29.6145 -0.00112194
182 90001 29.6145 -0.000385771
183 90001 31.4215 0.0101182
184 90001 31.4215 0.00451496
185 90001 25.9995 -0.004441
186 90001 25.9995 -0.00360294
187 90001 27.8065 0.0031635
188 90001 27.8065 0.00304074
189 90001 29.6145 0.000799178
190 90001 29.6145 -0.00118468
191 90001 31.4215 0.00147733
192 90001 31.4215 0.00719213
193 90001 25.9995 -0.00202985
194 90001 25.9995 -0.000936249
195 90001 27.8065 0.000447075
196 90001 27.8065 0.00142097
197 90001 29.6145 -0.000819885
198 90001 29.6145 0.00181774
199 90001 31.4215 0.00903608
200 90001 31.4215 -0.00153903
201 90001 25.9995 0.000593556
202 90001 25.9995 -0.000499025
203 90001 27.8065 -0.00364188
204 90001 27.8065 9.20593e-05
205 90001 29.6145 0.00350917
206 90001 29.6145 0.00121018
207 90001 31.4215 0.00644528
208 90001 31.4215 0.0127597
209 90001 25.9995 0.0035281
210 90001 25.9995 -0.00187628
211 90001 27.8065 -0.00170654
212 90001 27.8065 4.79817e-05
213 90001 29.6145 0.00138548
214 90001 29.6145 0.00157298
215 90001 31.4215 0.00316763
216 90001 31.4215 0.0184541
217 90001 25.9995 0.00132131
218 90001 25.9995 -0.000453008
219 90001 27.8065 -0.00390992
220 90001 27.8065 0.000897305
221 90001 29.6145 0.00296245
222 90001 29.6145 -0.00129624
223 90001 31.4215 0.000642197
224 90001 31.4215 0.00113458
225 90001 25.9995 0.000513021
226 90001 25.9995 0.00394915
227 90001 27.8065 -0.00181821
228 90001 27.8065 -0.00276532
229 90001 29.6145 0.00333092
230 90001 29.6145 -0.00271153
231 90001 31.4215 0.000884392
232 90001 31.4215 -0.00144963
233 90001 25.9995 -0.000559588
234 90001 25.9995 0.00135997
235 90001 27.8065 -0.0014242
236 90001 27.8065 -0.00150663
237 90001 29.6145 -0.00145425
238 90001 29.6145 0.00224624
239 90001 31.4215 -0.0132028
240 90001 31.4215 -0.0215567
241 90001 25.9995 0.00352812
242 90001 25.9995 -0.000454552
243 90001 27.8065 0.00062858
244 90001 27.8065 0.00014899
245 90001 29.6145 -0.000538943
246 90001 29.6145 0.000424575
247 90001 31.4215 -0.0087142
248 90001 31.4215 -0.00960923
249 90001 25.9995 -0.00306638
250 90001 25.9995 0.000527694
251 90001 27.8065 0.00209789
252 90001 27.8065 0.00351066
253 90001 29.6145 0.000537209
254 90001 29.6145 -0.0023654
255 90001 31.4215 0.00550987
256 90001 31.4215 0.00104442
257 90001 25.9995 -0.00239798
258 90001 25.9995 -0.000199377
259 90001 27.8065 0.00102528
260 90001 27.8065 0.000476511
261 90001 29.6145 0.00248966
262 90001 29.6145 0.00339861
263 90001 31.4215 -0.00195782
264 90001 31.4215 -0.00162888
265 90001 25.9995 -0.00138862
266 90001 25.9995 -0.00106012
267 90001 27.8065 0.000524266
268 90001 27.8065 -0.00111217
269 90001 29.6145 -0.00181879
270 90001 29.6145 -0.000811276
271 90001 31.4215 0.00191902
272 90001 31.4215 -0.0204179
273 90001 25.9995 0.000295102
274 90001 25.9995 0.000614629
275 90001 27.8065 0.000824207
276 90001 27.8065 0.000599494
277 90001 29.6145 -0.00122566
278 90001 29.6145 -0.00144926
279 90001 31.4215 -0.000458596
280 90001 31.4215 0.00791524
281 90001 25.9995 -0.00121272
282 90001 25.9995 -0.00342808
283 90001 27.8065 0.00486883
284 90001 27.8065 0.00238413
285 90001 29.6145 -0.00107287
286 90001 29.6145 -0.000823885
287 90001 31.4215 0.00586369
288 90001 31.4215 -0.0087351
289 90001 25.9995 -0.00455852
290 90001 25.9995 -0.00039037
291 90001 27.8065 0.0015995
292 90001 27.8065 0.00508324
293 90001 29.6145 -0.00268975
294 90001 29.6145 -0.00115035
295 90001 31.4215 0.0101997
296 90001 31.4215 0.0262588
297 90001 25.9995 -0.000241319
298 90001 25.9995 0.000130683
299 90001 27.8065 0.00166873
300 90001 27.8065 -2.44808e-05
301 90001 29.6145 -0.00378024
302 90001 29.6145 -0.00137209
303 90001 31.4215 -0.0271767
304 90001 31.4215 0.0124005
305 90001 25.9995 -0.00165666
306 90001 25.9995 -0.00110827
307 90001 27.8065 -0.00150299
308 90001 27.8065 -0.00174066
309 90001 29.6145 -0.00370988
310 90001 29.6145 0.000919151
311 90001 31.4215 0.00905877
312 90001 31.4215 -0.0276515
313 90001 25.9995 0.000635685
314 90001 25.9995 0.00109089
315 90001 27.8065 -0.00251639
316 90001 27.8065 0.00126878
317 90001 29.6145 0.0030264
318 90001 29.6145 0.000186904
319 90001 31.4215 -0.00978999
320 90001 31.4215 -0.00039295
321 90001 25.9995 -0.00265327
322 90001 25.9995 -0.00352301
323 90001 27.8065 0.000484414
324 90001 27.8065 0.000823117
325 90001 29.6145 0.00135138
326 90001 29.6145 0.000271228
327 90001 31.4215 -0.0287338
328 90001 31.4215 -0.0246197
329 90001 25.9995 0.000654797
330 90001 25.9995 0.000944069
331 90001 27.8065 0.000156243
332 90001 27.8065 0.000764647
333 90001 29.6145 -0.00143316
334 90001 29.6145 0.00610099
335 90001 31.4215 -0.0120816
336 90001 31.4215 0.00136493
337 90001 25.9995 0.000298286
338 90001 25.9995 0.00249008
339 90001 27.8065 -0.00119824
340 90001 27.8065 -0.00237023
341 90001 29.6145 0.00241203
342 90001 29.6145 0.000272965
343 90001 31.4215 -0.0605182
344 90001 31.4215 -0.0097839
345 90001 25.9995 -7.00481e-05
346 90001 25.9995 0.000336962
347 90001 27.8065 0.00218681
348 90001 27.8065 -0.00328361
349 90001 29.6145 -0.00176844
350 90001 29.6145 0.000903998
351 90001 31.4215 -0.03032
352 90001 31.4215 -0.0641032
353 90001 25.9995 -0.00269016
354 90001 25.9995 0.00206889
355 90001 27.8065 0.00253252
356 90001 27.8065 -0.00164156
357 90001 29.6145 0.000503017
358 90001 29.6145 0.000475053
359 90001 31.4215 0.0178969
360 90001 31.4215 0.00325557
361 90001 25.9995 -0.00252523
362 90001 25.9995 -0.00484434
363 90001 27.8065 0.00324243
364 90001 27.8065 -0.000576586
365 90001 29.6145 0.000378306
366 90001 29.6145 0.00144414
367 90001 31.4215 -0.0022286
368 90001 31.4215 0.00533308
369 90001 25.9995 -3.99087e-05
370 90001 25.9995 0.000400135
371 90001 27.8065 -0.00229538
372 90001 27.8065 -0.00139103
373 90001 29.6145 -0.00384152
374 90001 29.6145 0.00333205
375 90001 31.4215 0.0432545
376 90001 31.4215 0.0144923
377 90001 25.9995 9.22164e-05
378 90001 25.9995 -0.00318653
379 90001 27.8065 -0.00209409
380 90001 27.8065 -0.00294293
381 90001 29.6145 0.00481586
382 90001 29.6145 0.00421225
383 90001 31.4215 -0.00393404
384 90001 31.4215 0.0184168
385 90001 25.9995 0.000275715
386 90001 25.9995 -0.00171199
387 90001 27.8065 0.000907639
388 90001 27.8065 0.00048131
389 90001 29.6145 -0.000181608
390 90001 29.6145 0.00299842
391 90001 31.4215 -0.0136498
392 90001 31.4215 0.00146846
393 90001 25.9995 -0.000910889
394 90001 25.9995 0.00175947
395 90001 27.8065 0.00124776
396 90001 27.8065 -0.00171234
397 90001 29.6145 -0.000916931
398 90001 29.6145 -0.00182247
399 90001 31.4215 -0.00849065
400 90001 31.4215 -0.00568655
401 90001 25.9995 0.001536
402 90001 25.9995 -0.00336603
403 90001 27.8065 0.00171599
404 90001 27.8065 -0.00189677
405 90001 29.6145 2.95905e-05
406 90001 29.6145 0.000384793
407 90001 31.4215 -0.00916483
408 90001 31.4215 0.00846839
409 90001 25.9995 0.000839553
410 90001 25.9995 -0.00126901
411 90001 27.8065 -0.00279246
412 90001 27.8065 0.00144094
413 90001 29.6145 0.000993159
414 90001 29.6145 -0.00126509
415 90001 31.4215 0.0237325
416 90001 31.4215 -0.00155206
417 90001 25.9995 -0.00176596
418 90001 25.9995 -0.00212105
419 90001 27.8065 -0.00269129
420 90001 27.8065 0.00204353
421 90001 29.6145 0.00472845
422 90001 29.6145 0.000808784
423 90001 31.4215 -0.0401622
424 90001 31.4215 -0.029546
425 90001 25.9995 0.00288728
426 90001 25.9995 -5.58825e-05
427 90001 27.8065 -0.00315007
428 90001 27.8065 -0.00313199
429 90001 29.6145 -0.000143895
430 90001 29.6145 0.00272237
431 90001 31.4215 0.00992662
432 90001 31.4215 0.020764
433 90001 25.9995 0.00173188
434 90001 25.9995 0.00196405
435 90001 27.8065 -0.00620943
436 90001 27.8065 -0.00131445
437 90001 29.6145 0.000233103
438 90001 29.6145 -0.000666365
439 90001 31.4215 0.0123289
440 90001 31.4215 -0.000388643
441 90001 25.9995 0.00279155
442 90001 25.9995 0.000585217
443 90001 27.8065 -0.000991437
444 90001 27.8065 -0.00195297
445 90001 29.6145 0.00131619
446 90001 29.6145 0.0017456
447 90001 31.4215 0.0156278
448 90001 31.4215 0.00231364
449 90001 25.9995 -0.000193839
450 90001 25.9995 0.000541072
451 90001 27.8065 -0.00444556
452 90001 27.8065 -0.00277007
453 90001 29.6145 0.00496459
454 90001 29.6145 0.00029754
455 90001 31.4215 0.00527698
456 90001 31.4215 0.00758129
457 90001 25.9995 -0.00198673
458 90001 25.9995 -0.00261113
459 90001 27.8065 -0.00036981
460 90001 27.8065 0.00118879
461 90001 29.6145 0.00286511
462 90001 29.6145 0.000152819
463 90001 31.4215 0.00450569
464 90001 31.4215 0.00660649
465 90001 25.9995 -0.00107596
466 90001 25.9995 -0.00119459
467 90001 27.8065 -0.00119788
468 90001 27.8065 -0.000358564
469 90001 29.6145 0.00161214
470 90001 29.6145 0.000823638
471 90001 31.4215 -0.00115498
472 90001 31.4215 0.00685961
473 90001 25.9995 -0.00163031
474 90001 25.9995 0.000137185
475 90001 27.8065 -0.00196322
476 90001 27.8065 0.00137051
477 90001 29.6145 0.00105311
478 90001 29.6145 -0.000345492
479 90001 31.4215 -0.0011583
480 90001 31.4215 0.0121804
481 90001 25.9995 -0.00115181
482 90001 25.9995 0.000266665
483 90001 27.8065 0.00282151
484 90001 27.8065 0.000452371
485 90001 29.6145 0.00214092
486 90001 29.6145 -0.00147354
487 90001 31.4215 0.00850935
488 90001 31.4215 0.00219136
489 90001 25.9995 -0.00105425
490 90001 25.9995 -0.00116774
491 90001 27.8065 0.00113002
492 90001 27.8065 0.00219292
493 90001 29.6145 -0.00118838
494 90001 29.6145 -0.00197814
495 90001 31.4215 -0.0248967
496 90001 31.4215 -0.00436524
497 90001 25.9995 -0.000358699
498 90001 25.9995 -0.00168696
499 90001 27.8065 0.000332103
500 90001 27.8065 0.00146942
501 90001 29.6145 -0.00337611
502 90001 29.6145 -0.000764242
503 90001 31.4215 -0.019612
504 90001 31.4215 -0.00607432
505 90001 25.9995 0.000475406
506 90001 25.9995 -0.000343546
507 90001 27.8065 -0.00267842
508 90001 27.8065 -0.00161438
509 90001 29.6145 0.00139887
510 90001 29.6145 -0.00232168
511 90001 31.4215 -0.0124426
512 90001 31.4215 -0.00341653
513 90001 25.9995 -0.00268002
514 90001 25.9995 -0.00100759
515 90001 27.8065 0.00105379
516 90001 27.8065 0.00104759
517 90001 29.6145 0.000186348
518 90001 29.6145 -0.00191955
519 90001 31.4215 -0.00501634
520 90001 31.4215 0.00516632
521 90001 25.9995 -0.000498769
522 90001 25.9995 -0.000923847
523 90001 27.8065 -0.000502302
524 90001 27.8065 -0.000304794
525 90001 29.6145 -0.00134327
526 90001 29.6145 0.00474229
527 90001 31.4215 0.0138508
528 90001 31.4215 -0.0111211
529 90001 25.9995 -0.00200833
530 90001 25.9995 -0.0039411
531 90001 27.8065 0.00378548
532 90001 27.8065 0.000614007
533 90001 29.6145 -0.00163457
534 90001 29.6145 -0.00184413
535 90001 31.4215 0.00848941
536 90001 31.4215 0.0720287
537 90001 25.9995 -0.00544267
538 90001 25.9995 -0.00119094
539 90001 27.8065 0.00139268
540 90001 27.8065 0.00420371
541 90001 29.6145 0.000698281
542 90001 29.6145 -0.00574899
543 90001 31.4215 0.029089
544 90001 31.4215 0.0243274
545 90001 25.9995 -0.000128513
546 90001 25.9995 -0.000546468
547 90001 27.8065 0.00108804
548 90001 27.8065 -0.000341919
549 90001 29.6145 -0.00577627
550 90001 29.6145 -0.00420116
551 90001 31.4215 0.0127445
552 90001 31.4215 -0.0108908
553 90001 25.9995 -0.00176775
554 90001 25.9995 -0.00229587
555 90001 27.8065 0.000417046
556 90001 27.8065 0.000662872
557 90001 29.6145 0.00416507
558 90001 29.6145 -0.000406993
559 90001 31.4215 0.0269705
560 90001 31.4215 0.0182607
561 90001 25.9995 -0.000664953
562 90001 25.9995 0.00191368
563 90001 27.8065 -0.00173934
564 90001 27.8065 -0.00194142
565 90001 29.6145 6.42188e-05
566 90001 29.6145 -0.000290174
567 90001 31.4215 0.00181212
568 90001 31.4215 -0.00168506
569 90001 25.9995 -0.00264066
570 90001 25.9995 0.00270279
571 90001 27.8065 0.000961823
572 90001 27.8065 -0.00340955
573 90001 29.6145 0.00158385
574 90001 29.6145 0.000168101
575 90001 31.4215 -0.0100522
576 90001 31.4215 -0.0161326
577 90001 25.9995 -0.003051
578 90001 25.9995 -0.00152218
579 90001 27.8065 -0.00116023
580 90001 27.8065 -0.00203853
581 90001 29.6145 0.000422677
582 90001 29.6145 -0.00019994
583 90001 31.4215 -0.00220423
584 90001 31.4215 -0.0123826
585 90001 25.9995 -0.000656082
586 90001 25.9995 -0.0034728
587 90001 27.8065 -0.000178702
588 90001 27.8065 -0.00159699
589 90001 29.6145 -0.00266501
590 90001 29.6145 0.000719936
591 90001 31.4215 0.00143599
592 90001 31.4215 0.00644443
593 90001 25.9995 -0.00144828
594 90001 25.9995 -0.00131616
595 90001 27.8065 4.86521e-05
596 90001 27.8065 -0.000875275
597 90001 29.6145 -0.00351221
598 90001 29.6145 0.00217863
599 90001 31.4215 -0.0223617
600 90001 31.4215 0.0174735
601 90001 25.9995 -0.0012412
602 90001 25.9995 -0.00176159
603 90001 27.8065 -0.00348881
604 90001 27.8065 -0.000610447
605 90001 29.6145 -0.00114691
606 90001 29.6145 0.00185803
607 90001 31.4215 0.0375805
608 90001 31.4215 -0.0196754
609 90001 25.9995 0.000429252
610 90001 25.9995 -0.00399006
611 90001 27.8065 0.00344226
612 90001 27.8065 -0.00138129
613 90001 29.6145 0.00390212
614 90001 29.6145 -0.00117466
615 90001 31.4215 0.0612983
616 90001 31.4215 0.0253292
617 90001 25.9995 -0.00300975
618 90001 25.9995 -0.00297879
619 90001 27.8065 0.00129378
620 90001 27.8065 0.004307
621 90001 29.6145 -0.00295475
622 90001 29.6145 -0.00891078
623 90001 31.4215 -0.0186334
624 90001 31.4215 0.00803947
625 90001 25.9995 -0.000682846
626 90001 25.9995 -0.00294519
627 90001 27.8065 -0.000571344
628 90001 27.8065 0.00348194
629 90001 29.6145 -0.00786497
630 90001 29.6145 -0.000826822
631 90001 31.4215 -0.0211878
632 90001 31.4215 0.00298953
633 90001 25.9995 -9.56662e-07
634 90001 25.9995 -0.0024213
635 90001 27.8065 0.00223299
636 90001 27.8065 0.00138662
637 90001 29.6145 -0.00319209
638 90001 29.6145 -0.00423492
639 90001 31.4215 -0.0233596
640 90001 31.4215 0.000639585
641 90001 25.9995 -0.000562328
642 90001 25.9995 0.000650797
643 90001 27.8065 -1.78612e-05
644 90001 27.8065 0.00212418
645 90001 29.6145 -0.00417001
646 90001 29.6145 -0.00384708
647 90001 31.4215 -0.00769418
648 90001 31.4215 0.0097031
649 90001 25.9995 0.00112846
650 90001 25.9995 -0.0022482
651 90001 27.8065 -0.00220083
652 90001 27.8065 0.00155447
653 90001 29.6145 -0.000245052
654 90001 29.6145 -0.00235978
655 90001 31.4215 -0.031852
656 90001 31.4215 -0.0208737
657 90001 25.9995 0.00116136
658 90001 25.9995 -0.00229174
659 90001 27.8065 0.000307625
660 90001 27.8065 0.00294713
661 90001 29.6145 -0.00591421
662 90001 29.6145 -0.0017069
663 90001 31.4215 0.013851
664 90001 31.4215 -0.0114236
665 90001 25.9995 0.00136687
666 90001 25.9995 -0.000459454
667 90001 27.8065 -0.00226149
668 90001 27.8065 -0.00160561
669 90001 29.6145 0.00119033
670 90001 29.6145 -0.00157915
671 90001 31.4215 0.0330693
672 90001 31.4215 0.0468494
673 90001 25.9995 -0.000651388
674 90001 25.9995 2.26516e-05
675 90001 27.8065 -0.00170318
676 90001 27.8065 -0.000193206
677 90001 29.6145 0.00482387
678 90001 29.6145 -8.12941e-05
679 90001 31.4215 0.0733524
680 90001 31.4215 0.0586125
681 90001 25.9995 -0.00366983
682 90001 25.9995 -0.00118116
683 90001 27.8065 0.000715075
684 90001 27.8065 0.0002717
685 90001 29.6145 -0.000570432
686 90001 29.6145 0.00113643
687 90001 31.4215 0.0342168
688 90001 31.4215 0.0212767
689 90001 25.9995 0.00112743
690 90001 25.9995 0.000139611
691 90001 27.8065 -0.000772878
692 90001 27.8065 -0.00124372
693 90001 29.6145 -0.00334342
694 90001 29.6145 0.00225419
695 90001 31.4215 -0.00423219
696 90001 31.4215 0.0239701
697 90001 25.9995 -0.00393946
698 90001 25.9995 -0.00213676
699 90001 27.8065 0.00385368
700 90001 27.8065 -0.000457785
701 90001 29.6145 -0.00224634
702 90001 29.6145 -0.00712107
703 90001 31.4215 -0.0503858
704 90001 31.4215 -0.0276995
705 90001 25.9995 -0.00603772
706 90001 25.9995 -0.00137057
707 90001 27.8065 0.00275601
708 90001 27.8065 0.00503355
709 90001 29.6145 -0.00439529
710 90001 29.6145 -0.00263085
711 90001 31.4215 0.00131669
712 90001 31.4215 -0.00184412
713 90001 25.9995 -0.00102838
714 90001 25.9995 -0.00281646
715 90001 27.8065 0.00254798
716 90001 27.8065 0.00310862
717 90001 29.6145 -0.00506956
718 90001 29.6145 -0.00297723
719 90001 31.4215 0.00536593
720 90001 31.4215 0.0104344
721 90001 25.9995 -0.00269101
722 90001 25.9995 0.00258023
723 90001 27.8065 -0.0017059
724 90001 27.8065 0.00228194
725 90001 29.6145 -0.00415046
726 90001 29.6145 1.45218e-06
727 90001 31.4215 -0.0125243
728 90001 31.4215 -0.0157215
729 90001 25.9995 0.000214794
730 90001 25.9995 0.00178556
731 90001 27.8065 -0.00241561
732 90001 27.8065 -0.00420676
733 90001 29.6145 -0.000892407
734 90001 29.6145 0.00280395
735 90001 31.4215 -0.0217117
736 90001 31.4215 -0.00994082
737 90001 25.9995 -0.000925934
738 90001 25.9995 0.0011198
739 90001 27.8065 0.000142645
740 90001 27.8065 -0.000716131
741 90001 29.6145 -0.000141736
742 90001 29.6145 -0.00501579
743 90001 31.4215 0.00517708
744 90001 31.4215 -0.00386277
745 90001 25.9995 -0.00118465
746 90001 25.9995 -0.00453605
747 90001 27.8065 0.00323859
748 90001 27.8065 0.000121656
749 90001 29.6145 0.000162823
750 90001 29.6145 -0.00393887
751 90001 31.4215 0.000507127
752 90001 31.4215 -0.027733
753 90001 25.9995 -0.00533111
754 90001 25.9995 -0.00212928
755 90001 27.8065 0.00107175
756 90001 27.8065 0.00558527
757 90001 29.6145 -0.00553688
758 90001 29.6145 -0.00291551
759 90001 31.4215 0.048279
760 90001 31.4215 0.00193277
761 90001 25.9995 -8.09215e-05
762 90001 25.9995 -0.0016925
763 90001 27.8065 0.00136953
764 90001 27.8065 -0.00160628
765 90001 29.6145 -0.00377312
766 90001 29.6145 0.00114164
767 90001 31.4215 0.00578035
768 90001 31.4215 0.0150436
769 90001 25.9995 -0.00200682
770 90001 25.9995 -0.000202296
771 90001 27.8065 -0.0034176
772 90001 27.8065 -0.000708425
773 90001 29.6145 0.000331432
774 90001 29.6145 -0.00525571
775 90001 31.4215 -0.0306389
776 90001 31.4215 -0.0110158
777 90001 25.9995 -0.000509076
778 90001 25.9995 -0.00391409
779 90001 27.8065 0.00384468
780 90001 27.8065 -0.00100044
781 90001 29.6145 -0.000644001
782 90001 29.6145 -0.000294358
783 90001 31.4215 -0.0053253
784 90001 31.4215 -0.0305026
785 90001 25.9995 -0.00527988
786 90001 25.9995 -0.00237653
787 90001 27.8065 -0.00181714
788 90001 27.8065 0.0010413
789 90001 29.6145 -0.00234186
790 90001 29.6145 0.00249766
791 90001 31.4215 0.0215529
792 90001 31.4215 -0.0115345
793 90001 25.9995 -0.00265043
794 90001 25.9995 -0.00353838
795 90001 27.8065 0.00481346
796 90001 27.8065 -0.00184928
797 90001 29.6145 -0.000342805
798 90001 29.6145 0.000245888
799 90001 31.4215 0.00610481
800 90001 31.4215 0.0144893
801 90002 132.343 -0.000697368
802 90002 132.343 -0.000404713
803 90002 130.536 -7.43091e-05
804 90002 130.536 5.38466e-05
805 90002 128.728 0.00141714
806 90002 128.728 0.000136412
807 90002 126.921 0.00538463
808 90002 126.921 0.00393044
809 90002 132.343 0.00226075
810 90002 132.343 0.0010115
811 90002 130.536 0.000444746
812 90002 130.536 -0.000216396
813 90002 128.728 -0.000238434
814 90002 128.728 -9.46746e-05
815 90002 126.921 -0.00236806
816 90002 126.921 0.0169682
817 90002 132.343 0.00121486
818 90002 132.343 0.0031491
819 90002 130.536 -0.00421489
820 90002 130.536 -0.00183232
821 90002 128.728 -0.00235174
822 90002 128.728 0.000438303
823 90002 126.921 -0.0261239
824 90002 126.921 -0.0218514
825 90002 132.343 0.00360145
826 90002 132.343 0.00166312
827 90002 130.536 -0.0013464
828 90002 130.536 -0.00321099
829 90002 128.728 -0.00129569
830 90002 128.728 -0.00356989
831 90002 126.921 -0.0283882
832 90002 126.921 -0.0090742
833 90002 132.343 0.00129993
834 90002 132.343 -0.000278632
835 90002 130.536 0.00131344
836 90002 130.536 0.00141223
837 90002 128.728 0.000745303
838 90002 128.728 -0.0024561
839 90002 126.921 -0.00365992
840 90002 126.921 -0.00916671
841 90002 132.343 -0.00303044
842 90002 132.343 -3.13309e-06
843 90002 130.536 0.00156877
844 90002 130.536 0.00203334
845 90002 128.728 -0.00112202
846 90002 128.728 -0.000944772
847 90002 126.921 0.0111054
848 90002 126.921 0.0137142
849 90002 132.343 0.00112018
850 90002 132.343 -0.00128093
851 90002 130.536 0.00369917
852 90002 130.536 0.00106349
853 90002 128.728 -0.00498436
854 90002 128.728 -0.00511684
855 90002 126.921 -0.00774238
856 90002 126.921 -0.014731
857 90002 132.343 -0.00077614
858 90002 132.343 0.00167345
859 90002 130.536 -0.00276132
860 90002 130.536 -0.000786792
861 90002 128.728 0.000643226
862 90002 128.728 0.00200814
863 90002 126.921 -0.00925126
864 90002 126.921 -0.011658
865 90002 132.343 0.00243433
866 90002 132.343 -0.00271423
867 90002 130.536 0.000817845
868 90002 130.536 0.000268423
869 90002 128.728 0.00232815
870 90002 128.728 -0.00505227
871 90002 126.921 -0.0262893
872 90002 126.921 0.0159795
873 90002 132.343 0.000476999
874 90002 132.343 0.000457058
875 90002 130.536 0.000516893
876 90002 130.536 0.00237866
877 90002 128.728 -0.00983841
878 90002 128.728 -0.00411916
879 90002 126.921 -0.0117835
880 90002 126.921 -0.00768379
881 90002 132.343 -0.00160461
882 90002 132.343 -0.00114719
883 90002 130.536 0.00103976
884 90002 130.536 0.00137208
885 90002 128.728 -0.00137204
886 90002 128.728 0.00235629
887 90002 126.921 -0.00355698
888 90002 126.921 -0.00549548
889 90002 132.343 0.0026214
890 90002 132.343 0.00408073
891 90002 130.536 -0.0013256
892 90002 130.536 -0.00236227
893 90002 128.728 -0.00180052
894 90002 128.728 0.00166808
895 90002 126.921 0.00322528
896 90002 126.921 0.00990693
897 90002 132.343 0.000624783
898 90002 132.343 -0.000491047
899 90002 130.536 0.0013041
900 90002 130.536 -0.00444577
901 90002 128.728 0.00311198
902 90002 128.728 0.00393796
903 90002 126.921 -0.00955799
904 90002 126.921 -0.00255825
905 90002 132.343 0.00132569
906 90002 132.343 -0.000177002
907 90002 130.536 -0.00104415
908 90002 130.536 -0.00179679
909 90002 128.728 -0.00101906
910 90002 128.728 0.000297965
911 90002 126.921 -0.00884127
912 90002 126.921 0.00919213
913 90002 132.343 -0.001052
914 90002 132.343 -0.0018585
915 90002 130.536 0.00326823
916 90002 130.536 0.000727955
917 90002 128.728 -0.00288654
918 90002 128.728 0.000537727
919 90002 126.921 -0.0212173
920 90002 126.921 -0.0047843
921 90002 132.343 0.00101211
922 90002 132.343 0.00343647
923 90002 130.536 -0.00206044
924 90002 130.536 0.00111327
925 90002 128.728 -0.00316444
926 90002 128.728 -0.00360073
927 90002 126.921 -0.0133064
928 90002 126.921 -0.0215884
929 90002 132.343 -0.000539795
930 90002 132.343 -0.00258928
931 90002 130.536 0.00401353
932 90002 130.536 -0.000174445
933 90002 128.728 -0.00304451
934 90002 128.728 0.00347885
935 90002 126.921 -0.0195974
936 90002 126.921 -0.020944
937 90002 132.343 -0.00132335
938 90002 132.343 0.003327
939 90002 130.536 -0.00282258
940 90002 130.536 0.00208358
941 90002 128.728 -0.000115474
942 90002 128.728 -0.00257783
943 90002 126.921 0.0106612
944 90002 126.921 -0.00277383
945 90002 132.343 -0.00116398
946 90002 132.343 -0.00410457
947 90002 130.536 0.00550949
948 90002 130.536 0.00178124
949 90002 128.728 -0.00538732
950 90002 128.728 -0.00173628
951 90002 126.921 -0.00061435
952 90002 126.921 0.00721298
953 90002 132.343 -0.0024817
954 90002 132.343 0.000417881
955 90002 130.536 0.00204203
956 90002 130.536 0.00205281
957 90002 128.728 -0.00573454
958 90002 128.728 -0.0054191
959 90002 126.921 -0.000423435
960 90002 126.921 0.00619229
961 90002 132.343 -0.00391049
962 90002 132.343 -0.00131249
963 90002 130.536 0.00242896
964 90002 130.536 0.00309027
965 90002 128.728 -0.00230255
966 90002 128.728 -0.00335173
967 90002 126.921 -0.00494889
968 90002 126.921 0.00161357
969 90002 132.343 0.00413099
970 90002 132.343 0.0036014
971 90002 130.536 -0.00697869
972 90002 130.536 -0.00124408
973 90002 128.728 0.00287377
974 90002 128.728 -0.00391071
975 90002 126.921 0.0330993
976 90002 126.921 0.0589719
977 90002 132.343 0.001765
978 90002 132.343 -0.0012174
979 90002 130.536 0.0032711
980 90002 130.536 0.000361405
981 90002 128.728 -0.00022646
982 90002 128.728 -0.000798949
983 90002 126.921 0.0327492
984 90002 126.921 0.0184862
985 90002 132.343 0.000330437
986 90002 132.343 0.000690997
987 90002 130.536 -0.00120805
988 90002 130.536 0.000118501
989 90002 128.728 -0.00278355
990 90002 128.728 -0.00198646
991 90002 126.921 0.0412195
992 90002 126.921 0.0308792
993 90002 132.343 0.000247877
994 90002 132.343 -0.00369259
995 90002 130.536 -0.000202261
996 90002 130.536 0.00076542
997 90002 128.728 0.0025742
998 90002 128.728 -0.000193274
999 90002 126.921 -0.0205658
1000 90002 126.921 0.001152
1001 90002 132.343 0.00114579
1002 90002 132.343 0.000314139
1003 90002 130.536 -0.000162769
1004 90002 130.536 -0.00143703
1005 90002 128.728 -0.00213724
1006 90002 128.728 -0.00296768
1007 90002 126.921 -0.0256758
1008 90002 126.921 -0.0190749
1009 90002 132.343 0.0005065
1010 90002 132.343 0.00483797
1011 90002 130.536 -8.49054e-05
1012 90002 130.536 -0.00142176
1013 90002 128.728 -0.00256396
1014 90002 128.728 -0.0153779
1015 90002 126.921 -0.0532117
1016 90002 126.921 -0.0712345
1017 90002 132.343 -0.00027604
1018 90002 132.343 0.00129619
1019 90002 130.536 -0.00234907
1020 90002 130.536 0.000184283
1021 90002 128.728 0.000603267
1022 90002 128.728 -0.00195837
1023 90002 126.921 -0.00662212
1024 90002 126.921 -0.0532298
1025 90002 132.343 0.000220609
1026 90002 132.343 -0.000734083
1027 90002 130.536 0.000337758
1028 90002 130.536 -0.00197354
1029 90002 128.728 0.00124322
1030 90002 128.728 0.000938602
1031 90002 126.921 -0.00318576
1032 90002 126.921 -0.0244805
1033 90002 132.343 0.0016193
1034 90002 132.343 -0.0022178
1035 90002 130.536 0.00147158
1036 90002 130.536 -5.1766e-05
1037 90002 128.728 0.000588345
1038 90002 128.728 1.22322e-05
1039 90002 126.921 0.0124893
1040 90002 126.921 -0.00324082
1041 90002 132.343 -0.00142683
1042 90002 132.343 0.00305705
1043 90002 130.536 -0.0017003
1044 90002 130.536 -0.00249631
1045 90002 128.728 -0.00120064
1046 90002 128.728 0.00307717
1047 90002 126.921 0.0312933
1048 90002 126.921 0.00655754
1049 90002 132.343 0.00370374
1050 90002 132.343 0.000329684
1051 90002 130.536 0.00200087
1052 90002 130.536 -0.000568196
1053 90002 128.728 -0.00229767
1054 90002 128.728 -0.000788257
1055 90002 126.921 0.00118431
1056 90002 126.921 0.0173573
1057 90002 132.343 -0.00418143
1058 90002 132.343 -0.00181177
1059 90002 130.536 0.00534815
1060 90002 130.536 0.001465
1061 90002 128.728 -0.000754854
1062 90002 128.728 -0.000476281
1063 90002 126.921 0.0233621
1064 90002 126.921 -0.020297
1065 90002 132.343 -0.00152324
1066 90002 132.343 -0.000226732
1067 90002 130.536 0.000976311
1068 90002 130.536 0.00284738
1069 90002 128.728 -0.0027332
1070 90002 128.728 -0.000534439
1071 90002 126.921 0.0212169
1072 90002 126.921 0.0255422
1073 90002 132.343 -0.00202601
1074 90002 132.343 0.00118662
1075 90002 130.536 -0.000123799
1076 90002 130.536 0.000312155
1077 90002 128.728 0.000193672
1078 90002 128.728 -0.00115548
1079 90002 126.921 0.0199208
1080 90002 126.921 0.00942436
1081 90002 132.343 0.00259727
1082 90002 132.343 0.000381952
1083 90002 130.536 -0.000214965
1084 90002 130.536 0.00157251
1085 90002 128.728 -0.00348856
1086 90002 128.728 -0.00290442
1087 90002 126.921 -0.0119821
1088 90002 126.921 -0.0045636
1089 90002 132.343 -0.00176
1090 90002 132.343 0.000972124
1091 90002 130.536 0.00212258
1092 90002 130.536 0.00142004
1093 90002 128.728 0.000434535
1094 90002 128.728 0.000670644
1095 90002 126.921 -0.0455956
1096 90002 126.921 -0.00251294
1097 90002 132.343 6.46298e-05
1098 90002 132.343 -0.000907667
1099 90002 130.536 0.00165543
1100 90002 130.536 -0.00116613
1101 90002 128.728 -0.00620688
1102 90002 128.728 -0.00352591
1103 90002 126.921 -0.0606025
1104 90002 126.921 -0.0436746
1105 90002 132.343 0.000401811
1106 90002 132.343 -5.27118e-05
1107 90002 130.536 0.00189134
1108 90002 130.536 0.00206885
1109 90002 128.728 -0.00646737
1110 90002 128.728 -0.00522585
1111 90002 126.921 -0.0195215
1112 90002 126.921 -0.0470486
1113 90002 132.343 -0.000528872
1114 90002 132.343 0.00107111
1115 90002 130.536 0.00179898
1116 90002 130.536 -0.000547833
1117 90002 128.728 0.00307059
1118 90002 128.728 -0.000829317
1119 90002 126.921 -0.00853351
1120 90002 126.921 -0.0085241
1121 90002 132.343 0.00339643
1122 90002 132.343 0.0017695
1123 90002 130.536 -0.00229617
1124 90002 130.536 -0.00195071
1125 90002 128.728 0.0021608
1126 90002 128.728 0.00293028
1127 90002 126.921 0.0080624
1128 90002 126.921 -0.00760262
1129 90002 132.343 0.000627777
1130 90002 132.343 0.000704636
1131 90002 130.536 0.00110464
1132 90002 130.536 0.000958545
1133 90002 128.728 0.0021662
1134 90002 128.728 0.00118159
1135 90002 126.921 -0.0157828
1136 90002 126.921 -0.00729083
1137 90002 132.343 0.00195179
1138 90002 132.343 0.00179999
1139 90002 130.536 -0.00176164
1140 90002 130.536 -0.00243416
1141 90002 128.728 0.00075612
1142 90002 128.728 0.0029663
1143 90002 126.921 0.0125832
1144 90002 126.921 0.0180106
1145 90002 132.343 0.00158337
1146 90002 132.343 0.00438461
1147 90002 130.536 -0.00231327
1148 90002 130.536 -0.000684752
1149 90002 128.728 -0.000422723
1150 90002 128.728 0.00084303
1151 90002 126.921 0.0194356
1152 90002 126.921 0.0333038
1153 90002 132.343 2.6975e-05
1154 90002 132.343 0.00134198
1155 90002 130.536 -0.000548565
1156 90002 130.536 -0.0022116
1157 90002 128.728 0.00348106
1158 90002 128.728 0.00132363
1159 90002 126.921 0.00614135
1160 90002 126.921 0.0143653
1161 90002 132.343 0.00118881
1162 90002 132.343 -0.000286404
1163 90002 130.536 -0.00077008
1164 90002 130.536 -0.000107382
1165 90002 128.728 -0.00138487
1166 90002 128.728 0.00649094
1167 90002 126.921 0.00802353
1168 90002 126.921 -0.000275393
1169 90002 132.343 0.0015462
1170 90002 132.343 -0.0001881
1171 90002 130.536 -0.0011309
1172 90002 130.536 -0.00082943
1173 90002 128.728 -0.00175003
1174 90002 128.728 0.000876099
1175 90002 126.921 0.0247069
1176 90002 126.921 0.019205
1177 90002 132.343 0.0026757
1178 90002 132.343 0.00113944
1179 90002 130.536 -0.000280779
1180 90002 130.536 -0.000355038
1181 90002 128.728 0.000827696
1182 90002 128.728 0.00236433
1183 90002 126.921 -0.0246023
1184 90002 126.921 -0.00999598
1185 90002 132.343 0.00134446
1186 90002 132.343 0.0012249
1187 90002 130.536 -0.000597959
1188 90002 130.536 -0.000440983
1189 90002 128.728 -0.00183847
1190 90002 128.728 0.00305194
1191 90002 126.921 -0.0280537
1192 90002 126.921 0.000613081
1193 90002 132.343 0.00260213
1194 90002 132.343 0.00263521
1195 90002 130.536 -0.00228447
1196 90002 130.536 -0.00317201
1197 90002 128.728 0.00067221
1198 90002 128.728 0.000946891
1199 90002 126.921 -0.00951169
1200 90002 126.921 0.0254771
1201 90002 132.343 0.00293309
1202 90002 132.343 0.00288986
1203 90002 130.536 -0.00330664
1204 90002 130.536 -0.00030451
1205 90002 128.728 0.00217146
1206 90002 128.728 0.00357605
1207 90002 126.921 0.00864695
1208 90002 126.921 0.00897579
1209 90002 132.343 0.00208794
1210 90002 132.343 0.0028228
1211 90002 130.536 0.000838351
1212 90002 130.536 -0.00207319
1213 90002 128.728 0.00165632
1214 90002 128.728 0.00139582
1215 90002 126.921 0.00620678
1216 90002 126.921 0.043726
1217 90002 132.343 0.00152578
1218 90002 132.343 -0.000182271
1219 90002 130.536 0.00254364
1220 90002 130.536 -0.000437475
1221 90002 128.728 0.00140707
1222 90002 128.728 -0.00307102
1223 90002 126.921 0.0173586
1224 90002 126.921 -0.00409263
1225 90002 132.343 -0.000280055
1226 90002 132.343 0.00226173
1227 90002 130.536 0.000592739
1228 90002 130.536 0.00442921
1229 90002 128.728 -0.00092565
1230 90002 128.728 -0.00120014
1231 90002 126.921 0.0480699
1232 90002 126.921 0.0192447
1233 90002 132.343 0.00527007
1234 90002 132.343 0.000383725
1235 90002 130.536 -0.00132477
1236 90002 130.536 -0.00267031
1237 90002 128.728 -0.000836161
1238 90002 128.728 0.00257925
1239 90002 126.921 -0.0129993
1240 90002 126.921 -0.0170588
1241 90002 132.343 0.0031733
1242 90002 132.343 0.00299056
1243 90002 130.536 -0.00196948
1244 90002 130.536 -0.00129085
1245 90002 128.728 0.000366627
1246 90002 128.728 -0.000152532
1247 90002 126.921 0.0206297
1248 90002 126.921 -0.00367038
1249 90002 132.343 0.0010323
1250 90002 132.343 0.000434812
1251 90002 130.536 0.00283215
1252 90002 130.536 -6.0498e-05
1253 90002 128.728 0.000281146
1254 90002 128.728 -0.00193536
1255 90002 126.921 -0.00638918
1256 90002 126.921 0.000995722
1257 90002 132.343 -0.00234704
1258 90002 132.343 0.000543509
1259 90002 130.536 0.00118056
1260 90002 130.536 0.00165375
1261 90002 128.728 0.00196553
1262 90002 128.728 -0.00170849
1263 90002 126.921 -0.0109172
1264 90002 126.921 0.0011068
1265 90002 132.343 -0.00242696
1266 90002 132.343 -0.000518081
1267 90002 130.536 0.00201284
1268 90002 130.536 0.00396302
1269 90002 128.728 0.000474421
1270 90002 128.728 -0.00120939
1271 90002 126.921 0.014126
1272 90002 126.921 -0.0283478
1273 90002 132.343 0.00191665
1274 90002 132.343 0.000220662
1275 90002 130.536 -0.00256893
1276 90002 130.536 -0.000342984
1277 90002 128.728 -0.00104339
1278 90002 128.728 0.00170821
1279 90002 126.921 -0.0106509
1280 90002 126.921 -0.000208642
1281 90002 132.343 0.00269049
1282 90002 132.343 -0.000559652
1283 90002 130.536 -0.000162967
1284 90002 130.536 -0.00221378
1285 90002 128.728 0.00196017
1286 90002 128.728 0.00121602
1287 90002 126.921 0.0300773
1288 90002 126.921 0.0354188
1289 90002 132.343 -0.000183896
1290 90002 132.343 0.00193056
1291 90002 130.536 -8.00493e-05
1292 90002 130.536 0.00112457
1293 90002 128.728 0.00457657
1294 90002 128.728 -0.000413848
1295 90002 126.921 -0.0103364
1296 90002 126.921 0.0212571
1297 90002 132.343 0.00222213
1298 90002 132.343 0.000295446
1299 90002 130.536 0.000804659
1300 90002 130.536 -0.00071485
1301 90002 128.728 -0.00322192
1302 90002 128.728 0.00363498
1303 90002 126.921 -0.0035563
1304 90002 126.921 -0.00385633
1305 90002 132.343 0.000641955
1306 90002 132.343 0.00284829
1307 90002 130.536 -0.00150476
1308 90002 130.536 0.00154048
1309 90002 128.728 6.14089e-05
1310 90002 128.728 0.00256092
1311 90002 126.921 -0.00380677
1312 90002 126.921 0.0301972
1313 90002 132.343 0.00217547
1314 90002 132.343 0.00226533
1315 90002 130.536 0.00039906
1316 90002 130.536 -0.00104118
1317 90002 128.728 0.00412689
1318 90002 128.728 -0.00262789
1319 90002 126.921 -0.0105171
1320 90002 126.921 0.00436096
1321 90002 132.343 0.00335412
1322 90002 132.343 0.000120904
1323 90002 130.536 -0.00144388
1324 90002 130.536 -0.000210115
1325 90002 128.728 -0.00185602
1326 90002 128.728 0.00398641
1327 90002 126.921 -0.000916478
1328 90002 126.921 0.0103109
1329 90002 132.343 -0.000591422
1330 90002 132.343 -0.00172828
1331 90002 130.536 0.00339063
1332 90002 130.536 0.00243723
1333 90002 128.728 3.4341e-05
1334 90002 128.728 -0.000557833
1335 90002 126.921 0.0345434
1336 90002 126.921 -0.000662036
1337 90002 132.343 -0.000638127
1338 90002 132.343 0.00229209
1339 90002 130.536 -0.000755853
1340 90002 130.536 0.00121322
1341 90002 128.728 -0.00205306
1342 90002 128.728 0.00172616
1343 90002 126.921 -0.00646369
1344 90002 126.921 0.0163882
1345 90002 132.343 0.0021832
1346 90002 132.343 0.00395346
1347 90002 130.536 -0.000805156
1348 90002 130.536 -0.00339051
1349 90002 128.728 -0.00195816
1350 90002 128.728 0.00251982
1351 90002 126.921 -0.0042901
1352 90002 126.921 -0.00312646
1353 90002 132.343 0.00413191
1354 90002 132.343 0.00434052
1355 90002 130.536 -0.00207497
1356 90002 130.536 -0.00326085
1357 90002 128.728 0.00292943
1358 90002 128.728 0.00596988
1359 90002 126.921 0.0395885
1360 90002 126.921 0.00995822
1361 90002 132.343 0.00177408
1362 90002 132.343 0.000495032
1363 90002 130.536 0.0013101
1364 90002 130.536 0.000953061
1365 90002 128.728 -0.00141956
1366 90002 128.728 0.00166796
1367 90002 126.921 0.0151293
1368 90002 126.921 0.00803534
1369 90002 132.343 0.0013174
1370 90002 132.343 -0.000544076
1371 90002 130.536 0.00118207
1372 90002 130.536 -0.00136505
1373 90002 128.728 0.000967557
1374 90002 128.728 0.00395784
1375 90002 126.921 0.0214645
1376 90002 126.921 0.0138112
1377 90002 132.343 -0.00063791
1378 90002 132.343 0.000657818
1379 90002 130.536 0.00160869
1380 90002 130.536 0.000501328
1381 90002 128.728 0.00278985
1382 90002 128.728 0.00589008
1383 90002 126.921 0.0135072
1384 90002 126.921 0.0257626
1385 90002 132.343 0.00211477
1386 90002 132.343 0.00249717
1387 90002 130.536 -0.000187874
1388 90002 130.536 -0.00246272
1389 90002 128.728 0.00132812
1390 90002 128.728 -4.46207e-05
1391 90002 126.921 0.018529
1392 90002 126.921 0.0147947
1393 90002 132.343 0.00194078
1394 90002 132.343 0.000657166
1395 90002 130.536 0.002038
1396 90002 130.536 -2.26251e-06
1397 90002 128.728 0.000635427
1398 90002 128.728 0.00067323
1399 90002 126.921 0.0293402
1400 90002 126.921 0.0206976
1401 90002 132.343 0.00142951
1402 90002 132.343 0.000536077
1403 90002 130.536 -0.00161609
1404 90002 130.536 0.00120764
1405 90002 128.728 -0.000537692
1406 90002 128.728 0.00135192
1407 90002 126.921 0.0163399
1408 90002 126.921 0.0467905
1409 90002 132.343 -0.000546856
1410 90002 132.343 -0.000655577
1411 90002 130.536 0.00339062
1412 90002 130.536 0.00220859
1413 90002 128.728 -0.000560704
1414 90002 128.728 -0.000188956
1415 90002 126.921 0.00700218
1416 90002 126.921 -0.0142593
1417 90002 132.343 0.000200622
1418 90002 132.343 0.00145628
1419 90002 130.536 0.000505444
1420 90002 130.536 0.00146328
1421 90002 128.728 0.000723904
1422 90002 128.728 -0.00379315
1423 90002 126.921 -0.00404098
1424 90002 126.921 0.0337619
1425 90002 132.343 0.00258214
1426 90002 132.343 0.00310252
1427 90002 130.536 -0.00150695
1428 90002 130.536 -0.0033531
1429 90002 128.728 0.00145244
1430 90002 128.728 0.00385205
1431 90002 126.921 0.00191348
1432 90002 126.921 -0.00763863
1433 90002 132.343 0.00185275
1434 90002 132.343 0.00220843
1435 90002 130.536 -0.00262493
1436 90002 130.536 -0.00261079
1437 90002 128.728 0.00324563
1438 90002 128.728 0.000608486
1439 90002 126.921 0.00441547
1440 90002 126.921 -0.00480856
1441 90002 132.343 0.00111032
1442 90002 132.343 -0.00240565
1443 90002 130.536 0.00120897
1444 90002 130.536 -0.000322008
1445 90002 128.728 0.00148327
1446 90002 128.728 0.00066222
1447 90002 126.921 -0.00282323
1448 90002 126.921 -0.00203383
1449 90002 132.343 -3.02201e-05
1450 90002 132.343 0.000491716
1451 90002 130.536 0.00120192
1452 90002 130.536 0.00144836
1453 90002 128.728 -0.00255846
1454 90002 128.728 -0.000752795
1455 90002 126.921 -0.0187969
1456 90002 126.921 -0.0285082
1457 90002 132.343 0.000565712
1458 90002 132.343 0.00347753
1459 90002 130.536 -0.00208394
1460 90002 130.536 0.000811388
1461 90002 128.728 0.00286577
1462 90002 128.728 0.00025765
1463 90002 126.921 0.0137976
1464 90002 126.921 -0.0160956
1465 90002 132.343 0.00245211
1466 90002 132.343 0.00165664
1467 90002 130.536 -0.00316724
1468 90002 130.536 -0.00118182
1469 90002 128.728 0.00234633
1470 90002 128.728 0.00213948
1471 90002 126.921 0.00461887
1472 90002 126.921 -0.00231599
1473 90002 132.343 0.00197483
1474 90002 132.343 0.002364
1475 90002 130.536 -0.00376064
1476 90002 130.536 -0.00238931
1477 90002 128.728 0.00716872
1478 90002 128.728 0.00217201
1479 90002 126.921 0.0460375
1480 90002 126.921 0.00439029
1481 90002 132.343 0.00102035
1482 90002 132.343 0.000647446
1483 90002 130.536 0.00125144
1484 90002 130.536 0.00167204
1485 90002 128.728 -0.00364975
1486 90002 128.728 -0.00296739
1487 90002 126.921 -0.00126171
1488 90002 126.921 0.0228732
1489 90002 132.343 -0.00198987
1490 90002 132.343 0.00161107
1491 90002 130.536 0.00087996
1492 90002 130.536 0.000136451
1493 90002 128.728 0.000496437
1494 90002 128.728 -0.00299354
1495 90002 126.921 -0.028144
1496 90002 126.921 -0.0395938
1497 90002 132.343 0.00188497
1498 90002 132.343 0.00248085
1499 90002 130.536 -0.000803404
1500 90002 130.536 -0.00102858
1501 90002 128.728 -0.000837753
1502 90002 128.728 -0.0025273
1503 90002 126.921 0.00302103
1504 90002 126.921 -0.0437075
1505 90002 132.343 0.000349756
1506 90002 132.343 0.000757324
1507 90002 130.536 -0.00220758
1508 90002 130.536 0.00107528
1509 90002 128.728 0.0028176
1510 90002 128.728 -0.000820959
1511 90002 126.921 0.013017
1512 90002 126.921 0.00401729
1513 90002 132.343 0.00350716
1514 90002 132.343 0.00238763
1515 90002 130.536 -0.000160729
1516 90002 130.536 -0.00096765
1517 90002 128.728 -0.000587229
1518 90002 128.728 -0.00052212
1519 90002 126.921 -0.0157361
1520 90002 126.921 -0.0125656
1521 90002 132.343 0.0025106
1522 90002 132.343 0.00104687
1523 90002 130.536 0.00103018
1524 90002 130.536 -0.000869191
1525 90002 128.728 -0.00336207
1526 90002 128.728 0.00170375
1527 90002 126.921 -0.00488877
1528 90002 126.921 -0.00387027
1529 90002 132.343 0.000632945
1530 90002 132.343 0.00305694
1531 90002 130.536 5.93533e-06
1532 90002 130.536 -0.00135897
1533 90002 128.728 0.000996077
1534 90002 128.728 -0.000188535
1535 90002 126.921 0.00306762
1536 90002 126.921 -0.00133835
1537 90002 132.343 -0.00150784
1538 90002 132.343 0.00273917
1539 90002 130.536 0.00101802
1540 90002 130.536 0.000350326
1541 90002 128.728 0.00289082
1542 90002 128.728 -0.00264626
1543 90002 126.921 -0.0020929
1544 90002 126.921 0.0017862
1545 90002 132.343 0.000947772
1546 90002 132.343 0.00048175
1547 90002 130.536 -0.000372198
1548 90002 130.536 0.000790633
1549 90002 128.728 -0.00301084
1550 90002 128.728 -0.00213313
1551 90002 126.921 0.00142658
1552 90002 126.921 -0.0428045
1553 90002 132.343 0.00308491
1554 90002 132.343 -0.00200361
1555 90002 130.536 0.000879313
1556 90002 130.536 -0.00019199
1557 90002 128.728 -0.000662543
1558 90002 128.728 0.000401638
1559 90002 126.921 0.000958582
1560 90002 126.921 0.00724745
1561 90002 132.343 -0.00101124
1562 90002 132.343 -0.0029223
1563 90002 130.536 0.00311121
1564 90002 130.536 0.00359325
1565 90002 128.728 -0.000802987
1566 90002 128.728 -0.00479944
1567 90002 126.921 -0.00612674
1568 90002 126.921 -0.00680929
1569 90002 132.343 -0.00111214
1570 90002 132.343 -0.000422439
1571 90002 130.536 0.00064878
1572 90002 130.536 0.00138728
1573 90002 128.728 -0.00381377
1574 90002 128.728 -0.00252189
1575 90002 126.921 -0.0435201
1576 90002 126.921 0.0316475
1577 90002 132.343 0.000934535
1578 90002 132.343 0.000178453
1579 90002 130.536 -0.00161091
1580 90002 130.536 0.00142746
1581 90002 128.728 -0.00903443
1582 90002 128.728 0.00198862
1583 90002 126.921 -0.0527665
1584 90002 126.921 -0.0541007
1585 90002 132.343 0.00105356
1586 90002 132.343 -0.000484936
1587 90002 130.536 0.00213188
1588 90002 130.536 -0.00117384
1589 90002 128.728 0.00253803
1590 90002 128.728 8.72785e-05
1591 90002 126.921 -0.0187437
1592 90002 126.921 -0.0272267
1593 90002 132.343 9.67732e-05
1594 90002 132.343 -0.000223336
1595 90002 130.536 0.00179658
1596 90002 130.536 0.00247145
1597 90002 128.728 -0.00196479
1598 90002 128.728 -0.00130408
1599 90002 126.921 -0.00672551
1600 90002 126.921 -0.0218025
