# TIP4P-FQ liquid, FAITHFUL-RICK structure: lr_ewald=1 (INTRA-Slater + BARE-inter, his exact
# electrostatics per mdtpn.f) — the mu-gap root cause was lr_ewald=2's all-pair shielding.
# PREDICTION: mu -> ~2.63 (Rick 2.637). Stability rides XL (Rick's own stability = EL adiabaticity).
# Base: TRUE SLATER-OVERLAP kernel deck (`shield slater`): Rick's raw zetas,
# NO refit. Target: close the gauss-kernel port's -4% mu (2.53 vs Rick 2.637) — the deviation was
# the intermolecular J at intermediate r, exactly what the exact kernel fixes.
# Derived from in.tip4pfq_xl (KERNEL-REFIT gauss port); 256-molecule box built from Rick's own equilibrated
# mdtpn.dat config (build_box.py), vol=7660.31 A^3, rho=1.0 g/cc, fixed (NVT).
# Kernel: gaussian/pqeq erf(a_ij r)/r, fit EXACTLY to Rick's jrab() J_HH(1.5139)
# and J_OH(r_MH=0.8735) (see fit_j.py) -- the physically-operative rigid-body
# distances. Single `run` command (multi-run is a known samQEq calibration
# artifact); tail-window ave/time blocks report thermalized averages.
units           metal
atom_style      full
boundary        p p p
read_data       tip4pfq_liquid.data

group           watO  type 1
group           watH  type 2
group           watM  type 3
group           fq    type 2 3

# LJ on O-O only (Table I): eps=0.2862 kcal/mol=0.012412 eV, sigma=3.159 A
pair_style      hybrid/overlay lj/cut 10.0 coul/long 10.0 coul/shield/intra 5.0 slater 2s 1 3
pair_coeff      1 1 lj/cut 0.012412 3.159
pair_coeff      1 2 lj/cut 0.0 1.0
pair_coeff      1 3 lj/cut 0.0 1.0
pair_coeff      2 2 lj/cut 0.0 1.0
pair_coeff      2 3 lj/cut 0.0 1.0
pair_coeff      3 3 lj/cut 0.0 1.0
pair_coeff      * * coul/long
pair_coeff      1 1 coul/shield/intra 3.0803    # zeta_O (2s), 1/Angstrom
pair_coeff      2 2 coul/shield/intra 1.7007    # zeta_H (1s)
pair_coeff      3 3 coul/shield/intra 3.0803    # zeta_M (borrows O's 2s form factor)
pair_coeff      1 2 coul/shield/intra 2.288813
pair_coeff      1 3 coul/shield/intra 3.080300
pair_coeff      2 3 coul/shield/intra 2.288813
# ^ FIX: hybrid/overlay contributes ZERO for unset sub-style cross pairs (no auto init_one
#   mixing, no warning) — the unset M-H pair hid a +3.2 eV/mol pe error (U_bind -82 naive / -13.6
#   'corrected' -> -9.90 = Rick EXACT once fixed). Cross values: sqrt-mixed (used by cbrt mode;
#   pqeq/slater kernels read type diagonals only). See ubind/DIAGNOSIS_UBIND.md.

special_bonds   lj/coul 1.0e-8 1.0e-8 1.0
kspace_style    pppm/samqeq 1.0e-5

neighbor        2.0 bin
neigh_modify    every 1 delay 0 check yes

fix             chg fq qeq/sam 1 0.0 10.0 1.0e-5 water4_liquid_slater_lr1.param
fix_modify      chg shield slater 2s 1 3
fix_modify      chg energy yes
fix_modify      chg xl 2.6e-6 1.0
# ROOT CAUSE (found via a dt-scan diagnostic, in.diag_dt.tmp/in.diag_dt2.tmp, logs
# log.diag_dt/log.diag_dt2): dt=0.5 fs (the task's suggested value) is NOT a stable
# integration step for this system -- the intramolecular M-H charge oscillator is very
# stiff (r_MH=0.87 A, eta_M/H~16/15 eV) and the rigid-body torque response amplifies any
# discretization error into a genuine near-critical SCF catastrophe within a few hundred
# steps (confirmed: NEITHER an offset-quartic wall NOR the rnd charge-freeze safeguard
# cured it at dt=0.5fs -- both only delayed/relocated the same blow-up, proof this is an
# INTEGRATION-timestep problem, not a kernel-fit or Hessian-singularity problem). At
# dt=0.1 and dt=0.2 fs the SAME deck (no stabilizers needed at all) is fully stable over
# the tested window with mu/qM/qH/T all physically sane and drifting toward the targets.
# Using dt=0.2 fs (4x smaller than the task's suggested 0.5 fs) here.

compute         qMpa watM property/atom q
compute         qMc  watM reduce ave c_qMpa
compute         qHpa watH property/atom q
compute         qHc  watH reduce ave c_qHpa
compute         dip all dipole/samqeq
variable        mu   equal c_dip
variable        qM   equal c_qMc
variable        qH   equal c_qHc
variable        pemol equal pe/256.0
variable        T equal temp
variable        P equal press

timestep        0.00025
velocity        all create 298.0 20260928 mom yes rot yes dist gaussian
fix             rig all rigid/nvt/small molecule temp 298.0 298.0 0.02
thermo_style    custom step temp v_mu
thermo          400
run             80000
unfix           rig
fix             rig all rigid/nvt/small molecule temp 298.0 298.0 0.1
reset_timestep  0
run             400000
print           "PORT_DONE" file done.txt screen no
