LAMMPS (4 Jul 2026 - Development - patch_4Jul2026-542-g4e5eb25ab6-modified)
  using 1 OpenMP thread(s) per MPI task
# TIP4P-FQ liquid, FAITHFUL-RICK structure: lr_ewald=1 (INTRA-Slater + BARE-inter, his exact
# electrostatics per mdtpn.f) — the mu-gap root cause was lr_ewald=2's all-pair shielding.
# PREDICTION: mu -> ~2.63 (Rick 2.637). Stability rides XL (Rick's own stability = EL adiabaticity).
# Base: TRUE SLATER-OVERLAP kernel deck (`shield slater`): Rick's raw zetas,
# NO refit. Target: close the gauss-kernel port's -4% mu (2.53 vs Rick 2.637) — the deviation was
# the intermolecular J at intermediate r, exactly what the exact kernel fixes.
# Derived from in.tip4pfq_xl (KERNEL-REFIT gauss port); 256-molecule box built from Rick's own equilibrated
# mdtpn.dat config (build_box.py), vol=7660.31 A^3, rho=1.0 g/cc, fixed (NVT).
# Kernel: gaussian/pqeq erf(a_ij r)/r, fit EXACTLY to Rick's jrab() J_HH(1.5139)
# and J_OH(r_MH=0.8735) (see fit_j.py) -- the physically-operative rigid-body
# distances. Single `run` command (multi-run is a known samQEq calibration
# artifact); tail-window ave/time blocks report thermalized averages.
units           metal
atom_style      full
boundary        p p p
read_data       tip4pfq_liquid.data
Reading data file ...
  orthogonal box = (0 0 0) to (19.712825 19.712825 19.712825)
  2 by 2 by 4 MPI processor grid
  reading atoms ...
  1024 atoms
  scanning bonds ...
  2 = max bonds/atom
  scanning angles ...
  1 = max angles/atom
  orthogonal box = (0 0 0) to (19.712825 19.712825 19.712825)
  2 by 2 by 4 MPI processor grid
  reading bonds ...
  512 bonds
  reading angles ...
  256 angles
Finding 1-2 1-3 1-4 neighbors ...
  special bond factors lj:    0        0        0       
  special bond factors coul:  0        0        0       
     2 = max # of 1-2 neighbors
     1 = max # of 1-3 neighbors
     1 = max # of 1-4 neighbors
     2 = max # of special neighbors
  special bonds CPU = 0.001 seconds
  read_data CPU = 0.011 seconds

group           watO  type 1
256 atoms in group watO
group           watH  type 2
512 atoms in group watH
group           watM  type 3
256 atoms in group watM
group           fq    type 2 3
768 atoms in group fq

# LJ on O-O only (Table I): eps=0.2862 kcal/mol=0.012412 eV, sigma=3.159 A
pair_style      hybrid/overlay lj/cut 10.0 coul/long 10.0 coul/shield/intra 5.0 slater 2s 1 3
pair_coeff      1 1 lj/cut 0.012412 3.159
pair_coeff      1 2 lj/cut 0.0 1.0
pair_coeff      1 3 lj/cut 0.0 1.0
pair_coeff      2 2 lj/cut 0.0 1.0
pair_coeff      2 3 lj/cut 0.0 1.0
pair_coeff      3 3 lj/cut 0.0 1.0
pair_coeff      * * coul/long
pair_coeff      1 1 coul/shield/intra 3.0803    # zeta_O (2s), 1/Angstrom
pair_coeff      2 2 coul/shield/intra 1.7007    # zeta_H (1s)
pair_coeff      3 3 coul/shield/intra 3.0803    # zeta_M (borrows O's 2s form factor)
pair_coeff      1 2 coul/shield/intra 2.288813
pair_coeff      1 3 coul/shield/intra 3.080300
pair_coeff      2 3 coul/shield/intra 2.288813
# ^ FIX: hybrid/overlay contributes ZERO for unset sub-style cross pairs (no auto init_one
#   mixing, no warning) — the unset M-H pair hid a +3.2 eV/mol pe error (U_bind -82 naive / -13.6
#   'corrected' -> -9.90 = Rick EXACT once fixed). Cross values: sqrt-mixed (used by cbrt mode;
#   pqeq/slater kernels read type diagonals only). See ubind/DIAGNOSIS_UBIND.md.

special_bonds   lj/coul 1.0e-8 1.0e-8 1.0
Finding 1-2 1-3 1-4 neighbors ...
  special bond factors lj:    1e-08    1e-08    1       
  special bond factors coul:  1e-08    1e-08    1       
     2 = max # of 1-2 neighbors
     1 = max # of 1-3 neighbors
     2 = max # of special neighbors
  special bonds CPU = 0.001 seconds
kspace_style    pppm/samqeq 1.0e-5

neighbor        2.0 bin
neigh_modify    every 1 delay 0 check yes

fix             chg fq qeq/sam 1 0.0 10.0 1.0e-5 water4_liquid_slater_lr1.param
fix_modify      chg shield slater 2s 1 3
samqeq: lr-solve shielding = Slater J(r) (Rick JCP101,6141) (param 4th col = zeta (Slater exponent, 1/Angstrom)); routed through compute_H + add_fixed_charge_field + the legacy gas path (calc_Hval)
fix_modify      chg energy yes
fix_modify      chg xl 2.6e-6 1.0
samqeq: extended-Lagrangian charge dynamics ON (q_mass=2.6e-06 eV ps^2/e^2, q_tdamp=1 ps); pure friction (T_q=0); charges propagate by velocity-Verlet (no per-step solve)
# ROOT CAUSE (found via a dt-scan diagnostic, in.diag_dt.tmp/in.diag_dt2.tmp, logs
# log.diag_dt/log.diag_dt2): dt=0.5 fs (the task's suggested value) is NOT a stable
# integration step for this system -- the intramolecular M-H charge oscillator is very
# stiff (r_MH=0.87 A, eta_M/H~16/15 eV) and the rigid-body torque response amplifies any
# discretization error into a genuine near-critical SCF catastrophe within a few hundred
# steps (confirmed: NEITHER an offset-quartic wall NOR the rnd charge-freeze safeguard
# cured it at dt=0.5fs -- both only delayed/relocated the same blow-up, proof this is an
# INTEGRATION-timestep problem, not a kernel-fit or Hessian-singularity problem). At
# dt=0.1 and dt=0.2 fs the SAME deck (no stabilizers needed at all) is fully stable over
# the tested window with mu/qM/qH/T all physically sane and drifting toward the targets.
# Using dt=0.2 fs (4x smaller than the task's suggested 0.5 fs) here.

compute         qMpa watM property/atom q
compute         qMc  watM reduce ave c_qMpa
compute         qHpa watH property/atom q
compute         qHc  watH reduce ave c_qHpa
compute         dip all dipole/samqeq
variable        mu   equal c_dip
variable        qM   equal c_qMc
variable        qH   equal c_qHc
variable        pemol equal pe/256.0
variable        T equal temp
variable        P equal press

timestep        0.00025
velocity        all create 298.0 20260928 mom yes rot yes dist gaussian
fix             rig all rigid/nvt/small molecule temp 298.0 298.0 0.02
Fix rigid/nvt/small setup ...
  create bodies CPU = 0.001 seconds
  256 rigid bodies with 1024 atoms
  0.87348128 = max distance from body owner to body atom
thermo_style    custom step temp v_mu
thermo          400
run             80000

CITE-CITE-CITE-CITE-CITE-CITE-CITE-CITE-CITE-CITE-CITE-CITE-CITE

Your simulation uses code contributions which should be cited:

- fix acks2/reaxff command: https://doi.org/10.1137/18M1224684

@Article{O'Hearn2020,
 author = {K. A. {O'Hearn} and A. Alperen and H. M. Aktulga},
 title = {Fast Solvers for Charge Distribution Models on Shared Memory Platforms},
 journal = {SIAM J.\ Sci.\ Comput.},
 year =    2020,
 volume =  42,
 number =  1,
 pages =   {1--22}
}

CITE-CITE-CITE-CITE-CITE-CITE-CITE-CITE-CITE-CITE-CITE-CITE-CITE

PPPM initialization ...
  using 12-bit tables for long-range coulomb
  G vector (1/distance) = 0.31499941
  grid = 20 20 20
  stencil order = 5
  estimated absolute RMS force accuracy = 0.0001309434
  estimated relative force accuracy = 9.0935157e-06
  using double precision FFTW3
  3d grid and FFT values/proc = 3468 500
samqeq: pair coul/shield/intra Slater-overlap J(r) tables built (6 unique type pairs, 2000 pts each, r in [0.02,5])
Generated 0 of 3 mixed pair_coeff terms from geometric mixing rule
WARNING: Bonds are defined but no bond style is set (src/force.cpp:198)
WARNING: Likewise 1-2 special neighbor interactions != 1.0 (src/force.cpp:200)
WARNING: Angles are defined but no angle style is set (src/force.cpp:203)
WARNING: Likewise 1-3 special neighbor interactions != 1.0 (src/force.cpp:205)
samqeq: E_self = sum(chi q + 1/2 eta qs^2) INCLUDED in pe/etotal (fix_modify chg energy yes; eselfref qs = q - q0 - redox_dp) -- pe + E_self is the energy the forces integrate
samqeq: Slater-overlap J(r) tables built (6 unique type pairs, 2000 pts each, r in [0.02,10])
Neighbor list info ...
  update: every = 1 steps, delay = 0 steps, check = yes
  max neighbors/atom: 2000, page size: 100000
  master list distance cutoff = 12
  ghost atom cutoff = 12
  binsize = 6, bins = 4 4 4
  5 neighbor lists, perpetual/occasional/extra = 5 0 0
  (1) pair lj/cut, perpetual, copy from (2)
      attributes: half, newton on, cut 12
      pair build: copy
      stencil: none
      bin: none
  (2) pair coul/long, perpetual, half/full from (5)
      attributes: half, newton on, cut 12
      pair build: halffull/newton
      stencil: none
      bin: none
  (3) pair coul/shield/intra, perpetual, copy from (1)
      attributes: half, newton on
      pair build: copy
      stencil: none
      bin: none
  (4) fix qeq/sam, perpetual, half/full from (5)
      attributes: half, newton off
      pair build: halffull/newtoff
      stencil: none
      bin: none
  (5) fix qeq/sam, perpetual
      attributes: full, newton on
      pair build: full/bin
      stencil: full/bin/3d
      bin: standard
Per MPI rank memory allocation (min/avg/max) = 20.69 | 20.97 | 21.15 Mbytes
   Step          Temp           v_mu     
WARNING: compute dipole/samqeq: molecule 22 has net charge -0.000001; its dipole is origin-dependent (src/SAMQEQ/compute_dipole_samqeq.cpp:165)
         0   304.38164      2.652567     
samqeq: calibrated grid reciprocal self-term recip_self=0.35523 +/- 0.00000 (raw, K=16 deterministic probes) = 5.1152 eV/e (subtracted so the QEq diagonal stays = eta)
       400   306.8694       2.6487388    
       800   302.02358      2.6351759    
      1200   301.55905      2.6215875    
      1600   298.6787       2.6261853    
      2000   291.30551      2.6448284    
      2400   308.64185      2.6397994    
      2800   322.08186      2.629329     
      3200   290.86499      2.6415195    
      3600   300.88001      2.6360049    
      4000   304.63224      2.6303179    
      4400   309.91199      2.6350301    
      4800   292.61585      2.6312237    
      5200   295.50381      2.6334474    
      5600   301.43698      2.6373038    
      6000   301.55698      2.6411785    
      6400   297.43047      2.6395754    
      6800   285.14013      2.6196913    
      7200   297.52818      2.61378      
      7600   304.22394      2.6171331    
      8000   317.21246      2.6307178    
      8400   310.60188      2.6313065    
      8800   288.58997      2.6202136    
      9200   300.92994      2.6169193    
      9600   305.717        2.5781007    
     10000   294.88799      2.5964944    
     10400   297.21433      2.6081933    
     10800   301.77716      2.6215014    
     11200   304.05472      2.6056694    
     11600   287.20674      2.6105163    
     12000   302.8529       2.6435545    
     12400   314.64311      2.6317027    
     12800   285.05328      2.6182285    
     13200   301.08498      2.6330081    
     13600   293.80245      2.6676125    
     14000   296.64228      2.665536     
     14400   296.80525      2.6391428    
     14800   303.43067      2.6290389    
     15200   297.62815      2.6529939    
     15600   296.00957      2.6536122    
     16000   305.31041      2.6447361    
     16400   293.25034      2.6446298    
     16800   274.17991      2.6415524    
     17200   296.17655      2.6280973    
     17600   308.76596      2.6141781    
     18000   302.55774      2.602019     
     18400   283.08414      2.6216929    
     18800   289.4863       2.6029083    
     19200   294.98474      2.6206218    
     19600   308.76629      2.6331433    
     20000   299.19867      2.6284837    
     20400   297.16876      2.6249285    
     20800   303.40999      2.6189858    
     21200   297.29806      2.6359399    
     21600   289.08488      2.6399071    
     22000   300.032        2.6332065    
     22400   305.47182      2.640942     
     22800   311.70055      2.6390381    
     23200   310.49002      2.6338284    
     23600   300.79915      2.6472425    
     24000   303.33973      2.6373564    
     24400   305.46791      2.6634449    
     24800   323.61029      2.6620803    
     25200   324.03682      2.6390072    
     25600   301.98429      2.6530326    
     26000   309.64783      2.6336865    
     26400   281.89264      2.618512     
     26800   270.48076      2.6249583    
     27200   298.32434      2.6157412    
     27600   291.07276      2.6249997    
     28000   284.37622      2.6423812    
     28400   319.52221      2.6187622    
     28800   291.28948      2.6103634    
     29200   297.60473      2.62271      
     29600   295.60738      2.6194269    
     30000   302.70576      2.6267327    
     30400   303.31304      2.630329     
     30800   315.50758      2.6426675    
     31200   313.51013      2.6632287    
     31600   301.96667      2.6607279    
     32000   293.27738      2.6379866    
     32400   307.69583      2.6296049    
     32800   284.4999       2.6256456    
     33200   293.3184       2.644838     
     33600   301.18062      2.6505867    
     34000   303.18773      2.6637333    
     34400   312.01916      2.6633251    
     34800   293.79684      2.6756418    
     35200   305.99509      2.6688936    
     35600   323.71692      2.6777127    
     36000   300.6883       2.6935855    
     36400   301.75588      2.7062459    
     36800   307.91469      2.6860618    
     37200   307.17436      2.6711031    
     37600   284.50685      2.6598529    
     38000   295.6636       2.6414506    
     38400   316.9524       2.6508649    
     38800   301.57627      2.6798967    
     39200   291.32031      2.6751556    
     39600   307.35756      2.6653551    
     40000   302.15896      2.6746946    
     40400   305.7825       2.6629276    
     40800   295.76591      2.6503874    
     41200   297.12122      2.6398894    
     41600   309.04781      2.6270968    
     42000   310.92826      2.6368251    
     42400   288.10646      2.6278935    
     42800   310.02447      2.6423181    
     43200   302.43136      2.6526319    
     43600   314.7867       2.6470395    
     44000   298.13064      2.6419166    
     44400   305.57668      2.6409159    
     44800   287.87454      2.657647     
     45200   293.70923      2.6328318    
     45600   296.16942      2.6194941    
     46000   281.40187      2.6333578    
     46400   294.95336      2.6280982    
     46800   288.64422      2.6179259    
     47200   296.47279      2.6057145    
     47600   310.4569       2.6248553    
     48000   313.40049      2.6308198    
     48400   307.78848      2.6094654    
     48800   301.54753      2.6146735    
     49200   319.65623      2.604597     
     49600   303.17993      2.6094376    
     50000   302.17109      2.5863823    
     50400   294.35813      2.6172389    
     50800   291.13981      2.5983383    
     51200   286.12951      2.6030992    
     51600   307.48859      2.6326592    
     52000   295.3156       2.6290937    
     52400   295.61519      2.6233198    
     52800   296.92653      2.6112152    
     53200   293.56924      2.5975117    
     53600   272.21903      2.6048904    
     54000   292.04901      2.6234874    
     54400   295.53982      2.6114425    
     54800   291.19009      2.5795224    
     55200   287.96206      2.5966249    
     55600   288.20298      2.5753054    
     56000   292.70433      2.6039049    
     56400   302.19726      2.6194212    
     56800   307.34912      2.6304824    
     57200   299.69332      2.6241477    
     57600   293.29007      2.6081299    
     58000   294.95261      2.6140618    
     58400   300.51987      2.6099596    
     58800   277.17824      2.6157827    
     59200   287.69086      2.623126     
     59600   286.7355       2.6212687    
     60000   312.49479      2.630778     
     60400   283.54819      2.6212591    
     60800   300.4097       2.6392949    
     61200   263.84043      2.6238716    
     61600   301.93901      2.6144419    
     62000   298.66765      2.6035879    
     62400   310.23289      2.6060635    
     62800   302.44848      2.6214091    
     63200   300.38328      2.6348929    
     63600   276.51731      2.6472258    
     64000   300.23417      2.6659095    
     64400   304.81387      2.6538166    
     64800   294.72576      2.6351459    
     65200   298.22454      2.6172187    
     65600   284.39972      2.6439667    
     66000   302.32341      2.6519953    
     66400   305.84902      2.6447694    
     66800   294.23878      2.644682     
     67200   297.73968      2.6428023    
     67600   301.97605      2.635999     
     68000   297.74491      2.6360731    
     68400   282.62488      2.635076     
     68800   308.90181      2.6336388    
     69200   300.20614      2.6398638    
     69600   308.23063      2.652441     
     70000   307.68473      2.6432861    
     70400   282.06389      2.6319473    
     70800   304.84163      2.6026989    
     71200   293.55807      2.6025695    
     71600   288.18196      2.5941151    
     72000   290.43139      2.6079463    
     72400   292.51572      2.5846763    
     72800   303.6492       2.6102295    
     73200   302.1872       2.6078108    
     73600   295.53533      2.6274355    
     74000   277.08479      2.6156042    
     74400   276.02934      2.6169167    
     74800   295.42009      2.6468937    
     75200   298.72313      2.6207163    
     75600   316.33788      2.6292149    
     76000   297.31879      2.6420444    
     76400   308.19654      2.638702     
     76800   312.36753      2.6246516    
     77200   315.75414      2.6258628    
     77600   310.73371      2.6231149    
     78000   288.51936      2.6014823    
     78400   321.24881      2.6049895    
     78800   301.06542      2.6020369    
     79200   297.38942      2.6102173    
     79600   318.16755      2.6160878    
     80000   298.65867      2.6246036    
Loop time of 307.481 on 16 procs for 80000 steps with 1024 atoms

Performance: 5.620 ns/day, 4.271 hours/ns, 260.179 timesteps/s, 266.423 katom-step/s
84.8% CPU use with 16 MPI tasks x 1 OpenMP threads

MPI task timing breakdown:
Section |  min time  |  avg time  |  max time  |%varavg| %total
---------------------------------------------------------------
Pair    | 55.638     | 59.757     | 65.215     |  26.0 | 19.43
Bond    | 0.0040543  | 0.0044352  | 0.0052812  |   0.4 |  0.00
Kspace  | 52.052     | 57.332     | 61.647     |  26.6 | 18.65
Neigh   | 1.1933     | 1.2826     | 1.3353     |   3.3 |  0.42
Comm    | 19.571     | 19.73      | 19.991     |   2.5 |  6.42
Output  | 0.029279   | 0.029716   | 0.030703   |   0.2 |  0.01
Modify  | 167.38     | 167.49     | 167.62     |   0.5 | 54.47
Other   |            | 1.853      |            |       |  0.60

Nlocal:             64 ave          72 max          49 min
Histogram: 2 0 0 0 2 1 2 4 2 3
Nghost:         4370.5 ave        4440 max        4297 min
Histogram: 1 1 2 2 1 3 1 3 0 2
Neighs:        30939.9 ave       34776 max       23532 min
Histogram: 2 0 0 0 2 1 1 4 3 3
FullNghs:      61879.8 ave       69012 max       47158 min
Histogram: 2 0 0 0 1 2 1 3 3 4

Total # of neighbors = 990076
Ave neighs/atom = 966.87109
Ave special neighs/atom = 1.5
Neighbor list builds = 764
Dangerous builds = 0
unfix           rig
fix             rig all rigid/nvt/small molecule temp 298.0 298.0 0.1
Fix rigid/nvt/small setup ...
  create bodies CPU = 0.000 seconds
  256 rigid bodies with 1024 atoms
  0.87348128 = max distance from body owner to body atom
reset_timestep  0
run             400000
PPPM initialization ...
  using 12-bit tables for long-range coulomb
  G vector (1/distance) = 0.31490131
  grid = 20 20 20
  stencil order = 5
  estimated absolute RMS force accuracy = 0.00012867963
  estimated relative force accuracy = 8.9363055e-06
  using double precision FFTW3
  3d grid and FFT values/proc = 3468 500
samqeq: pair coul/shield/intra Slater-overlap J(r) tables built (6 unique type pairs, 2000 pts each, r in [0.02,5])
Generated 0 of 3 mixed pair_coeff terms from geometric mixing rule
WARNING: Bonds are defined but no bond style is set (src/force.cpp:198)
WARNING: Likewise 1-2 special neighbor interactions != 1.0 (src/force.cpp:200)
WARNING: Angles are defined but no angle style is set (src/force.cpp:203)
WARNING: Likewise 1-3 special neighbor interactions != 1.0 (src/force.cpp:205)
samqeq: E_self = sum(chi q + 1/2 eta qs^2) INCLUDED in pe/etotal (fix_modify chg energy yes; eselfref qs = q - q0 - redox_dp) -- pe + E_self is the energy the forces integrate
samqeq: Slater-overlap J(r) tables built (6 unique type pairs, 2000 pts each, r in [0.02,10])
Per MPI rank memory allocation (min/avg/max) = 20.6 | 20.97 | 21.15 Mbytes
   Step          Temp           v_mu     
         0   298.65867      2.6246036    
       400   289.98014      2.6088904    
       800   306.85059      2.6182905    
      1200   295.20912      2.6267196    
      1600   300.12421      2.6235972    
      2000   290.55959      2.6254492    
      2400   320.84875      2.6134076    
      2800   315.60497      2.6118598    
      3200   301.99646      2.6252641    
      3600   288.36721      2.6160597    
      4000   286.42115      2.6467627    
      4400   299.4102       2.6397095    
      4800   312.2818       2.6307111    
      5200   286.53392      2.6203188    
      5600   286.22465      2.6321275    
      6000   311.73031      2.6260178    
      6400   311.94683      2.6388488    
      6800   302.20255      2.6245049    
      7200   317.54072      2.6239393    
      7600   300.36331      2.6343806    
      8000   284.12208      2.652        
      8400   286.29218      2.6508154    
      8800   312.28528      2.6631476    
      9200   298.72261      2.6451864    
      9600   295.92966      2.644188     
     10000   304.474        2.6328075    
     10400   293.86102      2.6249913    
     10800   312.3962       2.6133203    
     11200   307.61779      2.6158924    
     11600   317.89886      2.6162442    
     12000   293.11525      2.591276     
     12400   295.93201      2.5916168    
     12800   302.11628      2.5937567    
     13200   297.29069      2.6096947    
     13600   291.2657       2.6355427    
     14000   281.3632       2.6084453    
     14400   292.76695      2.6157076    
     14800   314.24703      2.6054171    
     15200   304.1217       2.6045005    
     15600   286.53389      2.5841701    
     16000   301.79903      2.6020771    
     16400   296.85497      2.6135092    
     16800   276.05234      2.6238621    
     17200   295.55251      2.6374446    
     17600   299.83455      2.6305322    
     18000   297.84669      2.605981     
     18400   314.47384      2.6029342    
     18800   311.78625      2.603562     
     19200   296.76301      2.6059254    
     19600   275.40083      2.5895858    
     20000   310.47613      2.614473     
     20400   327.40517      2.6228271    
     20800   310.14217      2.6254613    
     21200   298.01409      2.639881     
     21600   304.89742      2.6377895    
     22000   319.72579      2.6364491    
     22400   297.39117      2.6256511    
     22800   303.71339      2.6258523    
     23200   297.13664      2.6384295    
     23600   273.12729      2.6175265    
     24000   295.31547      2.6210682    
     24400   308.03805      2.6053734    
     24800   303.1602       2.6023308    
     25200   304.47861      2.6074665    
     25600   295.77197      2.6163737    
     26000   291.54992      2.6285749    
     26400   302.3129       2.6480583    
     26800   284.48985      2.6636645    
     27200   291.67655      2.6554811    
     27600   294.75189      2.6600717    
     28000   307.7839       2.6745751    
     28400   276.39712      2.6413235    
     28800   285.23605      2.6504947    
     29200   290.63825      2.6216552    
     29600   290.20302      2.6324372    
     30000   308.06523      2.6349145    
     30400   298.45671      2.6434213    
     30800   308.55593      2.6597849    
     31200   298.10189      2.6693123    
     31600   300.16992      2.6499026    
     32000   287.96666      2.6415246    
     32400   308.30784      2.6583914    
     32800   318.36372      2.6549282    
     33200   312.4317       2.6412193    
     33600   292.16822      2.6550816    
     34000   294.51212      2.6541757    
     34400   311.83776      2.6710012    
     34800   314.00134      2.6702218    
     35200   284.43602      2.6574803    
     35600   284.11962      2.6501656    
     36000   305.15474      2.6622137    
     36400   302.31877      2.6378796    
     36800   294.96974      2.6497344    
     37200   297.98275      2.634141     
     37600   314.24836      2.6498247    
     38000   297.19227      2.6645572    
     38400   294.24101      2.6740979    
     38800   299.19499      2.6852537    
     39200   308.9611       2.6742365    
     39600   298.01928      2.6643009    
     40000   302.786        2.6859053    
     40400   283.73925      2.6615661    
     40800   305.83096      2.6647203    
     41200   310.50802      2.6610552    
     41600   294.71909      2.6710039    
     42000   287.62056      2.6905437    
     42400   286.1811       2.6898814    
     42800   275.66242      2.7044985    
     43200   296.83601      2.7011772    
     43600   297.89654      2.6861573    
     44000   293.88666      2.7070847    
     44400   297.76491      2.6855073    
     44800   298.77165      2.6946016    
     45200   285.58551      2.6835669    
     45600   289.14396      2.6971967    
     46000   328.23372      2.7119681    
     46400   297.82156      2.6767638    
     46800   291.71737      2.6748283    
     47200   283.18856      2.6654063    
     47600   308.25296      2.6558667    
     48000   302.85658      2.6575558    
     48400   298.51773      2.6333756    
     48800   287.59812      2.6260703    
     49200   280.92195      2.6294483    
     49600   314.46463      2.6436271    
     50000   320.22166      2.6513964    
     50400   302.10273      2.6561924    
     50800   292.44923      2.6420271    
     51200   294.84174      2.664985     
     51600   282.6758       2.6587797    
     52000   300.05459      2.6755338    
     52400   311.83151      2.6903662    
     52800   279.11873      2.6760753    
     53200   296.13003      2.6749803    
     53600   296.69938      2.6730605    
     54000   300.56447      2.6541784    
     54400   309.26561      2.6488002    
     54800   290.41257      2.6355575    
     55200   306.20592      2.6349872    
     55600   302.97563      2.6275716    
     56000   318.43777      2.639018     
     56400   278.38487      2.6349351    
     56800   301.32796      2.6511214    
     57200   297.63003      2.644794     
     57600   301.38816      2.6296434    
     58000   298.58936      2.6476108    
     58400   295.14348      2.6454949    
     58800   295.55086      2.6320982    
     59200   299.67187      2.6304168    
     59600   297.32763      2.643066     
     60000   283.91231      2.6481269    
     60400   281.09244      2.6494555    
     60800   289.6284       2.6443638    
     61200   309.88418      2.6507789    
     61600   300.41722      2.6124169    
     62000   308.25762      2.6300828    
     62400   293.50535      2.6168935    
     62800   311.7146       2.6210712    
     63200   307.58968      2.6171982    
     63600   297.5749       2.6432725    
     64000   289.90433      2.6593727    
     64400   305.34008      2.6602079    
     64800   304.69864      2.6518661    
     65200   304.33387      2.6529137    
     65600   272.91488      2.6258342    
     66000   299.06992      2.6532737    
     66400   310.43161      2.6542065    
     66800   303.31358      2.670235     
     67200   305.44062      2.6552888    
     67600   299.49213      2.661177     
     68000   279.48493      2.6584952    
     68400   291.41177      2.6513471    
     68800   282.80497      2.6620998    
     69200   280.30891      2.6407299    
     69600   294.62129      2.6461559    
     70000   284.51008      2.6685792    
     70400   291.51212      2.666797     
     70800   284.34598      2.6681449    
     71200   277.62503      2.685238     
     71600   298.2892       2.6889158    
     72000   282.59416      2.687224     
     72400   304.97049      2.6756755    
     72800   307.69362      2.6616661    
     73200   292.24435      2.6736796    
     73600   305.34295      2.6867073    
     74000   297.20033      2.6859909    
     74400   271.69556      2.6679134    
     74800   301.22389      2.6764326    
     75200   301.1827       2.6616449    
     75600   325.5652       2.6557899    
     76000   300.83981      2.6390308    
     76400   298.235        2.6483723    
     76800   330.64352      2.6549959    
     77200   308.37237      2.6573243    
     77600   300.67035      2.6538752    
     78000   288.48861      2.6289966    
     78400   294.52981      2.6488589    
     78800   298.02162      2.6414357    
     79200   279.26863      2.6437124    
     79600   283.56586      2.6321363    
     80000   318.62409      2.636396     
     80400   307.5964       2.6348449    
     80800   312.95791      2.6264026    
     81200   283.12972      2.6232261    
     81600   285.62346      2.6141402    
     82000   295.86769      2.6216371    
     82400   305.48429      2.6367894    
     82800   318.91908      2.6047607    
     83200   305.05819      2.6137665    
     83600   285.24076      2.6255122    
     84000   298.84566      2.6271564    
     84400   291.42939      2.6289869    
     84800   314.50725      2.6313568    
     85200   295.57646      2.6464298    
     85600   305.95271      2.6243344    
     86000   293.38238      2.6212663    
     86400   282.24448      2.6286924    
     86800   309.47945      2.6283276    
     87200   312.85766      2.6241588    
     87600   302.1837       2.6321228    
     88000   290.39169      2.6257055    
     88400   301.72116      2.6283728    
     88800   289.77127      2.6475388    
     89200   304.56805      2.6369781    
     89600   309.99814      2.6472686    
     90000   304.15685      2.6334231    
     90400   297.79179      2.659235     
     90800   296.3614       2.6624735    
     91200   298.5854       2.6638893    
     91600   298.80257      2.6761978    
     92000   292.50691      2.6503229    
     92400   291.25076      2.6618081    
     92800   308.82359      2.6692453    
     93200   297.88645      2.6632301    
     93600   297.42654      2.6841381    
     94000   294.29169      2.6922724    
     94400   286.50074      2.6776212    
     94800   284.63747      2.682699     
     95200   306.27639      2.6720575    
     95600   300.13763      2.6630424    
     96000   287.3895       2.6559933    
     96400   295.33827      2.6451839    
     96800   317.39346      2.6582966    
     97200   298.75598      2.6463496    
     97600   304.1837       2.6407162    
     98000   300.97257      2.6187717    
     98400   314.53358      2.6343247    
     98800   320.94337      2.6483868    
     99200   306.57993      2.609895     
     99600   297.48089      2.6049217    
    100000   289.64071      2.6202985    
    100400   301.6386       2.6211321    
    100800   288.43472      2.633903     
    101200   280.81496      2.6352245    
    101600   302.97788      2.633659     
    102000   315.14338      2.623239     
    102400   324.13675      2.6369057    
    102800   307.05213      2.6367643    
    103200   311.34307      2.6631504    
    103600   293.19323      2.6478945    
    104000   279.74757      2.6272879    
    104400   284.74083      2.6388524    
    104800   319.09265      2.6363713    
    105200   319.04642      2.6372685    
    105600   309.77787      2.6289365    
    106000   301.85664      2.6463559    
    106400   292.65886      2.6301937    
    106800   304.63959      2.630839     
    107200   289.49919      2.6323668    
    107600   295.06933      2.6497379    
    108000   299.42915      2.6305796    
    108400   300.06658      2.6404029    
    108800   294.37885      2.6247597    
    109200   286.196        2.6187062    
    109600   304.61474      2.6220972    
    110000   299.55463      2.6198223    
    110400   313.69973      2.5893626    
    110800   303.02193      2.5864206    
    111200   294.56984      2.602406     
    111600   310.62682      2.6181718    
    112000   296.31187      2.6094693    
    112400   314.67075      2.6015658    
    112800   298.55427      2.6220989    
    113200   288.85497      2.6190293    
    113600   292.6179       2.6237213    
    114000   276.12041      2.6270335    
    114400   309.77         2.6200872    
    114800   315.02869      2.6324658    
    115200   313.83657      2.6335739    
    115600   285.79997      2.6225215    
    116000   289.29407      2.6235073    
    116400   316.32262      2.615222     
    116800   289.26307      2.6052524    
    117200   306.25604      2.6047508    
    117600   287.44222      2.6153668    
    118000   304.37397      2.6300393    
    118400   279.48448      2.6277006    
    118800   291.33323      2.6479592    
    119200   303.59038      2.6621878    
    119600   295.15755      2.6548932    
    120000   293.69174      2.6402643    
    120400   284.28193      2.6291848    
    120800   306.90563      2.6431168    
    121200   290.33914      2.6400716    
    121600   316.19953      2.6336294    
    122000   317.31117      2.6414373    
    122400   309.26153      2.6478501    
    122800   295.6792       2.6397684    
    123200   296.3271       2.6241248    
    123600   299.04335      2.6575998    
    124000   306.07924      2.646957     
    124400   313.40749      2.6628408    
    124800   288.68581      2.6489139    
    125200   310.75137      2.6445823    
    125600   289.21557      2.6458417    
    126000   294.13675      2.6435776    
    126400   287.54427      2.6480601    
    126800   286.90651      2.63945      
    127200   303.05846      2.622696     
    127600   281.5738       2.6304449    
    128000   300.13668      2.6406054    
    128400   297.06376      2.639149     
    128800   291.11953      2.6300176    
    129200   313.00009      2.6473873    
    129600   325.10562      2.6804424    
    130000   285.61182      2.656871     
    130400   313.84374      2.6617367    
    130800   294.40203      2.6646218    
    131200   296.24384      2.6656171    
    131600   302.14779      2.6511216    
    132000   304.30584      2.6556349    
    132400   300.9461       2.6593437    
    132800   289.97991      2.6789743    
    133200   297.54128      2.6556126    
    133600   303.85452      2.6506236    
    134000   309.11775      2.64962      
    134400   297.04549      2.6254887    
    134800   298.76342      2.6210433    
    135200   297.24131      2.631919     
    135600   304.17484      2.6494459    
    136000   288.91061      2.6311274    
    136400   311.08287      2.6324906    
    136800   287.43434      2.6347037    
    137200   308.69823      2.6451319    
    137600   309.3772       2.6382879    
    138000   297.97203      2.6374151    
    138400   308.96186      2.6183644    
    138800   294.04965      2.6285331    
    139200   296.82166      2.6249063    
    139600   296.10935      2.6312021    
    140000   330.36864      2.652326     
    140400   298.30573      2.6270282    
    140800   286.52169      2.6141725    
    141200   295.80098      2.6277315    
    141600   294.80308      2.6192051    
    142000   295.28063      2.6252394    
    142400   314.956        2.6442043    
    142800   293.35202      2.6269499    
    143200   314.63943      2.610801     
    143600   298.26215      2.6143061    
    144000   284.99038      2.6249993    
    144400   287.08663      2.6130285    
    144800   288.9164       2.6284237    
    145200   302.58362      2.6232175    
    145600   300.22964      2.6115638    
    146000   300.95396      2.6204686    
    146400   310.66503      2.6096889    
    146800   301.80732      2.6009432    
    147200   314.12555      2.5926673    
    147600   308.22909      2.6151214    
    148000   292.45026      2.6352441    
    148400   301.18727      2.6285089    
    148800   310.96353      2.6220157    
    149200   317.20628      2.6222564    
    149600   301.89675      2.6209621    
    150000   295.60712      2.6337688    
    150400   298.03722      2.6260521    
    150800   301.36366      2.6461823    
    151200   293.53862      2.6555791    
    151600   296.69561      2.6703815    
    152000   284.41422      2.6517092    
    152400   307.69607      2.6573822    
    152800   319.64518      2.646694     
    153200   296.59328      2.6437112    
    153600   299.03255      2.6588767    
    154000   294.83955      2.6445368    
    154400   297.6452       2.674141     
    154800   296.65254      2.6480596    
    155200   303.11649      2.6715094    
    155600   312.19537      2.6672601    
    156000   278.74607      2.6663231    
    156400   302.27006      2.6811857    
    156800   298.2042       2.6791958    
    157200   299.2289       2.6349983    
    157600   308.01344      2.621013     
    158000   302.41872      2.6020075    
    158400   290.31481      2.6188009    
    158800   296.20056      2.629728     
    159200   292.19965      2.6208796    
    159600   280.3041       2.6552127    
    160000   293.53842      2.6524362    
    160400   305.92167      2.6589807    
    160800   294.5929       2.6558779    
    161200   294.48634      2.6395025    
    161600   296.56103      2.6458073    
    162000   297.536        2.6768169    
    162400   286.77022      2.6446726    
    162800   296.8218       2.6161874    
    163200   286.54099      2.6003871    
    163600   287.24941      2.6041512    
    164000   303.1746       2.6218791    
    164400   299.37553      2.6144095    
    164800   291.94427      2.6194337    
    165200   293.8359       2.6147892    
    165600   303.33117      2.6202437    
    166000   323.43319      2.6380009    
    166400   305.4735       2.6248106    
    166800   279.28477      2.6303316    
    167200   302.0279       2.6217559    
    167600   308.74748      2.6558753    
    168000   298.97931      2.650692     
    168400   300.2306       2.646848     
    168800   297.9037       2.6338005    
    169200   284.62736      2.6301554    
    169600   292.44977      2.644383     
    170000   288.38573      2.6392722    
    170400   292.31387      2.6395706    
    170800   298.11245      2.6430751    
    171200   309.72735      2.6522576    
    171600   283.84412      2.6683115    
    172000   278.89672      2.6396627    
    172400   288.00312      2.6428469    
    172800   287.35261      2.6441743    
    173200   280.98287      2.6369189    
    173600   308.86342      2.6422359    
    174000   316.97764      2.6393104    
    174400   274.90611      2.6232776    
    174800   308.64847      2.6383061    
    175200   299.27105      2.635082     
    175600   293.59253      2.6474949    
    176000   305.27298      2.6420264    
    176400   296.19356      2.6411824    
    176800   290.53338      2.6351315    
    177200   302.82013      2.6330534    
    177600   298.54187      2.6356497    
    178000   296.42601      2.6456467    
    178400   303.15924      2.6403659    
    178800   297.89873      2.6274684    
    179200   285.27376      2.6372831    
    179600   289.26916      2.6426856    
    180000   300.20379      2.6537       
    180400   304.13771      2.6720372    
    180800   284.18303      2.6367351    
    181200   304.50124      2.6399564    
    181600   296.70793      2.6486325    
    182000   299.80793      2.6267379    
    182400   277.98506      2.6342137    
    182800   293.3842       2.640219     
    183200   301.63911      2.6253712    
    183600   307.42781      2.6385671    
    184000   294.80442      2.6433572    
    184400   295.03836      2.6442931    
    184800   287.87919      2.6690524    
    185200   279.20467      2.6705227    
    185600   292.00247      2.6663161    
    186000   307.65326      2.6598344    
    186400   299.67043      2.6361802    
    186800   288.94373      2.6349993    
    187200   320.34843      2.6301431    
    187600   303.97482      2.637543     
    188000   296.06546      2.6511379    
    188400   269.73718      2.6264755    
    188800   288.07817      2.6313049    
    189200   311.73261      2.6493827    
    189600   296.96433      2.6195634    
    190000   293.45743      2.6449653    
    190400   292.49153      2.6491654    
    190800   286.33061      2.6327196    
    191200   282.26152      2.6183275    
    191600   306.1481       2.6362112    
    192000   305.37589      2.617484     
    192400   290.35369      2.6094582    
    192800   292.18316      2.5981854    
    193200   307.28199      2.609008     
    193600   302.47465      2.6201488    
    194000   304.82976      2.607065     
    194400   296.07704      2.624475     
    194800   299.82402      2.6305481    
    195200   305.88894      2.6326131    
    195600   311.61335      2.6197729    
    196000   310.18105      2.6297316    
    196400   305.55186      2.6081267    
    196800   298.98478      2.6297048    
    197200   294.35605      2.6243839    
    197600   288.57118      2.631905     
    198000   293.85137      2.6206802    
    198400   306.05574      2.6364382    
    198800   305.71185      2.6307718    
    199200   289.77952      2.6376355    
    199600   283.62283      2.6386538    
    200000   292.48376      2.6345599    
    200400   306.87974      2.6280745    
    200800   302.13813      2.6083028    
    201200   306.15296      2.6209682    
    201600   319.30097      2.6428984    
    202000   295.76438      2.641152     
    202400   297.36327      2.63973      
    202800   303.47635      2.6350942    
    203200   302.67459      2.6148518    
    203600   301.87778      2.6114032    
    204000   316.76758      2.6080696    
    204400   296.78222      2.6080748    
    204800   315.3323       2.632566     
    205200   272.60752      2.6489453    
    205600   296.98986      2.6557877    
    206000   287.70963      2.6343779    
    206400   311.98803      2.644034     
    206800   308.83276      2.6397514    
    207200   288.55549      2.6143465    
    207600   297.48379      2.6116368    
    208000   293.61487      2.6025117    
    208400   311.79129      2.6199165    
    208800   292.6562       2.6021867    
    209200   295.12515      2.5932468    
    209600   315.73607      2.6071576    
    210000   302.24279      2.6185364    
    210400   286.70291      2.6227455    
    210800   297.38582      2.6310536    
    211200   301.2002       2.6517943    
    211600   288.11931      2.6455213    
    212000   307.71719      2.6354229    
    212400   283.30989      2.6022652    
    212800   286.45726      2.6271876    
    213200   293.1339       2.6356794    
    213600   284.82762      2.6372051    
    214000   305.43059      2.6478247    
    214400   301.04778      2.6546831    
    214800   309.60165      2.6403696    
    215200   309.20258      2.6398247    
    215600   295.11593      2.6359131    
    216000   316.3836       2.6616153    
    216400   311.46006      2.6555292    
    216800   317.98596      2.6601072    
    217200   284.76945      2.6629087    
    217600   291.75533      2.6640409    
    218000   286.42111      2.6553251    
    218400   304.17993      2.6453393    
    218800   301.59445      2.6468785    
    219200   284.29476      2.6191741    
    219600   300.11115      2.6441203    
    220000   305.07343      2.6481529    
    220400   301.27484      2.6386628    
    220800   306.57644      2.6552469    
    221200   300.82323      2.6763242    
    221600   300.26101      2.6422399    
    222000   291.1058       2.6476349    
    222400   296.33405      2.6566424    
    222800   304.24714      2.6597965    
    223200   292.65296      2.6377524    
    223600   304.6925       2.6603096    
    224000   298.06638      2.6453026    
    224400   293.89982      2.6348479    
    224800   294.78378      2.6457041    
    225200   303.15941      2.6378575    
    225600   301.04461      2.6278351    
    226000   287.02818      2.6167031    
    226400   289.75548      2.636007     
    226800   303.84195      2.6230283    
    227200   295.87838      2.6379785    
    227600   294.25151      2.6213167    
    228000   294.32272      2.6347115    
    228400   287.23057      2.6415867    
    228800   297.45514      2.6318085    
    229200   281.41168      2.6305536    
    229600   304.67686      2.6224407    
    230000   291.55578      2.6133038    
    230400   294.8113       2.6149252    
    230800   324.33151      2.635175     
    231200   311.942        2.6362791    
    231600   282.17981      2.6453315    
    232000   294.56056      2.623366     
    232400   282.10931      2.6095783    
    232800   303.10111      2.6392084    
    233200   311.28323      2.6379487    
    233600   304.88357      2.6340346    
    234000   291.64873      2.6181216    
    234400   298.69557      2.6268719    
    234800   302.98029      2.6394128    
    235200   293.25656      2.6502605    
    235600   288.93695      2.6427746    
    236000   312.77196      2.6546816    
    236400   297.10831      2.65468      
    236800   284.81646      2.6323295    
    237200   299.96192      2.6579218    
    237600   294.19668      2.6378315    
    238000   309.29373      2.6366466    
    238400   285.96355      2.634784     
    238800   286.32319      2.6273532    
    239200   306.42061      2.6549264    
    239600   298.073        2.6499138    
    240000   295.12833      2.6575131    
    240400   302.38741      2.6556667    
    240800   288.10204      2.6373222    
    241200   299.74513      2.6351714    
    241600   308.95279      2.6191248    
    242000   310.29591      2.5957575    
    242400   297.44035      2.5984656    
    242800   291.39616      2.6004374    
    243200   286.8967       2.606094     
    243600   306.48249      2.609185     
    244000   299.69503      2.6040397    
    244400   307.14072      2.6009232    
    244800   296.03114      2.6083571    
    245200   288.56779      2.6001292    
    245600   297.04607      2.5923016    
    246000   307.32086      2.6120626    
    246400   300.0026       2.6319264    
    246800   288.68229      2.6241458    
    247200   311.37014      2.6475891    
    247600   275.72223      2.6314286    
    248000   311.66038      2.6309195    
    248400   309.32534      2.6192087    
    248800   316.59989      2.6002333    
    249200   295.79066      2.6093716    
    249600   284.72435      2.6241312    
    250000   291.99202      2.5999642    
    250400   295.44821      2.6106863    
    250800   316.48069      2.6101657    
    251200   315.27838      2.6326733    
    251600   301.11779      2.6098001    
    252000   283.65442      2.6155155    
    252400   278.42344      2.5993106    
    252800   309.09624      2.5920384    
    253200   302.83721      2.6004902    
    253600   305.29545      2.6115474    
    254000   307.10479      2.615468     
    254400   295.73422      2.617014     
    254800   299.1695       2.5973354    
    255200   311.43504      2.6063768    
    255600   298.9168       2.603895     
    256000   305.19185      2.6179752    
    256400   313.40571      2.6231888    
    256800   306.14557      2.61292      
    257200   292.69917      2.6258164    
    257600   289.95283      2.628556     
    258000   297.12289      2.6445607    
    258400   302.81518      2.6271485    
    258800   289.88019      2.6293556    
    259200   283.14414      2.6497934    
    259600   299.8679       2.630289     
    260000   300.28501      2.6337073    
    260400   296.3356       2.6352201    
    260800   312.43345      2.6684112    
    261200   300.5717       2.6574357    
    261600   285.53625      2.6409731    
    262000   296.04022      2.6225898    
    262400   323.30243      2.6407149    
    262800   292.15139      2.6340743    
    263200   298.97745      2.6323116    
    263600   290.32045      2.6538993    
    264000   306.48546      2.6356568    
    264400   298.30977      2.6409855    
    264800   292.22098      2.6362636    
    265200   285.14902      2.6230217    
    265600   296.19444      2.6102562    
    266000   300.34397      2.6337584    
    266400   284.19937      2.6420072    
    266800   278.4708       2.6422304    
    267200   288.64406      2.6353115    
    267600   304.06009      2.6414268    
    268000   291.42716      2.6243314    
    268400   314.921        2.621689     
    268800   305.78031      2.625215     
    269200   296.72589      2.6477364    
    269600   291.70299      2.6476349    
    270000   299.1826       2.6641234    
    270400   309.01078      2.6647087    
    270800   307.62602      2.6672168    
    271200   299.25239      2.6536044    
    271600   303.82145      2.6448039    
    272000   295.74869      2.6265016    
    272400   316.25823      2.6250745    
    272800   304.67771      2.6107531    
    273200   292.18087      2.6287227    
    273600   276.26303      2.637817     
    274000   309.52934      2.6614681    
    274400   289.78166      2.6467824    
    274800   291.40886      2.6362816    
    275200   326.87742      2.6463776    
    275600   304.33003      2.6297894    
    276000   297.29287      2.6240884    
    276400   285.85527      2.6226637    
    276800   303.09572      2.6290038    
    277200   299.30538      2.6410552    
    277600   278.60075      2.6195572    
    278000   282.53072      2.6205617    
    278400   295.49457      2.6237809    
    278800   288.58531      2.6199738    
    279200   321.50334      2.6521453    
    279600   288.42298      2.6299232    
    280000   307.32227      2.6262784    
    280400   316.62735      2.6321389    
    280800   284.80355      2.6256624    
    281200   286.14364      2.615885     
    281600   296.86737      2.6422816    
    282000   316.12635      2.6527732    
    282400   302.5689       2.6513605    
    282800   296.02273      2.6379338    
    283200   300.71177      2.6263546    
    283600   311.5302       2.6261057    
    284000   310.83806      2.6111997    
    284400   295.40697      2.6001781    
    284800   305.84653      2.6417159    
    285200   290.69348      2.6240599    
    285600   287.62767      2.6425197    
    286000   306.21432      2.6514753    
    286400   315.48151      2.6482252    
    286800   301.61585      2.6444388    
    287200   292.8796       2.6449632    
    287600   297.5041       2.6468944    
    288000   308.24017      2.6385771    
    288400   293.80628      2.6252963    
    288800   292.19681      2.6442704    
    289200   291.77229      2.6690557    
    289600   291.56769      2.6637516    
    290000   299.74827      2.6435312    
    290400   329.63915      2.6493349    
    290800   313.61432      2.6430201    
    291200   294.07325      2.6245593    
    291600   285.26681      2.6596213    
    292000   297.74987      2.6474209    
    292400   296.55088      2.6350194    
    292800   296.75781      2.6402951    
    293200   300.13838      2.6405327    
    293600   314.52857      2.6426885    
    294000   304.89629      2.6439924    
    294400   291.1424       2.6489887    
    294800   285.85311      2.6494612    
    295200   292.45598      2.6515418    
    295600   300.11435      2.644743     
    296000   331.18013      2.6395134    
    296400   299.74734      2.6416052    
    296800   298.97778      2.6370946    
    297200   302.20041      2.6564423    
    297600   312.0319       2.6608409    
    298000   290.57595      2.6467756    
    298400   287.77048      2.6539224    
    298800   273.07358      2.643506     
    299200   291.03672      2.6359177    
    299600   298.45018      2.6398415    
    300000   303.5563       2.6258731    
    300400   309.11811      2.6205967    
    300800   286.57743      2.6277613    
    301200   278.68838      2.6560819    
    301600   293.63814      2.6586102    
    302000   272.49929      2.6567472    
    302400   294.15734      2.6310896    
    302800   291.16796      2.6265846    
    303200   304.97088      2.631234     
    303600   302.69511      2.6308791    
    304000   281.379        2.6203672    
    304400   285.82728      2.6297873    
    304800   304.24777      2.6308039    
    305200   319.39603      2.6436791    
    305600   288.88603      2.60094      
    306000   302.18674      2.605779     
    306400   283.19526      2.6194035    
    306800   273.50493      2.6429936    
    307200   286.79228      2.6551701    
    307600   294.05989      2.6530684    
    308000   287.41318      2.6420456    
    308400   317.46156      2.6447086    
    308800   300.24263      2.6273809    
    309200   298.10331      2.6640444    
    309600   312.31525      2.6571897    
    310000   292.82957      2.648809     
    310400   295.79758      2.6460197    
    310800   295.54609      2.6212173    
    311200   309.2825       2.6420448    
    311600   311.65921      2.6439617    
    312000   293.68342      2.6602765    
    312400   302.06216      2.6489501    
    312800   276.6759       2.6167579    
    313200   301.32949      2.6450372    
    313600   309.70416      2.6197191    
    314000   314.18097      2.6178183    
    314400   301.08711      2.6141816    
    314800   303.54314      2.6277391    
    315200   303.54986      2.6109002    
    315600   300.95609      2.6176906    
    316000   314.6583       2.6226715    
    316400   285.28452      2.6436839    
    316800   310.08792      2.6679293    
    317200   302.94947      2.6534673    
    317600   299.46182      2.6882477    
    318000   288.28527      2.671494     
    318400   294.11184      2.6671416    
    318800   301.42933      2.6522268    
    319200   285.64907      2.6604108    
    319600   289.90171      2.6449112    
    320000   300.80986      2.6726009    
    320400   303.97286      2.6589869    
    320800   290.57637      2.664194     
    321200   291.82328      2.6543147    
    321600   289.52849      2.6256245    
    322000   309.42214      2.6510867    
    322400   298.3703       2.639994     
    322800   309.03401      2.639537     
    323200   299.30538      2.6169994    
    323600   309.33168      2.6287654    
    324000   302.55929      2.633841     
    324400   284.5958       2.6485917    
    324800   301.94872      2.6446704    
    325200   304.35771      2.6407562    
    325600   299.09392      2.6319506    
    326000   291.72805      2.6448705    
    326400   284.31172      2.6685047    
    326800   283.94267      2.6666437    
    327200   306.93907      2.6710206    
    327600   323.51149      2.6503953    
    328000   313.86855      2.6338474    
    328400   313.6735       2.6283787    
    328800   304.68924      2.6363335    
    329200   295.19498      2.6407975    
    329600   287.10698      2.6299181    
    330000   297.67864      2.6338916    
    330400   305.53195      2.6295484    
    330800   307.43175      2.6345902    
    331200   301.17859      2.6349236    
    331600   291.11585      2.6269445    
    332000   301.63047      2.6394121    
    332400   292.12083      2.6304775    
    332800   312.09409      2.6363741    
    333200   304.69014      2.6178121    
    333600   293.02003      2.6346845    
    334000   306.26384      2.6357125    
    334400   296.30055      2.6242589    
    334800   299.35248      2.6434766    
    335200   292.78988      2.6344554    
    335600   302.45083      2.6310874    
    336000   307.92917      2.6274663    
    336400   289.04101      2.6177859    
    336800   295.78088      2.6147584    
    337200   314.46103      2.6363134    
    337600   289.24621      2.6241874    
    338000   292.32681      2.6180166    
    338400   292.09826      2.6330154    
    338800   303.24358      2.633413     
    339200   270.48204      2.6190893    
    339600   288.54236      2.6422967    
    340000   315.34252      2.6111128    
    340400   311.55369      2.628965     
    340800   302.39541      2.6186736    
    341200   293.96844      2.6273979    
    341600   291.95141      2.6309043    
    342000   311.14353      2.6369483    
    342400   291.86324      2.616295     
    342800   287.57237      2.6388281    
    343200   288.1697       2.6317373    
    343600   310.87704      2.646686     
    344000   294.85258      2.6591898    
    344400   291.79698      2.662835     
    344800   285.8788       2.6605683    
    345200   289.10431      2.662096     
    345600   300.54207      2.64049      
    346000   310.40987      2.6389991    
    346400   289.09343      2.6231254    
    346800   292.8784       2.6170637    
    347200   322.82042      2.6308878    
    347600   313.12133      2.6362529    
    348000   309.72813      2.638751     
    348400   306.2228       2.645745     
    348800   295.73123      2.6395262    
    349200   288.92022      2.6346765    
    349600   283.40867      2.6357153    
    350000   295.34129      2.6472127    
    350400   315.11821      2.6582366    
    350800   309.27904      2.6525856    
    351200   290.68523      2.6417361    
    351600   262.78813      2.6459597    
    352000   300.50454      2.6419159    
    352400   293.30717      2.6484557    
    352800   317.43856      2.6636099    
    353200   302.14568      2.6382344    
    353600   304.45529      2.6321377    
    354000   300.95344      2.6352917    
    354400   307.74654      2.6484236    
    354800   297.82048      2.6546423    
    355200   310.01704      2.6686725    
    355600   300.67981      2.6273205    
    356000   283.12535      2.6274587    
    356400   301.9245       2.6274136    
    356800   296.70086      2.6512274    
    357200   293.92392      2.6598342    
    357600   276.38543      2.6312199    
    358000   289.12468      2.6324086    
    358400   306.48866      2.6081101    
    358800   298.258        2.607374     
    359200   311.95169      2.617229     
    359600   288.21301      2.6216331    
    360000   295.52408      2.6157627    
    360400   283.25368      2.6088741    
    360800   288.08114      2.6254279    
    361200   308.80824      2.6228472    
    361600   307.266        2.6000021    
    362000   311.60997      2.6116607    
    362400   299.59613      2.6191234    
    362800   289.78438      2.6192838    
    363200   297.48124      2.6145051    
    363600   304.46337      2.6417227    
    364000   287.01925      2.6434715    
    364400   286.61598      2.6326514    
    364800   306.51907      2.6351792    
    365200   314.49496      2.6444292    
    365600   283.08544      2.6276773    
    366000   311.99625      2.6435258    
    366400   296.26472      2.6495926    
    366800   280.33591      2.6367742    
    367200   290.09492      2.6221891    
    367600   299.43138      2.6399019    
    368000   295.94882      2.6338278    
WARNING: System is not charge neutral, net charge = -1.0000006e-05
For more information see https://docs.lammps.org/err0029 (src/kspace.cpp:329)
    368400   297.65054      2.6171407    
    368800   303.65973      2.6202212    
    369200   306.85554      2.5950484    
    369600   310.6114       2.6161075    
    370000   297.86309      2.6217165    
    370400   287.57973      2.6270303    
    370800   285.476        2.6234615    
    371200   293.35828      2.6261619    
    371600   307.55104      2.6328744    
    372000   311.12288      2.6394725    
    372400   294.77301      2.6362448    
    372800   290.40232      2.6287735    
    373200   295.04483      2.648107     
    373600   299.93626      2.6472342    
    374000   293.77378      2.6439838    
    374400   303.68426      2.6468071    
    374800   288.37711      2.6358321    
    375200   299.16714      2.6385802    
    375600   315.78415      2.6514166    
    376000   295.12376      2.6407687    
    376400   298.70194      2.645719     
    376800   295.83093      2.6344296    
    377200   314.33924      2.6564766    
    377600   310.30974      2.6620538    
    378000   290.32876      2.6587646    
    378400   313.11617      2.673383     
    378800   301.22357      2.6617029    
    379200   297.21559      2.6484889    
    379600   294.35543      2.6514167    
    380000   300.21426      2.6628956    
    380400   299.38026      2.6778973    
    380800   311.09075      2.673915     
    381200   299.75723      2.6585942    
    381600   302.26508      2.6733359    
    382000   287.55362      2.653916     
    382400   286.16671      2.6466368    
    382800   288.39133      2.6672018    
    383200   296.62288      2.6517912    
    383600   306.41973      2.6605797    
    384000   291.96892      2.6347389    
    384400   314.92285      2.6465911    
    384800   299.77098      2.6578178    
    385200   295.90978      2.6606539    
    385600   304.63097      2.6590422    
    386000   290.48411      2.6733345    
    386400   307.55347      2.6545571    
    386800   316.03881      2.6599307    
    387200   305.78701      2.655863     
    387600   295.00411      2.6668184    
    388000   298.49067      2.6615654    
    388400   293.07677      2.6448147    
    388800   286.95469      2.6379542    
    389200   293.78159      2.6331992    
    389600   306.29192      2.6270598    
    390000   307.64382      2.6323968    
    390400   304.43001      2.6325186    
    390800   298.26118      2.6332309    
    391200   307.9319       2.6502878    
    391600   294.88559      2.6245783    
    392000   318.51394      2.6495594    
    392400   292.34385      2.6384537    
    392800   296.27696      2.6507503    
    393200   295.62974      2.6452594    
    393600   303.9747       2.6591027    
    394000   311.49286      2.6378492    
    394400   294.12226      2.6369006    
    394800   283.4646       2.6297078    
    395200   287.56304      2.6140938    
    395600   293.7838       2.6222672    
    396000   300.16104      2.631122     
    396400   303.00483      2.6372475    
    396800   298.30548      2.625822     
    397200   292.37438      2.6358534    
    397600   295.74608      2.6217019    
    398000   309.95074      2.6371004    
    398400   288.55594      2.6161724    
    398800   292.98547      2.6390678    
    399200   309.39036      2.6425803    
    399600   296.11083      2.6223541    
    400000   309.05477      2.604661     
Loop time of 1545.58 on 16 procs for 400000 steps with 1024 atoms

Performance: 5.590 ns/day, 4.293 hours/ns, 258.803 timesteps/s, 265.014 katom-step/s
84.8% CPU use with 16 MPI tasks x 1 OpenMP threads

MPI task timing breakdown:
Section |  min time  |  avg time  |  max time  |%varavg| %total
---------------------------------------------------------------
Pair    | 294.8      | 303.24     | 312.3      |  31.7 | 19.62
Bond    | 0.020168   | 0.0229     | 0.028068   |   1.4 |  0.00
Kspace  | 278.1      | 288.33     | 296.69     |  32.8 | 18.66
Neigh   | 6.2242     | 6.426      | 6.7071     |   5.4 |  0.42
Comm    | 98.017     | 99.213     | 100.18     |   6.6 |  6.42
Output  | 0.14531    | 0.14829    | 0.15466    |   0.5 |  0.01
Modify  | 837.35     | 837.78     | 838.25     |   0.9 | 54.21
Other   |            | 10.41      |            |       |  0.67

Nlocal:             64 ave          73 max          54 min
Histogram: 2 1 0 2 3 1 2 1 3 1
Nghost:        4367.56 ave        4440 max        4305 min
Histogram: 3 0 1 3 1 2 1 4 0 1
Neighs:        30917.6 ave       35334 max       26377 min
Histogram: 3 0 1 2 2 1 2 2 2 1
FullNghs:      61835.1 ave       70795 max       52640 min
Histogram: 2 1 1 2 2 2 1 1 3 1

Total # of neighbors = 989362
Ave neighs/atom = 966.17383
Ave special neighs/atom = 1.5
Neighbor list builds = 3801
Dangerous builds = 0
print           "PORT_DONE" file done.txt screen no
Total wall time: 0:30:55
