ITEM: TIMESTEP
0
ITEM: NUMBER OF ATOMS
240
ITEM: BOX BOUNDS pp pp ff
0.0000000000000000e+00 1.7650658050000001e+01
0.0000000000000000e+00 2.0381224350000000e+01
0.0000000000000000e+00 6.0000000000000000e+01
ITEM: ATOMS id type q
1 1 -0.0220037746717
2 1 -0.0220037694682
3 1 -0.0220037637195
4 1 -0.0220037678959
5 1 -0.0220037746858
6 1 -0.022003769474
7 1 -0.0220037637139
8 1 -0.022003767882
9 1 -0.0220037746757
10 1 -0.0220037694742
11 1 -0.0220037637235
12 1 -0.0220037679019
13 1 -0.0220037746897
14 1 -0.0220037694801
15 1 -0.0220037637179
16 1 -0.022003767888
17 1 -0.0220037746824
18 1 -0.0220037694796
19 1 -0.0220037637302
20 1 -0.0220037679073
21 1 -0.0220037746964
22 1 -0.0220037694854
23 1 -0.0220037637246
24 1 -0.0220037678934
25 1 -0.0220037746845
26 1 -0.0220037694776
27 1 -0.0220037637322
28 1 -0.0220037679052
29 1 -0.0220037746985
30 1 -0.0220037694834
31 1 -0.0220037637267
32 1 -0.0220037678913
33 1 -0.0220037746791
34 1 -0.0220037694708
35 1 -0.0220037637269
36 1 -0.0220037678985
37 1 -0.0220037746931
38 1 -0.0220037694767
39 1 -0.0220037637213
40 1 -0.0220037678846
41 1 -0.0220037746731
42 1 -0.0220037694669
43 1 -0.0220037637208
44 1 -0.0220037678945
45 1 -0.0220037746871
46 1 -0.0220037694727
47 1 -0.0220037637153
48 1 -0.0220037678806
49 1 -0.00352152424379
50 1 -0.0035215155485
51 1 -0.00352151443128
52 1 -0.00352152298923
53 1 -0.00352152425202
54 1 -0.00352151554955
55 1 -0.00352151442457
56 1 -0.00352152297859
57 1 -0.00352152424773
58 1 -0.003521515553
59 1 -0.00352151443522
60 1 -0.00352152299374
61 1 -0.00352152425597
62 1 -0.00352151555406
63 1 -0.00352151442851
64 1 -0.00352152298309
65 1 -0.00352152425138
66 1 -0.00352151555441
67 1 -0.00352151443887
68 1 -0.00352152299515
69 1 -0.00352152425961
70 1 -0.00352151555546
71 1 -0.00352151443215
72 1 -0.0035215229845
73 1 -0.00352152424997
74 1 -0.00352151555077
75 1 -0.00352151443746
76 1 -0.0035215229915
77 1 -0.0035215242582
78 1 -0.00352151555182
79 1 -0.00352151443074
80 1 -0.00352152298086
81 1 -0.00352152424547
82 1 -0.00352151554682
83 1 -0.00352151443295
84 1 -0.00352152298756
85 1 -0.0035215242537
86 1 -0.00352151554788
87 1 -0.00352151442624
88 1 -0.00352152297692
89 1 -0.00352152424299
90 1 -0.00352151554603
91 1 -0.00352151443048
92 1 -0.00352152298676
93 1 -0.00352152425123
94 1 -0.00352151554708
95 1 -0.00352151442377
96 1 -0.00352152297612
97 1 2.4375766721e-06
98 1 2.4390314063e-06
99 1 2.43756880965e-06
100 1 2.43611284635e-06
101 1 2.43757567723e-06
102 1 2.43903363501e-06
103 1 2.43757293029e-06
104 1 2.43611633552e-06
105 1 2.43757667447e-06
106 1 2.43903140805e-06
107 1 2.43756881201e-06
108 1 2.43611284807e-06
109 1 2.43757567959e-06
110 1 2.43903363675e-06
111 1 2.43757293266e-06
112 1 2.43611633725e-06
113 1 2.43757667514e-06
114 1 2.43903140737e-06
115 1 2.4375688127e-06
116 1 2.43611284739e-06
117 1 2.43757568027e-06
118 1 2.43903363608e-06
119 1 2.43757293333e-06
120 1 2.43611633657e-06
121 1 2.43757667341e-06
122 1 2.439031405e-06
123 1 2.43756881097e-06
124 1 2.43611284503e-06
125 1 2.43757567855e-06
126 1 2.43903363371e-06
127 1 2.43757293162e-06
128 1 2.43611633419e-06
129 1 2.43757667088e-06
130 1 2.43903140304e-06
131 1 2.43756880843e-06
132 1 2.43611284304e-06
133 1 2.43757567601e-06
134 1 2.43903363175e-06
135 1 2.43757292907e-06
136 1 2.43611633223e-06
137 1 2.43757667014e-06
138 1 2.43903140376e-06
139 1 2.43756880767e-06
140 1 2.43611284378e-06
141 1 2.43757567526e-06
142 1 2.43903363247e-06
143 1 2.43757292833e-06
144 1 2.43611633297e-06
145 1 0.00354724122547
146 1 0.00354723995375
147 1 0.00354723145162
148 1 0.00354723258771
149 1 0.00354724122942
150 1 0.00354723995696
151 1 0.00354723145179
152 1 0.00354723258489
153 1 0.00354724122909
154 1 0.00354723995514
155 1 0.00354723145524
156 1 0.00354723258911
157 1 0.00354724123304
158 1 0.00354723995835
159 1 0.00354723145541
160 1 0.00354723258628
161 1 0.00354724122769
162 1 0.00354723995152
163 1 0.00354723145384
164 1 0.00354723258549
165 1 0.00354724123164
166 1 0.00354723995473
167 1 0.00354723145401
168 1 0.00354723258266
169 1 0.0035472412232
170 1 0.00354723994759
171 1 0.00354723144936
172 1 0.00354723258155
173 1 0.00354724122716
174 1 0.00354723995079
175 1 0.00354723144952
176 1 0.00354723257873
177 1 0.00354724122073
178 1 0.00354723994679
179 1 0.00354723144688
180 1 0.00354723258075
181 1 0.00354724122469
182 1 0.00354723995
183 1 0.00354723144705
184 1 0.00354723257793
185 1 0.00354724122153
186 1 0.00354723994926
187 1 0.00354723144768
188 1 0.00354723258322
189 1 0.00354724122548
190 1 0.00354723995247
191 1 0.00354723144785
192 1 0.0035472325804
193 1 0.0219756201183
194 1 0.0219756133246
195 1 0.0219756091559
196 1 0.0219756149122
197 1 0.0219756201241
198 1 0.0219756133269
199 1 0.0219756091529
200 1 0.0219756149061
201 1 0.0219756201204
202 1 0.0219756133225
203 1 0.021975609158
204 1 0.0219756149101
205 1 0.0219756201261
206 1 0.0219756133248
207 1 0.021975609155
208 1 0.0219756149041
209 1 0.021975620115
210 1 0.0219756133158
211 1 0.0219756091526
212 1 0.0219756149034
213 1 0.0219756201207
214 1 0.021975613318
215 1 0.0219756091496
216 1 0.0219756148973
217 1 0.0219756201089
218 1 0.0219756133118
219 1 0.0219756091465
220 1 0.0219756148994
221 1 0.0219756201147
222 1 0.0219756133141
223 1 0.0219756091435
224 1 0.0219756148933
225 1 0.0219756201076
226 1 0.0219756133132
227 1 0.0219756091452
228 1 0.0219756149007
229 1 0.0219756201133
230 1 0.0219756133154
231 1 0.0219756091422
232 1 0.0219756148947
233 1 0.0219756201115
234 1 0.0219756133192
235 1 0.0219756091491
236 1 0.0219756149068
237 1 0.0219756201173
238 1 0.0219756133214
239 1 0.0219756091462
240 1 0.0219756149007
