ITEM: TIMESTEP
5000
ITEM: NUMBER OF ATOMS
528
ITEM: BOX BOUNDS pp pp pp
0.0000000000000000e+00 1.7650658050000001e+01
0.0000000000000000e+00 2.0381224350000000e+01
0.0000000000000000e+00 1.4970000000000001e+01
ITEM: ATOMS id mol type q x y z
1 1 2 -0.812921 4.83902 11.1133 8.50009
2 1 3 0.397617 5.78502 11.1885 8.81543
3 1 3 0.415304 4.61283 10.1507 8.35104
4 2 2 -0.683711 10.4378 12.1075 13.1728
5 2 3 0.343654 10.7576 12.9877 13.5234
6 2 3 0.340057 9.97324 12.2458 12.2982
7 3 2 -0.721769 1.56541 11.3626 14.4754
8 3 3 0.322658 0.715041 11.855 14.6609
9 3 3 0.399111 1.99656 11.7391 13.6554
10 4 2 -0.773856 1.19908 5.33341 2.64876
11 4 3 0.434792 1.67837 4.49416 2.39199
12 4 3 0.339064 0.57911 5.60209 1.91157
13 5 2 -0.70073 11.9909 5.20527 13.0718
14 5 3 0.307434 12.1256 4.65419 12.2482
15 5 3 0.393296 11.1637 4.90162 13.5445
16 6 2 -0.848672 15.857 17.2653 8.83695
17 6 3 0.472697 16.6802 17.0535 9.3638
18 6 3 0.375975 15.9548 16.9083 7.90798
19 7 2 -0.719364 5.4763 2.63442 8.70354
20 7 3 0.346643 5.07297 1.77909 9.02871
21 7 3 0.372721 6.22578 2.4312 8.07347
22 8 2 -0.542412 1.87132 8.45989 4.32509
23 8 3 0.294199 1.92079 7.60768 3.80422
24 8 3 0.248214 1.2468 8.34283 5.09728
25 9 2 -0.662786 7.78252 15.6039 12.9166
26 9 3 0.369684 7.27191 14.754 13.0468
27 9 3 0.293102 7.72445 16.1581 13.747
28 10 2 -0.757904 17.1547 0.758595 4.48988
29 10 3 0.269255 16.2005 0.898194 4.22534
30 10 3 0.48865 0.0473829 0.545728 3.6778
31 11 2 -0.728118 8.07162 3.69067 9.5344
32 11 3 0.339765 9.02995 3.40626 9.50753
33 11 3 0.388353 7.67865 3.62524 8.61718
34 12 2 -0.747905 7.54455 3.52524 6.72419
35 12 3 0.36308 6.75248 4.09885 6.51542
36 12 3 0.384826 7.46946 2.66 6.22847
37 13 2 -0.648622 6.30083 6.97254 11.7653
38 13 3 0.315773 6.51726 6.48562 10.9191
39 13 3 0.332849 7.12745 7.05779 12.3216
40 14 2 -0.644874 14.6448 6.05386 12.019
41 14 3 0.319376 14.3449 6.97917 12.2511
42 14 3 0.325498 14.7 5.5027 12.8516
43 15 2 -0.650128 4.66971 1.82985 6.06313
44 15 3 0.402338 4.75045 0.839479 6.17563
45 15 3 0.247789 3.71883 2.10502 6.20498
46 16 2 -0.697554 2.41779 3.33345 12.6795
47 16 3 0.30418 2.64376 4.25397 12.9982
48 16 3 0.393374 2.01527 3.38658 11.7656
49 17 2 -0.658237 16.8073 3.59738 8.39265
50 17 3 0.370829 17.0635 4.42821 7.8986
51 17 3 0.287408 15.8193 3.45937 8.32287
52 18 2 -1.15343 4.43282 15.5938 6.67319
53 18 3 0.524162 4.21011 14.6847 7.02541
54 18 3 0.629266 5.03994 15.5057 5.88347
55 19 2 -0.644709 6.87449 5.07358 2.50323
56 19 3 0.344036 5.99167 4.7418 2.17073
57 19 3 0.300673 7.34689 4.33668 2.98678
58 20 2 -1.49228 4.64162 13.87 14.4751
59 20 3 0.863006 4.39401 14.3108 13.6123
60 20 3 0.629274 4.35258 12.9129 14.4555
61 21 2 -0.730078 3.13002 8.75106 7.96815
62 21 3 0.379359 2.5043 8.3813 8.655
63 21 3 0.350719 3.96763 8.20502 7.95194
64 22 2 -0.66123 3.54888 5.03194 7.70221
65 22 3 0.350073 4.01049 4.14568 7.66378
66 22 3 0.311157 3.04211 5.18092 6.85309
67 23 2 -0.718657 7.65887 12.4123 4.04742
68 23 3 0.429369 8.19259 12.1058 3.25924
69 23 3 0.289287 8.26497 12.8535 4.70924
70 24 2 -0.577547 0.462459 4.84557 5.71461
71 24 3 0.316461 0.550078 5.76939 5.34193
72 24 3 0.261085 1.37062 4.43926 5.81538
73 25 2 -0.94011 4.82171 17.2505 8.55496
74 25 3 0.534315 4.89536 16.605 7.79473
75 25 3 0.405794 5.21585 16.8422 9.37832
76 26 2 -0.574903 7.91608 8.21258 2.01089
77 26 3 0.274103 6.94773 8.46216 2.01406
78 26 3 0.3008 8.03552 7.33453 2.47432
79 27 2 -0.641244 6.15564 20.2341 4.53321
80 27 3 0.257987 6.23074 0.182322 3.59203
81 27 3 0.383256 5.42763 19.5509 4.59015
82 28 2 -0.845332 6.03026 1.87347 1.80058
83 28 3 0.425512 6.85188 2.07627 2.33333
84 28 3 0.41982 6.14122 0.993472 1.33874
85 29 2 -0.662462 2.50123 9.43685 11.5756
86 29 3 0.377215 3.41014 9.79304 11.3587
87 29 3 0.285248 2.23186 9.74405 12.4883
88 30 2 -0.743695 0.598959 8.74586 9.33057
89 30 3 0.414236 17.3485 8.68645 9.76014
90 30 3 0.329459 1.26606 9.0741 9.99934
91 31 2 -0.742421 3.75278 0.93151 11.0869
92 31 3 0.397323 2.77033 0.94414 10.9008
93 31 3 0.345098 3.99744 1.72753 11.6405
94 32 2 -0.979016 5.62517 7.95248 7.66484
95 32 3 0.471502 6.1439 7.20343 8.07697
96 32 3 0.507514 5.129 7.61398 6.86531
97 33 2 -0.743479 5.68528 11.0939 5.68018
98 33 3 0.309528 6.59915 10.8461 6.00181
99 33 3 0.433951 5.76343 11.6935 4.88368
100 34 2 -0.704867 9.73084 3.70471 13.3947
101 34 3 0.429465 9.37015 4.47537 12.8693
102 34 3 0.275402 9.36819 2.84971 13.0239
103 35 2 -0.610931 0.466054 5.47907 14.3388
104 35 3 0.303168 1.17519 5.63159 13.6504
105 35 3 0.307763 0.204857 4.51378 14.3401
106 36 2 -0.607337 5.06129 4.25507 11.1661
107 36 3 0.305324 4.30942 4.49529 10.5521
108 36 3 0.302013 5.45049 3.37666 10.8887
109 37 2 -0.773619 9.58052 18.9057 11.7569
110 37 3 0.461438 9.67879 19.7426 12.2953
111 37 3 0.312181 8.6966 18.912 11.2893
112 38 2 -0.933687 0.295684 17.2706 13.8329
113 38 3 0.516085 1.02631 16.5992 13.7089
114 38 3 0.417603 17.0665 16.8509 13.61
115 39 2 -1.94628 3.56148 17.5607 0.334863
116 39 3 0.817146 3.38017 18.1258 1.13972
117 39 3 1.12914 4.08162 16.7509 0.606415
118 40 2 -0.980941 2.0875 18.7553 11.9453
119 40 3 0.409354 2.53732 18.8136 11.0541
120 40 3 0.571588 1.56561 19.5921 12.1108
121 41 2 -0.645928 1.9573 15.0914 14.6575
122 41 3 0.318989 1.92006 15.8173 0.374261
123 41 3 0.326939 2.90537 14.7987 14.5329
124 42 2 -0.61008 9.82809 6.45298 0.415405
125 42 3 0.300762 8.97979 6.02283 0.106586
126 42 3 0.309318 9.70285 6.81045 1.3409
127 43 2 -0.963427 1.15223 0.849857 0.193601
128 43 3 0.550662 1.56851 20.3239 0.131733
129 43 3 0.412765 0.290593 0.787573 0.697291
130 44 2 -0.584466 0.436314 10.3918 7.08975
131 44 3 0.306601 1.36597 10.7325 7.2301
132 44 3 0.277864 0.473761 9.46256 6.72227
133 45 2 -0.718331 8.4458 12.5409 8.80531
134 45 3 0.365397 9.43276 12.6366 8.6758
135 45 3 0.352934 8.26859 11.9538 9.59518
136 46 2 -0.67184 11.8162 17.5048 13.0258
137 46 3 0.334552 12.2346 18.14 12.3766
138 46 3 0.337288 10.8601 17.7589 13.1717
139 47 2 -0.795514 2.11311 3.9373 10.132
140 47 3 0.468358 1.86619 2.99344 9.91253
141 47 3 0.327156 2.58931 4.34681 9.35381
142 48 2 -0.790911 6.16931 5.65583 8.72858
143 48 3 0.393568 5.2764 5.22303 8.60448
144 48 3 0.397344 6.63246 5.24529 9.51404
145 49 2 -0.622239 11.2613 9.79254 14.7081
146 49 3 0.266 11.9771 10.1313 0.348631
147 49 3 0.35624 11.0806 10.472 13.9969
148 50 2 -0.727694 2.19335 19.4313 5.62931
149 50 3 0.284161 1.61825 20.2472 5.68862
150 50 3 0.443533 1.80279 18.7959 4.96316
151 51 2 -0.910642 2.93076 13.8127 9.97492
152 51 3 0.481334 2.61255 12.8953 9.73614
153 51 3 0.429307 2.76928 14.4321 9.20656
154 52 2 -1.68681 3.58721 17.3734 13.2137
155 52 3 0.653781 2.9813 18.041 12.781
156 52 3 1.03303 3.55337 17.4869 14.2066
157 53 2 -0.663684 10.3639 20.0885 5.17476
158 53 3 0.332219 10.6407 0.65791 5.31529
159 53 3 0.331465 10.3393 19.8899 4.195
160 54 2 -0.647295 10.301 2.71674 7.61035
161 54 3 0.354711 10.0021 2.60758 6.66234
162 54 3 0.292584 9.58875 2.37869 8.22549
163 55 2 -0.767994 12.1894 17.7251 7.17552
164 55 3 0.431244 12.5682 18.554 7.58733
165 55 3 0.33675 12.1151 17.0111 7.87164
166 56 2 -0.768999 1.24388 13.2808 7.06169
167 56 3 0.344189 1.7488 12.4678 7.35178
168 56 3 0.42481 0.925695 13.7806 7.86724
169 57 2 -0.789739 2.54816 14.3162 4.8297
170 57 3 0.366783 2.67157 15.1815 5.31555
171 57 3 0.422957 1.84106 13.7758 5.28571
172 58 2 -0.830326 14.782 17.9663 11.2165
173 58 3 0.366585 13.9092 18.4262 11.38
174 58 3 0.463741 14.8683 17.751 10.2438
175 59 2 -0.622502 10.4393 1.38721 0.826958
176 59 3 0.304029 10.492 1.91742 14.9507
177 59 3 0.318473 9.84037 0.598338 0.689334
178 60 2 -1.07333 5.86847 14.6169 2.52694
179 60 3 0.499027 6.64535 14.4094 1.93248
180 60 3 0.574301 5.62175 13.8012 3.05008
181 61 2 -1.012 1.33278 1.50582 9.81184
182 61 3 0.462141 1.32389 1.45539 8.81315
183 61 3 0.549859 0.396126 1.59996 10.1492
184 62 2 -0.880027 3.28663 16.8726 10.2921
185 62 3 0.548554 3.93528 17.2082 9.60898
186 62 3 0.331473 2.79396 17.6455 10.692
187 63 2 -0.618492 12.9361 10.1438 9.03392
188 63 3 0.280025 13.7354 9.8594 8.50459
189 63 3 0.338468 12.1456 10.224 8.42675
190 64 2 -0.680813 13.0229 15.0241 13.393
191 64 3 0.280242 13.607 14.3805 12.8985
192 64 3 0.400571 12.8531 15.827 12.8216
193 65 2 -0.67988 14.6846 14.2835 9.8904
194 65 3 0.412189 15.3001 13.5811 9.53283
195 65 3 0.267691 14.5607 14.149 10.8735
196 66 2 -0.646687 17.2502 19.979 9.19594
197 66 3 0.301569 0.368256 20.1621 9.80876
198 66 3 0.345118 16.6653 19.2737 9.59645
199 67 2 -0.753916 8.10085 11.5241 1.6368
200 67 3 0.321131 7.70527 10.6058 1.6226
201 67 3 0.432785 7.81442 12.0231 0.818916
202 68 2 -0.886621 4.41396 20.0783 7.6713
203 68 3 0.394387 4.55109 19.2035 7.20679
204 68 3 0.492234 5.08371 20.1733 8.4078
205 69 2 -0.87967 4.92371 18.9104 12.0455
206 69 3 0.596069 4.33842 18.2074 12.4496
207 69 3 0.283601 4.38256 19.479 11.426
208 70 2 -1.42652 4.06206 15.2341 12.6705
209 70 3 0.492616 4.09664 15.1234 11.6773
210 70 3 0.933902 3.80647 16.1752 12.8923
211 71 2 -0.576895 5.93799 17.3861 2.34224
212 71 3 0.304068 5.99696 16.8065 1.52952
213 71 3 0.272827 5.1082 17.1609 2.85285
214 72 2 -0.940043 2.31958 15.6652 8.1706
215 72 3 0.420284 2.53319 16.281 8.929
216 72 3 0.51976 2.9669 15.8189 7.42402
217 73 2 -0.760258 5.88035 17.7178 14.5098
218 73 3 0.39159 4.93163 17.5961 14.8016
219 73 3 0.368668 5.90943 17.857 13.52
220 74 2 -0.725691 6.85107 13.7995 6.84623
221 74 3 0.292795 6.33268 14.5034 7.33181
222 74 3 0.432896 7.31998 13.2147 7.50814
223 75 2 -0.753988 5.86343 19.8468 9.72611
224 75 3 0.294965 6.78849 20.2263 9.74205
225 75 3 0.459024 5.55304 19.6856 10.663
226 76 2 -0.606816 9.70139 8.71876 6.20431
227 76 3 0.364466 9.95704 7.75199 6.20561
228 76 3 0.24235 9.3538 8.97285 7.10688
229 77 2 -0.675231 8.67595 18.3317 14.3996
230 77 3 0.326044 7.68597 18.1998 14.45
231 77 3 0.349187 9.06808 17.6712 13.7593
232 78 2 -0.747615 0.512106 17.1699 9.90912
233 78 3 0.415543 0.954239 17.6703 10.6535
234 78 3 0.332073 1.09262 17.2012 9.09547
235 79 2 -0.625335 0.295119 12.3276 11.3588
236 79 3 0.36661 1.11253 12.7279 11.773
237 79 3 0.258726 17.6035 11.5906 11.9416
238 80 2 -0.663548 15.0587 20.3073 12.7819
239 80 3 0.310365 15.3048 0.89497 12.7545
240 80 3 0.353183 15.8697 19.7521 12.5975
241 81 2 -0.728541 3.53608 0.868114 13.7454
242 81 3 0.348622 3.76778 0.00969222 13.2877
243 81 3 0.379919 2.83052 1.34529 13.2214
244 82 2 -0.616546 14.77 15.0906 7.10848
245 82 3 0.322943 14.8671 14.2834 7.69077
246 82 3 0.293603 13.8088 15.3644 7.07588
247 83 2 -0.870755 0.936783 0.500912 12.4686
248 83 3 0.45045 0.850789 0.97744 13.3436
249 83 3 0.420305 0.231139 20.1767 12.4025
250 84 2 -0.866782 6.86702 13.1896 14.7062
251 84 3 0.361206 7.12478 13.0386 13.7519
252 84 3 0.505576 5.9627 13.6148 14.744
253 85 2 -0.740721 8.37212 1.68678 4.18233
254 85 3 0.379822 9.28947 2.02226 3.96805
255 85 3 0.360899 8.39911 0.693992 4.29919
256 86 2 -0.583671 1.08426 16.7263 1.65299
257 86 3 0.254031 1.90751 16.7004 1.0859
258 86 3 0.329641 0.376076 17.2579 1.18844
259 87 2 -1.26497 2.82242 18.8316 2.29501
260 87 3 0.599381 3.33607 19.6713 2.11864
261 87 3 0.665585 1.84243 19.0217 2.23597
262 88 2 -0.854982 2.45362 19.3399 9.47756
263 88 3 0.473926 3.08751 19.445 8.71131
264 88 3 0.381056 2.0246 20.2205 9.67849
265 89 2 -0.676104 10.2386 10.4555 10.7829
266 89 3 0.371722 11.1793 10.7686 10.914
267 89 3 0.304382 9.85155 10.1847 11.6643
268 90 2 -0.725583 13.7322 0.0919275 4.81646
269 90 3 0.354661 14.4373 20.3484 5.51458
270 90 3 0.370921 13.2162 19.6234 4.70832
271 91 2 -0.761998 9.59953 1.00444 12.8819
272 91 3 0.369858 9.19448 1.69848 12.2867
273 91 3 0.39214 10.4377 1.3646 13.2916
274 92 2 -0.812394 16.3722 2.01134 1.04961
275 92 3 0.361639 16.5462 2.50219 1.90332
276 92 3 0.450755 15.67 1.3159 1.20211
277 93 2 -0.792827 2.0497 3.26216 1.13854
278 93 3 0.379896 2.8452 3.30051 0.533803
279 93 3 0.412931 1.68783 2.33007 1.15463
280 94 2 -0.79656 9.03965 5.59348 11.4838
281 94 3 0.413329 9.32214 6.38707 10.9448
282 94 3 0.383231 8.89591 4.81216 10.8764
283 95 2 -0.580315 7.08943 1.61545 11.5035
284 95 3 0.263518 7.4379 0.682524 11.4128
285 95 3 0.316796 6.54252 1.84669 10.6989
286 96 2 -0.802085 14.3908 4.90724 0.570612
287 96 3 0.463974 13.764 5.68536 0.612522
288 96 3 0.338111 15.2846 5.17954 0.926943
289 97 2 -0.599746 4.05644 6.19841 13.6434
290 97 3 0.262636 3.80859 5.23084 13.6923
291 97 3 0.33711 4.93528 6.29418 13.176
292 98 2 -0.74605 1.65663 1.42395 7.12268
293 98 3 0.36168 0.988852 1.29912 6.38886
294 98 3 0.384369 2.19384 0.58741 7.23038
295 99 2 -0.746336 10.7734 5.39364 9.38042
296 99 3 0.407295 10.1682 5.41523 8.58466
297 99 3 0.339041 11.3291 6.2248 9.39919
298 100 2 -0.657386 4.69957 3.4795 14.8994
299 100 3 0.314458 5.1293 3.49572 13.9966
300 100 3 0.342928 4.96327 2.64264 0.409129
301 101 2 -0.798906 2.26211 11.5773 8.97157
302 101 3 0.407311 3.25523 11.5946 8.85569
303 101 3 0.391595 1.90921 10.6848 8.69073
304 102 2 -1.01874 0.569697 19.5552 2.50194
305 102 3 0.524038 0.388509 18.7864 3.11524
306 102 3 0.494706 17.504 19.6023 1.80575
307 103 2 -0.623385 12.9002 3.57172 6.74898
308 103 3 0.303568 13.2291 3.89386 7.63671
309 103 3 0.319817 13.1654 2.61591 6.62208
310 104 2 -0.711349 16.0581 11.9672 8.60016
311 104 3 0.40433 16.8899 11.9769 8.04527
312 104 3 0.307018 15.9174 11.0504 8.97397
313 105 2 -0.814252 14.9676 17.9705 0.0683824
314 105 3 0.352595 14.3047 18.7147 14.9558
315 105 3 0.461657 14.5429 17.1964 0.537732
316 106 2 -0.601057 7.47562 6.55797 6.26762
317 106 3 0.322697 8.02863 7.23325 5.77959
318 106 3 0.27836 6.8427 7.02753 6.8832
319 107 2 -0.926852 13.5463 2.46846 0.0476422
320 107 3 0.423553 13.5905 2.10922 0.979842
321 107 3 0.503299 14.0099 3.35371 0.00923487
322 108 2 -0.56859 3.5034 4.00373 4.29427
323 108 3 0.266479 2.93843 4.81255 4.13109
324 108 3 0.302111 2.92131 3.24289 4.58113
325 109 2 -0.707467 10.4624 0.429861 9.77293
326 109 3 0.373706 10.6048 19.9735 10.3003
327 109 3 0.333761 10.6537 0.252586 8.80754
328 110 2 -0.585817 17.5405 5.20202 11.0375
329 110 3 0.325652 16.6495 5.58585 11.2798
330 110 3 0.260165 0.178376 4.55682 11.745
331 111 2 -0.759448 12.8215 7.04309 14.9576
332 111 3 0.354658 12.5763 7.99105 0.19073
333 111 3 0.404789 12.1064 6.62688 14.3959
334 112 2 -0.762675 8.1686 15.3864 8.88091
335 112 3 0.354223 8.74485 14.6493 8.52786
336 112 3 0.408452 7.97118 16.0359 8.14669
337 113 2 -0.715218 11.8803 19.8103 2.61602
338 113 3 0.320336 12.1766 18.8713 2.44169
339 113 3 0.394882 11.3047 20.1239 1.86081
340 114 2 -0.834823 14.2106 0.875676 2.20182
341 114 3 0.380027 13.3852 0.447803 1.83362
342 114 3 0.454796 14.2699 0.69539 3.18364
343 115 2 -0.674821 15.6677 8.88912 10.4681
344 115 3 0.307707 15.6038 9.48613 11.2678
345 115 3 0.367114 14.7506 8.70874 10.1126
346 116 2 -0.675298 2.77525 6.76326 10.3886
347 116 3 0.355985 2.52204 5.79892 10.4657
348 116 3 0.319313 1.97671 7.29624 10.1088
349 117 2 -0.715808 12.8452 20.0893 14.8952
350 117 3 0.395984 12.9757 0.692944 0.0391308
351 117 3 0.319824 12.5499 19.8982 13.9591
352 118 2 -0.729443 7.01374 20.3265 0.217835
353 118 3 0.343508 7.00107 0.53585 14.3809
354 118 3 0.385935 7.52271 19.4909 0.0113493
355 119 2 -0.718373 12.5207 3.9991 2.91674
356 119 3 0.327002 12.0408 4.54819 2.2325
357 119 3 0.391371 13.0865 4.59576 3.48587
358 120 2 -0.788039 10.7697 2.98176 10.5016
359 120 3 0.39815 11.0371 3.77287 9.95143
360 120 3 0.389889 10.8637 2.14911 9.95581
361 121 2 -0.723261 4.62505 7.31739 5.34287
362 121 3 0.351046 4.30742 6.5126 4.84143
363 121 3 0.372215 5.0283 7.97129 4.70272
364 122 2 -0.579992 15.9588 16.7444 2.8763
365 122 3 0.291782 15.8123 15.7843 3.11454
366 122 3 0.28821 15.2604 17.036 2.22274
367 123 2 -0.700806 16.0959 3.25279 4.15572
368 123 3 0.344255 16.8565 3.90202 4.15203
369 123 3 0.356552 16.3951 2.39114 4.56565
370 124 2 -0.917743 14.5254 0.567111 10.1407
371 124 3 0.555933 15.4229 1.00208 10.2129
372 124 3 0.36181 14.2016 0.31746 11.0533
373 125 2 -0.594927 11.0872 17.4579 1.15744
374 125 3 0.30577 12.0233 17.7599 0.977323
375 125 3 0.289157 11.0511 16.9938 2.04251
376 126 2 -0.852201 16.7479 2.51204 13.2359
377 126 3 0.338217 17.648 2.10076 13.0916
378 126 3 0.513984 16.4938 2.42835 14.1994
379 127 2 -0.829293 6.29063 16.4879 10.5721
380 127 3 0.427355 6.93371 16.6669 11.3166
381 127 3 0.401938 6.68667 15.8188 9.94319
382 128 2 -0.702521 9.43723 8.00376 10.0679
383 128 3 0.310185 8.57859 8.48847 9.9012
384 128 3 0.392336 10.1028 8.63304 10.4692
385 129 2 -0.670682 13.3972 2.83421 9.49847
386 129 3 0.364112 13.5802 1.86113 9.63864
387 129 3 0.306571 12.4483 3.03354 9.74296
388 130 2 -0.646012 12.93 8.17272 11.8348
389 130 3 0.342012 12.5398 7.26068 11.7086
390 130 3 0.303999 13.129 8.319 12.8038
391 131 2 -0.718412 7.96912 0.806183 7.35758
392 131 3 0.328464 7.44129 0.895066 6.51288
393 131 3 0.389948 8.6952 0.130995 7.22745
394 132 2 -0.720631 0.16819 14.4297 9.35695
395 132 3 0.343459 0.96648 14.9811 9.59914
396 132 3 0.377172 17.4767 13.9625 10.1722
397 133 2 -0.796899 4.51976 11.5776 11.2091
398 133 3 0.415989 5.31251 10.9709 11.1508
399 133 3 0.380909 4.53097 12.2157 10.4393
400 134 2 -0.794777 7.28379 9.97091 7.77569
401 134 3 0.454481 6.44606 9.43807 7.6561
402 134 3 0.340296 7.97666 9.65236 7.1288
403 135 2 -0.763384 7.48856 12.654 11.8906
404 135 3 0.423281 6.65891 12.9466 11.4152
405 135 3 0.340103 7.76178 11.7509 11.5592
406 136 2 -1.00345 5.95538 15.1973 4.79506
407 136 3 0.552214 5.91819 14.9036 3.83988
408 136 3 0.451234 6.39704 14.4883 5.34486
409 137 2 -0.579907 15.8767 7.83176 0.54262
410 137 3 0.283976 16.0559 7.59789 14.557
411 137 3 0.295931 16.7215 8.1517 0.971554
412 138 2 -0.816347 16.7748 19.7901 0.405487
413 138 3 0.32301 17.5489 19.5423 14.7929
414 138 3 0.493336 15.9356 19.3965 0.0300845
415 139 2 -0.785678 4.8953 8.80816 10.2884
416 139 3 0.342961 4.84497 8.46339 9.35104
417 139 3 0.442717 4.67154 8.07177 10.9269
418 140 2 -0.800236 11.1895 2.19628 4.22778
419 140 3 0.321065 11.4902 1.26813 4.00842
420 140 3 0.479171 11.6399 2.84605 3.61542
421 141 2 -0.755088 9.70999 5.54004 6.80949
422 141 3 0.392877 8.77391 5.28538 7.05221
423 141 3 0.362211 10.2288 4.71807 6.5745
424 142 2 -0.759688 13.0339 20.3304 8.0664
425 142 3 0.343182 12.9932 0.68599 7.39158
426 142 3 0.416507 13.6068 0.232711 8.83546
427 143 2 -0.820218 0.299273 16.2391 6.79837
428 143 3 0.361027 17.0901 15.757 6.96643
429 143 3 0.459191 1.01614 15.8547 7.38005
430 144 2 -0.978276 17.2066 18.7905 11.9228
431 144 3 0.491716 16.2937 18.4566 11.6877
432 144 3 0.48656 17.5953 18.2178 12.6445
433 145 2 -1.63565 4.41798 15.6407 0.795046
434 145 3 0.981797 4.5519 14.8313 0.223236
435 145 3 0.653854 4.95927 15.5515 1.63113
436 146 2 -0.848443 12.3153 1.73077 12.7281
437 146 3 0.370772 12.1514 2.40277 12.0059
438 146 3 0.477671 12.7901 2.17006 13.4907
439 147 2 -0.901718 4.51137 13.0624 3.7922
440 147 3 0.533433 3.98422 13.6995 4.35449
441 147 3 0.368285 3.98513 12.8242 2.97591
442 148 2 -0.757124 10.7105 16.7938 10.2811
443 148 3 0.381942 10.6961 17.6687 10.7653
444 148 3 0.375182 9.80027 16.6005 9.91491
445 149 2 -0.646515 8.30999 16.0093 1.05583
446 149 3 0.341246 8.40737 16.9652 0.778816
447 149 3 0.305269 9.21281 15.6239 1.24661
448 150 2 -0.670887 10.9433 12.0905 6.96385
449 150 3 0.358103 11.3207 12.9916 6.7503
450 150 3 0.312784 10.8602 11.556 6.12277
451 151 2 -1.04016 3.93069 0.514798 1.61707
452 151 3 0.516909 4.62723 1.1974 1.8382
453 151 3 0.523247 3.49552 0.751894 0.748499
454 152 2 -0.742342 3.4986 16.6941 3.57937
455 152 3 0.467452 3.30453 17.5783 3.15436
456 152 3 0.274889 3.8288 16.0555 2.88433
457 153 2 -0.707076 15.6071 1.66172 6.57306
458 153 3 0.335421 16.2239 2.01552 7.27627
459 153 3 0.371655 16.1147 1.05938 5.95695
460 154 2 -0.569336 9.54955 18.678 7.89112
461 154 3 0.351295 10.414 18.2946 7.56596
462 154 3 0.218041 9.67807 19.0616 8.80565
463 155 2 -0.683638 12.1666 17.5456 4.36459
464 155 3 0.300546 11.5778 18.3241 4.14712
465 155 3 0.383092 12.1389 17.3715 5.34892
466 156 2 -0.579129 12.3793 7.74041 3.9331
467 156 3 0.324758 13.0886 7.08425 4.1909
468 156 3 0.254371 11.8623 7.38384 3.15496
469 157 2 -0.689855 11.7742 14.8169 6.07308
470 157 3 0.303736 11.7018 15.7593 5.74658
471 157 3 0.386119 11.9019 14.8166 7.06489
472 158 2 -0.833789 7.00274 10.5879 10.3592
473 158 3 0.398345 6.58087 9.73556 10.6684
474 158 3 0.435444 7.31827 10.4807 9.41637
475 159 2 -0.888939 3.9805 13.107 6.9937
476 159 3 0.404023 3.08176 12.9149 6.59952
477 159 3 0.484917 4.38307 12.2577 7.33532
478 160 2 -0.812339 13.5799 16.0987 1.07344
479 160 3 0.436897 13.1729 15.9607 0.170482
480 160 3 0.375442 13.2106 15.4238 1.71221
481 161 2 -0.703663 7.10372 17.1972 6.94785
482 161 3 0.318087 7.2195 16.6132 6.14441
483 161 3 0.385576 6.18402 17.5899 6.94481
484 162 2 -0.799352 5.52343 14.1304 10.7797
485 162 3 0.415029 5.80339 15.0897 10.8163
486 162 3 0.384322 4.60886 14.065 10.3806
487 163 2 -0.663413 2.42569 1.14675 3.57661
488 163 3 0.258357 2.87649 1.21414 4.46669
489 163 3 0.405056 3.09816 0.895166 2.88056
490 164 2 -0.959733 16.604 2.1092 10.7346
491 164 3 0.463715 16.3641 2.96168 10.2701
492 164 3 0.496018 16.4801 2.22062 11.7206
493 165 2 -0.784107 12.5718 19.5898 11.2488
494 165 3 0.364438 13.263 19.9046 10.5984
495 165 3 0.41967 12.4332 20.2874 11.9517
496 166 2 -0.62877 15.9912 19.2836 6.70085
497 166 3 0.358559 16.4237 18.705 7.39235
498 166 3 0.270211 15.4221 19.9719 7.15068
499 167 2 -0.874594 0.510368 17.5652 4.38641
500 167 3 0.402527 0.577469 16.8015 3.74431
501 167 3 0.472067 0.486837 17.213 5.32203
502 168 2 -0.705158 1.54836 15.6824 12.0516
503 168 3 0.31196 2.13597 15.2853 12.7566
504 168 3 0.393198 2.10285 15.9341 11.2584
505 169 2 -0.910685 2.81057 12.9412 12.7504
506 169 3 0.464301 3.36093 12.3384 12.1727
507 169 3 0.446384 3.01286 13.8944 12.5256
508 170 2 -0.839247 12.0997 15.031 8.70844
509 170 3 0.40475 13.0426 14.7945 8.94305
510 170 3 0.434497 11.7442 15.6852 9.37596
511 171 2 -0.748239 2.85827 10.9746 6.18549
512 171 3 0.430008 3.69336 10.8966 5.64092
513 171 3 0.318231 2.52686 10.0607 6.42017
514 172 2 -0.665133 8.69035 19.4719 2.65037
515 172 3 0.33161 8.55069 18.6804 3.2454
516 172 3 0.333523 7.84327 19.6725 2.15823
517 173 2 -0.676401 3.94896 11.2944 0.827622
518 173 3 0.380312 3.0064 11.5522 0.615224
519 173 3 0.296089 4.21967 10.52 0.255716
520 174 2 -0.752623 14.305 5.33294 4.87506
521 174 3 0.392282 14.8255 4.57432 4.48318
522 174 3 0.36034 13.8769 5.03744 5.72914
523 175 2 -1.06111 1.91467 19.0502 14.7521
524 175 3 0.436703 1.14456 18.4947 14.4385
525 175 3 0.624407 2.66078 18.4516 0.0734342
526 176 2 -0.789093 4.80217 18.1766 5.55987
527 176 3 0.436635 4.6047 17.3762 4.99395
528 176 3 0.352459 3.94423 18.5779 5.88065
