LAMMPS (30 Mar 2026)
OMP_NUM_THREADS environment is not set. Defaulting to 1 thread.
  using 1 OpenMP thread(s) per MPI task
# Reference: stock ReaxFF water (LAMMPS examples/reaxff/water, Achtyl et al. 2015 QEq water),
# single point, charges from fix qeq/reaxff at a tight tolerance.
boundary        p p p
units           real
atom_style      charge
read_data       ../data.water
Reading data file ...
  orthogonal box = (0 0 0) to (31.043046 31.043046 31.043046)
  1 by 1 by 1 MPI processor grid
  reading atoms ...
  3000 atoms
  read_data CPU = 0.019 seconds
pair_style      reaxff NULL safezone 3.0 mincap 150
pair_coeff      * * ../qeq_ff.water O H
WARNING: Changed valency_val to valency_boc for X (src/REAXFF/reaxff_ffield.cpp:300)
neighbor        0.5 bin
neigh_modify    every 1 delay 0 check yes
fix             1 all qeq/reaxff 1 0.0 10.0 1.0e-10 reaxff maxiter 2000
compute         reax all pair reaxff
variable        eqeq equal c_reax[14]
thermo_style    custom step pe evdwl ecoul v_eqeq
thermo_modify   format float %.10f
run             0

CITE-CITE-CITE-CITE-CITE-CITE-CITE-CITE-CITE-CITE-CITE-CITE-CITE

Your simulation uses code contributions which should be cited:

- pair reaxff command: https://doi.org/10.1016/j.parco.2011.08.005

@Article{Aktulga12,
 author = {H. M. Aktulga and J. C. Fogarty and S. A. Pandit and A. Y. Grama},
 title = {Parallel Reactive Molecular Dynamics: {N}umerical Methods and Algorithmic Techniques},
 journal = {Parallel Computing},
 year =    2012,
 volume =  38,
 number =  {4--5},
 pages =   {245--259}
}

- fix qeq/reaxff command: https://doi.org/10.1016/j.parco.2011.08.005

@Article{Aktulga12,
 author = {H. M. Aktulga and J. C. Fogarty and S. A. Pandit and A. Y. Grama},
 title = {Parallel Reactive Molecular Dynamics: {N}umerical Methods and Algorithmic Techniques},
 journal = {Parallel Computing},
 year =    2012,
 volume =  38,
 pages =   {245--259}
}

CITE-CITE-CITE-CITE-CITE-CITE-CITE-CITE-CITE-CITE-CITE-CITE-CITE

WARNING: No fixes with time integration, atoms won't move
For more information see https://docs.lammps.org/err0028 (src/verlet.cpp:60)
Neighbor list info ...
  update: every = 1 steps, delay = 0 steps, check = yes
  max neighbors/atom: 2000, page size: 100000
  master list distance cutoff = 10.5
  ghost atom cutoff = 10.5
  binsize = 5.25, bins = 6 6 6
  2 neighbor lists, perpetual/occasional/extra = 2 0 0
  (1) pair reaxff, perpetual
      attributes: half, newton off, ghost
      pair build: half/bin/ghost/newtoff
      stencil: full/ghost/bin/3d
      bin: standard
  (2) fix qeq/reaxff, perpetual, copy from (1)
      attributes: half, newton off
      pair build: copy
      stencil: none
      bin: none
Per MPI rank memory allocation (min/avg/max) = 539.2 | 539.2 | 539.2 Mbytes
   Step         PotEng         E_vdwl         E_coul         v_eqeq    
         0  -257042.9781199530 -216555.0070031128 -40487.9711168402 81921.9016748401
Loop time of 8.57e-07 on 1 procs for 0 steps with 3000 atoms

466.7% CPU use with 1 MPI tasks x 1 OpenMP threads

MPI task timing breakdown:
Section |  min time  |  avg time  |  max time  |%varavg| %total
---------------------------------------------------------------
Pair    | 0          | 0          | 0          |   0.0 |  0.00
Neigh   | 0          | 0          | 0          |   0.0 |  0.00
Comm    | 0          | 0          | 0          |   0.0 |  0.00
Output  | 0          | 0          | 0          |   0.0 |  0.00
Modify  | 0          | 0          | 0          |   0.0 |  0.00
Other   |            | 8.57e-07   |            |       |100.00

Nlocal:           3000 ave        3000 max        3000 min
Histogram: 1 0 0 0 0 0 0 0 0 0
Nghost:          11069 ave       11069 max       11069 min
Histogram: 1 0 0 0 0 0 0 0 0 0
Neighs:         971932 ave      971932 max      971932 min
Histogram: 1 0 0 0 0 0 0 0 0 0

Total # of neighbors = 971932
Ave neighs/atom = 323.97733
Neighbor list builds = 0
Dangerous builds = 0
variable        peval equal pe
variable        ecv equal ecoul
print           "pe ${peval} ecoul ${ecv} eqeq ${eqeq}" file energies.txt screen no
write_dump      all custom charges.dump id type q modify sort id format line "%d %d %.15g"
Total wall time: 0:00:01
