LAMMPS (2 Sep 2026)
OMP_NUM_THREADS environment is not set. Defaulting to 1 thread.
  using 1 OpenMP thread(s) per MPI task
# conductor demonstration, dynamics: arm samqeq, eta_Au 5.172 (run_dyn.py)
units           metal
atom_style      full
boundary        p p f
fix             pb all property/atom i_body ghost yes
read_data       data fix pb NULL RigidBodies
Reading data file ...
  orthogonal box = (0 0 0) to (17.650658 20.381224 60)
  1 by 1 by 1 MPI processor grid
  reading atoms ...
  564 atoms
  scanning bonds ...
  2 = max bonds/atom
  scanning angles ...
  1 = max angles/atom
  orthogonal box = (0 0 0) to (17.650658 20.381224 60)
  1 by 1 by 1 MPI processor grid
  reading bonds ...
  162 bonds
  reading angles ...
  81 angles
Finding 1-2 1-3 1-4 neighbors ...
  special bond factors lj:    0        0        0       
  special bond factors coul:  0        0        0       
     2 = max # of 1-2 neighbors
     1 = max # of 1-3 neighbors
     1 = max # of 1-4 neighbors
     2 = max # of special neighbors
  special bonds CPU = 0.000 seconds
  read_data CPU = 0.007 seconds
group           au   type 1
240 atoms in group au
group           water type 2 3 4
324 atoms in group water
delete_atoms    group au bond yes
Deleted 240 atoms, new total = 324
Deleted 0 bonds, new total = 162
Deleted 0 angles, new total = 81
group           fq   type 3 4
243 atoms in group fq
pair_style      hybrid/overlay lj/cut 12.0 coul/long 12.0 coul/shield/intra 12.0 all gaussian
pair_coeff      * * lj/cut 0.0 1.0
pair_coeff      2 2 lj/cut 0.012412 3.159
pair_coeff      1 2 lj/cut 0.05 3.0            # illustrative Au-O term (not a fitted gold-water potential)
pair_coeff      * * coul/long
pair_coeff      1 1 coul/shield/intra 1.618000
pair_coeff      1 2 coul/shield/intra 0.714283
pair_coeff      1 3 coul/shield/intra 0.808855
pair_coeff      1 4 coul/shield/intra 0.714283
pair_coeff      2 2 coul/shield/intra 0.315328
pair_coeff      2 3 coul/shield/intra 0.357078
pair_coeff      2 4 coul/shield/intra 0.315328
pair_coeff      3 3 coul/shield/intra 0.404355
pair_coeff      3 4 coul/shield/intra 0.357078
pair_coeff      4 4 coul/shield/intra 0.315328
special_bonds   lj/coul 1.0e-8 1.0e-8 1.0
Finding 1-2 1-3 1-4 neighbors ...
  special bond factors lj:    1e-08    1e-08    1       
  special bond factors coul:  1e-08    1e-08    1       
     2 = max # of 1-2 neighbors
     1 = max # of 1-3 neighbors
     2 = max # of special neighbors
  special bonds CPU = 0.000 seconds
kspace_style    pppm/samqeq 1.0e-6
kspace_modify   slab 3.0 mesh 24 28 80 gewald 0.35
Updated KSpace settings:
  KSpace computation is turned:    ON
  Use MPI collective operations:   OFF
  Use MPI non-blocking operations: OFF
  Gewald manually set to:          0.35
  Slab volfactor manually set to:    3
neighbor        2.0 bin
neigh_modify    every 1 delay 0 check yes
# per-molecule constraints
fix             chg fq qeq/sam 1 0.0 10.0 1.0e-8 param
fix_modify      chg shield gaussian
samqeq: lr-solve shielding = PQEq Gaussian erf(a_ij r)/r (param 4th col = Rc (Gaussian radius)); routed through compute_H + add_fixed_charge_field + the legacy gas path (calc_Hval)
fix_modify      chg energy yes
velocity        water create 298.0 4928459 mom yes rot yes dist gaussian
fix             rig water rigid/nvt/small custom i_body temp 298.0 298.0 0.1
Fix rigid/nvt/small setup ...
  create bodies CPU = 0.000 seconds
  81 rigid bodies with 324 atoms
  0.87348128 = max distance from body owner to body atom
variable        aq atom abs(q)
compute         qmax fq reduce max v_aq
thermo_style    custom step pe c_qmax
thermo          500
timestep        0.0002
dump            dq all custom 2500 charges.lammpstrj id mol type q x y z
dump_modify     dq sort id
run             25000

CITE-CITE-CITE-CITE-CITE-CITE-CITE-CITE-CITE-CITE-CITE-CITE-CITE

Your simulation uses code contributions which should be cited:

- fix acks2/reaxff command: https://doi.org/10.1137/18M1224684

@Article{O'Hearn2020,
 author = {K. A. {O'Hearn} and A. Alperen and H. M. Aktulga},
 title = {Fast Solvers for Charge Distribution Models on Shared Memory Platforms},
 journal = {SIAM J.\ Sci.\ Comput.},
 year =    2020,
 volume =  42,
 number =  1,
 pages =   {1--22}
}

CITE-CITE-CITE-CITE-CITE-CITE-CITE-CITE-CITE-CITE-CITE-CITE-CITE

PPPM initialization ...
WARNING: Using kspace solver on system with no charge (src/kspace.cpp:317)
  using 12-bit tables for long-range coulomb
  G vector (1/distance) = 0.35
  grid = 24 30 80
  stencil order = 5
  estimated absolute RMS force accuracy = 0
  estimated relative force accuracy = 0
  using double precision FFTW3
  3d grid and FFT values/proc = 94054 57600
Generated 0 of 6 mixed pair_coeff terms from geometric mixing rule
WARNING: Bonds are defined but no bond style is set (src/force.cpp:165)
WARNING: Likewise 1-2 special neighbor interactions != 1.0 (src/force.cpp:167)
WARNING: Angles are defined but no angle style is set (src/force.cpp:170)
WARNING: Likewise 1-3 special neighbor interactions != 1.0 (src/force.cpp:172)
samqeq: E_self = sum(chi q + 1/2 eta qs^2) INCLUDED in pe/etotal (fix_modify chg energy yes; eselfref qs = q - q0) -- pe + E_self is the energy the forces integrate
Neighbor list info ...
  update: every = 1 steps, delay = 0 steps, check = yes
  max neighbors/atom: 2000, page size: 100000
  master list distance cutoff = 14
  ghost atom cutoff = 14
  binsize = 7, bins = 3 3 9
  5 neighbor lists, perpetual/occasional/extra = 5 0 0
  (1) pair lj/cut, perpetual, half/full from (5)
      attributes: half, newton on
      pair build: halffull/newton
      stencil: none
      bin: none
  (2) pair coul/long, perpetual, copy from (1)
      attributes: half, newton on
      pair build: copy
      stencil: none
      bin: none
  (3) pair coul/shield/intra, perpetual, copy from (1)
      attributes: half, newton on
      pair build: copy
      stencil: none
      bin: none
  (4) fix qeq/sam, perpetual, half/full from (5)
      attributes: half, newton off
      pair build: halffull/newtoff
      stencil: none
      bin: none
  (5) fix qeq/sam, perpetual
      attributes: full, newton on
      pair build: full/bin
      stencil: full/bin/3d
      bin: standard
samqeq: recip_self ACTIVE at run start (step 0): not yet calibrated -- measured at the first solve by the K=16 deterministic-probe route
samqeq: calibrated grid reciprocal self-term recip_self=0.39461 +/- 0.00022 (raw, K=16 deterministic probes) = 5.6822 eV/e (subtracted so the QEq diagonal stays = eta)
samqeq SOLVER-DIAG step 0: CG 18 iters (=18 matvecs), resid/b=4.55e-09
Per MPI rank memory allocation (min/avg/max) = 31.94 | 31.94 | 31.94 Mbytes
   Step         PotEng         c_qmax    
         0  -127.32549      1.2792977    
samqeq SOLVER-DIAG step 200: CG 17 iters (=17 matvecs), resid/b=8.33e-09
samqeq SOLVER-DIAG step 400: CG 17 iters (=17 matvecs), resid/b=3.56e-09
       500  -129.22314      1.2726517    
samqeq SOLVER-DIAG step 600: CG 16 iters (=16 matvecs), resid/b=9.52e-09
samqeq SOLVER-DIAG step 800: CG 17 iters (=17 matvecs), resid/b=3.16e-09
samqeq SOLVER-DIAG step 1000: CG 17 iters (=17 matvecs), resid/b=3.27e-09
      1000  -129.57315      1.2511333    
samqeq SOLVER-DIAG step 1200: CG 16 iters (=16 matvecs), resid/b=9.50e-09
samqeq SOLVER-DIAG step 1400: CG 17 iters (=17 matvecs), resid/b=3.12e-09
      1500  -129.75309      1.267085     
samqeq SOLVER-DIAG step 1600: CG 17 iters (=17 matvecs), resid/b=5.22e-09
samqeq SOLVER-DIAG step 1800: CG 17 iters (=17 matvecs), resid/b=4.23e-09
samqeq SOLVER-DIAG step 2000: CG 17 iters (=17 matvecs), resid/b=4.77e-09
      2000  -130.36498      1.2917365    
samqeq SOLVER-DIAG step 2200: CG 17 iters (=17 matvecs), resid/b=6.77e-09
samqeq SOLVER-DIAG step 2400: CG 17 iters (=17 matvecs), resid/b=6.70e-09
      2500  -130.69623      1.3409398    
samqeq SOLVER-DIAG step 2600: CG 17 iters (=17 matvecs), resid/b=6.77e-09
samqeq SOLVER-DIAG step 2800: CG 17 iters (=17 matvecs), resid/b=4.36e-09
samqeq SOLVER-DIAG step 3000: CG 17 iters (=17 matvecs), resid/b=3.80e-09
      3000  -130.85115      1.2800023    
samqeq SOLVER-DIAG step 3200: CG 17 iters (=17 matvecs), resid/b=4.45e-09
samqeq SOLVER-DIAG step 3400: CG 17 iters (=17 matvecs), resid/b=5.43e-09
      3500  -131.06703      1.2465804    
samqeq SOLVER-DIAG step 3600: CG 17 iters (=17 matvecs), resid/b=5.78e-09
samqeq SOLVER-DIAG step 3800: CG 17 iters (=17 matvecs), resid/b=4.81e-09
samqeq SOLVER-DIAG step 4000: CG 17 iters (=17 matvecs), resid/b=6.80e-09
      4000  -131.02773      1.3245405    
samqeq SOLVER-DIAG step 4200: CG 17 iters (=17 matvecs), resid/b=7.01e-09
samqeq SOLVER-DIAG step 4400: CG 17 iters (=17 matvecs), resid/b=4.06e-09
      4500  -131.34461      1.2749174    
samqeq SOLVER-DIAG step 4600: CG 17 iters (=17 matvecs), resid/b=5.65e-09
samqeq SOLVER-DIAG step 4800: CG 17 iters (=17 matvecs), resid/b=4.14e-09
samqeq SOLVER-DIAG step 5000: CG 17 iters (=17 matvecs), resid/b=5.58e-09
      5000  -130.4529       1.2169351    
samqeq SOLVER-DIAG step 5200: CG 17 iters (=17 matvecs), resid/b=4.37e-09
samqeq SOLVER-DIAG step 5400: CG 17 iters (=17 matvecs), resid/b=5.74e-09
      5500  -130.02266      1.2689615    
samqeq SOLVER-DIAG step 5600: CG 17 iters (=17 matvecs), resid/b=3.75e-09
samqeq SOLVER-DIAG step 5800: CG 17 iters (=17 matvecs), resid/b=4.37e-09
samqeq SOLVER-DIAG step 6000: CG 17 iters (=17 matvecs), resid/b=3.44e-09
      6000  -130.27021      1.2558784    
samqeq SOLVER-DIAG step 6200: CG 17 iters (=17 matvecs), resid/b=4.09e-09
samqeq SOLVER-DIAG step 6400: CG 18 iters (=18 matvecs), resid/b=3.52e-09
      6500  -130.63817      1.2374058    
samqeq SOLVER-DIAG step 6600: CG 17 iters (=17 matvecs), resid/b=5.20e-09
samqeq SOLVER-DIAG step 6800: CG 17 iters (=17 matvecs), resid/b=4.45e-09
samqeq SOLVER-DIAG step 7000: CG 17 iters (=17 matvecs), resid/b=6.89e-09
      7000  -130.3502       1.2802384    
samqeq SOLVER-DIAG step 7200: CG 17 iters (=17 matvecs), resid/b=6.65e-09
samqeq SOLVER-DIAG step 7400: CG 18 iters (=18 matvecs), resid/b=5.58e-09
      7500  -130.07038      1.3165302    
samqeq SOLVER-DIAG step 7600: CG 17 iters (=17 matvecs), resid/b=6.09e-09
samqeq SOLVER-DIAG step 7800: CG 17 iters (=17 matvecs), resid/b=4.75e-09
samqeq SOLVER-DIAG step 8000: CG 17 iters (=17 matvecs), resid/b=5.34e-09
      8000  -129.34519      1.2314112    
samqeq SOLVER-DIAG step 8200: CG 17 iters (=17 matvecs), resid/b=6.35e-09
samqeq SOLVER-DIAG step 8400: CG 17 iters (=17 matvecs), resid/b=4.83e-09
      8500  -129.10515      1.2277207    
samqeq SOLVER-DIAG step 8600: CG 17 iters (=17 matvecs), resid/b=9.52e-09
samqeq SOLVER-DIAG step 8800: CG 17 iters (=17 matvecs), resid/b=6.77e-09
samqeq SOLVER-DIAG step 9000: CG 17 iters (=17 matvecs), resid/b=4.33e-09
      9000  -130.376        1.3022212    
samqeq SOLVER-DIAG step 9200: CG 18 iters (=18 matvecs), resid/b=3.49e-09
samqeq SOLVER-DIAG step 9400: CG 17 iters (=17 matvecs), resid/b=9.90e-09
      9500  -130.24735      1.2548137    
samqeq SOLVER-DIAG step 9600: CG 17 iters (=17 matvecs), resid/b=7.15e-09
samqeq SOLVER-DIAG step 9800: CG 17 iters (=17 matvecs), resid/b=3.08e-09
samqeq SOLVER-DIAG step 10000: CG 17 iters (=17 matvecs), resid/b=6.08e-09
     10000  -129.96393      1.2691811    
samqeq SOLVER-DIAG step 10200: CG 17 iters (=17 matvecs), resid/b=4.15e-09
samqeq SOLVER-DIAG step 10400: CG 17 iters (=17 matvecs), resid/b=6.63e-09
     10500  -130.3353       1.2529889    
samqeq SOLVER-DIAG step 10600: CG 17 iters (=17 matvecs), resid/b=4.79e-09
samqeq SOLVER-DIAG step 10800: CG 17 iters (=17 matvecs), resid/b=4.26e-09
samqeq SOLVER-DIAG step 11000: CG 17 iters (=17 matvecs), resid/b=4.04e-09
     11000  -130.43448      1.2559758    
samqeq SOLVER-DIAG step 11200: CG 17 iters (=17 matvecs), resid/b=5.05e-09
samqeq SOLVER-DIAG step 11400: CG 17 iters (=17 matvecs), resid/b=5.70e-09
     11500  -130.99042      1.2235109    
samqeq SOLVER-DIAG step 11600: CG 17 iters (=17 matvecs), resid/b=4.41e-09
samqeq SOLVER-DIAG step 11800: CG 17 iters (=17 matvecs), resid/b=5.52e-09
samqeq SOLVER-DIAG step 12000: CG 17 iters (=17 matvecs), resid/b=4.99e-09
     12000  -131.23489      1.2568567    
samqeq SOLVER-DIAG step 12200: CG 17 iters (=17 matvecs), resid/b=5.81e-09
samqeq SOLVER-DIAG step 12400: CG 17 iters (=17 matvecs), resid/b=4.53e-09
     12500  -130.87202      1.2728745    
samqeq SOLVER-DIAG step 12600: CG 17 iters (=17 matvecs), resid/b=5.14e-09
samqeq SOLVER-DIAG step 12800: CG 17 iters (=17 matvecs), resid/b=7.86e-09
samqeq SOLVER-DIAG step 13000: CG 17 iters (=17 matvecs), resid/b=4.93e-09
     13000  -130.59221      1.2811103    
samqeq SOLVER-DIAG step 13200: CG 17 iters (=17 matvecs), resid/b=6.28e-09
samqeq SOLVER-DIAG step 13400: CG 17 iters (=17 matvecs), resid/b=6.70e-09
     13500  -130.46153      1.2555142    
samqeq SOLVER-DIAG step 13600: CG 17 iters (=17 matvecs), resid/b=4.97e-09
samqeq SOLVER-DIAG step 13800: CG 17 iters (=17 matvecs), resid/b=3.28e-09
samqeq SOLVER-DIAG step 14000: CG 17 iters (=17 matvecs), resid/b=4.43e-09
     14000  -130.67201      1.2929607    
samqeq SOLVER-DIAG step 14200: CG 17 iters (=17 matvecs), resid/b=5.19e-09
samqeq SOLVER-DIAG step 14400: CG 17 iters (=17 matvecs), resid/b=5.87e-09
     14500  -130.79423      1.2700851    
samqeq SOLVER-DIAG step 14600: CG 17 iters (=17 matvecs), resid/b=4.28e-09
samqeq SOLVER-DIAG step 14800: CG 17 iters (=17 matvecs), resid/b=5.35e-09
samqeq SOLVER-DIAG step 15000: CG 17 iters (=17 matvecs), resid/b=7.91e-09
     15000  -131.20565      1.290149     
samqeq SOLVER-DIAG step 15200: CG 17 iters (=17 matvecs), resid/b=5.25e-09
samqeq SOLVER-DIAG step 15400: CG 17 iters (=17 matvecs), resid/b=4.85e-09
     15500  -131.15293      1.260777     
samqeq SOLVER-DIAG step 15600: CG 17 iters (=17 matvecs), resid/b=2.80e-09
samqeq SOLVER-DIAG step 15800: CG 17 iters (=17 matvecs), resid/b=2.65e-09
samqeq SOLVER-DIAG step 16000: CG 17 iters (=17 matvecs), resid/b=4.09e-09
     16000  -130.97263      1.2923864    
samqeq SOLVER-DIAG step 16200: CG 17 iters (=17 matvecs), resid/b=4.56e-09
samqeq SOLVER-DIAG step 16400: CG 17 iters (=17 matvecs), resid/b=3.58e-09
     16500  -130.90474      1.2462739    
samqeq SOLVER-DIAG step 16600: CG 17 iters (=17 matvecs), resid/b=5.99e-09
samqeq SOLVER-DIAG step 16800: CG 17 iters (=17 matvecs), resid/b=4.15e-09
samqeq SOLVER-DIAG step 17000: CG 17 iters (=17 matvecs), resid/b=3.75e-09
     17000  -130.54491      1.2010577    
samqeq SOLVER-DIAG step 17200: CG 18 iters (=18 matvecs), resid/b=2.81e-09
samqeq SOLVER-DIAG step 17400: CG 17 iters (=17 matvecs), resid/b=5.07e-09
     17500  -130.77079      1.2472454    
samqeq SOLVER-DIAG step 17600: CG 17 iters (=17 matvecs), resid/b=3.50e-09
samqeq SOLVER-DIAG step 17800: CG 17 iters (=17 matvecs), resid/b=3.22e-09
samqeq SOLVER-DIAG step 18000: CG 17 iters (=17 matvecs), resid/b=4.79e-09
     18000  -132.02582      1.2606001    
samqeq SOLVER-DIAG step 18200: CG 17 iters (=17 matvecs), resid/b=5.20e-09
samqeq SOLVER-DIAG step 18400: CG 17 iters (=17 matvecs), resid/b=3.29e-09
     18500  -131.93196      1.25128      
samqeq SOLVER-DIAG step 18600: CG 17 iters (=17 matvecs), resid/b=5.55e-09
samqeq SOLVER-DIAG step 18800: CG 17 iters (=17 matvecs), resid/b=6.02e-09
samqeq SOLVER-DIAG step 19000: CG 17 iters (=17 matvecs), resid/b=7.48e-09
     19000  -132.52981      1.2779273    
samqeq SOLVER-DIAG step 19200: CG 17 iters (=17 matvecs), resid/b=5.47e-09
samqeq SOLVER-DIAG step 19400: CG 17 iters (=17 matvecs), resid/b=8.75e-09
     19500  -132.06607      1.2530087    
samqeq SOLVER-DIAG step 19600: CG 17 iters (=17 matvecs), resid/b=5.30e-09
samqeq SOLVER-DIAG step 19800: CG 17 iters (=17 matvecs), resid/b=5.02e-09
samqeq SOLVER-DIAG step 20000: CG 17 iters (=17 matvecs), resid/b=4.34e-09
     20000  -131.57354      1.241631     
samqeq SOLVER-DIAG step 20200: CG 17 iters (=17 matvecs), resid/b=4.18e-09
samqeq SOLVER-DIAG step 20400: CG 17 iters (=17 matvecs), resid/b=4.44e-09
     20500  -131.06436      1.236646     
samqeq SOLVER-DIAG step 20600: CG 17 iters (=17 matvecs), resid/b=4.29e-09
samqeq SOLVER-DIAG step 20800: CG 17 iters (=17 matvecs), resid/b=7.77e-09
samqeq SOLVER-DIAG step 21000: CG 17 iters (=17 matvecs), resid/b=5.70e-09
     21000  -130.72481      1.2934602    
samqeq SOLVER-DIAG step 21200: CG 17 iters (=17 matvecs), resid/b=8.94e-09
samqeq SOLVER-DIAG step 21400: CG 17 iters (=17 matvecs), resid/b=6.70e-09
     21500  -130.96463      1.2862549    
samqeq SOLVER-DIAG step 21600: CG 17 iters (=17 matvecs), resid/b=5.14e-09
samqeq SOLVER-DIAG step 21800: CG 17 iters (=17 matvecs), resid/b=6.50e-09
samqeq SOLVER-DIAG step 22000: CG 17 iters (=17 matvecs), resid/b=3.67e-09
     22000  -130.97771      1.259436     
samqeq SOLVER-DIAG step 22200: CG 17 iters (=17 matvecs), resid/b=5.23e-09
samqeq SOLVER-DIAG step 22400: CG 17 iters (=17 matvecs), resid/b=4.54e-09
     22500  -130.89649      1.2807116    
samqeq SOLVER-DIAG step 22600: CG 17 iters (=17 matvecs), resid/b=3.75e-09
samqeq SOLVER-DIAG step 22800: CG 17 iters (=17 matvecs), resid/b=7.67e-09
samqeq SOLVER-DIAG step 23000: CG 18 iters (=18 matvecs), resid/b=5.59e-09
     23000  -130.36071      1.3441181    
samqeq SOLVER-DIAG step 23200: CG 17 iters (=17 matvecs), resid/b=6.56e-09
samqeq SOLVER-DIAG step 23400: CG 17 iters (=17 matvecs), resid/b=5.49e-09
     23500  -129.60732      1.2331736    
samqeq SOLVER-DIAG step 23600: CG 17 iters (=17 matvecs), resid/b=6.81e-09
samqeq SOLVER-DIAG step 23800: CG 17 iters (=17 matvecs), resid/b=7.41e-09
samqeq SOLVER-DIAG step 24000: CG 17 iters (=17 matvecs), resid/b=6.43e-09
     24000  -130.66142      1.2512279    
samqeq SOLVER-DIAG step 24200: CG 17 iters (=17 matvecs), resid/b=7.20e-09
samqeq SOLVER-DIAG step 24400: CG 17 iters (=17 matvecs), resid/b=9.47e-09
     24500  -130.34039      1.2533608    
samqeq SOLVER-DIAG step 24600: CG 17 iters (=17 matvecs), resid/b=4.45e-09
samqeq SOLVER-DIAG step 24800: CG 17 iters (=17 matvecs), resid/b=3.84e-09
samqeq SOLVER-DIAG step 25000: CG 17 iters (=17 matvecs), resid/b=3.77e-09
     25000  -130.63056      1.2302629    
Loop time of 965.915 on 1 procs for 25000 steps with 324 atoms

Performance: 0.447 ns/day, 53.662 hours/ns, 25.882 timesteps/s, 8.386 katom-step/s
100.0% CPU use with 1 MPI tasks x 1 OpenMP threads

MPI task timing breakdown:
Section |  min time  |  avg time  |  max time  |%varavg| %total
---------------------------------------------------------------
Pair    | 70.466     | 70.466     | 70.466     |   0.0 |  7.30
Bond    | 0.0081401  | 0.0081401  | 0.0081401  |   0.0 |  0.00
Kspace  | 95.105     | 95.105     | 95.105     |   0.0 |  9.85
Neigh   | 0.47289    | 0.47289    | 0.47289    |   0.0 |  0.05
Comm    | 0.36113    | 0.36113    | 0.36113    |   0.0 |  0.04
Output  | 0.0055423  | 0.0055423  | 0.0055423  |   0.0 |  0.00
Modify  | 799.34     | 799.34     | 799.34     |   0.0 | 82.75
Other   |            | 0.1589     |            |       |  0.02

Nlocal:            324 ave         324 max         324 min
Histogram: 1 0 0 0 0 0 0 0 0 0
Nghost:           1890 ave        1890 max        1890 min
Histogram: 1 0 0 0 0 0 0 0 0 0
Neighs:          79080 ave       79080 max       79080 min
Histogram: 1 0 0 0 0 0 0 0 0 0
FullNghs:       158160 ave      158160 max      158160 min
Histogram: 1 0 0 0 0 0 0 0 0 0

Total # of neighbors = 158160
Ave neighs/atom = 488.14815
Ave special neighs/atom = 1.5
Neighbor list builds = 197
Dangerous builds = 0
print           "DYN_DONE" file done.txt screen no
Total wall time: 0:16:06
