ITEM: TIMESTEP
0
ITEM: NUMBER OF ATOMS
564
ITEM: BOX BOUNDS pp pp ff
0.0000000000000000e+00 1.7650658050000001e+01
0.0000000000000000e+00 2.0381224350000000e+01
0.0000000000000000e+00 6.0000000000000000e+01
ITEM: ATOMS id mol type q x y z
1 1 2 0 8.24512200 15.58107900 22.60780130
2 1 3 0.000922588329962 8.99930700 15.99494600 23.02750430
3 1 3 0.000920407511739 7.50380600 16.13955400 22.84187130
4 1 4 -0.00204901174678 8.24676900 15.70555000 22.69149230
5 1 2 0 15.94739500 18.39865100 22.69035230
6 1 3 0.000911154767326 16.71765600 18.46088800 22.12550130
7 1 3 0.000912208799918 15.55165300 17.55682700 22.46462430
8 1 4 -0.00205484294388 15.99533800 18.29885400 22.58914830
9 1 2 0 17.43363900 10.16011000 22.73132430
10 1 3 0.000910906915323 17.04728200 9.37132900 22.35081830
11 1 3 0.000915776987895 0.66633495 9.89504700 22.98756730
12 1 4 -0.00205455630149 17.49726000 10.02520600 22.71541730
13 1 2 0 1.34938300 4.55603100 22.80664330
14 1 3 0.000914221006214 2.25303400 4.29537500 22.62858430
15 1 3 0.00092139553781 1.36124800 4.85802700 23.71487830
16 1 4 -0.00205203281106 1.46658000 4.56132300 22.90011430
17 1 2 0 13.79454900 8.69815200 22.91890230
18 1 3 0.000916242348511 13.76817500 9.65498800 22.91982030
19 1 3 0.000920716247744 14.31482300 8.47167600 23.68978230
20 1 4 -0.00205202003896 13.85777400 8.79164700 23.01770230
21 1 2 0 2.45384200 11.13179700 23.00931330
22 1 3 0.000916076122719 3.34523300 10.88819200 23.25893330
23 1 3 0.000910012171683 2.56797500 11.78723500 22.32112330
24 1 4 -0.00205401543863 2.58256100 11.18451700 22.95317030
25 1 2 0 5.78675400 16.92692800 23.09641330
26 1 3 0.000920817728667 5.28323000 16.47580400 23.77404430
27 1 3 0.000911794750757 5.17677800 17.01724400 22.36429030
28 1 4 -0.00205127779144 5.64421300 16.88074000 23.08943730
29 1 2 0 9.01000400 19.57176400 23.18088730
30 1 3 0.000927125033811 8.78238800 19.25232600 24.05403330
31 1 3 0.00091796043297 8.18499100 19.55303200 22.69587630
32 1 4 -0.00204675209715 8.87525500 19.52847400 23.23057330
33 1 2 0 8.83043300 2.85815800 23.19435430
34 1 3 0.000921532127559 9.21769000 2.02205600 23.45357830
35 1 3 0.00091988735903 9.56648500 3.46996200 23.18191330
36 1 4 -0.00204864210375 8.97423000 2.82944500 23.22594530
37 1 2 0 6.02784200 0.12173500 23.20701130
38 1 3 0.000913298667133 5.47821600 0.33162200 22.45196730
39 1 3 0.000920803753694 5.79197900 19.60317635 23.43282430
40 1 4 -0.00205015531876 5.92729000 0.03342000 23.13926330
41 1 2 0 4.18397800 8.35952700 23.26490830
42 1 3 0.000917373123306 5.05229100 7.96143000 23.32642530
43 1 3 0.000910595409012 3.81527900 8.00719600 22.45487330
44 1 4 -0.00205315182353 4.24793400 8.26346300 23.16908830
45 1 2 0 0.45553800 19.51483400 23.37309230
46 1 3 0.000920481134173 0.12126100 20.35801600 23.67892930
47 1 3 0.000922859173723 0.15406600 18.88529700 24.02809630
48 1 4 -0.00204880538415 0.37415500 19.54218300 23.49609230
49 1 2 0 15.09732900 11.54517500 23.49740530
50 1 3 0.000922575124108 15.28848600 12.42944200 23.81007330
51 1 3 0.000918684613827 15.91183100 11.25434900 23.08723630
52 1 4 -0.00204841774273 15.22606500 11.62114200 23.48492330
53 1 2 0 10.74610700 16.76684700 23.56450830
54 1 3 0.000927711630308 10.79944800 17.51104700 24.16413530
55 1 3 0.000926943345212 11.09645100 16.02988700 24.06489030
56 1 4 -0.00204378747591 10.79778300 16.76777400 23.70532230
57 1 2 0 10.92097000 4.49939700 23.57670830
58 1 3 0.000919740547195 10.73334500 5.43784000 23.59550930
59 1 3 0.000913490655874 11.43992200 4.37428700 22.78218430
60 1 4 -0.0020508022641 10.96338400 4.60351300 23.47740630
61 1 2 0 11.20759600 7.43499100 23.63896930
62 1 3 0.000920103624618 12.08038100 7.79234200 23.47532730
63 1 3 0.000923288620043 10.71998500 8.16114200 24.02777930
64 1 4 -0.0020480834191 11.25690300 7.57369300 23.66779430
65 1 2 0 2.77487200 2.13963000 23.80555830
66 1 3 0.000923682598156 1.87563000 2.20241100 24.12751330
67 1 3 0.00092381178312 3.06142600 1.26344600 24.06328030
68 1 4 -0.00204600113822 2.69644000 2.03550400 23.87976330
69 1 2 0 6.66557400 7.03157500 23.85975330
70 1 3 0.000925032038213 7.12119900 7.12854900 24.69595530
71 1 3 0.000915304333182 7.35394200 7.11666000 23.20009930
72 1 4 -0.00204908746015 6.81201900 7.05488100 23.88235330
73 1 2 0 13.64690200 1.83257800 24.19527930
74 1 3 0.000926563081862 12.85765800 1.41328700 24.53809330
75 1 3 0.000927963417372 13.96923300 2.36706000 24.92099530
76 1 4 -0.0020435051454 13.58713200 1.84732400 24.33206430
77 1 2 0 5.00715200 4.70371400 24.22363830
78 1 3 0.000922959831712 5.69863400 5.36154900 24.15057330
79 1 3 0.000916818684239 4.71389900 4.56278300 23.32343130
80 1 4 -0.00204694804229 5.05813000 4.76988400 24.09904830
81 1 2 0 15.07740200 5.32894500 24.27709430
82 1 3 0.000922510418022 15.73547300 6.01263700 24.40255330
83 1 3 0.000916458786195 14.93436300 5.30425000 23.33096330
84 1 4 -0.00204719425506 15.14333200 5.41330500 24.17203830
85 1 2 0 1.93368600 15.47494700 24.31767830
86 1 3 0.000923276899484 2.65042100 14.86751800 24.50085330
87 1 3 0.00091713317682 2.23595500 15.98270500 23.56465230
88 1 4 -0.00204740392184 2.06413000 15.46218800 24.24473030
89 1 2 0 9.63670000 9.69834100 24.31854630
90 1 3 0.000922502208555 8.68003500 9.72351600 24.29875530
91 1 3 0.00091890865475 9.90754500 10.40837200 23.73654030
92 1 4 -0.00204686599776 9.54890600 9.79245600 24.24150930
93 1 2 0 4.31714800 14.06587000 24.39000730
94 1 3 0.00091731390629 4.78988600 13.85099400 23.58590530
95 1 3 0.000923934475128 4.04766500 13.21824400 24.74376130
96 1 4 -0.0020474913599 4.34316700 13.92985700 24.33235730
97 1 2 0 8.26061000 12.83181700 24.44569030
98 1 3 0.000927264301191 9.17832700 13.10211800 24.47678330
99 1 3 0.000928950744983 7.78734700 13.53820400 24.88531730
100 1 4 -0.00204245302308 8.31750600 12.95684500 24.50594830
101 1 2 0 3.49508600 18.95208400 24.47556130
102 1 3 0.000924079623167 2.58902400 18.66568000 24.36042530
103 1 3 0.000930701419052 3.69139100 18.76415800 25.39337430
104 1 4 -0.00204249603348 3.40422900 18.89136400 24.57831330
105 1 2 0 6.70188600 10.48890000 24.57235630
106 1 3 0.00091776493953 6.46010100 10.31878300 23.66195430
107 1 3 0.000924617148004 7.31296500 11.22413700 24.52500130
108 1 4 -0.0020460609216 6.74916000 10.56124200 24.44975230
109 1 2 0 15.29878900 14.08884200 24.76001430
110 1 3 0.000927162733769 14.60940900 14.74576100 24.85719830
111 1 3 0.00092506107724 16.08598800 14.51512300 25.09888730
112 1 4 -0.00204362685342 15.31131100 14.22750500 24.81583530
113 1 2 0 10.77183900 14.15511100 24.80595330
114 1 3 0.00093198937655 10.57829100 14.62850600 25.61506930
115 1 3 0.000929577872632 11.47870900 13.55459400 25.04248130
116 1 4 -0.00204007469635 10.83755000 14.13883800 24.93980830
117 1 2 0 16.91267600 2.62313000 24.96988530
118 1 3 0.000928862639439 16.99912700 3.50638200 25.32852730
119 1 3 0.000923187172441 16.30921700 2.72117700 24.23336830
120 1 4 -0.00204166374617 16.84649300 2.74874800 24.92151230
121 1 2 0 6.30170800 2.23170000 24.98602930
122 1 3 0.000927686930166 5.83233700 3.00106400 24.66353530
123 1 3 0.000926539178207 6.33270000 1.63767700 24.23608930
124 1 4 -0.00204044518609 6.24559000 2.25414600 24.84874530
125 1 2 0 11.01134000 1.83247200 25.20326530
126 1 3 0.000932536877566 10.71999300 2.01679600 26.09622330
127 1 3 0.000926828460173 11.10650300 2.69489800 24.79904030
128 1 4 -0.00203989200725 10.98622600 1.96646900 25.26582930
129 1 2 0 13.32813600 15.90542400 25.21628930
130 1 3 0.000929872975316 13.85549900 16.61335500 25.58636330
131 1 3 0.000931932905175 12.97239400 15.44774900 25.97800630
132 1 4 -0.00203968570143 13.35010600 15.93746000 25.36117230
133 1 2 0 12.52022500 12.01202700 25.25169830
134 1 3 0.00092584271123 13.16850400 11.76504100 24.59218030
135 1 3 0.00093132719034 12.46499600 11.25163700 25.83048030
136 1 4 -0.00204020961095 12.59614300 11.88307100 25.24136330
137 1 2 0 16.40840300 19.45741800 25.26426230
138 1 3 0.000926587559842 16.45952200 0.01605565 25.09025530
139 1 3 0.000925035659464 16.01683600 19.08778600 24.47288430
140 1 4 -0.00204195702737 16.36482200 19.53041400 25.14068130
141 1 2 0 8.47517700 18.06131700 25.42277330
142 1 3 0.000932966767892 9.37481800 18.02996000 25.74818930
143 1 3 0.000932969284033 8.14606800 17.17026200 25.54085130
144 1 4 -0.00203689254608 8.54821200 17.94323700 25.47954630
145 1 2 0 15.19334000 8.74581100 25.53532230
146 1 3 0.000930335758471 15.44104000 8.06498400 26.16090330
147 1 3 0.000928145306835 15.78328000 9.47463600 25.72772030
148 1 4 -0.00204090025725 15.30056800 8.75195500 25.64003330
149 1 2 0 0.84938300 5.70515300 25.53580530
150 1 3 0.000929548261062 1.03248100 6.59229700 25.84513430
151 1 3 0.000930365868423 1.58163000 5.18159800 25.86128430
152 1 4 -0.00204000168663 0.96655800 5.75169700 25.61706830
153 1 2 0 11.22479500 18.68220300 25.59883530
154 1 3 0.000929142652813 11.22328700 19.60210700 25.33424530
155 1 3 0.000931889326049 12.03922400 18.57516400 26.09024130
156 1 4 -0.00203863263062 11.32885800 18.78626000 25.62787030
157 1 2 0 0.41183400 11.55787700 25.60587830
158 1 3 0.000929579108062 0.64613800 10.64146400 25.75257830
159 1 3 0.00092668029334 1.16805100 11.92914000 25.15142030
160 1 4 -0.002040224483 0.53863300 11.48809100 25.56648230
161 1 2 0 8.12633200 4.17882000 25.81706730
162 1 3 0.00093239459484 8.77924900 3.69358300 26.32152430
163 1 3 0.000929832098909 7.91021400 3.60075600 25.08537830
164 1 4 -0.00203781077248 8.18224700 4.04270400 25.78797930
165 1 2 0 7.56908800 15.36448100 25.83811130
166 1 3 0.000934579557326 8.22538200 15.13923700 26.49748630
167 1 3 0.00093336840343 6.73050100 15.24906300 26.28496930
168 1 4 -0.00203644058179 7.54575200 15.32087200 25.97972230
169 1 2 0 0.99370900 8.71985900 25.85117430
170 1 3 0.000923850921841 0.75134800 8.66391400 24.92685630
171 1 3 0.000930150131386 1.94997400 8.76190300 25.84641530
172 1 4 -0.0020408310226 1.08509800 8.71807900 25.73224130
173 1 2 0 12.80925900 5.16015400 25.90682430
174 1 3 0.000927732418928 12.15851800 4.87924200 25.26350730
175 1 3 0.000929016545103 13.60881700 5.29227200 25.39742730
176 1 4 -0.00203941777708 12.82831000 5.14110600 25.75926230
177 1 2 0 8.66085300 7.03336900 26.04967530
178 1 3 0.000931552055963 8.59535500 6.07871800 26.07381730
179 1 3 0.000932277650002 9.58679200 7.21454900 26.21105330
180 1 4 -0.00203809097668 8.77100000 6.93435600 26.07342430
181 1 2 0 3.89553600 11.60235000 26.06317630
182 1 3 0.000931788889516 4.36255600 11.87078400 26.85442130
183 1 3 0.000930290392362 4.10647500 10.67404100 25.96328430
184 1 4 -0.00203876925817 3.98232300 11.51787800 26.15167730
185 1 2 0 3.62978500 8.71462200 26.07897430
186 1 3 0.000932506083764 4.19971700 8.10610000 26.54919830
187 1 3 0.000926882080089 3.81499100 8.55099900 25.15422730
188 1 4 -0.00203913510224 3.72645200 8.61577800 26.02079030
189 1 2 0 3.21464800 4.26027600 26.49332830
190 1 3 0.000933780498903 3.37191400 4.89379200 27.19343930
191 1 3 0.000930904350641 3.82220800 4.51447600 25.79871730
192 1 4 -0.00203635522721 3.31255500 4.37391400 26.49403230
193 1 2 0 14.18334800 18.39282300 26.57302230
194 1 3 0.000934622778925 14.05279500 18.70785100 27.46741930
195 1 3 0.000932337926816 14.96614200 18.85201600 26.26870830
196 1 4 -0.00203627301891 14.26684300 18.49193300 26.64856030
197 1 2 0 6.69366900 8.81958100 26.69397730
198 1 3 0.000931801382424 6.66206100 9.56283700 26.09164430
199 1 3 0.000932811898792 7.49209700 8.34957300 26.45348230
200 1 4 -0.00203635127105 6.79183100 8.85456000 26.58608530
201 1 2 0 9.63566200 11.01814000 26.78542030
202 1 3 0.000931494129032 9.80181200 10.80716900 25.86666130
203 1 3 0.00093352195964 8.84712900 11.56050100 26.76830830
204 1 4 -0.00203540785381 9.55599000 11.06056200 26.66561830
205 1 2 0 2.56207100 1.31779700 26.86136530
206 1 3 0.000933898109905 2.86473400 2.03251100 26.30117630
207 1 3 0.000937981029589 3.10342600 1.38371200 27.64801730
208 1 4 -0.00203354847453 2.67011600 1.41772700 26.89035530
209 1 2 0 1.35572600 16.76575200 26.97442730
210 1 3 0.000931696833742 0.76187300 16.19088100 27.45722630
211 1 3 0.000929909947576 1.52887500 16.29958600 26.15653930
212 1 4 -0.00203697443016 1.30187100 16.63248700 26.93153130
213 1 2 0 15.20294000 12.00841700 26.99576630
214 1 3 0.000932173363167 16.02440000 11.63625400 26.67493830
215 1 3 0.000932523266032 15.01914100 12.73415100 26.39930930
216 1 4 -0.00203544357645 15.28456800 12.05367800 26.87834230
217 1 2 0 14.20052200 2.94209600 26.99865430
218 1 3 0.000933412495757 13.94774800 3.86530700 27.00281030
219 1 3 0.000933201846385 14.89590700 2.88072000 27.65356130
220 1 4 -0.00203576793289 14.25718100 3.05242100 27.08302230
221 1 2 0 11.24978600 7.42906100 27.02862630
222 1 3 0.000931769758409 11.65519100 6.82977100 26.40194430
223 1 3 0.000934997256214 10.98777200 6.87013000 27.76018530
224 1 4 -0.00203580061459 11.26814200 7.28079500 27.04205230
225 1 2 0 4.12556900 17.85664100 27.04741530
226 1 3 0.000935710902461 4.62032600 17.03731100 27.03536130
227 1 3 0.000934668650481 3.20873000 17.58389200 27.01209730
228 1 4 -0.00203368846041 4.07153700 17.71684200 27.04135130
229 1 2 0 13.02757000 9.70643000 27.07282030
230 1 3 0.000934534187689 12.45232700 8.95602600 26.92375030
231 1 3 0.000933362366965 13.84320600 9.47563300 26.62818230
232 1 4 -0.00203479434468 13.05834300 9.58082500 26.99681930
233 1 2 0 5.09463500 15.28001200 27.15941430
234 1 3 0.000930482092561 4.68903500 14.99026100 26.34224530
235 1 3 0.000934754739297 5.01627300 14.52778700 27.74614230
236 1 4 -0.00203608158457 5.03268200 15.14662600 27.12991530
237 1 2 0 6.66157900 0.62793900 27.18777830
238 1 3 0.000935016674728 6.64215100 1.27150000 26.47948130
239 1 3 0.000934714148303 6.86266800 20.18023435 26.75341430
240 1 4 -0.00203352812794 6.68483400 0.60421000 27.04150430
241 1 2 0 9.88209000 14.93647000 27.29756330
242 1 3 0.000933870796389 9.67706800 14.14177100 27.79016230
243 1 3 0.000936076999648 10.37561600 15.47930100 27.91237830
244 1 4 -0.00203479786912 9.91902200 14.90422800 27.43932630
245 1 2 0 7.39681800 12.82525900 27.51775430
246 1 3 0.00093381261873 6.44357100 12.88146200 27.58404130
247 1 3 0.000933250646105 7.67311700 12.44228000 28.35035130
248 1 4 -0.00203534185859 7.31016100 12.78342800 27.63282230
249 1 2 0 10.32713300 2.90882100 27.55348030
250 1 3 0.000936091386466 9.59637700 2.71213200 28.13960530
251 1 3 0.00093412963575 10.47085900 3.84955300 27.65643630
252 1 4 -0.00203525641978 10.25198600 3.00406800 27.64169130
253 1 2 0 13.08636200 14.70248000 27.75652730
254 1 3 0.000933348098828 13.84954500 14.83373000 28.31916130
255 1 3 0.000936528688239 12.89162000 13.76821100 27.83034430
256 1 4 -0.00203487997821 13.15912900 14.59968400 27.83800030
257 1 2 0 15.86894400 6.99060100 27.75915330
258 1 3 0.000933443245941 15.29772500 7.08061000 28.52193630
259 1 3 0.000932994683296 16.66471700 7.46600900 27.99782430
260 1 4 -0.0020355781412 15.89769000 7.06298100 27.88735130
261 1 2 0 5.11344400 6.80445900 27.87901130
262 1 3 0.000935601213568 5.75585700 7.32598600 27.39781730
263 1 3 0.000937383207973 5.57738500 5.99710300 28.10074930
264 1 4 -0.00203264652038 5.25507000 6.76787000 27.84579730
265 1 2 0 0.21195400 1.70798400 27.89629830
266 1 3 0.000937704670439 1.01377200 1.56700700 27.39286430
267 1 3 0.000934711912288 17.34354205 0.91769200 27.74717830
268 1 4 -0.00203212157921 0.24814900 1.58877100 27.81276330
269 1 2 0 12.39997200 12.20247200 28.07804930
270 1 3 0.000937121161623 13.06349600 11.58825600 27.76387230
271 1 3 0.000935537671207 11.63854200 12.03851500 27.52165530
272 1 4 -0.00203266337215 12.38743900 12.10285700 27.96660630
273 1 2 0 12.13002900 1.09927700 28.33719430
274 1 3 0.000935663147487 12.99724300 1.38319500 28.04811930
275 1 3 0.000937083897588 11.53462500 1.77161700 28.00600730
276 1 4 -0.0020321308364 12.16482400 1.22169000 28.25779330
277 1 2 0 4.82940600 12.94086300 28.46305530
278 1 3 0.000932560319873 5.04059100 12.13789100 28.93936330
279 1 3 0.000934104497876 3.90801500 13.10414900 28.66457030
280 1 4 -0.00203637261473 4.73849100 12.85897500 28.54982430
281 1 2 0 6.39772100 4.46443500 28.63961930
282 1 3 0.000938679739548 7.00222600 3.77491800 28.91416330
283 1 3 0.000935545153651 6.37638800 4.39875300 27.68491330
284 1 4 -0.00203135676905 6.47237400 4.36776000 28.55255030
285 1 2 0 1.91486700 13.23845100 28.66041730
286 1 3 0.000933288580541 1.83367200 12.46438900 28.10322130
287 1 3 0.000932953830722 1.06628100 13.67554600 28.58912830
288 1 4 -0.00203505389185 1.79584400 13.19531500 28.57996430
289 1 2 0 9.81651600 18.75151400 28.70247830
290 1 3 0.000937625129806 10.30103900 17.98385500 29.00607130
291 1 3 0.000936535480333 10.40674300 19.17743600 28.08082230
292 1 4 -0.00203146518126 9.95409700 18.70776800 28.66176230
293 1 2 0 11.38663600 16.46598000 28.87761430
294 1 3 0.00093564935357 12.14939100 16.00750800 28.52513730
295 1 3 0.000934226058899 11.22185300 16.04443800 29.72104830
296 1 4 -0.002034208381 11.46318300 16.35332800 28.94046230
297 1 2 0 4.50752500 1.14806100 28.94505830
298 1 3 0.000939055299238 5.27861900 1.26247800 28.38958030
299 1 3 0.000938292249663 4.52803900 0.22481600 29.19690830
300 1 4 -0.00203001172925 4.60886100 1.04452100 28.90619030
301 1 2 0 10.16258100 5.47986400 28.95691530
302 1 3 0.000935480522674 9.46082900 5.86992400 29.47809630
303 1 3 0.000934443436712 10.78444500 5.14588700 29.60342630
304 1 4 -0.00203391406048 10.15235400 5.48704300 29.10639430
305 1 2 0 8.19492700 2.24313000 29.08671030
306 1 3 0.00093695392509 7.92380100 1.55035300 28.48439430
307 1 3 0.000936374226624 8.54768800 1.77743200 29.84494430
308 1 4 -0.00203254036419 8.20537700 2.09483100 29.10667030
309 1 2 0 15.05156300 19.31191500 29.12141530
310 1 3 0.000934913117092 14.47225600 19.29359700 29.88318930
311 1 3 0.000934228958437 15.35830900 20.21744000 29.07490830
312 1 4 -0.00203372210633 15.01667200 19.42548800 29.21297830
313 1 2 0 2.52582400 9.94933400 29.33243830
314 1 3 0.000935291642947 2.51448200 10.63251900 30.00278330
315 1 3 0.000935361910444 3.45518100 9.79256400 29.16525330
316 1 4 -0.00203266599678 2.64334100 10.01672100 29.39684930
317 1 2 0 7.65495200 9.21183300 29.36535130
318 1 3 0.0009358958705 8.27486400 9.81540900 29.77478630
319 1 3 0.000936826095577 7.81334800 9.30574300 28.42603130
320 1 4 -0.0020315253208 7.75458500 9.30111900 29.29751930
321 1 2 0 7.30022100 17.67514900 29.50165530
322 1 3 0.000939414421415 8.09221800 18.08947200 29.15915230
323 1 3 0.000937190291239 7.51513200 16.74326100 29.54201330
324 1 4 -0.00202986116677 7.42911700 17.60889400 29.46297730
325 1 1 4.88630741133e-05 0.00000000 0.00000000 10.00000000
326 1 1 4.8846136972e-05 1.47088817 2.54765304 10.00000000
327 1 1 4.8831991892e-05 0.00000000 5.09530609 10.00000000
328 1 1 4.88115169426e-05 1.47088817 7.64295913 10.00000000
329 1 1 4.88181190946e-05 0.00000000 10.19061218 10.00000000
330 1 1 4.88224077254e-05 1.47088817 12.73826522 10.00000000
331 1 1 4.88472871671e-05 0.00000000 15.28591827 10.00000000
332 1 1 4.8856016789e-05 1.47088817 17.83357131 10.00000000
333 1 1 4.88592181222e-05 2.94177634 0.00000000 10.00000000
334 1 1 4.8848606654e-05 4.41266451 2.54765304 10.00000000
335 1 1 4.88236868923e-05 2.94177634 5.09530609 10.00000000
336 1 1 4.88088323806e-05 4.41266451 7.64295913 10.00000000
337 1 1 4.88072597045e-05 2.94177634 10.19061218 10.00000000
338 1 1 4.88263012949e-05 4.41266451 12.73826522 10.00000000
339 1 1 4.88415892455e-05 2.94177634 15.28591827 10.00000000
340 1 1 4.8865735796e-05 4.41266451 17.83357131 10.00000000
341 1 1 4.88758197874e-05 5.88355268 0.00000000 10.00000000
342 1 1 4.88648084053e-05 7.35444085 2.54765304 10.00000000
343 1 1 4.88300963682e-05 5.88355268 5.09530609 10.00000000
344 1 1 4.88221479844e-05 7.35444085 7.64295913 10.00000000
345 1 1 4.88167027744e-05 5.88355268 10.19061218 10.00000000
346 1 1 4.88500133448e-05 7.35444085 12.73826522 10.00000000
347 1 1 4.88627256566e-05 5.88355268 15.28591827 10.00000000
348 1 1 4.88925261287e-05 7.35444085 17.83357131 10.00000000
349 1 1 4.88967206001e-05 8.82532903 0.00000000 10.00000000
350 1 1 4.88775552145e-05 10.29621720 2.54765304 10.00000000
351 1 1 4.8845779463e-05 8.82532903 5.09530609 10.00000000
352 1 1 4.88383820682e-05 10.29621720 7.64295913 10.00000000
353 1 1 4.88374847526e-05 8.82532903 10.19061218 10.00000000
354 1 1 4.8868731817e-05 10.29621720 12.73826522 10.00000000
355 1 1 4.88893597451e-05 8.82532903 15.28591827 10.00000000
356 1 1 4.89085789696e-05 10.29621720 17.83357131 10.00000000
357 1 1 4.88996130884e-05 11.76710537 0.00000000 10.00000000
358 1 1 4.88735962056e-05 13.23799354 2.54765304 10.00000000
359 1 1 4.8853756741e-05 11.76710537 5.09530609 10.00000000
360 1 1 4.88406033934e-05 13.23799354 7.64295913 10.00000000
361 1 1 4.8848201266e-05 11.76710537 10.19061218 10.00000000
362 1 1 4.88639926175e-05 13.23799354 12.73826522 10.00000000
363 1 1 4.88937380347e-05 11.76710537 15.28591827 10.00000000
364 1 1 4.889766865e-05 13.23799354 17.83357131 10.00000000
365 1 1 4.88826843779e-05 14.70888171 0.00000000 10.00000000
366 1 1 4.88580640186e-05 16.17976988 2.54765304 10.00000000
367 1 1 4.88464201217e-05 14.70888171 5.09530609 10.00000000
368 1 1 4.88270906633e-05 16.17976988 7.64295913 10.00000000
369 1 1 4.88384230177e-05 14.70888171 10.19061218 10.00000000
370 1 1 4.88413085215e-05 16.17976988 12.73826522 10.00000000
371 1 1 4.88728376431e-05 14.70888171 15.28591827 10.00000000
372 1 1 4.88719796921e-05 16.17976988 17.83357131 10.00000000
373 1 1 5.24121034384e-05 1.47088817 0.84921768 12.40195032
374 1 1 5.23791008176e-05 2.94177634 3.39687073 12.40195032
375 1 1 5.23413368346e-05 1.47088817 5.94452377 12.40195032
376 1 1 5.23053798933e-05 2.94177634 8.49217681 12.40195032
377 1 1 5.23208349632e-05 1.47088817 11.03982986 12.40195032
378 1 1 5.23477633581e-05 2.94177634 13.58748290 12.40195032
379 1 1 5.23850575887e-05 1.47088817 16.13513595 12.40195032
380 1 1 5.24161248198e-05 2.94177634 18.68278899 12.40195032
381 1 1 5.24272991055e-05 4.41266451 0.84921768 12.40195032
382 1 1 5.23999271051e-05 5.88355268 3.39687073 12.40195032
383 1 1 5.23340422818e-05 4.41266451 5.94452377 12.40195032
384 1 1 5.23189776548e-05 5.88355268 8.49217681 12.40195032
385 1 1 5.23199696324e-05 4.41266451 11.03982986 12.40195032
386 1 1 5.23939107266e-05 5.88355268 13.58748290 12.40195032
387 1 1 5.24111586145e-05 4.41266451 16.13513595 12.40195032
388 1 1 5.24691045429e-05 5.88355268 18.68278899 12.40195032
389 1 1 5.24761040142e-05 7.35444085 0.84921768 12.40195032
390 1 1 5.24353002049e-05 8.82532903 3.39687073 12.40195032
391 1 1 5.23613523732e-05 7.35444085 5.94452377 12.40195032
392 1 1 5.23617238248e-05 8.82532903 8.49217681 12.40195032
393 1 1 5.23678431825e-05 7.35444085 11.03982986 12.40195032
394 1 1 5.24591274802e-05 8.82532903 13.58748290 12.40195032
395 1 1 5.2485346948e-05 7.35444085 16.13513595 12.40195032
396 1 1 5.25308566132e-05 8.82532903 18.68278899 12.40195032
397 1 1 5.25070495709e-05 10.29621720 0.84921768 12.40195032
398 1 1 5.24469239733e-05 11.76710537 3.39687073 12.40195032
399 1 1 5.23930694958e-05 10.29621720 5.94452377 12.40195032
400 1 1 5.23882394954e-05 11.76710537 8.49217681 12.40195032
401 1 1 5.24133924739e-05 10.29621720 11.03982986 12.40195032
402 1 1 5.24751665737e-05 11.76710537 13.58748290 12.40195032
403 1 1 5.25294621399e-05 10.29621720 16.13513595 12.40195032
404 1 1 5.25347665534e-05 11.76710537 18.68278899 12.40195032
405 1 1 5.24876390117e-05 13.23799354 0.84921768 12.40195032
406 1 1 5.24260521859e-05 14.70888171 3.39687073 12.40195032
407 1 1 5.2397555537e-05 13.23799354 5.94452377 12.40195032
408 1 1 5.23750313901e-05 14.70888171 8.49217681 12.40195032
409 1 1 5.24118099449e-05 13.23799354 11.03982986 12.40195032
410 1 1 5.24289019822e-05 14.70888171 13.58748290 12.40195032
411 1 1 5.24989244584e-05 13.23799354 16.13513595 12.40195032
412 1 1 5.24803166834e-05 14.70888171 18.68278899 12.40195032
413 1 1 5.24419283619e-05 16.17976988 0.84921768 12.40195032
414 1 1 5.2394005538e-05 0.00000000 3.39687073 12.40195032
415 1 1 5.23731369012e-05 16.17976988 5.94452377 12.40195032
416 1 1 5.23349358149e-05 0.00000000 8.49217681 12.40195032
417 1 1 5.23669852919e-05 16.17976988 11.03982986 12.40195032
418 1 1 5.2367061079e-05 0.00000000 13.58748290 12.40195032
419 1 1 5.24283379906e-05 16.17976988 16.13513595 12.40195032
420 1 1 5.24232698264e-05 0.00000000 18.68278899 12.40195032
421 1 1 5.86889590522e-05 2.94177634 1.69843536 14.80390065
422 1 1 5.85992681736e-05 4.41266451 4.24608841 14.80390065
423 1 1 5.85010528566e-05 2.94177634 6.79374145 14.80390065
424 1 1 5.84552928056e-05 4.41266451 9.34139450 14.80390065
425 1 1 5.84893346522e-05 2.94177634 11.88904754 14.80390065
426 1 1 5.86115497482e-05 4.41266451 14.43670058 14.80390065
427 1 1 5.86460042029e-05 2.94177634 16.98435363 14.80390065
428 1 1 5.87482428515e-05 4.41266451 19.53200667 14.80390065
429 1 1 5.87524005129e-05 5.88355268 1.69843536 14.80390065
430 1 1 5.86612224761e-05 7.35444085 4.24608841 14.80390065
431 1 1 5.85065047498e-05 5.88355268 6.79374145 14.80390065
432 1 1 5.85331842055e-05 7.35444085 9.34139450 14.80390065
433 1 1 5.85648404063e-05 5.88355268 11.88904754 14.80390065
434 1 1 5.88069841206e-05 7.35444085 14.43670058 14.80390065
435 1 1 5.88076915375e-05 5.88355268 16.98435363 14.80390065
436 1 1 5.89089119505e-05 7.35444085 19.53200667 14.80390065
437 1 1 5.88547879711e-05 8.82532903 1.69843536 14.80390065
438 1 1 5.87249434145e-05 10.29621720 4.24608841 14.80390065
439 1 1 5.85926515728e-05 8.82532903 6.79374145 14.80390065
440 1 1 5.86451077564e-05 10.29621720 9.34139450 14.80390065
441 1 1 5.87138342275e-05 8.82532903 11.88904754 14.80390065
442 1 1 5.89199794963e-05 10.29621720 14.43670058 14.80390065
443 1 1 5.89930325644e-05 8.82532903 16.98435363 14.80390065
444 1 1 5.89939728649e-05 10.29621720 19.53200667 14.80390065
445 1 1 5.88606622287e-05 11.76710537 1.69843536 14.80390065
446 1 1 5.87178566275e-05 13.23799354 4.24608841 14.80390065
447 1 1 5.86577089947e-05 11.76710537 6.79374145 14.80390065
448 1 1 5.8675895467e-05 13.23799354 9.34139450 14.80390065
449 1 1 5.87694397446e-05 11.76710537 11.88904754 14.80390065
450 1 1 5.88426033522e-05 13.23799354 14.43670058 14.80390065
451 1 1 5.89865806538e-05 11.76710537 16.98435363 14.80390065
452 1 1 5.89117097568e-05 13.23799354 19.53200667 14.80390065
453 1 1 5.87868886431e-05 14.70888171 1.69843536 14.80390065
454 1 1 5.86726063771e-05 16.17976988 4.24608841 14.80390065
455 1 1 5.86420565069e-05 14.70888171 6.79374145 14.80390065
456 1 1 5.8602866212e-05 16.17976988 9.34139450 14.80390065
457 1 1 5.86973468268e-05 14.70888171 11.88904754 14.80390065
458 1 1 5.86764089088e-05 16.17976988 14.43670058 14.80390065
459 1 1 5.88226139014e-05 14.70888171 16.98435363 14.80390065
460 1 1 5.87729459963e-05 16.17976988 19.53200667 14.80390065
461 1 1 5.8715108893e-05 0.00000000 1.69843536 14.80390065
462 1 1 5.86209025183e-05 1.47088817 4.24608841 14.80390065
463 1 1 5.85722654625e-05 0.00000000 6.79374145 14.80390065
464 1 1 5.84950843469e-05 1.47088817 9.34139450 14.80390065
465 1 1 5.85645665892e-05 0.00000000 11.88904754 14.80390065
466 1 1 5.8559377256e-05 1.47088817 14.43670058 14.80390065
467 1 1 5.86663370521e-05 0.00000000 16.98435363 14.80390065
468 1 1 5.86956529324e-05 1.47088817 19.53200667 14.80390065
469 1 1 6.81785550242e-05 4.41266451 2.54765304 17.20585097
470 1 1 6.79466613648e-05 5.88355268 5.09530609 17.20585097
471 1 1 6.76985326677e-05 4.41266451 7.64295913 17.20585097
472 1 1 6.77443157382e-05 5.88355268 10.19061218 17.20585097
473 1 1 6.78282073949e-05 4.41266451 12.73826522 17.20585097
474 1 1 6.83158970916e-05 5.88355268 15.28591827 17.20585097
475 1 1 6.82317378213e-05 4.41266451 17.83357131 17.20585097
476 1 1 6.84554736879e-05 5.88355268 0.00000000 17.20585097
477 1 1 6.8370304935e-05 7.35444085 2.54765304 17.20585097
478 1 1 6.81124339576e-05 8.82532903 5.09530609 17.20585097
479 1 1 6.78105498033e-05 7.35444085 7.64295913 17.20585097
480 1 1 6.80187685108e-05 8.82532903 10.19061218 17.20585097
481 1 1 6.82133959126e-05 7.35444085 12.73826522 17.20585097
482 1 1 6.88131862109e-05 8.82532903 15.28591827 17.20585097
483 1 1 6.8756870084e-05 7.35444085 17.83357131 17.20585097
484 1 1 6.87811633923e-05 8.82532903 0.00000000 17.20585097
485 1 1 6.84770860394e-05 10.29621720 2.54765304 17.20585097
486 1 1 6.81751556891e-05 11.76710537 5.09530609 17.20585097
487 1 1 6.80379973456e-05 10.29621720 7.64295913 17.20585097
488 1 1 6.82153993476e-05 11.76710537 10.19061218 17.20585097
489 1 1 6.84797148916e-05 10.29621720 12.73826522 17.20585097
490 1 1 6.87656942076e-05 11.76710537 15.28591827 17.20585097
491 1 1 6.8987223036e-05 10.29621720 17.83357131 17.20585097
492 1 1 6.8736524562e-05 11.76710537 0.00000000 17.20585097
493 1 1 6.83659452222e-05 13.23799354 2.54765304 17.20585097
494 1 1 6.81299494393e-05 14.70888171 5.09530609 17.20585097
495 1 1 6.81302156903e-05 13.23799354 7.64295913 17.20585097
496 1 1 6.81753281135e-05 14.70888171 10.19061218 17.20585097
497 1 1 6.83891336596e-05 13.23799354 12.73826522 17.20585097
498 1 1 6.83552273113e-05 14.70888171 15.28591827 17.20585097
499 1 1 6.86827915317e-05 13.23799354 17.83357131 17.20585097
500 1 1 6.84670392946e-05 14.70888171 0.00000000 17.20585097
501 1 1 6.82617699304e-05 16.17976988 2.54765304 17.20585097
502 1 1 6.80646608316e-05 0.00000000 5.09530609 17.20585097
503 1 1 6.80287355279e-05 16.17976988 7.64295913 17.20585097
504 1 1 6.79386238526e-05 0.00000000 10.19061218 17.20585097
505 1 1 6.81050077229e-05 16.17976988 12.73826522 17.20585097
506 1 1 6.79758968685e-05 0.00000000 15.28591827 17.20585097
507 1 1 6.82685184765e-05 16.17976988 17.83357131 17.20585097
508 1 1 6.82618509619e-05 0.00000000 0.00000000 17.20585097
509 1 1 6.81924700623e-05 1.47088817 2.54765304 17.20585097
510 1 1 6.79440003178e-05 2.94177634 5.09530609 17.20585097
511 1 1 6.78338008041e-05 1.47088817 7.64295913 17.20585097
512 1 1 6.77055701628e-05 2.94177634 10.19061218 17.20585097
513 1 1 6.78181953281e-05 1.47088817 12.73826522 17.20585097
514 1 1 6.78953486506e-05 2.94177634 15.28591827 17.20585097
515 1 1 6.80522467775e-05 1.47088817 17.83357131 17.20585097
516 1 1 6.82145676784e-05 2.94177634 0.00000000 17.20585097
517 1 1 8.09196391996e-05 5.88355268 3.39687073 19.60780130
518 1 1 8.04188813833e-05 7.35444085 5.94452377 19.60780130
519 1 1 7.99505047138e-05 5.88355268 8.49217681 19.60780130
520 1 1 8.04047658915e-05 7.35444085 11.03982986 19.60780130
521 1 1 8.07338352316e-05 5.88355268 13.58748290 19.60780130
522 1 1 8.20348618162e-05 7.35444085 16.13513595 19.60780130
523 1 1 8.15786376109e-05 5.88355268 18.68278899 19.60780130
524 1 1 8.17511927278e-05 7.35444085 0.84921768 19.60780130
525 1 1 8.12482242237e-05 8.82532903 3.39687073 19.60780130
526 1 1 8.07265561519e-05 10.29621720 5.94452377 19.60780130
527 1 1 8.03522499877e-05 8.82532903 8.49217681 19.60780130
528 1 1 8.09300781327e-05 10.29621720 11.03982986 19.60780130
529 1 1 8.16690857435e-05 8.82532903 13.58748290 19.60780130
530 1 1 8.24916453102e-05 10.29621720 16.13513595 19.60780130
531 1 1 8.24602326583e-05 8.82532903 18.68278899 19.60780130
532 1 1 8.19332582912e-05 10.29621720 0.84921768 19.60780130
533 1 1 8.11152565828e-05 11.76710537 3.39687073 19.60780130
534 1 1 8.07352733994e-05 13.23799354 5.94452377 19.60780130
535 1 1 8.07988510954e-05 11.76710537 8.49217681 19.60780130
536 1 1 8.10777433212e-05 13.23799354 11.03982986 19.60780130
537 1 1 8.16292362406e-05 11.76710537 13.58748290 19.60780130
538 1 1 8.16739312599e-05 13.23799354 16.13513595 19.60780130
539 1 1 8.21875724142e-05 11.76710537 18.68278899 19.60780130
540 1 1 8.14795792396e-05 13.23799354 0.84921768 19.60780130
541 1 1 8.08972198993e-05 14.70888171 3.39687073 19.60780130
542 1 1 8.06180646791e-05 16.17976988 5.94452377 19.60780130
543 1 1 8.08069479483e-05 14.70888171 8.49217681 19.60780130
544 1 1 8.08051798639e-05 16.17976988 11.03982986 19.60780130
545 1 1 8.10441483822e-05 14.70888171 13.58748290 19.60780130
546 1 1 8.07469391576e-05 16.17976988 16.13513595 19.60780130
547 1 1 8.13809146722e-05 14.70888171 18.68278899 19.60780130
548 1 1 8.11575048213e-05 16.17976988 0.84921768 19.60780130
549 1 1 8.0929803578e-05 0.00000000 3.39687073 19.60780130
550 1 1 8.04693732879e-05 1.47088817 5.94452377 19.60780130
551 1 1 8.04521652232e-05 0.00000000 8.49217681 19.60780130
552 1 1 8.02524040569e-05 1.47088817 11.03982986 19.60780130
553 1 1 8.03931940752e-05 0.00000000 13.58748290 19.60780130
554 1 1 8.02696880394e-05 1.47088817 16.13513595 19.60780130
555 1 1 8.08513871117e-05 0.00000000 18.68278899 19.60780130
556 1 1 8.10552752464e-05 1.47088817 0.84921768 19.60780130
557 1 1 8.08408993588e-05 2.94177634 3.39687073 19.60780130
558 1 1 8.0241512754e-05 4.41266451 5.94452377 19.60780130
559 1 1 8.00422464764e-05 2.94177634 8.49217681 19.60780130
560 1 1 7.99788117785e-05 4.41266451 11.03982986 19.60780130
561 1 1 8.00756092134e-05 2.94177634 13.58748290 19.60780130
562 1 1 8.07201610092e-05 4.41266451 16.13513595 19.60780130
563 1 1 8.0804162146e-05 2.94177634 18.68278899 19.60780130
564 1 1 8.1168181258e-05 4.41266451 0.84921768 19.60780130
