LAMMPS (2 Sep 2026)
OMP_NUM_THREADS environment is not set. Defaulting to 1 thread.
  using 1 OpenMP thread(s) per MPI task
# referee item 4: NVE of SPC-FQ water, arm matched_warm_tol1e-7 (run_nve.py)
units        metal
atom_style   full
boundary     p p p
lattice      sc 3.1
Lattice spacing in x,y,z = 3.1 3.1 3.1
region       box block 0 4 0 4 0 4
create_box   2 box
Created orthogonal box = (0 0 0) to (12.4 12.4 12.4)
  1 by 1 by 1 MPI processor grid
mass         1 15.9994
mass         2 1.008
molecule     h2o spcfq.mol
Read molecule template h2o:
# SPC-FQ 3-site water: O(type1) + 2H(type2), all charged via samqeq. SPC geom rOH=1.0 theta=109.47.
  1 molecules
  0 fragments
  0 bodies
  3 atoms with max type 2
  0 bonds with max type 0
  0 angles with max type 0
  0 dihedrals with max type 0
  0 impropers with max type 0
create_atoms 0 box mol h2o 12345
Created 192 atoms
  using lattice units in orthogonal box = (0 0 0) to (12.4 12.4 12.4)
  create_atoms CPU = 0.002 seconds
group        fq type 1 2
192 atoms in group fq
set          type 1 charge -0.85
Setting atom values ...
  64 settings made for charge
set          type 2 charge  0.425
Setting atom values ...
  128 settings made for charge
pair_style   hybrid/overlay lj/cut 10.0 coul/long 10.0 coul/shield/intra 10.0 all
pair_coeff   1 1 lj/cut 0.01275 3.176
pair_coeff   1 2 lj/cut 0.0 1.0
pair_coeff   2 2 lj/cut 0.0 1.0
pair_coeff   * * coul/long
pair_coeff   * * coul/shield/intra 1.11
pair_modify  pair lj/cut shift yes
kspace_style pppm/samqeq 1.0e-6
neighbor     2.0 bin
neigh_modify every 1 delay 0 check yes
fix          chg fq qeq/sam 1 0.0 10.0 1.0e-7 spcfq_expt.param
fix_modify   chg energy yes
fix_modify   chg solver warmstart on
samqeq: charge predictor (warm-start from the previous converged charges) = ON (#20; cuts BO iteration count; first/single-point solve still cold-starts)
compute      dip fq dipole/samqeq
timestep     0.001
velocity     all create 298 123456 mom yes rot yes dist gaussian
fix          integ all rigid/nvt/small molecule temp 298 298 0.1
Fix rigid/nvt/small setup ...
  create bodies CPU = 0.000 seconds
  64 rigid bodies with 192 atoms
  1.0000026 = max distance from body owner to body atom
thermo_style custom step temp pe etotal c_dip
thermo       1000
run          2000

CITE-CITE-CITE-CITE-CITE-CITE-CITE-CITE-CITE-CITE-CITE-CITE-CITE

Your simulation uses code contributions which should be cited:

- fix acks2/reaxff command: https://doi.org/10.1137/18M1224684

@Article{O'Hearn2020,
 author = {K. A. {O'Hearn} and A. Alperen and H. M. Aktulga},
 title = {Fast Solvers for Charge Distribution Models on Shared Memory Platforms},
 journal = {SIAM J.\ Sci.\ Comput.},
 year =    2020,
 volume =  42,
 number =  1,
 pages =   {1--22}
}

CITE-CITE-CITE-CITE-CITE-CITE-CITE-CITE-CITE-CITE-CITE-CITE-CITE

PPPM initialization ...
  using 12-bit tables for long-range coulomb
  G vector (1/distance) = 0.33957131
  grid = 18 18 18
  stencil order = 5
  estimated absolute RMS force accuracy = 1.4063135e-05
  estimated relative force accuracy = 9.7663066e-07
  using double precision FFTW3
  3d grid and FFT values/proc = 15625 5832
Generated 0 of 1 mixed pair_coeff terms from geometric mixing rule
samqeq: E_self = sum(chi q + 1/2 eta qs^2) INCLUDED in pe/etotal (fix_modify chg energy yes; eselfref qs = q - q0) -- pe + E_self is the energy the forces integrate
Neighbor list info ...
  update: every = 1 steps, delay = 0 steps, check = yes
  max neighbors/atom: 2000, page size: 100000
  master list distance cutoff = 12
  ghost atom cutoff = 12
  binsize = 6, bins = 3 3 3
  5 neighbor lists, perpetual/occasional/extra = 5 0 0
  (1) pair lj/cut, perpetual, half/full from (5)
      attributes: half, newton on
      pair build: halffull/newton
      stencil: none
      bin: none
  (2) pair coul/long, perpetual, copy from (1)
      attributes: half, newton on
      pair build: copy
      stencil: none
      bin: none
  (3) pair coul/shield/intra, perpetual, copy from (1)
      attributes: half, newton on
      pair build: copy
      stencil: none
      bin: none
  (4) fix qeq/sam, perpetual, half/full from (5)
      attributes: half, newton off
      pair build: halffull/newtoff
      stencil: none
      bin: none
  (5) fix qeq/sam, perpetual
      attributes: full, newton on
      pair build: full/bin
      stencil: full/bin/3d
      bin: standard
samqeq: recip_self ACTIVE at run start (step 0): not yet calibrated -- measured at the first solve by the K=16 deterministic-probe route
samqeq: calibrated grid reciprocal self-term recip_self=0.38207 +/- 0.00000 (raw, K=16 deterministic probes) = 5.5016 eV/e (subtracted so the QEq diagonal stays = eta)
samqeq SOLVER-DIAG step 0: CG 16 iters (=16 matvecs) [warm], resid/b=9.49e-08
Per MPI rank memory allocation (min/avg/max) = 24.65 | 24.65 | 24.65 Mbytes
   Step          Temp          PotEng         TotEng         c_dip     
         0   295.15635     -45.539089     -40.693791      2.033378     
samqeq SOLVER-DIAG step 200: CG 13 iters (=13 matvecs) [warm], resid/b=4.39e-08
samqeq SOLVER-DIAG step 400: CG 13 iters (=13 matvecs) [warm], resid/b=5.61e-08
samqeq SOLVER-DIAG step 600: CG 13 iters (=13 matvecs) [warm], resid/b=7.21e-08
samqeq SOLVER-DIAG step 800: CG 13 iters (=13 matvecs) [warm], resid/b=8.70e-08
samqeq SOLVER-DIAG step 1000: CG 13 iters (=13 matvecs) [warm], resid/b=5.77e-08
      1000   265.159       -71.312231     -66.959371      2.7724909    
samqeq SOLVER-DIAG step 1200: CG 14 iters (=14 matvecs) [warm], resid/b=4.01e-08
samqeq SOLVER-DIAG step 1400: CG 14 iters (=14 matvecs) [warm], resid/b=4.58e-08
samqeq SOLVER-DIAG step 1600: CG 13 iters (=13 matvecs) [warm], resid/b=9.31e-08
samqeq SOLVER-DIAG step 1800: CG 13 iters (=13 matvecs) [warm], resid/b=9.31e-08
samqeq SOLVER-DIAG step 2000: CG 14 iters (=14 matvecs) [warm], resid/b=5.57e-08
      2000   311.79636     -71.12869      -66.010229      2.7973135    
Loop time of 34.4055 on 1 procs for 2000 steps with 192 atoms

Performance: 5.022 ns/day, 4.779 hours/ns, 58.130 timesteps/s, 11.161 katom-step/s
95.1% CPU use with 1 MPI tasks x 1 OpenMP threads

MPI task timing breakdown:
Section |  min time  |  avg time  |  max time  |%varavg| %total
---------------------------------------------------------------
Pair    | 8.8769     | 8.8769     | 8.8769     |   0.0 | 25.80
Bond    | 0.00051949 | 0.00051949 | 0.00051949 |   0.0 |  0.00
Kspace  | 1.3689     | 1.3689     | 1.3689     |   0.0 |  3.98
Neigh   | 0.37413    | 0.37413    | 0.37413    |   0.0 |  1.09
Comm    | 0.062152   | 0.062152   | 0.062152   |   0.0 |  0.18
Output  | 5.6129e-05 | 5.6129e-05 | 5.6129e-05 |   0.0 |  0.00
Modify  | 23.708     | 23.708     | 23.708     |   0.0 | 68.91
Other   |            | 0.01471    |            |       |  0.04

Nlocal:            192 ave         192 max         192 min
Histogram: 1 0 0 0 0 0 0 0 0 0
Nghost:           4662 ave        4662 max        4662 min
Histogram: 1 0 0 0 0 0 0 0 0 0
Neighs:          69626 ave       69626 max       69626 min
Histogram: 1 0 0 0 0 0 0 0 0 0
FullNghs:       139252 ave      139252 max      139252 min
Histogram: 1 0 0 0 0 0 0 0 0 0

Total # of neighbors = 139252
Ave neighs/atom = 725.27083
Ave special neighs/atom = 0
Neighbor list builds = 81
Dangerous builds = 0
unfix        integ
reset_timestep 0
fix          integ all rigid/nve/small molecule
Fix rigid/nve/small setup ...
  create bodies CPU = 0.000 seconds
  64 rigid bodies with 192 atoms
  1.0000026 = max distance from body owner to body atom
thermo       100
run          5000
PPPM initialization ...
  using 12-bit tables for long-range coulomb
  G vector (1/distance) = 0.34577911
  grid = 20 20 20
  stencil order = 5
  estimated absolute RMS force accuracy = 1.2697506e-05
  estimated relative force accuracy = 8.8179302e-07
  using double precision FFTW3
  3d grid and FFT values/proc = 24389 8000
Generated 0 of 1 mixed pair_coeff terms from geometric mixing rule
samqeq: E_self = sum(chi q + 1/2 eta qs^2) INCLUDED in pe/etotal (fix_modify chg energy yes; eselfref qs = q - q0) -- pe + E_self is the energy the forces integrate
samqeq: recip_self ACTIVE at run start (step 0): 0.38207 raw = 5.5016 eV/e, K=16 deterministic-probe route, calibration #1 at step 0 on the 18x18x18 mesh; first at this mesh 0.38207 (step 0), drift +0.000%
samqeq: calibrated grid reciprocal self-term recip_self=0.38907 +/- 0.00000 (raw, K=16 deterministic probes) = 5.6025 eV/e (subtracted so the QEq diagonal stays = eta)
samqeq SOLVER-DIAG step 0: CG 6 iters (=6 matvecs) [warm], resid/b=9.00e-08
Per MPI rank memory allocation (min/avg/max) = 25.19 | 25.19 | 25.19 Mbytes
   Step          Temp          PotEng         TotEng         c_dip     
         0   311.79636     -71.1287       -66.010239      2.7974093    
       100   338.14957     -71.570736     -66.01966       2.8195199    
samqeq SOLVER-DIAG step 200: CG 13 iters (=13 matvecs) [warm], resid/b=6.91e-08
       200   314.06373     -71.154857     -65.999175      2.7817933    
       300   357.4465      -71.884976     -66.017121      2.7854882    
samqeq SOLVER-DIAG step 400: CG 14 iters (=14 matvecs) [warm], resid/b=6.65e-08
       400   321.89125     -71.291382     -66.007203      2.7932263    
       500   286.16391     -70.701298     -66.00362       2.7669427    
samqeq SOLVER-DIAG step 600: CG 14 iters (=14 matvecs) [warm], resid/b=5.21e-08
       600   303.5427      -70.985924     -66.002955      2.7606917    
       700   313.1115      -71.15701      -66.016959      2.7709744    
samqeq SOLVER-DIAG step 800: CG 14 iters (=14 matvecs) [warm], resid/b=5.42e-08
       800   294.63936     -70.843342     -66.00653       2.7697262    
       900   340.21831     -71.579958     -65.994921      2.7620127    
samqeq SOLVER-DIAG step 1000: CG 14 iters (=14 matvecs) [warm], resid/b=5.59e-08
      1000   297.60089     -70.871877     -65.986449      2.7389245    
      1100   326.48662     -71.346114     -65.986497      2.7484564    
samqeq SOLVER-DIAG step 1200: CG 13 iters (=13 matvecs) [warm], resid/b=7.82e-08
      1200   320.89628     -71.276617     -66.008771      2.7678548    
      1300   307.07601     -71.023061     -65.982089      2.7352073    
samqeq SOLVER-DIAG step 1400: CG 14 iters (=14 matvecs) [warm], resid/b=4.93e-08
      1400   310.40835     -71.086329     -65.990653      2.7447309    
      1500   313.80337     -71.157876     -66.006468      2.7755964    
samqeq SOLVER-DIAG step 1600: CG 14 iters (=14 matvecs) [warm], resid/b=4.24e-08
      1600   292.76636     -70.828153     -66.022089      2.8060213    
      1700   304.86971     -71.01724      -66.012487      2.7825753    
samqeq SOLVER-DIAG step 1800: CG 13 iters (=13 matvecs) [warm], resid/b=7.59e-08
      1800   321.49875     -71.294099     -66.016363      2.7887849    
      1900   336.01545     -71.525138     -66.009095      2.7770387    
samqeq SOLVER-DIAG step 2000: CG 13 iters (=13 matvecs) [warm], resid/b=7.53e-08
      2000   308.27575     -71.073272     -66.012605      2.7962079    
      2100   329.05322     -71.446675     -66.044925      2.8157109    
samqeq SOLVER-DIAG step 2200: CG 13 iters (=13 matvecs) [warm], resid/b=6.76e-08
      2200   302.50016     -70.989534     -66.02368       2.8088161    
      2300   319.34913     -71.27269      -66.030243      2.7927535    
samqeq SOLVER-DIAG step 2400: CG 14 iters (=14 matvecs) [warm], resid/b=3.64e-08
      2400   341.27946     -71.623013     -66.020557      2.7925274    
      2500   312.31687     -71.179966     -66.05296       2.8495673    
samqeq SOLVER-DIAG step 2600: CG 14 iters (=14 matvecs) [warm], resid/b=4.20e-08
      2600   321.99703     -71.308387     -66.022472      2.7961639    
      2700   299.86253     -70.948393     -66.025838      2.7935774    
samqeq SOLVER-DIAG step 2800: CG 13 iters (=13 matvecs) [warm], resid/b=8.98e-08
      2800   336.61534     -71.546079     -66.020188      2.7986753    
      2900   350.956       -71.808723     -66.047416      2.8339101    
samqeq SOLVER-DIAG step 3000: CG 14 iters (=14 matvecs) [warm], resid/b=5.72e-08
      3000   319.31911     -71.258217     -66.016262      2.7656698    
      3100   339.32367     -71.609229     -66.038878      2.8082077    
samqeq SOLVER-DIAG step 3200: CG 14 iters (=14 matvecs) [warm], resid/b=7.08e-08
      3200   336.85071     -71.548257     -66.018503      2.7790952    
      3300   329.61989     -71.416578     -66.005525      2.7727284    
samqeq SOLVER-DIAG step 3400: CG 14 iters (=14 matvecs) [warm], resid/b=4.52e-08
      3400   337.30369     -71.551198     -66.014007      2.7822644    
      3500   329.63146     -71.432079     -66.020837      2.7862331    
samqeq SOLVER-DIAG step 3600: CG 13 iters (=13 matvecs) [warm], resid/b=8.32e-08
      3600   308.53617     -71.067166     -66.002225      2.7817501    
      3700   346.9479      -71.714963     -66.019453      2.8011092    
samqeq SOLVER-DIAG step 3800: CG 14 iters (=14 matvecs) [warm], resid/b=6.57e-08
      3800   344.35576     -71.690487     -66.037529      2.8203114    
      3900   400.55983     -72.648081     -66.072476      2.8940686    
samqeq SOLVER-DIAG step 4000: CG 14 iters (=14 matvecs) [warm], resid/b=6.72e-08
      4000   302.93139     -71.006519     -66.033586      2.8215875    
      4100   292.65729     -70.792557     -65.988283      2.7513787    
samqeq SOLVER-DIAG step 4200: CG 14 iters (=14 matvecs) [warm], resid/b=8.33e-08
      4200   292.9432      -70.81037      -66.001403      2.7495931    
      4300   346.79175     -71.714076     -66.02113       2.7909843    
samqeq SOLVER-DIAG step 4400: CG 14 iters (=14 matvecs) [warm], resid/b=5.87e-08
      4400   302.4744      -70.968322     -66.002891      2.7552513    
      4500   310.67292     -71.113916     -66.013898      2.76433      
samqeq SOLVER-DIAG step 4600: CG 14 iters (=14 matvecs) [warm], resid/b=4.27e-08
      4600   317.13847     -71.210754     -66.004596      2.7639262    
      4700   319.74189     -71.25772      -66.008825      2.7563786    
samqeq SOLVER-DIAG step 4800: CG 14 iters (=14 matvecs) [warm], resid/b=5.58e-08
      4800   330.08013     -71.433103     -66.014495      2.7823963    
      4900   339.78689     -71.598553     -66.020598      2.7981854    
samqeq SOLVER-DIAG step 5000: CG 14 iters (=14 matvecs) [warm], resid/b=5.17e-08
      5000   318.14886     -71.250532     -66.027788      2.8107474    
Loop time of 82.6297 on 1 procs for 5000 steps with 192 atoms

Performance: 5.228 ns/day, 4.591 hours/ns, 60.511 timesteps/s, 11.618 katom-step/s
98.2% CPU use with 1 MPI tasks x 1 OpenMP threads

MPI task timing breakdown:
Section |  min time  |  avg time  |  max time  |%varavg| %total
---------------------------------------------------------------
Pair    | 21.346     | 21.346     | 21.346     |   0.0 | 25.83
Bond    | 0.0017261  | 0.0017261  | 0.0017261  |   0.0 |  0.00
Kspace  | 3.2804     | 3.2804     | 3.2804     |   0.0 |  3.97
Neigh   | 0.92142    | 0.92142    | 0.92142    |   0.0 |  1.12
Comm    | 0.15659    | 0.15659    | 0.15659    |   0.0 |  0.19
Output  | 0.0021263  | 0.0021263  | 0.0021263  |   0.0 |  0.00
Modify  | 56.873     | 56.873     | 56.873     |   0.0 | 68.83
Other   |            | 0.04771    |            |       |  0.06

Nlocal:            192 ave         192 max         192 min
Histogram: 1 0 0 0 0 0 0 0 0 0
Nghost:           4740 ave        4740 max        4740 min
Histogram: 1 0 0 0 0 0 0 0 0 0
Neighs:          69664 ave       69664 max       69664 min
Histogram: 1 0 0 0 0 0 0 0 0 0
FullNghs:       139328 ave      139328 max      139328 min
Histogram: 1 0 0 0 0 0 0 0 0 0

Total # of neighbors = 139328
Ave neighs/atom = 725.66667
Ave special neighs/atom = 0
Neighbor list builds = 190
Dangerous builds = 0
print        "NVE_DONE" file done.txt screen no
Total wall time: 0:01:57
